<?xml version="1.0"?>
<VTKFile type="UnstructuredGrid" version="0.1" byte_order="LittleEndian">
<UnstructuredGrid>
<Piece NumberOfPoints="30957" NumberOfCells="10847">
<Points>
<DataArray type="Float64" NumberOfComponents="3" format="ascii">
-0.5 -0.5 0 -0.47120411738687817 -0.46389436250812971 0 -0.5 -0.43325734090004919 0 -0.5 -0.5 0 -0.46177944143722638 -0.5 0 -0.47120411738687817 -0.46389436250812971 0 -0.46177944143722638 -0.5 0 -0.44050651558103499 -0.47948761799458511 0 -0.47120411738687817 -0.46389436250812971 0 -0.45149654745744422 -0.43840233748464441 0 -0.47120411738687817 -0.46389436250812971 0 -0.46954456837491049 -0.42604858596389189 0 -0.45149654745744422 -0.43840233748464441 0 -0.4453150137602524 -0.45857218635572561 0 -0.43493249183805671 -0.44556966440005252 0 -0.44050651558103499 -0.47948761799458511 0 -0.4453150137602524 -0.45857218635572561 0 -0.4278319662168889 -0.46381336530289891 0 -0.44050651558103499 -0.47948761799458511 0 -0.4453150137602524 -0.45857218635572561 0 -0.47120411738687817 -0.46389436250812971 0 -0.45149654745744422 -0.43840233748464441 0 -0.4453150137602524 -0.45857218635572561 0 -0.47120411738687817 -0.46389436250812971 0 -0.47120411738687817 -0.46389436250812971 0 -0.5 -0.43325734090004919 0 -0.46954456837491049 -0.42604858596389189 0 -0.5 -0.43325734090004919 0 -0.47563538822490697 -0.41015817923674608 0 -0.48539331281604148 -0.39697119748621679 0 -0.5 -0.43325734090004919 0 -0.50000000000000444 -0.39051894366396339 0 -0.48539331281604148 -0.39697119748621679 0 -0.47563538822490697 -0.41015817923674608 0 -0.46954456837491049 -0.42604858596389189 0 -0.4619895481942633 -0.41107813452837799 0 -0.5 -0.43325734090004919 0 -0.47563538822490697 -0.41015817923674608 0 -0.46954456837491049 -0.42604858596389189 0 -0.50000000000000444 -0.39051894366396339 0 -0.48402855742399947 -0.3794190986461683 0 -0.48580530174085379 -0.36314921555540491 0 -0.50000000000000444 -0.39051894366396339 0 -0.48402855742399947 -0.3794190986461683 0 -0.50000000000000444 -0.39051894366396339 0 -0.48539331281604148 -0.39697119748621679 0 -0.48402855742399947 -0.3794190986461683 0 -0.47563538822490697 -0.41015817923674608 0 -0.47429419340057288 -0.39385245732894941 0 -0.46435106755713562 -0.39908871881395941 0 -0.47563538822490697 -0.41015817923674608 0 -0.48539331281604148 -0.39697119748621679 0 -0.47429419340057288 -0.39385245732894941 0 -0.48539331281604148 -0.39697119748621679 0 -0.47429419340057288 -0.39385245732894941 0 -0.47699880945166562 -0.38264522555729508 0 -0.47699880945166562 -0.38264522555729508 0 -0.46695218096338992 -0.38602373059370892 0 -0.46860430608728992 -0.36831925362837331 0 -0.48539331281604148 -0.39697119748621679 0 -0.47699880945166562 -0.38264522555729508 0 -0.48402855742399947 -0.3794190986461683 0 -0.48539331281604148 -0.39697119748621679 0 -0.47699880945166562 -0.38264522555729508 0 -0.47429419340057288 -0.39385245732894941 0 -0.47699880945166562 -0.38264522555729508 0 -0.46695218096338992 -0.38602373059370892 0 -0.47699880945166562 -0.38264522555729508 0 -0.46860430608728992 -0.36831925362837331 0 -0.47699880945166562 -0.38264522555729508 0 -0.48402855742399947 -0.3794190986461683 0 -0.46860430608728992 -0.36831925362837331 0 -0.45895008840711038 -0.37899996272486602 0 -0.46695218096338992 -0.38602373059370892 0 -0.46860430608728992 -0.36831925362837331 0 -0.45895008840711038 -0.37899996272486602 0 -0.45509873572632148 -0.3906280966051478 0 -0.44708215082180353 -0.38141274682380227 0 -0.45895008840711038 -0.37899996272486602 0 -0.46695218096338992 -0.38602373059370892 0 -0.45509873572632148 -0.3906280966051478 0 -0.45509873572632148 -0.3906280966051478 0 -0.46435106755713562 -0.39908871881395941 0 -0.44941999832388368 -0.40282973196011979 0 -0.47429419340057288 -0.39385245732894941 0 -0.46695218096338992 -0.38602373059370892 0 -0.46435106755713562 -0.39908871881395941 0 -0.46695218096338992 -0.38602373059370892 0 -0.45509873572632148 -0.3906280966051478 0 -0.46435106755713562 -0.39908871881395941 0 -0.46435106755713562 -0.39908871881395941 0 -0.44941999832388368 -0.40282973196011979 0 -0.4619895481942633 -0.41107813452837799 0 -0.44941999832388368 -0.40282973196011979 0 -0.43576489374223909 -0.40959267010010342 0 -0.43524500729050258 -0.39805954013448858 0 -0.44941999832388368 -0.40282973196011979 0 -0.44455255681338252 -0.39203513629979042 0 -0.43524500729050258 -0.39805954013448858 0 -0.45509873572632148 -0.3906280966051478 0 -0.44941999832388368 -0.40282973196011979 0 -0.44455255681338252 -0.39203513629979042 0 -0.45509873572632148 -0.3906280966051478 0 -0.44455255681338252 -0.39203513629979042 0 -0.44708215082180353 -0.38141274682380227 0 -0.44455255681338252 -0.39203513629979042 0 -0.44708215082180353 -0.38141274682380227 0 -0.43192883359269207 -0.3836277700427263 0 -0.44708215082180353 -0.38141274682380227 0 -0.43192883359269207 -0.3836277700427263 0 -0.44116542271728693 -0.37238627884632453 0 -0.45895008840711038 -0.37899996272486602 0 -0.44708215082180353 -0.38141274682380227 0 -0.45109544622768433 -0.36939150625119282 0 -0.45149654745744422 -0.43840233748464441 0 -0.46954456837491049 -0.42604858596389189 0 -0.45099671849047979 -0.41726545666717257 0 -0.46954456837491049 -0.42604858596389189 0 -0.4619895481942633 -0.41107813452837799 0 -0.45099671849047979 -0.41726545666717257 0 -0.47563538822490697 -0.41015817923674608 0 -0.46435106755713562 -0.39908871881395941 0 -0.4619895481942633 -0.41107813452837799 0 -0.44941999832388368 -0.40282973196011979 0 -0.4619895481942633 -0.41107813452837799 0 -0.45099671849047979 -0.41726545666717257 0 -0.44941999832388368 -0.40282973196011979 0 -0.45099671849047979 -0.41726545666717257 0 -0.43576489374223909 -0.40959267010010342 0 -0.45099671849047979 -0.41726545666717257 0 -0.44137699127042912 -0.42157624685835932 0 -0.43576489374223909 -0.40959267010010342 0 -0.45149654745744422 -0.43840233748464441 0 -0.44137699127042912 -0.42157624685835932 0 -0.42724980539155338 -0.42104452318151703 0 -0.45149654745744422 -0.43840233748464441 0 -0.42724980539155338 -0.42104452318151703 0 -0.45149654745744422 -0.43840233748464441 0 -0.45099671849047979 -0.41726545666717257 0 -0.44137699127042912 -0.42157624685835932 0 -0.45149654745744422 -0.43840233748464441 0 -0.42724980539155338 -0.42104452318151703 0 -0.43493249183805671 -0.44556966440005252 0 -0.42724980539155338 -0.42104452318151703 0 -0.43493249183805671 -0.44556966440005252 0 -0.41987266082354152 -0.43788670605155328 0 -0.44137699127042912 -0.42157624685835932 0 -0.43576489374223909 -0.40959267010010342 0 -0.42724980539155338 -0.42104452318151703 0 -0.43576489374223909 -0.40959267010010342 0 -0.42226149214261299 -0.40824650230207649 0 -0.42724980539155338 -0.42104452318151703 0 -0.42724980539155338 -0.42104452318151703 0 -0.41616810128903081 -0.4198767747784925 0 -0.40300306332566282 -0.40368670887838948 0 -0.42724980539155338 -0.42104452318151703 0 -0.40300306332566282 -0.40368670887838948 0 -0.42226149214261299 -0.40824650230207649 0 -0.42724980539155338 -0.42104452318151703 0 -0.40300306332566282 -0.40368670887838948 0 -0.41616810128903081 -0.4198767747784925 0 -0.40173542240972437 -0.44090696573003518 0 -0.42724980539155338 -0.42104452318151703 0 -0.41616810128903081 -0.4198767747784925 0 -0.41987266082354152 -0.43788670605155328 0 -0.41616810128903081 -0.4198767747784925 0 -0.40173542240972437 -0.44090696573003518 0 -0.41987266082354152 -0.43788670605155328 0 -0.43192883359269207 -0.3836277700427263 0 -0.43116454123529607 -0.36800039632657078 0 -0.41939774089595178 -0.37336154924530862 0 -0.43192883359269207 -0.3836277700427263 0 -0.42302820611099679 -0.39866210704829602 0 -0.41188955365135821 -0.38606679421346468 0 -0.43192883359269207 -0.3836277700427263 0 -0.43524500729050258 -0.39805954013448858 0 -0.42302820611099679 -0.39866210704829602 0 -0.44455255681338252 -0.39203513629979042 0 -0.43192883359269207 -0.3836277700427263 0 -0.43524500729050258 -0.39805954013448858 0 -0.43576489374223909 -0.40959267010010342 0 -0.43524500729050258 -0.39805954013448858 0 -0.42302820611099679 -0.39866210704829602 0 -0.43576489374223909 -0.40959267010010342 0 -0.42226149214261299 -0.40824650230207649 0 -0.42302820611099679 -0.39866210704829602 0 -0.42302820611099679 -0.39866210704829602 0 -0.41188955365135821 -0.38606679421346468 0 -0.40300306332566282 -0.40368670887838948 0 -0.42226149214261299 -0.40824650230207649 0 -0.42302820611099679 -0.39866210704829602 0 -0.40300306332566282 -0.40368670887838948 0 -0.41188955365135821 -0.38606679421346468 0 -0.41939774089595178 -0.37336154924530862 0 -0.40364922704091771 -0.36776129256775397 0 -0.43192883359269207 -0.3836277700427263 0 -0.41188955365135821 -0.38606679421346468 0 -0.41939774089595178 -0.37336154924530862 0 -0.41188955365135821 -0.38606679421346468 0 -0.39587469151253563 -0.38233190464131589 0 -0.40364922704091771 -0.36776129256775397 0 -0.39587469151253563 -0.38233190464131589 0 -0.40300306332566282 -0.40368670887838948 0 -0.37875632125977199 -0.38632889457526193 0 -0.40300306332566282 -0.40368670887838948 0 -0.37875632125977199 -0.38632889457526193 0 -0.41188955365135821 -0.38606679421346468 0 -0.39587469151253563 -0.38233190464131589 0 -0.40300306332566282 -0.40368670887838948 0 -0.40300306332566282 -0.40368670887838948 0 -0.37875632125977199 -0.38632889457526193 0 -0.38091960801568392 -0.40885003952666221 0 -0.39587469151253563 -0.38233190464131589 0 -0.37875632125977199 -0.38632889457526193 0 -0.3820752922849675 -0.3678158329717095 0 -0.39673592147291981 -0.41989049426782382 0 -0.38313730077258279 -0.42720141671048539 0 -0.40173542240972437 -0.44090696573003518 0 -0.41616810128903081 -0.4198767747784925 0 -0.39673592147291981 -0.41989049426782382 0 -0.40173542240972437 -0.44090696573003518 0 -0.40300306332566282 -0.40368670887838948 0 -0.39673592147291981 -0.41989049426782382 0 -0.38091960801568392 -0.40885003952666221 0 -0.41616810128903081 -0.4198767747784925 0 -0.40300306332566282 -0.40368670887838948 0 -0.39673592147291981 -0.41989049426782382 0 -0.39673592147291981 -0.41989049426782382 0 -0.38091960801568392 -0.40885003952666221 0 -0.38313730077258279 -0.42720141671048539 0 -0.38091960801568392 -0.40885003952666221 0 -0.38313730077258279 -0.42720141671048539 0 -0.36625347498949451 -0.42319202998444422 0 -0.38313730077258279 -0.42720141671048539 0 -0.37677810925995658 -0.44256459333301112 0 -0.36625347498949451 -0.42319202998444422 0 -0.38313730077258279 -0.42720141671048539 0 -0.37677810925995658 -0.44256459333301112 0 -0.40173542240972437 -0.44090696573003518 0 -0.37677810925995658 -0.44256459333301112 0 -0.3873027435304181 -0.46193715668157809 0 -0.37677810925995658 -0.44256459333301112 0 -0.40173542240972437 -0.44090696573003518 0 -0.3873027435304181 -0.46193715668157809 0 -0.40173542240972437 -0.44090696573003518 0 -0.3873027435304181 -0.46193715668157809 0 -0.40173542240972437 -0.44090696573003518 0 -0.3873027435304181 -0.46193715668157809 0 -0.40842325917804739 -0.46183777422202699 0 -0.3873027435304181 -0.46193715668157809 0 -0.39764204396300512 -0.48096857834078899 0 -0.40842325917804739 -0.46183777422202699 0 -0.37677810925995658 -0.44256459333301112 0 -0.3873027435304181 -0.46193715668157809 0 -0.36193809871805238 -0.46299370356289737 0 -0.3873027435304181 -0.46193715668157809 0 -0.37227888040636309 -0.48382877590008161 0 -0.3873027435304181 -0.46193715668157809 0 -0.38642751517657992 -0.48705281073661127 0 -0.39764204396300512 -0.48096857834078899 0 -0.3873027435304181 -0.46193715668157809 0 -0.38642751517657992 -0.48705281073661127 0 -0.37227888040636309 -0.48382877590008161 0 -0.38642751517657992 -0.48705281073661127 0 -0.37935757360935579 -0.5 0 -0.37227888040636309 -0.48382877590008161 0 -0.38642751517657992 -0.48705281073661127 0 -0.39764204396300512 -0.48096857834078899 0 -0.40798134439559158 -0.5 0 -0.38642751517657992 -0.48705281073661127 0 -0.37935757360935579 -0.5 0 -0.40798134439559158 -0.5 0 -0.39764204396300512 -0.48096857834078899 0 -0.40798134439559158 -0.5 0 -0.3873027435304181 -0.46193715668157809 0 -0.39764204396300512 -0.48096857834078899 0 -0.46177944143722638 -0.5 0 -0.44050651558103499 -0.47948761799458511 0 -0.40798134439559158 -0.5 0 -0.44050651558103499 -0.47948761799458511 0 -0.41700142579967892 -0.47801996157801879 0 -0.40798134439559158 -0.5 0 -0.39764204396300512 -0.48096857834078899 0 -0.41700142579967892 -0.47801996157801879 0 -0.40842325917804739 -0.46183777422202699 0 -0.39764204396300512 -0.48096857834078899 0 -0.41700142579967892 -0.47801996157801879 0 -0.40798134439559158 -0.5 0 -0.44050651558103499 -0.47948761799458511 0 -0.41700142579967892 -0.47801996157801879 0 -0.4278319662168889 -0.46381336530289891 0 -0.4453150137602524 -0.45857218635572561 0 -0.4278319662168889 -0.46381336530289891 0 -0.43493249183805671 -0.44556966440005252 0 -0.4278319662168889 -0.46381336530289891 0 -0.43493249183805671 -0.44556966440005252 0 -0.41987266082354152 -0.43788670605155328 0 -0.40173542240972437 -0.44090696573003518 0 -0.41987266082354152 -0.43788670605155328 0 -0.40842325917804739 -0.46183777422202699 0 -0.4278319662168889 -0.46381336530289891 0 -0.41987266082354152 -0.43788670605155328 0 -0.40842325917804739 -0.46183777422202699 0 -0.41700142579967892 -0.47801996157801879 0 -0.4278319662168889 -0.46381336530289891 0 -0.40842325917804739 -0.46183777422202699 0 -0.44077913706085309 -0.25265964186792861 0 -0.45612331121252081 -0.27788360740256551 0 -0.45254283284491892 -0.25745065792541988 0 -0.44077913706085309 -0.25265964186792861 0 -0.45612331121252081 -0.27788360740256551 0 -0.45254283284491892 -0.25745065792541988 0 -0.44077913706085309 -0.25265964186792861 0 -0.44497996325768502 -0.24954655088257049 0 -0.45254283284491892 -0.25745065792541988 0 -0.45322302897513811 -0.24734791131453041 0 -0.44497996325768502 -0.24954655088257049 0 -0.44077913706085309 -0.25265964186792861 0 -0.44497996325768502 -0.24954655088257049 0 -0.45612331121252081 -0.27788360740256551 0 -0.43882338453168113 -0.28850742779142868 0 -0.43645971168415809 -0.27424673614852652 0 -0.44077913706085309 -0.25265964186792861 0 -0.45612331121252081 -0.27788360740256551 0 -0.43645971168415809 -0.27424673614852652 0 -0.45612331121252081 -0.27788360740256551 0 -0.46096875426170469 -0.26211891087197781 0 -0.48003238733747972 -0.26911505035583683 0 -0.45254283284491892 -0.25745065792541988 0 -0.45612331121252081 -0.27788360740256551 0 -0.46096875426170469 -0.26211891087197781 0 -0.45254283284491892 -0.25745065792541988 0 -0.46096875426170469 -0.26211891087197781 0 -0.45843439111128348 -0.25461759505590392 0 -0.45254283284491892 -0.25745065792541988 0 -0.45843439111128348 -0.25461759505590392 0 -0.45322302897513811 -0.24734791131453041 0 -0.45843439111128348 -0.25461759505590392 0 -0.46580549045884612 -0.25070533186041938 0 -0.45322302897513811 -0.24734791131453041 0 -0.46096875426170469 -0.26211891087197781 0 -0.45843439111128348 -0.25461759505590392 0 -0.46580549045884612 -0.25070533186041938 0 -0.46580549045884612 -0.25070533186041938 0 -0.47927821206045718 -0.2549957909490197 0 -0.48003238733747972 -0.26911505035583683 0 -0.46580549045884612 -0.25070533186041938 0 -0.47927821206045718 -0.2549957909490197 0 -0.47463435663203962 -0.24749806294815899 0 -0.46580549045884612 -0.25070533186041938 0 -0.48003238733747972 -0.26911505035583683 0 -0.46096875426170469 -0.26211891087197781 0 -0.46580549045884612 -0.25070533186041938 0 -0.48003238733747972 -0.26911505035583683 0 -0.49929810055980212 -0.26613309173812583 0 -0.48603407074230492 -0.2425748151412834 0 -0.47927821206045718 -0.2549957909490197 0 -0.49929810055980212 -0.26613309173812583 0 -0.48003238733747972 -0.26911505035583683 0 -0.47927821206045718 -0.2549957909490197 0 -0.49929810055980212 -0.26613309173812583 0 -0.48603407074230492 -0.2425748151412834 0 -0.49929810055980212 -0.26613309173812583 0 -0.48144451711655539 -0.29004452082875759 0 -0.49929810055980212 -0.26613309173812583 0 -0.48003238733747972 -0.26911505035583683 0 -0.48144451711655539 -0.29004452082875759 0 -0.45612331121252081 -0.27788360740256551 0 -0.48003238733747972 -0.26911505035583683 0 -0.48144451711655539 -0.29004452082875759 0 -0.49929810055980212 -0.26613309173812583 0 -0.48144451711655539 -0.29004452082875759 0 -0.5 -0.29521254615250803 0 -0.48144451711655539 -0.29004452082875759 0 -0.5 -0.29521254615250803 0 -0.48380988455595642 -0.31043158027912382 0 -0.5 -0.29521254615250803 0 -0.48380988455595642 -0.31043158027912382 0 -0.5 -0.32304535521229488 0 -0.48144451711655539 -0.29004452082875759 0 -0.46275912454725587 -0.29500694529285432 0 -0.46359093367330811 -0.3139559499193888 0 -0.48144451711655539 -0.29004452082875759 0 -0.48380988455595642 -0.31043158027912382 0 -0.46359093367330811 -0.3139559499193888 0 -0.48144451711655539 -0.29004452082875759 0 -0.46359093367330811 -0.3139559499193888 0 -0.44987773618663901 -0.29814370302070509 0 -0.45130439720702259 -0.31254490980091548 0 -0.46359093367330811 -0.3139559499193888 0 -0.46275912454725587 -0.29500694529285432 0 -0.44987773618663901 -0.29814370302070509 0 -0.46359093367330811 -0.3139559499193888 0 -0.45612331121252081 -0.27788360740256551 0 -0.48144451711655539 -0.29004452082875759 0 -0.46275912454725587 -0.29500694529285432 0 -0.45612331121252081 -0.27788360740256551 0 -0.46275912454725587 -0.29500694529285432 0 -0.44987773618663901 -0.29814370302070509 0 -0.45612331121252081 -0.27788360740256551 0 -0.43882338453168113 -0.28850742779142868 0 -0.44987773618663901 -0.29814370302070509 0 -0.43882338453168113 -0.28850742779142868 0 -0.44987773618663901 -0.29814370302070509 0 -0.42913880764573542 -0.30096784541595201 0 -0.44987773618663901 -0.29814370302070509 0 -0.43727656521463809 -0.31485565764689322 0 -0.42913880764573542 -0.30096784541595201 0 -0.44987773618663901 -0.29814370302070509 0 -0.45130439720702259 -0.31254490980091548 0 -0.43727656521463809 -0.31485565764689322 0 -0.44771914550552089 -0.33267685630738708 0 -0.43727656521463809 -0.31485565764689322 0 -0.44771914550552089 -0.33267685630738708 0 -0.43519952492786168 -0.32898838636999128 0 -0.43727656521463809 -0.31485565764689322 0 -0.45130439720702259 -0.31254490980091548 0 -0.45818437680976293 -0.32686315985528741 0 -0.43727656521463809 -0.31485565764689322 0 -0.45818437680976293 -0.32686315985528741 0 -0.43727656521463809 -0.31485565764689322 0 -0.44771914550552089 -0.33267685630738708 0 -0.45818437680976293 -0.32686315985528741 0 -0.43727656521463809 -0.31485565764689322 0 -0.44771914550552089 -0.33267685630738708 0 -0.43873988283882659 -0.34682774247704479 0 -0.43519952492786168 -0.32898838636999128 0 -0.44771914550552089 -0.33267685630738708 0 -0.45816172579640541 -0.35049805496788028 0 -0.45818437680976293 -0.32686315985528741 0 -0.47909218840488682 -0.33887066206368271 0 -0.46731001982951509 -0.34438503114708691 0 -0.44771914550552089 -0.33267685630738708 0 -0.45788059059228298 -0.33865317103466408 0 -0.45818437680976293 -0.32686315985528741 0 -0.45818437680976293 -0.32686315985528741 0 -0.47909218840488682 -0.33887066206368271 0 -0.45788059059228298 -0.33865317103466408 0 -0.45818437680976293 -0.32686315985528741 0 -0.46731001982951509 -0.34438503114708691 0 -0.44771914550552089 -0.33267685630738708 0 -0.45788059059228298 -0.33865317103466408 0 -0.45816172579640541 -0.35049805496788028 0 -0.45818437680976293 -0.32686315985528741 0 -0.46359093367330811 -0.3139559499193888 0 -0.47693547668878278 -0.32263334146595551 0 -0.45130439720702259 -0.31254490980091548 0 -0.45818437680976293 -0.32686315985528741 0 -0.46359093367330811 -0.3139559499193888 0 -0.48380988455595642 -0.31043158027912382 0 -0.46359093367330811 -0.3139559499193888 0 -0.47693547668878278 -0.32263334146595551 0 -0.48380988455595642 -0.31043158027912382 0 -0.47693547668878278 -0.32263334146595551 0 -0.5 -0.32304535521229488 0 -0.5 -0.32304535521229488 0 -0.47909218840488682 -0.33887066206368271 0 -0.50000000000000866 -0.35087816427208168 0 -0.47693547668878278 -0.32263334146595551 0 -0.5 -0.32304535521229488 0 -0.47909218840488682 -0.33887066206368271 0 -0.45818437680976293 -0.32686315985528741 0 -0.47693547668878278 -0.32263334146595551 0 -0.47909218840488682 -0.33887066206368271 0 -0.47909218840488682 -0.33887066206368271 0 -0.47219266949247601 -0.35297211889482383 0 -0.46731001982951509 -0.34438503114708691 0 -0.50000000000000444 -0.39051894366396339 0 -0.50000000000000866 -0.35087816427208168 0 -0.48580530174085379 -0.36314921555540491 0 -0.47909218840488682 -0.33887066206368271 0 -0.47219266949247601 -0.35297211889482383 0 -0.48580530174085379 -0.36314921555540491 0 -0.47909218840488682 -0.33887066206368271 0 -0.50000000000000866 -0.35087816427208168 0 -0.48580530174085379 -0.36314921555540491 0 -0.47909218840488682 -0.33887066206368271 0 -0.50000000000000866 -0.35087816427208168 0 -0.47219266949247601 -0.35297211889482383 0 -0.48580530174085379 -0.36314921555540491 0 -0.46860430608728992 -0.36831925362837331 0 -0.48402855742399947 -0.3794190986461683 0 -0.48580530174085379 -0.36314921555540491 0 -0.46860430608728992 -0.36831925362837331 0 -0.48402855742399947 -0.3794190986461683 0 -0.46860430608728992 -0.36831925362837331 0 -0.45895008840711038 -0.37899996272486602 0 -0.46860430608728992 -0.36831925362837331 0 -0.45109544622768433 -0.36939150625119282 0 -0.46860430608728992 -0.36831925362837331 0 -0.44848211558947898 -0.3538386029265348 0 -0.46860430608728992 -0.36831925362837331 0 -0.45816172579640541 -0.35049805496788028 0 -0.46860430608728992 -0.36831925362837331 0 -0.44848211558947898 -0.3538386029265348 0 -0.45109544622768433 -0.36939150625119282 0 -0.47219266949247601 -0.35297211889482383 0 -0.46860430608728992 -0.36831925362837331 0 -0.45816172579640541 -0.35049805496788028 0 -0.46860430608728992 -0.36831925362837331 0 -0.45816172579640541 -0.35049805496788028 0 -0.44848211558947898 -0.3538386029265348 0 -0.47219266949247601 -0.35297211889482383 0 -0.46731001982951509 -0.34438503114708691 0 -0.45816172579640541 -0.35049805496788028 0 -0.45788059059228298 -0.33865317103466408 0 -0.46731001982951509 -0.34438503114708691 0 -0.45816172579640541 -0.35049805496788028 0 -0.44771914550552089 -0.33267685630738708 0 -0.44848211558947898 -0.3538386029265348 0 -0.43873988283882659 -0.34682774247704479 0 -0.44848211558947898 -0.3538386029265348 0 -0.43873988283882659 -0.34682774247704479 0 -0.43209539125017887 -0.35518823900547591 0 -0.44771914550552089 -0.33267685630738708 0 -0.45816172579640541 -0.35049805496788028 0 -0.44848211558947898 -0.3538386029265348 0 -0.44848211558947898 -0.3538386029265348 0 -0.44090290868457371 -0.36360259097856568 0 -0.43209539125017887 -0.35518823900547591 0 -0.44848211558947898 -0.3538386029265348 0 -0.43873988283882659 -0.34682774247704479 0 -0.44090290868457371 -0.36360259097856568 0 -0.44116542271728693 -0.37238627884632453 0 -0.45109544622768433 -0.36939150625119282 0 -0.44090290868457371 -0.36360259097856568 0 -0.44116542271728693 -0.37238627884632453 0 -0.43116454123529607 -0.36800039632657078 0 -0.44708215082180353 -0.38141274682380227 0 -0.44116542271728693 -0.37238627884632453 0 -0.45109544622768433 -0.36939150625119282 0 -0.44848211558947898 -0.3538386029265348 0 -0.44090290868457371 -0.36360259097856568 0 -0.45109544622768433 -0.36939150625119282 0 -0.43192883359269207 -0.3836277700427263 0 -0.44116542271728693 -0.37238627884632453 0 -0.43116454123529607 -0.36800039632657078 0 -0.43116454123529607 -0.36800039632657078 0 -0.42149695027109318 -0.35983594984102463 0 -0.41939774089595178 -0.37336154924530862 0 -0.43116454123529607 -0.36800039632657078 0 -0.43209539125017887 -0.35518823900547591 0 -0.42149695027109318 -0.35983594984102463 0 -0.44090290868457371 -0.36360259097856568 0 -0.43116454123529607 -0.36800039632657078 0 -0.43209539125017887 -0.35518823900547591 0 -0.43873988283882659 -0.34682774247704479 0 -0.43209539125017887 -0.35518823900547591 0 -0.42835992509166798 -0.3393579522246965 0 -0.43209539125017887 -0.35518823900547591 0 -0.42047915378981948 -0.34933771376272499 0 -0.42835992509166798 -0.3393579522246965 0 -0.43209539125017887 -0.35518823900547591 0 -0.42047915378981948 -0.34933771376272499 0 -0.42149695027109318 -0.35983594984102463 0 -0.42047915378981948 -0.34933771376272499 0 -0.40989885864124631 -0.35286424290517993 0 -0.42149695027109318 -0.35983594984102463 0 -0.42047915378981948 -0.34933771376272499 0 -0.40989885864124631 -0.35286424290517993 0 -0.41054464369491123 -0.3394421848372482 0 -0.40989885864124631 -0.35286424290517993 0 -0.42149695027109318 -0.35983594984102463 0 -0.40364922704091771 -0.36776129256775397 0 -0.42149695027109318 -0.35983594984102463 0 -0.41939774089595178 -0.37336154924530862 0 -0.40364922704091771 -0.36776129256775397 0 -0.39587469151253563 -0.38233190464131589 0 -0.40364922704091771 -0.36776129256775397 0 -0.3820752922849675 -0.3678158329717095 0 -0.40364922704091771 -0.36776129256775397 0 -0.3820752922849675 -0.3678158329717095 0 -0.39031461098071518 -0.3478952990933179 0 -0.3820752922849675 -0.3678158329717095 0 -0.39031461098071518 -0.3478952990933179 0 -0.3674057803758316 -0.35431276726727462 0 -0.39031461098071518 -0.3478952990933179 0 -0.36847567111510288 -0.33571524633050481 0 -0.3674057803758316 -0.35431276726727462 0 -0.40989885864124631 -0.35286424290517993 0 -0.40364922704091771 -0.36776129256775397 0 -0.39031461098071518 -0.3478952990933179 0 -0.40989885864124631 -0.35286424290517993 0 -0.39031461098071518 -0.3478952990933179 0 -0.41054464369491123 -0.3394421848372482 0 -0.39031461098071518 -0.3478952990933179 0 -0.39630885667722399 -0.32459829434942922 0 -0.41054464369491123 -0.3394421848372482 0 -0.39031461098071518 -0.3478952990933179 0 -0.39630885667722399 -0.32459829434942922 0 -0.36847567111510288 -0.33571524633050481 0 -0.39630885667722399 -0.32459829434942922 0 -0.3815222965011868 -0.3061784207106088 0 -0.36847567111510288 -0.33571524633050481 0 -0.39630885667722399 -0.32459829434942922 0 -0.41672315280914168 -0.32261123196378722 0 -0.40657096931944681 -0.29722121949232511 0 -0.42047915378981948 -0.34933771376272499 0 -0.41054464369491123 -0.3394421848372482 0 -0.42835992509166798 -0.3393579522246965 0 -0.39630885667722399 -0.32459829434942922 0 -0.41672315280914168 -0.32261123196378722 0 -0.41054464369491123 -0.3394421848372482 0 -0.41672315280914168 -0.32261123196378722 0 -0.41054464369491123 -0.3394421848372482 0 -0.42835992509166798 -0.3393579522246965 0 -0.43519952492786168 -0.32898838636999128 0 -0.42835992509166798 -0.3393579522246965 0 -0.42735033789202498 -0.32306088432137692 0 -0.41672315280914168 -0.32261123196378722 0 -0.42835992509166798 -0.3393579522246965 0 -0.42735033789202498 -0.32306088432137692 0 -0.43873988283882659 -0.34682774247704479 0 -0.43519952492786168 -0.32898838636999128 0 -0.42835992509166798 -0.3393579522246965 0 -0.43873988283882659 -0.34682774247704479 0 -0.43519952492786168 -0.32898838636999128 0 -0.43873988283882659 -0.34682774247704479 0 -0.42835992509166798 -0.3393579522246965 0 -0.43519952492786168 -0.32898838636999128 0 -0.42735033789202498 -0.32306088432137692 0 -0.4314144922789096 -0.31148902822222319 0 -0.43519952492786168 -0.32898838636999128 0 -0.43727656521463809 -0.31485565764689322 0 -0.4314144922789096 -0.31148902822222319 0 -0.43519952492786168 -0.32898838636999128 0 -0.4314144922789096 -0.31148902822222319 0 -0.43727656521463809 -0.31485565764689322 0 -0.4314144922789096 -0.31148902822222319 0 -0.41672315280914168 -0.32261123196378722 0 -0.42735033789202498 -0.32306088432137692 0 -0.4314144922789096 -0.31148902822222319 0 -0.42913880764573542 -0.30096784541595201 0 -0.4314144922789096 -0.31148902822222319 0 -0.41842823709146337 -0.29795200579321518 0 -0.42913880764573542 -0.30096784541595201 0 -0.4314144922789096 -0.31148902822222319 0 -0.43727656521463809 -0.31485565764689322 0 -0.42913880764573542 -0.30096784541595201 0 -0.4314144922789096 -0.31148902822222319 0 -0.43727656521463809 -0.31485565764689322 0 -0.42913880764573542 -0.30096784541595201 0 -0.42913880764573542 -0.30096784541595201 0 -0.42544014953176962 -0.28386782303690888 0 -0.42103269551054961 -0.2871340389522884 0 -0.43882338453168113 -0.28850742779142868 0 -0.42913880764573542 -0.30096784541595201 0 -0.42544014953176962 -0.28386782303690888 0 -0.42913880764573542 -0.30096784541595201 0 -0.42544014953176962 -0.28386782303690888 0 -0.43882338453168113 -0.28850742779142868 0 -0.42544014953176962 -0.28386782303690888 0 -0.43645971168415809 -0.27424673614852652 0 -0.42913880764573542 -0.30096784541595201 0 -0.42103269551054961 -0.2871340389522884 0 -0.42913880764573542 -0.30096784541595201 0 -0.42103269551054961 -0.2871340389522884 0 -0.41842823709146337 -0.29795200579321518 0 -0.42103269551054961 -0.2871340389522884 0 -0.40887654302698861 -0.28917864423361178 0 -0.41292658337536492 -0.27330023248862412 0 -0.42103269551054961 -0.2871340389522884 0 -0.41392110551077649 -0.29280210634692189 0 -0.40887654302698861 -0.28917864423361178 0 -0.42103269551054961 -0.2871340389522884 0 -0.41392110551077649 -0.29280210634692189 0 -0.41842823709146337 -0.29795200579321518 0 -0.42544014953176962 -0.28386782303690888 0 -0.42103269551054961 -0.2871340389522884 0 -0.41292658337536492 -0.27330023248862412 0 -0.41392110551077649 -0.29280210634692189 0 -0.40657096931944681 -0.29722121949232511 0 -0.41842823709146337 -0.29795200579321518 0 -0.41392110551077649 -0.29280210634692189 0 -0.40887654302698861 -0.28917864423361178 0 -0.40657096931944681 -0.29722121949232511 0 -0.4314144922789096 -0.31148902822222319 0 -0.40657096931944681 -0.29722121949232511 0 -0.41842823709146337 -0.29795200579321518 0 -0.4314144922789096 -0.31148902822222319 0 -0.40657096931944681 -0.29722121949232511 0 -0.41672315280914168 -0.32261123196378722 0 -0.4314144922789096 -0.31148902822222319 0 -0.40657096931944681 -0.29722121949232511 0 -0.40657096931944681 -0.29722121949232511 0 -0.3815222965011868 -0.3061784207106088 0 -0.39196594840155541 -0.2888334539852831 0 -0.39630885667722399 -0.32459829434942922 0 -0.40657096931944681 -0.29722121949232511 0 -0.3815222965011868 -0.3061784207106088 0 -0.40657096931944681 -0.29722121949232511 0 -0.3815222965011868 -0.3061784207106088 0 -0.3815222965011868 -0.3061784207106088 0 -0.39196594840155541 -0.2888334539852831 0 -0.37421978604223999 -0.30198453795708519 0 -0.37519020746514631 -0.2897347421023504 0 -0.39196594840155541 -0.2888334539852831 0 -0.37155383280592058 -0.27711063345107811 0 -0.39196594840155541 -0.2888334539852831 0 -0.37421978604223999 -0.30198453795708519 0 -0.37519020746514631 -0.2897347421023504 0 -0.39196594840155541 -0.2888334539852831 0 -0.37421978604223999 -0.30198453795708519 0 -0.39196594840155541 -0.2888334539852831 0 -0.37155383280592058 -0.27711063345107811 0 -0.40887654302698861 -0.28917864423361178 0 -0.39196594840155541 -0.2888334539852831 0 -0.41292658337536492 -0.27330023248862412 0 -0.40887654302698861 -0.28917864423361178 0 -0.40657096931944681 -0.29722121949232511 0 -0.39196594840155541 -0.2888334539852831 0 -0.40657096931944681 -0.29722121949232511 0 -0.39196594840155541 -0.2888334539852831 0 -0.39196594840155541 -0.2888334539852831 0 -0.41292658337536492 -0.27330023248862412 0 -0.39508072165669811 -0.27112772764147941 0 -0.40190870609421009 -0.25449723798200929 0 -0.41292658337536492 -0.27330023248862412 0 -0.39196594840155541 -0.2888334539852831 0 -0.39508072165669811 -0.27112772764147941 0 -0.41292658337536492 -0.27330023248862412 0 -0.39196594840155541 -0.2888334539852831 0 -0.39508072165669811 -0.27112772764147941 0 -0.37155383280592058 -0.27711063345107811 0 -0.38447573308900712 -0.25606062661185608 0 -0.37155383280592058 -0.27711063345107811 0 -0.39508072165669811 -0.27112772764147941 0 -0.38447573308900712 -0.25606062661185608 0 -0.37155383280592058 -0.27711063345107811 0 -0.39508072165669811 -0.27112772764147941 0 -0.38447573308900712 -0.25606062661185608 0 -0.40190870609421009 -0.25449723798200929 0 -0.40190870609421009 -0.25449723798200929 0 -0.41292658337536492 -0.27330023248862412 0 -0.42174149141780232 -0.26676780065786609 0 -0.41603051253650869 -0.24036420679564921 0 -0.40190870609421009 -0.25449723798200929 0 -0.41292658337536492 -0.27330023248862412 0 -0.42174149141780232 -0.26676780065786609 0 -0.40190870609421009 -0.25449723798200929 0 -0.42174149141780232 -0.26676780065786609 0 -0.41603051253650869 -0.24036420679564921 0 -0.42174149141780232 -0.26676780065786609 0 -0.42228007360992031 -0.24400999108587701 0 -0.41603051253650869 -0.24036420679564921 0 -0.42544014953176962 -0.28386782303690888 0 -0.41292658337536492 -0.27330023248862412 0 -0.42174149141780232 -0.26676780065786609 0 -0.42103269551054961 -0.2871340389522884 0 -0.41292658337536492 -0.27330023248862412 0 -0.41292658337536492 -0.27330023248862412 0 -0.42174149141780232 -0.26676780065786609 0 -0.42544014953176962 -0.28386782303690888 0 -0.42174149141780232 -0.26676780065786609 0 -0.42544014953176962 -0.28386782303690888 0 -0.42174149141780232 -0.26676780065786609 0 -0.43645971168415809 -0.27424673614852652 0 -0.44077913706085309 -0.25265964186792861 0 -0.42174149141780232 -0.26676780065786609 0 -0.42228007360992031 -0.24400999108587701 0 -0.44077913706085309 -0.25265964186792861 0 -0.42174149141780232 -0.26676780065786609 0 -0.43645971168415809 -0.27424673614852652 0 -0.44077913706085309 -0.25265964186792861 0 -0.42174149141780232 -0.26676780065786609 0 -0.31803993511846312 -0.25967572995143129 0 -0.33168645956306869 -0.2542145225846455 0 -0.31562540891235408 -0.24499054903389081 0 -0.31803993511846312 -0.25967572995143129 0 -0.32888667720152343 -0.26699904156269139 0 -0.33168645956306869 -0.2542145225846455 0 -0.31803993511846312 -0.25967572995143129 0 -0.31562540891235408 -0.24499054903389081 0 -0.31652186189938131 -0.2751994866164803 0 -0.32888667720152343 -0.26699904156269139 0 -0.33522342486164158 -0.28703977490364802 0 -0.31803993511846312 -0.25967572995143129 0 -0.31652186189938131 -0.2751994866164803 0 -0.32888667720152343 -0.26699904156269139 0 -0.34177193512956522 -0.27192699050181929 0 -0.35222939904599659 -0.28090836327352331 0 -0.33522342486164158 -0.28703977490364802 0 -0.32888667720152343 -0.26699904156269139 0 -0.34177193512956522 -0.27192699050181929 0 -0.33522342486164158 -0.28703977490364802 0 -0.32888667720152343 -0.26699904156269139 0 -0.34177193512956522 -0.27192699050181929 0 -0.34020817440802109 -0.25910860293133958 0 -0.32888667720152343 -0.26699904156269139 0 -0.34020817440802109 -0.25910860293133958 0 -0.33168645956306869 -0.2542145225846455 0 -0.34020817440802109 -0.25910860293133958 0 -0.33168645956306869 -0.2542145225846455 0 -0.34616816808376821 -0.25207713586638669 0 -0.34020817440802109 -0.25910860293133958 0 -0.33168645956306869 -0.2542145225846455 0 -0.34616816808376821 -0.25207713586638669 0 -0.36611326166637581 -0.25914119021803478 0 -0.35162014618449461 -0.26566257801786192 0 -0.34020817440802109 -0.25910860293133958 0 -0.34616816808376821 -0.25207713586638669 0 -0.35162014618449461 -0.26566257801786192 0 -0.34020817440802109 -0.25910860293133958 0 -0.35162014618449461 -0.26566257801786192 0 -0.34177193512956522 -0.27192699050181929 0 -0.34020817440802109 -0.25910860293133958 0 -0.35162014618449461 -0.26566257801786192 0 -0.38447573308900712 -0.25606062661185608 0 -0.36611326166637581 -0.25914119021803478 0 -0.37155383280592058 -0.27711063345107811 0 -0.38447573308900712 -0.25606062661185608 0 -0.36611326166637581 -0.25914119021803478 0 -0.3689443854345229 -0.2416094576424957 0 -0.34616816808376821 -0.25207713586638669 0 -0.36611326166637581 -0.25914119021803478 0 -0.3689443854345229 -0.2416094576424957 0 -0.37155383280592058 -0.27711063345107811 0 -0.35162014618449461 -0.26566257801786192 0 -0.36611326166637581 -0.25914119021803478 0 -0.37155383280592058 -0.27711063345107811 0 -0.35162014618449461 -0.26566257801786192 0 -0.37155383280592058 -0.27711063345107811 0 -0.35222939904599659 -0.28090836327352331 0 -0.35162014618449461 -0.26566257801786192 0 -0.34177193512956522 -0.27192699050181929 0 -0.35222939904599659 -0.28090836327352331 0 -0.35162014618449461 -0.26566257801786192 0 -0.35222939904599659 -0.28090836327352331 0 -0.35018579268348821 -0.29269985975077772 0 -0.33522342486164158 -0.28703977490364802 0 -0.35018579268348821 -0.29269985975077772 0 -0.36302126261086992 -0.29101034301595452 0 -0.35448869241583503 -0.30491005258084058 0 -0.35222939904599659 -0.28090836327352331 0 -0.35018579268348821 -0.29269985975077772 0 -0.36302126261086992 -0.29101034301595452 0 -0.37155383280592058 -0.27711063345107811 0 -0.35222939904599659 -0.28090836327352331 0 -0.36302126261086992 -0.29101034301595452 0 -0.37519020746514631 -0.2897347421023504 0 -0.36302126261086992 -0.29101034301595452 0 -0.37421978604223999 -0.30198453795708519 0 -0.37155383280592058 -0.27711063345107811 0 -0.36302126261086992 -0.29101034301595452 0 -0.37519020746514631 -0.2897347421023504 0 -0.37155383280592058 -0.27711063345107811 0 -0.36302126261086992 -0.29101034301595452 0 -0.3815222965011868 -0.3061784207106088 0 -0.37421978604223999 -0.30198453795708519 0 -0.35647362368292551 -0.31513562192888839 0 -0.3815222965011868 -0.3061784207106088 0 -0.35647362368292551 -0.31513562192888839 0 -0.37421978604223999 -0.30198453795708519 0 -0.36261342056614299 -0.30266928201647758 0 -0.35647362368292551 -0.31513562192888839 0 -0.37421978604223999 -0.30198453795708519 0 -0.35647362368292551 -0.31513562192888839 0 -0.36302126261086992 -0.29101034301595452 0 -0.37421978604223999 -0.30198453795708519 0 -0.36261342056614299 -0.30266928201647758 0 -0.36302126261086992 -0.29101034301595452 0 -0.36261342056614299 -0.30266928201647758 0 -0.35448869241583503 -0.30491005258084058 0 -0.36261342056614299 -0.30266928201647758 0 -0.35448869241583503 -0.30491005258084058 0 -0.35647362368292551 -0.31513562192888839 0 -0.36302126261086992 -0.29101034301595452 0 -0.35448869241583503 -0.30491005258084058 0 -0.35018579268348821 -0.29269985975077772 0 -0.35448869241583503 -0.30491005258084058 0 -0.34523020116376169 -0.30219835379638188 0 -0.35018579268348821 -0.29269985975077772 0 -0.34523020116376169 -0.30219835379638188 0 -0.33685609896084701 -0.29835876048197701 0 -0.35448869241583503 -0.30491005258084058 0 -0.34523020116376169 -0.30219835379638188 0 -0.34290452782341763 -0.31147249320449277 0 -0.35448869241583503 -0.30491005258084058 0 -0.34290452782341763 -0.31147249320449277 0 -0.35647362368292551 -0.31513562192888839 0 -0.34290452782341763 -0.31147249320449277 0 -0.33755731020895119 -0.3071704844296278 0 -0.33218947240844732 -0.31373925634397082 0 -0.34523020116376169 -0.30219835379638188 0 -0.34290452782341763 -0.31147249320449277 0 -0.33755731020895119 -0.3071704844296278 0 -0.33755731020895119 -0.3071704844296278 0 -0.3251838649394303 -0.30170250333060677 0 -0.33218947240844732 -0.31373925634397082 0 -0.33755731020895119 -0.3071704844296278 0 -0.33685609896084701 -0.29835876048197701 0 -0.3251838649394303 -0.30170250333060677 0 -0.34523020116376169 -0.30219835379638188 0 -0.33755731020895119 -0.3071704844296278 0 -0.33685609896084701 -0.29835876048197701 0 -0.35018579268348821 -0.29269985975077772 0 -0.33685609896084701 -0.29835876048197701 0 -0.33522342486164158 -0.28703977490364802 0 -0.33685609896084701 -0.29835876048197701 0 -0.33522342486164158 -0.28703977490364802 0 -0.3251838649394303 -0.30170250333060677 0 -0.31652186189938131 -0.2751994866164803 0 -0.33522342486164158 -0.28703977490364802 0 -0.30969674907461958 -0.2905046491542147 0 -0.33522342486164158 -0.28703977490364802 0 -0.30969674907461958 -0.2905046491542147 0 -0.33522342486164158 -0.28703977490364802 0 -0.3251838649394303 -0.30170250333060677 0 -0.30969674907461958 -0.2905046491542147 0 -0.3251838649394303 -0.30170250333060677 0 -0.31010346064399802 -0.30965750136676851 0 -0.30969674907461958 -0.2905046491542147 0 -0.3251838649394303 -0.30170250333060677 0 -0.3235480844900458 -0.31664333723931171 0 -0.31010346064399802 -0.30965750136676851 0 -0.3251838649394303 -0.30170250333060677 0 -0.3235480844900458 -0.31664333723931171 0 -0.33218947240844732 -0.31373925634397082 0 -0.3235480844900458 -0.31664333723931171 0 -0.30253784560385288 -0.3263193614595804 0 -0.3235480844900458 -0.31664333723931171 0 -0.33141794402905728 -0.32409532873446623 0 -0.30636226437518921 -0.33305503554004412 0 -0.33356093664229047 -0.33211544354834233 0 -0.3106482496016556 -0.34909526516779632 0 -0.33141794402905728 -0.32409532873446623 0 -0.30636226437518921 -0.33305503554004412 0 -0.33356093664229047 -0.33211544354834233 0 -0.32620062508587838 -0.34446121026634979 0 -0.3106482496016556 -0.34909526516779632 0 -0.33356093664229047 -0.33211544354834233 0 -0.31306193025997042 -0.34485467583731211 0 -0.3106482496016556 -0.34909526516779632 0 -0.33356093664229047 -0.33211544354834233 0 -0.33141794402905728 -0.32409532873446623 0 -0.30636226437518921 -0.33305503554004412 0 -0.33356093664229047 -0.33211544354834233 0 -0.31306193025997042 -0.34485467583731211 0 -0.30636226437518921 -0.33305503554004412 0 -0.33356093664229047 -0.33211544354834233 0 -0.33763564291620701 -0.34226337400461992 0 -0.34928622875643561 -0.33414626866166519 0 -0.33356093664229047 -0.33211544354834233 0 -0.33763564291620701 -0.34226337400461992 0 -0.32620062508587838 -0.34446121026634979 0 -0.34290452782341763 -0.31147249320449277 0 -0.33141794402905728 -0.32409532873446623 0 -0.35647362368292551 -0.31513562192888839 0 -0.33356093664229047 -0.33211544354834233 0 -0.33141794402905728 -0.32409532873446623 0 -0.35647362368292551 -0.31513562192888839 0 -0.3235480844900458 -0.31664333723931171 0 -0.33141794402905728 -0.32409532873446623 0 -0.33218947240844732 -0.31373925634397082 0 -0.34290452782341763 -0.31147249320449277 0 -0.33141794402905728 -0.32409532873446623 0 -0.33218947240844732 -0.31373925634397082 0 -0.33141794402905728 -0.32409532873446623 0 -0.35647362368292551 -0.31513562192888839 0 -0.33356093664229047 -0.33211544354834233 0 -0.35647362368292551 -0.31513562192888839 0 -0.33356093664229047 -0.33211544354834233 0 -0.35647362368292551 -0.31513562192888839 0 -0.34928622875643561 -0.33414626866166519 0 -0.3815222965011868 -0.3061784207106088 0 -0.35647362368292551 -0.31513562192888839 0 -0.36847567111510288 -0.33571524633050481 0 -0.36847567111510288 -0.33571524633050481 0 -0.34928622875643561 -0.33414626866166519 0 -0.35028526942565191 -0.34550165749597039 0 -0.35647362368292551 -0.31513562192888839 0 -0.36847567111510288 -0.33571524633050481 0 -0.34928622875643561 -0.33414626866166519 0 -0.33763564291620701 -0.34226337400461992 0 -0.34928622875643561 -0.33414626866166519 0 -0.35028526942565191 -0.34550165749597039 0 -0.35028526942565191 -0.34550165749597039 0 -0.35037250575456841 -0.35925821120771012 0 -0.3674057803758316 -0.35431276726727462 0 -0.35028526942565191 -0.34550165749597039 0 -0.35037250575456841 -0.35925821120771012 0 -0.33875781747911798 -0.3533318196943751 0 -0.36847567111510288 -0.33571524633050481 0 -0.35028526942565191 -0.34550165749597039 0 -0.3674057803758316 -0.35431276726727462 0 -0.37875632125977199 -0.38632889457526193 0 -0.3820752922849675 -0.3678158329717095 0 -0.3629113326939839 -0.36969035650443449 0 -0.3820752922849675 -0.3678158329717095 0 -0.3674057803758316 -0.35431276726727462 0 -0.3629113326939839 -0.36969035650443449 0 -0.35037250575456841 -0.35925821120771012 0 -0.3674057803758316 -0.35431276726727462 0 -0.3629113326939839 -0.36969035650443449 0 -0.35037250575456841 -0.35925821120771012 0 -0.3629113326939839 -0.36969035650443449 0 -0.3461291987001372 -0.37448117324536973 0 -0.35037250575456841 -0.35925821120771012 0 -0.3461291987001372 -0.37448117324536973 0 -0.33796724245384863 -0.36492868687154412 0 -0.3461291987001372 -0.37448117324536973 0 -0.33796724245384863 -0.36492868687154412 0 -0.33119890305053701 -0.37825038600564609 0 -0.32917143593005188 -0.36784731534726661 0 -0.33796724245384863 -0.36492868687154412 0 -0.33119890305053701 -0.37825038600564609 0 -0.32851977194374782 -0.3601833696124348 0 -0.33796724245384863 -0.36492868687154412 0 -0.33875781747911798 -0.3533318196943751 0 -0.32917143593005188 -0.36784731534726661 0 -0.32851977194374782 -0.3601833696124348 0 -0.33796724245384863 -0.36492868687154412 0 -0.35037250575456841 -0.35925821120771012 0 -0.33796724245384863 -0.36492868687154412 0 -0.33875781747911798 -0.3533318196943751 0 -0.33763564291620701 -0.34226337400461992 0 -0.35028526942565191 -0.34550165749597039 0 -0.33875781747911798 -0.3533318196943751 0 -0.33763564291620701 -0.34226337400461992 0 -0.32865434733449128 -0.34948014432588592 0 -0.32620062508587838 -0.34446121026634979 0 -0.33763564291620701 -0.34226337400461992 0 -0.33875781747911798 -0.3533318196943751 0 -0.32865434733449128 -0.34948014432588592 0 -0.32851977194374782 -0.3601833696124348 0 -0.33875781747911798 -0.3533318196943751 0 -0.32865434733449128 -0.34948014432588592 0 -0.32851977194374782 -0.3601833696124348 0 -0.32865434733449128 -0.34948014432588592 0 -0.31867204309686697 -0.35628376129599598 0 -0.32865434733449128 -0.34948014432588592 0 -0.32050394893474748 -0.34935182428510481 0 -0.31867204309686697 -0.35628376129599598 0 -0.32865434733449128 -0.34948014432588592 0 -0.32620062508587838 -0.34446121026634979 0 -0.32050394893474748 -0.34935182428510481 0 -0.32620062508587838 -0.34446121026634979 0 -0.32050394893474748 -0.34935182428510481 0 -0.3106482496016556 -0.34909526516779632 0 -0.32050394893474748 -0.34935182428510481 0 -0.31506977346847992 -0.35261648727909228 0 -0.3106482496016556 -0.34909526516779632 0 -0.31867204309686697 -0.35628376129599598 0 -0.31506977346847992 -0.35261648727909228 0 -0.31025144213004269 -0.35482510323103927 0 -0.32050394893474748 -0.34935182428510481 0 -0.31867204309686697 -0.35628376129599598 0 -0.31506977346847992 -0.35261648727909228 0 -0.31867204309686697 -0.35628376129599598 0 -0.31899982627207418 -0.3680268188994415 0 -0.30761629201443408 -0.36174070935228497 0 -0.31899982627207418 -0.3680268188994415 0 -0.30911659972448208 -0.37201305749019442 0 -0.31550328286099782 -0.38264194987580402 0 -0.32917143593005188 -0.36784731534726661 0 -0.31899982627207418 -0.3680268188994415 0 -0.33119890305053701 -0.37825038600564609 0 -0.32851977194374782 -0.3601833696124348 0 -0.31867204309686697 -0.35628376129599598 0 -0.31899982627207418 -0.3680268188994415 0 -0.32917143593005188 -0.36784731534726661 0 -0.32851977194374782 -0.3601833696124348 0 -0.31899982627207418 -0.3680268188994415 0 -0.30075283020319138 -0.36946028498120909 0 -0.30761629201443408 -0.36174070935228497 0 -0.29332517249957879 -0.35981217284077921 0 -0.30075283020319138 -0.36946028498120909 0 -0.29306234812627258 -0.37430945168703711 0 -0.30170315455570712 -0.37899933539870301 0 -0.30075283020319138 -0.36946028498120909 0 -0.30911659972448208 -0.37201305749019442 0 -0.30170315455570712 -0.37899933539870301 0 -0.31899982627207418 -0.3680268188994415 0 -0.30911659972448208 -0.37201305749019442 0 -0.30761629201443408 -0.36174070935228497 0 -0.30075283020319138 -0.36946028498120909 0 -0.30911659972448208 -0.37201305749019442 0 -0.30761629201443408 -0.36174070935228497 0 -0.31867204309686697 -0.35628376129599598 0 -0.30761629201443408 -0.36174070935228497 0 -0.31025144213004269 -0.35482510323103927 0 -0.31506977346847992 -0.35261648727909228 0 -0.31025144213004269 -0.35482510323103927 0 -0.3106482496016556 -0.34909526516779632 0 -0.31025144213004269 -0.35482510323103927 0 -0.30553494964239819 -0.34858163732330072 0 -0.30310462481031891 -0.35458069028444228 0 -0.30761629201443408 -0.36174070935228497 0 -0.31025144213004269 -0.35482510323103927 0 -0.30310462481031891 -0.35458069028444228 0 -0.31306193025997042 -0.34485467583731211 0 -0.3106482496016556 -0.34909526516779632 0 -0.30772408106224147 -0.34353622448460303 0 -0.31025144213004269 -0.35482510323103927 0 -0.3106482496016556 -0.34909526516779632 0 -0.30553494964239819 -0.34858163732330072 0 -0.3106482496016556 -0.34909526516779632 0 -0.30553494964239819 -0.34858163732330072 0 -0.30772408106224147 -0.34353622448460303 0 -0.30553494964239819 -0.34858163732330072 0 -0.30332193352298559 -0.34128401185709217 0 -0.30772408106224147 -0.34353622448460303 0 -0.30553494964239819 -0.34858163732330072 0 -0.2990819231344623 -0.34741813888640127 0 -0.30332193352298559 -0.34128401185709217 0 -0.30553494964239819 -0.34858163732330072 0 -0.2990819231344623 -0.34741813888640127 0 -0.30310462481031891 -0.35458069028444228 0 -0.30761629201443408 -0.36174070935228497 0 -0.30310462481031891 -0.35458069028444228 0 -0.29332517249957879 -0.35981217284077921 0 -0.2990819231344623 -0.34741813888640127 0 -0.30310462481031891 -0.35458069028444228 0 -0.29332517249957879 -0.35981217284077921 0 -0.2990819231344623 -0.34741813888640127 0 -0.29332517249957879 -0.35981217284077921 0 -0.29078105867221882 -0.34105713756400702 0 -0.29332517249957879 -0.35981217284077921 0 -0.27605391944929608 -0.35671509769851473 0 -0.29078105867221882 -0.34105713756400702 0 -0.27605391944929608 -0.35671509769851473 0 -0.2772063837384251 -0.33798547529447459 0 -0.29078105867221882 -0.34105713756400702 0 -0.29332517249957879 -0.35981217284077921 0 -0.28134258969334541 -0.3745347651402855 0 -0.27605391944929608 -0.35671509769851473 0 -0.29332517249957879 -0.35981217284077921 0 -0.29306234812627258 -0.37430945168703711 0 -0.28134258969334541 -0.3745347651402855 0 -0.30075283020319138 -0.36946028498120909 0 -0.29332517249957879 -0.35981217284077921 0 -0.29306234812627258 -0.37430945168703711 0 -0.28134258969334541 -0.3745347651402855 0 -0.26305597490642357 -0.37173448296359252 0 -0.27605391944929608 -0.35671509769851473 0 -0.26305597490642357 -0.37173448296359252 0 -0.25187492187299759 -0.34965158912936961 0 -0.26305597490642357 -0.37173448296359252 0 -0.24684711317633279 -0.37927720619419059 0 -0.24916925417826569 -0.36453323253943959 0 -0.26305597490642357 -0.37173448296359252 0 -0.25187492187299759 -0.34965158912936961 0 -0.24916925417826569 -0.36453323253943959 0 -0.25187492187299759 -0.34965158912936961 0 -0.2772063837384251 -0.33798547529447459 0 -0.26305597490642357 -0.37173448296359252 0 -0.25187492187299759 -0.34965158912936961 0 -0.27605391944929608 -0.35671509769851473 0 -0.25187492187299759 -0.34965158912936961 0 -0.27605391944929608 -0.35671509769851473 0 -0.2772063837384251 -0.33798547529447459 0 -0.2772063837384251 -0.33798547529447459 0 -0.25758889306409138 -0.33263193730727669 0 -0.26528696181637301 -0.31826820169234749 0 -0.25187492187299759 -0.34965158912936961 0 -0.25758889306409138 -0.33263193730727669 0 -0.24426617702210471 -0.33462410430735418 0 -0.25187492187299759 -0.34965158912936961 0 -0.2772063837384251 -0.33798547529447459 0 -0.25758889306409138 -0.33263193730727669 0 -0.25758889306409138 -0.33263193730727669 0 -0.25085064765768822 -0.32073337649308842 0 -0.24426617702210471 -0.33462410430735418 0 -0.25085064765768822 -0.32073337649308842 0 -0.26528696181637301 -0.31826820169234749 0 -0.25045377421465592 -0.29854601967312189 0 -0.25758889306409138 -0.33263193730727669 0 -0.25085064765768822 -0.32073337649308842 0 -0.26528696181637301 -0.31826820169234749 0 -0.26528696181637301 -0.31826820169234749 0 -0.28348970791923761 -0.32024969355815908 0 -0.27906338899181232 -0.30853098691221098 0 -0.2772063837384251 -0.33798547529447459 0 -0.26528696181637301 -0.31826820169234749 0 -0.28348970791923761 -0.32024969355815908 0 -0.28348970791923761 -0.32024969355815908 0 -0.30253784560385288 -0.3263193614595804 0 -0.29335395944572512 -0.31014444243218148 0 -0.28348970791923761 -0.32024969355815908 0 -0.29335395944572512 -0.31014444243218148 0 -0.27906338899181232 -0.30853098691221098 0 -0.2772063837384251 -0.33798547529447459 0 -0.30253784560385288 -0.3263193614595804 0 -0.2772063837384251 -0.33798547529447459 0 -0.28348970791923761 -0.32024969355815908 0 -0.30253784560385288 -0.3263193614595804 0 -0.2772063837384251 -0.33798547529447459 0 -0.29078105867221882 -0.34105713756400702 0 -0.30253784560385288 -0.3263193614595804 0 -0.2990819231344623 -0.34741813888640127 0 -0.29078105867221882 -0.34105713756400702 0 -0.29842379965927363 -0.33919318344878641 0 -0.30293730207543601 -0.33427977414022791 0 -0.29842379965927363 -0.33919318344878641 0 -0.30253784560385288 -0.3263193614595804 0 -0.29078105867221882 -0.34105713756400702 0 -0.29842379965927363 -0.33919318344878641 0 -0.30253784560385288 -0.3263193614595804 0 -0.30293730207543601 -0.33427977414022791 0 -0.30636226437518921 -0.33305503554004412 0 -0.30253784560385288 -0.3263193614595804 0 -0.30293730207543601 -0.33427977414022791 0 -0.30636226437518921 -0.33305503554004412 0 -0.30636226437518921 -0.33305503554004412 0 -0.30253784560385288 -0.3263193614595804 0 -0.2990819231344623 -0.34741813888640127 0 -0.29842379965927363 -0.33919318344878641 0 -0.30332193352298559 -0.34128401185709217 0 -0.30293730207543601 -0.33427977414022791 0 -0.30332193352298559 -0.34128401185709217 0 -0.30636226437518921 -0.33305503554004412 0 -0.30293730207543601 -0.33427977414022791 0 -0.29842379965927363 -0.33919318344878641 0 -0.30332193352298559 -0.34128401185709217 0 -0.31306193025997042 -0.34485467583731211 0 -0.30772408106224147 -0.34353622448460303 0 -0.30636226437518921 -0.33305503554004412 0 -0.30332193352298559 -0.34128401185709217 0 -0.30772408106224147 -0.34353622448460303 0 -0.30636226437518921 -0.33305503554004412 0 -0.31306193025997042 -0.34485467583731211 0 -0.30636226437518921 -0.33305503554004412 0 -0.30253784560385288 -0.3263193614595804 0 -0.29335395944572512 -0.31014444243218148 0 -0.3235480844900458 -0.31664333723931171 0 -0.30636226437518921 -0.33305503554004412 0 -0.30253784560385288 -0.3263193614595804 0 -0.3235480844900458 -0.31664333723931171 0 -0.30253784560385288 -0.3263193614595804 0 -0.31010346064399802 -0.30965750136676851 0 -0.30253784560385288 -0.3263193614595804 0 -0.31010346064399802 -0.30965750136676851 0 -0.29335395944572512 -0.31014444243218148 0 -0.31010346064399802 -0.30965750136676851 0 -0.30969674907461958 -0.2905046491542147 0 -0.29335395944572512 -0.31014444243218148 0 -0.30969674907461958 -0.2905046491542147 0 -0.2841700732875978 -0.29396952340478238 0 -0.30969674907461958 -0.2905046491542147 0 -0.2841700732875978 -0.29396952340478238 0 -0.29676274527064489 -0.27047972728904113 0 -0.2841700732875978 -0.29396952340478238 0 -0.29335395944572512 -0.31014444243218148 0 -0.30969674907461958 -0.2905046491542147 0 -0.2841700732875978 -0.29396952340478238 0 -0.29335395944572512 -0.31014444243218148 0 -0.2841700732875978 -0.29396952340478238 0 -0.29335395944572512 -0.31014444243218148 0 -0.27906338899181232 -0.30853098691221098 0 -0.26528696181637301 -0.31826820169234749 0 -0.27906338899181232 -0.30853098691221098 0 -0.26731192375112628 -0.29625777153894789 0 -0.2841700732875978 -0.29396952340478238 0 -0.27906338899181232 -0.30853098691221098 0 -0.26731192375112628 -0.29625777153894789 0 -0.26528696181637301 -0.31826820169234749 0 -0.25045377421465592 -0.29854601967312189 0 -0.26731192375112628 -0.29625777153894789 0 -0.25045377421465592 -0.29854601967312189 0 -0.26731192375112628 -0.29625777153894789 0 -0.25045377421465592 -0.29854601967312189 0 -0.2601826827707801 -0.28370155148151111 0 -0.26731192375112628 -0.29625777153894789 0 -0.25045377421465592 -0.29854601967312189 0 -0.2601826827707801 -0.28370155148151111 0 -0.2601826827707801 -0.28370155148151111 0 -0.26891197574956371 -0.28470755062754172 0 -0.26250579529529772 -0.28026991950598668 0 -0.2601826827707801 -0.28370155148151111 0 -0.26891197574956371 -0.28470755062754172 0 -0.26731192375112628 -0.29625777153894789 0 -0.2601826827707801 -0.28370155148151111 0 -0.26250579529529772 -0.28026991950598668 0 -0.2841700732875978 -0.29396952340478238 0 -0.26731192375112628 -0.29625777153894789 0 -0.2841700732875978 -0.29396952340478238 0 -0.27005771819646629 -0.26911444604921708 0 -0.2841700732875978 -0.29396952340478238 0 -0.26891197574956371 -0.28470755062754172 0 -0.27005771819646629 -0.26911444604921708 0 -0.2841700732875978 -0.29396952340478238 0 -0.26891197574956371 -0.28470755062754172 0 -0.26731192375112628 -0.29625777153894789 0 -0.26891197574956371 -0.28470755062754172 0 -0.27005771819646629 -0.26911444604921708 0 -0.26250579529529772 -0.28026991950598668 0 -0.27005771819646629 -0.26911444604921708 0 -0.26250579529529772 -0.28026991950598668 0 -0.2601826827707801 -0.28370155148151111 0 -0.25168388931481372 -0.26752118516170359 0 -0.23830700692626269 -0.27997480961457749 0 -0.27005771819646629 -0.26911444604921708 0 -0.26250579529529772 -0.28026991950598668 0 -0.25168388931481372 -0.26752118516170359 0 -0.2601826827707801 -0.28370155148151111 0 -0.26250579529529772 -0.28026991950598668 0 -0.25168388931481372 -0.26752118516170359 0 -0.27005771819646629 -0.26911444604921708 0 -0.25741499207255808 -0.2468477206326791 0 -0.27005771819646629 -0.26911444604921708 0 -0.25168388931481372 -0.26752118516170359 0 -0.25741499207255808 -0.2468477206326791 0 -0.27005771819646629 -0.26911444604921708 0 -0.28161261259963222 -0.25100354534260161 0 -0.25741499207255808 -0.2468477206326791 0 -0.27005771819646629 -0.26911444604921708 0 -0.28161261259963222 -0.25100354534260161 0 -0.27005771819646629 -0.26911444604921708 0 -0.28161261259963222 -0.25100354534260161 0 -0.29676274527064489 -0.27047972728904113 0 -0.28161261259963222 -0.25100354534260161 0 -0.29676274527064489 -0.27047972728904113 0 -0.30213545205644998 -0.25474964514874388 0 -0.2841700732875978 -0.29396952340478238 0 -0.27005771819646629 -0.26911444604921708 0 -0.29676274527064489 -0.27047972728904113 0 -0.31652186189938131 -0.2751994866164803 0 -0.30969674907461958 -0.2905046491542147 0 -0.29676274527064489 -0.27047972728904113 0 -0.31803993511846312 -0.25967572995143129 0 -0.31652186189938131 -0.2751994866164803 0 -0.29676274527064489 -0.27047972728904113 0 -0.31803993511846312 -0.25967572995143129 0 -0.30213545205644998 -0.25474964514874388 0 -0.31562540891235408 -0.24499054903389081 0 -0.31803993511846312 -0.25967572995143129 0 -0.29676274527064489 -0.27047972728904113 0 -0.30213545205644998 -0.25474964514874388 0 -0.33889996704125608 -0.45100968878143533 0 -0.3191433478104248 -0.46044869594256538 0 -0.33982180563853709 -0.47717687036456002 0 -0.33889996704125608 -0.45100968878143533 0 -0.34890815674406539 -0.43544467183927837 0 -0.33495474209463749 -0.43410945337554052 0 -0.33889996704125608 -0.45100968878143533 0 -0.32208103028772089 -0.44055069070924718 0 -0.33495474209463749 -0.43410945337554052 0 -0.33889996704125608 -0.45100968878143533 0 -0.32208103028772089 -0.44055069070924718 0 -0.3191433478104248 -0.46044869594256538 0 -0.32208103028772089 -0.44055069070924718 0 -0.3191433478104248 -0.46044869594256538 0 -0.30429573946673122 -0.44693194339732012 0 -0.3191433478104248 -0.46044869594256538 0 -0.33982180563853709 -0.47717687036456002 0 -0.30994407380466671 -0.48096367657830458 0 -0.32211003203688432 -0.5 0 -0.33982180563853709 -0.47717687036456002 0 -0.30994407380466671 -0.48096367657830458 0 -0.32211003203688432 -0.5 0 -0.33982180563853709 -0.47717687036456002 0 -0.35073380282312 -0.5 0 -0.33982180563853709 -0.47717687036456002 0 -0.35646162636797829 -0.47880677922705511 0 -0.36193809871805238 -0.46299370356289737 0 -0.33982180563853709 -0.47717687036456002 0 -0.35646162636797829 -0.47880677922705511 0 -0.35073380282312 -0.5 0 -0.37935757360935579 -0.5 0 -0.35073380282312 -0.5 0 -0.37227888040636309 -0.48382877590008161 0 -0.35646162636797829 -0.47880677922705511 0 -0.35073380282312 -0.5 0 -0.37227888040636309 -0.48382877590008161 0 -0.3873027435304181 -0.46193715668157809 0 -0.37227888040636309 -0.48382877590008161 0 -0.36193809871805238 -0.46299370356289737 0 -0.35646162636797829 -0.47880677922705511 0 -0.37227888040636309 -0.48382877590008161 0 -0.36193809871805238 -0.46299370356289737 0 -0.33889996704125608 -0.45100968878143533 0 -0.33982180563853709 -0.47717687036456002 0 -0.36193809871805238 -0.46299370356289737 0 -0.33889996704125608 -0.45100968878143533 0 -0.36069966166688561 -0.44517828573988172 0 -0.34890815674406539 -0.43544467183927837 0 -0.33889996704125608 -0.45100968878143533 0 -0.36193809871805238 -0.46299370356289737 0 -0.36069966166688561 -0.44517828573988172 0 -0.37677810925995658 -0.44256459333301112 0 -0.36193809871805238 -0.46299370356289737 0 -0.36069966166688561 -0.44517828573988172 0 -0.37677810925995658 -0.44256459333301112 0 -0.36069966166688561 -0.44517828573988172 0 -0.36625347498949451 -0.42319202998444422 0 -0.37677810925995658 -0.44256459333301112 0 -0.36625347498949451 -0.42319202998444422 0 -0.38091960801568392 -0.40885003952666221 0 -0.36625347498949451 -0.42319202998444422 0 -0.35778496467277637 -0.40518009063534899 0 -0.35778496467277637 -0.40518009063534899 0 -0.33958935117646882 -0.40255541033840597 0 -0.34051666716748669 -0.41881886874097651 0 -0.36625347498949451 -0.42319202998444422 0 -0.35778496467277637 -0.40518009063534899 0 -0.34051666716748669 -0.41881886874097651 0 -0.36625347498949451 -0.42319202998444422 0 -0.34890815674406539 -0.43544467183927837 0 -0.34051666716748669 -0.41881886874097651 0 -0.36069966166688561 -0.44517828573988172 0 -0.36625347498949451 -0.42319202998444422 0 -0.34890815674406539 -0.43544467183927837 0 -0.37875632125977199 -0.38632889457526193 0 -0.3629113326939839 -0.36969035650443449 0 -0.35442623497930509 -0.38670369693343992 0 -0.37875632125977199 -0.38632889457526193 0 -0.38091960801568392 -0.40885003952666221 0 -0.35778496467277637 -0.40518009063534899 0 -0.37875632125977199 -0.38632889457526193 0 -0.35778496467277637 -0.40518009063534899 0 -0.35442623497930509 -0.38670369693343992 0 -0.35778496467277637 -0.40518009063534899 0 -0.35442623497930509 -0.38670369693343992 0 -0.33958935117646882 -0.40255541033840597 0 -0.35442623497930509 -0.38670369693343992 0 -0.33975895737228279 -0.38706964065583738 0 -0.33958935117646882 -0.40255541033840597 0 -0.3629113326939839 -0.36969035650443449 0 -0.3461291987001372 -0.37448117324536973 0 -0.35442623497930509 -0.38670369693343992 0 -0.3461291987001372 -0.37448117324536973 0 -0.35442623497930509 -0.38670369693343992 0 -0.33975895737228279 -0.38706964065583738 0 -0.3461291987001372 -0.37448117324536973 0 -0.33119890305053701 -0.37825038600564609 0 -0.33975895737228279 -0.38706964065583738 0 -0.33119890305053701 -0.37825038600564609 0 -0.33975895737228279 -0.38706964065583738 0 -0.32745109895496571 -0.39335753675632512 0 -0.33958935117646882 -0.40255541033840597 0 -0.32745109895496571 -0.39335753675632512 0 -0.32627588222667758 -0.40903954478872689 0 -0.33975895737228279 -0.38706964065583738 0 -0.33958935117646882 -0.40255541033840597 0 -0.32745109895496571 -0.39335753675632512 0 -0.31285101528263548 -0.39946987728041838 0 -0.32745109895496571 -0.39335753675632512 0 -0.31550328286099782 -0.38264194987580402 0 -0.31285101528263548 -0.39946987728041838 0 -0.32745109895496571 -0.39335753675632512 0 -0.32627588222667758 -0.40903954478872689 0 -0.33119890305053701 -0.37825038600564609 0 -0.32745109895496571 -0.39335753675632512 0 -0.31550328286099782 -0.38264194987580402 0 -0.31899982627207418 -0.3680268188994415 0 -0.33119890305053701 -0.37825038600564609 0 -0.31550328286099782 -0.38264194987580402 0 -0.33495474209463749 -0.43410945337554052 0 -0.34051666716748669 -0.41881886874097651 0 -0.32436788923265858 -0.42472334680676499 0 -0.34890815674406539 -0.43544467183927837 0 -0.33495474209463749 -0.43410945337554052 0 -0.34051666716748669 -0.41881886874097651 0 -0.33958935117646882 -0.40255541033840597 0 -0.34051666716748669 -0.41881886874097651 0 -0.32627588222667758 -0.40903954478872689 0 -0.34051666716748669 -0.41881886874097651 0 -0.32627588222667758 -0.40903954478872689 0 -0.32436788923265858 -0.42472334680676499 0 -0.32627588222667758 -0.40903954478872689 0 -0.31253532278913282 -0.41604226989513859 0 -0.32436788923265858 -0.42472334680676499 0 -0.31285101528263548 -0.39946987728041838 0 -0.32627588222667758 -0.40903954478872689 0 -0.31253532278913282 -0.41604226989513859 0 -0.32208103028772089 -0.44055069070924718 0 -0.33495474209463749 -0.43410945337554052 0 -0.32436788923265858 -0.42472334680676499 0 -0.32208103028772089 -0.44055069070924718 0 -0.32436788923265858 -0.42472334680676499 0 -0.31061995340971632 -0.43140181661236549 0 -0.31253532278913282 -0.41604226989513859 0 -0.32436788923265858 -0.42472334680676499 0 -0.31061995340971632 -0.43140181661236549 0 -0.31061995340971632 -0.43140181661236549 0 -0.30013696683383662 -0.42242130176484938 0 -0.29659913400670129 -0.43798316446626068 0 -0.31253532278913282 -0.41604226989513859 0 -0.31061995340971632 -0.43140181661236549 0 -0.30013696683383662 -0.42242130176484938 0 -0.31285101528263548 -0.39946987728041838 0 -0.31253532278913282 -0.41604226989513859 0 -0.30081354097488122 -0.41013213242711649 0 -0.31253532278913282 -0.41604226989513859 0 -0.30013696683383662 -0.42242130176484938 0 -0.30081354097488122 -0.41013213242711649 0 -0.30013696683383662 -0.42242130176484938 0 -0.30081354097488122 -0.41013213242711649 0 -0.28541808097327542 -0.41590027063203788 0 -0.30081354097488122 -0.41013213242711649 0 -0.28541808097327542 -0.41590027063203788 0 -0.29015995172556092 -0.40150957414298749 0 -0.30013696683383662 -0.42242130176484938 0 -0.28541808097327542 -0.41590027063203788 0 -0.29659913400670129 -0.43798316446626068 0 -0.28541808097327542 -0.41590027063203788 0 -0.29659913400670129 -0.43798316446626068 0 -0.28541808097327542 -0.41590027063203788 0 -0.28399505175834588 -0.43035655322377242 0 -0.29659913400670129 -0.43798316446626068 0 -0.31285101528263548 -0.39946987728041838 0 -0.31550328286099782 -0.38264194987580402 0 -0.30538871925305883 -0.38951680278272971 0 -0.30911659972448208 -0.37201305749019442 0 -0.31550328286099782 -0.38264194987580402 0 -0.30170315455570712 -0.37899933539870301 0 -0.31550328286099782 -0.38264194987580402 0 -0.30170315455570712 -0.37899933539870301 0 -0.30538871925305883 -0.38951680278272971 0 -0.30170315455570712 -0.37899933539870301 0 -0.30538871925305883 -0.38951680278272971 0 -0.29030682548857573 -0.38788730380011499 0 -0.30538871925305883 -0.38951680278272971 0 -0.29923528640382291 -0.39862618332058131 0 -0.29030682548857573 -0.38788730380011499 0 -0.31285101528263548 -0.39946987728041838 0 -0.30538871925305883 -0.38951680278272971 0 -0.29923528640382291 -0.39862618332058131 0 -0.31285101528263548 -0.39946987728041838 0 -0.30081354097488122 -0.41013213242711649 0 -0.29923528640382291 -0.39862618332058131 0 -0.29015995172556092 -0.40150957414298749 0 -0.29030682548857573 -0.38788730380011499 0 -0.2742370279398495 -0.3938173767978152 0 -0.28541808097327542 -0.41590027063203788 0 -0.29015995172556092 -0.40150957414298749 0 -0.2742370279398495 -0.3938173767978152 0 -0.30081354097488122 -0.41013213242711649 0 -0.29923528640382291 -0.39862618332058131 0 -0.29015995172556092 -0.40150957414298749 0 -0.29923528640382291 -0.39862618332058131 0 -0.29015995172556092 -0.40150957414298749 0 -0.29030682548857573 -0.38788730380011499 0 -0.28134258969334541 -0.3745347651402855 0 -0.29030682548857573 -0.38788730380011499 0 -0.2742370279398495 -0.3938173767978152 0 -0.29306234812627258 -0.37430945168703711 0 -0.28134258969334541 -0.3745347651402855 0 -0.29030682548857573 -0.38788730380011499 0 -0.29306234812627258 -0.37430945168703711 0 -0.30170315455570712 -0.37899933539870301 0 -0.29030682548857573 -0.38788730380011499 0 -0.28134258969334541 -0.3745347651402855 0 -0.26305597490642357 -0.37173448296359252 0 -0.2742370279398495 -0.3938173767978152 0 -0.26305597490642357 -0.37173448296359252 0 -0.2742370279398495 -0.3938173767978152 0 -0.26090947635534628 -0.38647633362851352 0 -0.26305597490642357 -0.37173448296359252 0 -0.2742370279398495 -0.3938173767978152 0 -0.28541808097327542 -0.41590027063203788 0 -0.2742370279398495 -0.3938173767978152 0 -0.27245310443561732 -0.40841601792395632 0 -0.28541808097327542 -0.41590027063203788 0 -0.2742370279398495 -0.3938173767978152 0 -0.2742370279398495 -0.3938173767978152 0 -0.2587952195953554 -0.40108476051777642 0 -0.27245310443561732 -0.40841601792395632 0 -0.2587952195953554 -0.40108476051777642 0 -0.24435131265401619 -0.39696644620035698 0 -0.24684711317633279 -0.37927720619419059 0 -0.2587952195953554 -0.40108476051777642 0 -0.25417867060223581 -0.41224085549472628 0 -0.24435131265401619 -0.39696644620035698 0 -0.2742370279398495 -0.3938173767978152 0 -0.2587952195953554 -0.40108476051777642 0 -0.26090947635534628 -0.38647633362851352 0 -0.2587952195953554 -0.40108476051777642 0 -0.24684711317633279 -0.37927720619419059 0 -0.2587952195953554 -0.40108476051777642 0 -0.26090947635534628 -0.38647633362851352 0 -0.24684711317633279 -0.37927720619419059 0 -0.26305597490642357 -0.37173448296359252 0 -0.26090947635534628 -0.38647633362851352 0 -0.24684711317633279 -0.37927720619419059 0 -0.27074332601437812 -0.42289231484136219 0 -0.28269143243340072 -0.44469986916494803 0 -0.28399505175834588 -0.43035655322377242 0 -0.27074332601437812 -0.42289231484136219 0 -0.28269143243340072 -0.44469986916494803 0 -0.27074332601437812 -0.42289231484136219 0 -0.26778451497855338 -0.43869030485464039 0 -0.28269143243340072 -0.44469986916494803 0 -0.28541808097327542 -0.41590027063203788 0 -0.28399505175834588 -0.43035655322377242 0 -0.27074332601437812 -0.42289231484136219 0 -0.2587952195953554 -0.40108476051777642 0 -0.27074332601437812 -0.42289231484136219 0 -0.27245310443561732 -0.40841601792395632 0 -0.28541808097327542 -0.41590027063203788 0 -0.27074332601437812 -0.42289231484136219 0 -0.27245310443561732 -0.40841601792395632 0 -0.27074332601437812 -0.42289231484136219 0 -0.25417867060223581 -0.41224085549472628 0 -0.25500435141488459 -0.42647358844258421 0 -0.2587952195953554 -0.40108476051777642 0 -0.27074332601437812 -0.42289231484136219 0 -0.2587952195953554 -0.40108476051777642 0 -0.27074332601437812 -0.42289231484136219 0 -0.25417867060223581 -0.41224085549472628 0 -0.25417867060223581 -0.41224085549472628 0 -0.25500435141488459 -0.42647358844258421 0 -0.24199914333254491 -0.41378716747155198 0 -0.25500435141488459 -0.42647358844258421 0 -0.25171631467813649 -0.43906976540733422 0 -0.26778451497855338 -0.43869030485464039 0 -0.27074332601437812 -0.42289231484136219 0 -0.25500435141488459 -0.42647358844258421 0 -0.26778451497855338 -0.43869030485464039 0 -0.25171631467813649 -0.43906976540733422 0 -0.26006893567813982 -0.4523677528345128 0 -0.26778451497855338 -0.43869030485464039 0 -0.26006893567813982 -0.4523677528345128 0 -0.27085340498660893 -0.46520383866708298 0 -0.24739523038518019 -0.46328584742407952 0 -0.26006893567813982 -0.4523677528345128 0 -0.27085340498660893 -0.46520383866708298 0 -0.28269143243340072 -0.44469986916494803 0 -0.26006893567813982 -0.4523677528345128 0 -0.26778451497855338 -0.43869030485464039 0 -0.28269143243340072 -0.44469986916494803 0 -0.28269143243340072 -0.44469986916494803 0 -0.29659913400670129 -0.43798316446626068 0 -0.30429573946673122 -0.44693194339732012 0 -0.28269143243340072 -0.44469986916494803 0 -0.29463953885242328 -0.46650742348853369 0 -0.30429573946673122 -0.44693194339732012 0 -0.28399505175834588 -0.43035655322377242 0 -0.28269143243340072 -0.44469986916494803 0 -0.29659913400670129 -0.43798316446626068 0 -0.28269143243340072 -0.44469986916494803 0 -0.29463953885242328 -0.46650742348853369 0 -0.27085340498660893 -0.46520383866708298 0 -0.28269143243340072 -0.44469986916494803 0 -0.29463953885242328 -0.46650742348853369 0 -0.3191433478104248 -0.46044869594256538 0 -0.29463953885242328 -0.46650742348853369 0 -0.30429573946673122 -0.44693194339732012 0 -0.32208103028772089 -0.44055069070924718 0 -0.31061995340971632 -0.43140181661236549 0 -0.30429573946673122 -0.44693194339732012 0 -0.31061995340971632 -0.43140181661236549 0 -0.29659913400670129 -0.43798316446626068 0 -0.30429573946673122 -0.44693194339732012 0 -0.32211003203688432 -0.5 0 -0.30994407380466671 -0.48096367657830458 0 -0.29348626125064847 -0.5 0 -0.3191433478104248 -0.46044869594256538 0 -0.29463953885242328 -0.46650742348853369 0 -0.30994407380466671 -0.48096367657830458 0 -0.27085340498660893 -0.46520383866708298 0 -0.29463953885242328 -0.46650742348853369 0 -0.28160644913557081 -0.48271431823447009 0 -0.29463953885242328 -0.46650742348853369 0 -0.30994407380466671 -0.48096367657830458 0 -0.28160644913557081 -0.48271431823447009 0 -0.30994407380466671 -0.48096367657830458 0 -0.28160644913557081 -0.48271431823447009 0 -0.29348626125064847 -0.5 0 -0.28160644913557081 -0.48271431823447009 0 -0.2537500930603574 -0.48290225359272387 0 -0.26486249046441268 -0.5 0 -0.28160644913557081 -0.48271431823447009 0 -0.29348626125064847 -0.5 0 -0.26486249046441268 -0.5 0 -0.27085340498660893 -0.46520383866708298 0 -0.28160644913557081 -0.48271431823447009 0 -0.2537500930603574 -0.48290225359272387 0 -0.27085340498660893 -0.46520383866708298 0 -0.2537500930603574 -0.48290225359272387 0 -0.24739523038518019 -0.46328584742407952 0 -0.2537500930603574 -0.48290225359272387 0 -0.26486249046441268 -0.5 0 -0.236238719678177 -0.5 0 -0.2537500930603574 -0.48290225359272387 0 -0.236238719678177 -0.5 0 -0.23528755691145581 -0.47703240510716421 0 -0.2537500930603574 -0.48290225359272387 0 -0.23528755691145581 -0.47703240510716421 0 -0.24739523038518019 -0.46328584742407952 0 -0.23528755691145581 -0.47703240510716421 0 -0.22552405869078671 -0.45898879620092092 0 -0.21597905223370059 -0.47841324099799382 0 -0.236238719678177 -0.5 0 -0.23528755691145581 -0.47703240510716421 0 -0.21597905223370059 -0.47841324099799382 0 -0.236238719678177 -0.5 0 -0.20761494889194129 -0.5 0 -0.21597905223370059 -0.47841324099799382 0 -0.25171631467813649 -0.43906976540733422 0 -0.26006893567813982 -0.4523677528345128 0 -0.23769405472741681 -0.44588064314432069 0 -0.25171631467813649 -0.43906976540733422 0 -0.23769405472741681 -0.44588064314432069 0 -0.2395712542483166 -0.42940029292832937 0 -0.23528755691145581 -0.47703240510716421 0 -0.24739523038518019 -0.46328584742407952 0 -0.22552405869078671 -0.45898879620092092 0 -0.23769405472741681 -0.44588064314432069 0 -0.24739523038518019 -0.46328584742407952 0 -0.22552405869078671 -0.45898879620092092 0 -0.26006893567813982 -0.4523677528345128 0 -0.23769405472741681 -0.44588064314432069 0 -0.24739523038518019 -0.46328584742407952 0 -0.23769405472741681 -0.44588064314432069 0 -0.21765572178242551 -0.44423421048160178 0 -0.22645387052371699 -0.43348283434768747 0 -0.23769405472741681 -0.44588064314432069 0 -0.22552405869078671 -0.45898879620092092 0 -0.21765572178242551 -0.44423421048160178 0 -0.21765572178242551 -0.44423421048160178 0 -0.20298872318819669 -0.45904457360745848 0 -0.19959551259025429 -0.43854116560985129 0 -0.22552405869078671 -0.45898879620092092 0 -0.20298872318819669 -0.45904457360745848 0 -0.21597905223370059 -0.47841324099799382 0 -0.22552405869078671 -0.45898879620092092 0 -0.21765572178242551 -0.44423421048160178 0 -0.20298872318819669 -0.45904457360745848 0 -0.20298872318819669 -0.45904457360745848 0 -0.18369785441371109 -0.4643977703554103 0 -0.1829407859216238 -0.44512625273237227 0 -0.20298872318819669 -0.45904457360745848 0 -0.1941144887403832 -0.48235527443954412 0 -0.18369785441371109 -0.4643977703554103 0 -0.20298872318819669 -0.45904457360745848 0 -0.19959551259025429 -0.43854116560985129 0 -0.1829407859216238 -0.44512625273237227 0 -0.20761494889194129 -0.5 0 -0.21597905223370059 -0.47841324099799382 0 -0.1941144887403832 -0.48235527443954412 0 -0.20298872318819669 -0.45904457360745848 0 -0.21597905223370059 -0.47841324099799382 0 -0.1941144887403832 -0.48235527443954412 0 -0.20761494889194129 -0.5 0 -0.1941144887403832 -0.48235527443954412 0 -0.1789911781057055 -0.5 0 -0.1941144887403832 -0.48235527443954412 0 -0.1789911781057055 -0.5 0 -0.16644976091561031 -0.47509896845030603 0 -0.1789911781057055 -0.5 0 -0.16644976091561031 -0.47509896845030603 0 -0.15036740731946971 -0.5 0 -0.1941144887403832 -0.48235527443954412 0 -0.16644976091561031 -0.47509896845030603 0 -0.18369785441371109 -0.4643977703554103 0 -0.18369785441371109 -0.4643977703554103 0 -0.1829407859216238 -0.44512625273237227 0 -0.16754727925037899 -0.45331648430343557 0 -0.16644976091561031 -0.47509896845030603 0 -0.18369785441371109 -0.4643977703554103 0 -0.16754727925037899 -0.45331648430343557 0 -0.16754727925037899 -0.45331648430343557 0 -0.14799287879877401 -0.4548819019678112 0 -0.16232780316483791 -0.4330095277386013 0 -0.1829407859216238 -0.44512625273237227 0 -0.16754727925037899 -0.45331648430343557 0 -0.16232780316483791 -0.4330095277386013 0 -0.16644976091561031 -0.47509896845030603 0 -0.16754727925037899 -0.45331648430343557 0 -0.14799287879877401 -0.4548819019678112 0 -0.14799287879877401 -0.4548819019678112 0 -0.16232780316483791 -0.4330095277386013 0 -0.14799287879877401 -0.4548819019678112 0 -0.13127005720907819 -0.43109628490700719 0 -0.16232780316483791 -0.4330095277386013 0 -0.14799287879877401 -0.4548819019678112 0 -0.1275588856758908 -0.45503704772575038 0 -0.13127005720907819 -0.43109628490700719 0 -0.1275588856758908 -0.45503704772575038 0 -0.1340485458086379 -0.47628554922756372 0 -0.1147096293411029 -0.46571286975442222 0 -0.14799287879877401 -0.4548819019678112 0 -0.1275588856758908 -0.45503704772575038 0 -0.1340485458086379 -0.47628554922756372 0 -0.16644976091561031 -0.47509896845030603 0 -0.1340485458086379 -0.47628554922756372 0 -0.15036740731946971 -0.5 0 -0.16644976091561031 -0.47509896845030603 0 -0.14799287879877401 -0.4548819019678112 0 -0.1340485458086379 -0.47628554922756372 0 -0.1340485458086379 -0.47628554922756372 0 -0.15036740731946971 -0.5 0 -0.121743636533234 -0.5 0 -0.14763499228501931 -0.40358541348166871 0 -0.1486346678872108 -0.38328351094907459 0 -0.16326575244030311 -0.3860933809749314 0 -0.14763499228501931 -0.40358541348166871 0 -0.1486346678872108 -0.38328351094907459 0 -0.13376914947380869 -0.38240564089922952 0 -0.1486346678872108 -0.38328351094907459 0 -0.13376914947380869 -0.38240564089922952 0 -0.1498687773497123 -0.36104960844046918 0 -0.1486346678872108 -0.38328351094907459 0 -0.16326575244030311 -0.3860933809749314 0 -0.1498687773497123 -0.36104960844046918 0 -0.14763499228501931 -0.40358541348166871 0 -0.13376914947380869 -0.38240564089922952 0 -0.117669521597904 -0.40376167335798901 0 -0.13376914947380869 -0.38240564089922952 0 -0.117669521597904 -0.40376167335798901 0 -0.14763499228501931 -0.40358541348166871 0 -0.13127005720907819 -0.43109628490700719 0 -0.117669521597904 -0.40376167335798901 0 -0.14763499228501931 -0.40358541348166871 0 -0.13127005720907819 -0.43109628490700719 0 -0.16232780316483791 -0.4330095277386013 0 -0.14763499228501931 -0.40358541348166871 0 -0.16232780316483791 -0.4330095277386013 0 -0.17666272753090029 -0.41113715350939029 0 -0.16232780316483791 -0.4330095277386013 0 -0.17666272753090029 -0.41113715350939029 0 -0.1829407859216238 -0.44512625273237227 0 -0.16232780316483791 -0.4330095277386013 0 -0.1841673466355235 -0.42516599005966671 0 -0.16232780316483791 -0.4330095277386013 0 -0.1841673466355235 -0.42516599005966671 0 -0.17666272753090029 -0.41113715350939029 0 -0.1841673466355235 -0.42516599005966671 0 -0.17666272753090029 -0.41113715350939029 0 -0.1948774637021517 -0.41020118363147812 0 -0.1841673466355235 -0.42516599005966671 0 -0.17666272753090029 -0.41113715350939029 0 -0.17666272753090029 -0.41113715350939029 0 -0.1925743714554638 -0.38685900444961252 0 -0.17666272753090029 -0.41113715350939029 0 -0.16326575244030311 -0.3860933809749314 0 -0.1925743714554638 -0.38685900444961252 0 -0.14763499228501931 -0.40358541348166871 0 -0.17666272753090029 -0.41113715350939029 0 -0.16326575244030311 -0.3860933809749314 0 -0.17666272753090029 -0.41113715350939029 0 -0.16326575244030311 -0.3860933809749314 0 -0.16326575244030311 -0.3860933809749314 0 -0.16423759391237089 -0.36691526723147527 0 -0.1774134451485132 -0.37295332569840411 0 -0.16326575244030311 -0.3860933809749314 0 -0.1925743714554638 -0.38685900444961252 0 -0.1774134451485132 -0.37295332569840411 0 -0.1925743714554638 -0.38685900444961252 0 -0.21106617832463209 -0.40034419956193118 0 -0.1948774637021517 -0.41020118363147812 0 -0.17666272753090029 -0.41113715350939029 0 -0.1925743714554638 -0.38685900444961252 0 -0.1948774637021517 -0.41020118363147812 0 -0.1925743714554638 -0.38685900444961252 0 -0.21106617832463209 -0.40034419956193118 0 -0.21937829079088189 -0.38135733981019948 0 -0.1925743714554638 -0.38685900444961252 0 -0.21937829079088189 -0.38135733981019948 0 -0.20848601538002581 -0.36258085538983381 0 -0.19959551259025429 -0.43854116560985129 0 -0.1829407859216238 -0.44512625273237227 0 -0.1841673466355235 -0.42516599005966671 0 -0.19959551259025429 -0.43854116560985129 0 -0.1841673466355235 -0.42516599005966671 0 -0.19978792743919399 -0.42386278921403991 0 -0.19978792743919399 -0.42386278921403991 0 -0.1948774637021517 -0.41020118363147812 0 -0.20761407511570451 -0.41607374110942091 0 -0.1841673466355235 -0.42516599005966671 0 -0.19978792743919399 -0.42386278921403991 0 -0.1948774637021517 -0.41020118363147812 0 -0.21106617832463209 -0.40034419956193118 0 -0.1948774637021517 -0.41020118363147812 0 -0.20761407511570451 -0.41607374110942091 0 -0.20761407511570451 -0.41607374110942091 0 -0.21268523915233631 -0.42933186565978249 0 -0.22455979081319999 -0.41770775875649818 0 -0.21106617832463209 -0.40034419956193118 0 -0.20761407511570451 -0.41607374110942091 0 -0.22455979081319999 -0.41770775875649818 0 -0.21765572178242551 -0.44423421048160178 0 -0.19959551259025429 -0.43854116560985129 0 -0.21268523915233631 -0.42933186565978249 0 -0.19978792743919399 -0.42386278921403991 0 -0.20761407511570451 -0.41607374110942091 0 -0.21268523915233631 -0.42933186565978249 0 -0.19959551259025429 -0.43854116560985129 0 -0.19978792743919399 -0.42386278921403991 0 -0.21268523915233631 -0.42933186565978249 0 -0.21268523915233631 -0.42933186565978249 0 -0.22645387052371699 -0.43348283434768747 0 -0.22455979081319999 -0.41770775875649818 0 -0.22645387052371699 -0.43348283434768747 0 -0.22455979081319999 -0.41770775875649818 0 -0.2395712542483166 -0.42940029292832937 0 -0.21765572178242551 -0.44423421048160178 0 -0.21268523915233631 -0.42933186565978249 0 -0.22645387052371699 -0.43348283434768747 0 -0.22455979081319999 -0.41770775875649818 0 -0.24199914333254491 -0.41378716747155198 0 -0.23008302452814561 -0.39983880230311658 0 -0.22455979081319999 -0.41770775875649818 0 -0.24199914333254491 -0.41378716747155198 0 -0.2395712542483166 -0.42940029292832937 0 -0.25417867060223581 -0.41224085549472628 0 -0.24199914333254491 -0.41378716747155198 0 -0.24435131265401619 -0.39696644620035698 0 -0.23769405472741681 -0.44588064314432069 0 -0.22645387052371699 -0.43348283434768747 0 -0.2395712542483166 -0.42940029292832937 0 -0.25500435141488459 -0.42647358844258421 0 -0.24199914333254491 -0.41378716747155198 0 -0.2395712542483166 -0.42940029292832937 0 -0.25500435141488459 -0.42647358844258421 0 -0.25171631467813649 -0.43906976540733422 0 -0.2395712542483166 -0.42940029292832937 0 -0.21937829079088189 -0.38135733981019948 0 -0.23524228652297771 -0.38553437579887029 0 -0.2351525813665889 -0.37203584290311609 0 -0.21937829079088189 -0.38135733981019948 0 -0.23008302452814561 -0.39983880230311658 0 -0.23524228652297771 -0.38553437579887029 0 -0.21106617832463209 -0.40034419956193118 0 -0.22455979081319999 -0.41770775875649818 0 -0.23008302452814561 -0.39983880230311658 0 -0.21106617832463209 -0.40034419956193118 0 -0.21937829079088189 -0.38135733981019948 0 -0.23008302452814561 -0.39983880230311658 0 -0.23008302452814561 -0.39983880230311658 0 -0.24435131265401619 -0.39696644620035698 0 -0.23524228652297771 -0.38553437579887029 0 -0.24199914333254491 -0.41378716747155198 0 -0.23008302452814561 -0.39983880230311658 0 -0.24435131265401619 -0.39696644620035698 0 -0.24435131265401619 -0.39696644620035698 0 -0.23524228652297771 -0.38553437579887029 0 -0.24684711317633279 -0.37927720619419059 0 -0.23524228652297771 -0.38553437579887029 0 -0.24684711317633279 -0.37927720619419059 0 -0.2351525813665889 -0.37203584290311609 0 -0.24684711317633279 -0.37927720619419059 0 -0.23489900675730879 -0.35746965187060559 0 -0.24684711317633279 -0.37927720619419059 0 -0.24916925417826569 -0.36453323253943959 0 -0.23489900675730879 -0.35746965187060559 0 -0.24684711317633279 -0.37927720619419059 0 -0.2351525813665889 -0.37203584290311609 0 -0.23489900675730879 -0.35746965187060559 0 -0.2351525813665889 -0.37203584290311609 0 -0.23177842966052509 -0.36391621969798171 0 -0.22443045105120421 -0.3676455406038881 0 -0.22443045105120421 -0.3676455406038881 0 -0.2326316794669985 -0.35851384341431702 0 -0.20848601538002581 -0.36258085538983381 0 -0.21937829079088189 -0.38135733981019948 0 -0.2351525813665889 -0.37203584290311609 0 -0.22443045105120421 -0.3676455406038881 0 -0.2351525813665889 -0.37203584290311609 0 -0.23177842966052509 -0.36391621969798171 0 -0.23489900675730879 -0.35746965187060559 0 -0.23177842966052509 -0.36391621969798171 0 -0.22443045105120421 -0.3676455406038881 0 -0.2326316794669985 -0.35851384341431702 0 -0.23177842966052509 -0.36391621969798171 0 -0.2326316794669985 -0.35851384341431702 0 -0.23489900675730879 -0.35746965187060559 0 -0.2326316794669985 -0.35851384341431702 0 -0.22439765930458769 -0.33830270633005471 0 -0.20848601538002581 -0.36258085538983381 0 -0.23489900675730879 -0.35746965187060559 0 -0.22439765930458769 -0.33830270633005471 0 -0.23918722283801711 -0.34535736982651988 0 -0.23489900675730879 -0.35746965187060559 0 -0.22439765930458769 -0.33830270633005471 0 -0.2326316794669985 -0.35851384341431702 0 -0.23489900675730879 -0.35746965187060559 0 -0.22439765930458769 -0.33830270633005471 0 -0.2326316794669985 -0.35851384341431702 0 -0.23489900675730879 -0.35746965187060559 0 -0.25187492187299759 -0.34965158912936961 0 -0.23489900675730879 -0.35746965187060559 0 -0.25187492187299759 -0.34965158912936961 0 -0.23918722283801711 -0.34535736982651988 0 -0.23489900675730879 -0.35746965187060559 0 -0.25187492187299759 -0.34965158912936961 0 -0.24916925417826569 -0.36453323253943959 0 -0.23489900675730879 -0.35746965187060559 0 -0.24426617702210471 -0.33462410430735418 0 -0.23665743217121341 -0.31959661948533802 0 -0.22439765930458769 -0.33830270633005471 0 -0.25187492187299759 -0.34965158912936961 0 -0.23918722283801711 -0.34535736982651988 0 -0.24426617702210471 -0.33462410430735418 0 -0.23918722283801711 -0.34535736982651988 0 -0.24426617702210471 -0.33462410430735418 0 -0.22439765930458769 -0.33830270633005471 0 -0.25187492187299759 -0.34965158912936961 0 -0.24426617702210471 -0.33462410430735418 0 -0.25085064765768822 -0.32073337649308842 0 -0.25045377421465592 -0.29854601967312189 0 -0.23665743217121341 -0.31959661948533802 0 -0.25085064765768822 -0.32073337649308842 0 -0.24426617702210471 -0.33462410430735418 0 -0.23665743217121341 -0.31959661948533802 0 -0.24426617702210471 -0.33462410430735418 0 -0.23665743217121341 -0.31959661948533802 0 -0.23665743217121341 -0.31959661948533802 0 -0.23589864074222441 -0.31809798509745468 0 -0.23665743217121341 -0.31959661948533802 0 -0.23589864074222441 -0.31809798509745468 0 -0.22439765930458769 -0.33830270633005471 0 -0.23589864074222441 -0.31809798509745468 0 -0.22439765930458769 -0.33830270633005471 0 -0.2127912109311432 -0.31711874256783051 0 -0.23665743217121341 -0.31959661948533802 0 -0.22439765930458769 -0.33830270633005471 0 -0.22439765930458769 -0.33830270633005471 0 -0.20705449191980421 -0.33403332566107408 0 -0.2127912109311432 -0.31711874256783051 0 -0.22439765930458769 -0.33830270633005471 0 -0.2127912109311432 -0.31711874256783051 0 -0.20705449191980421 -0.33403332566107408 0 -0.2127912109311432 -0.31711874256783051 0 -0.19598176242049839 -0.31255694350972463 0 -0.20705449191980421 -0.33403332566107408 0 -0.19598176242049839 -0.31255694350972463 0 -0.18092688492746761 -0.32131583804889952 0 -0.20705449191980421 -0.33403332566107408 0 -0.19119057616129759 -0.34223998411871048 0 -0.18092688492746761 -0.32131583804889952 0 -0.20705449191980421 -0.33403332566107408 0 -0.19119057616129759 -0.34223998411871048 0 -0.20848601538002581 -0.36258085538983381 0 -0.19119057616129759 -0.34223998411871048 0 -0.18998415287208709 -0.36078920192556008 0 -0.20848601538002581 -0.36258085538983381 0 -0.1925743714554638 -0.38685900444961252 0 -0.20848601538002581 -0.36258085538983381 0 -0.1925743714554638 -0.38685900444961252 0 -0.18998415287208709 -0.36078920192556008 0 -0.20848601538002581 -0.36258085538983381 0 -0.21937829079088189 -0.38135733981019948 0 -0.22443045105120421 -0.3676455406038881 0 -0.20848601538002581 -0.36258085538983381 0 -0.22439765930458769 -0.33830270633005471 0 -0.20705449191980421 -0.33403332566107408 0 -0.20848601538002581 -0.36258085538983381 0 -0.22439765930458769 -0.33830270633005471 0 -0.20848601538002581 -0.36258085538983381 0 -0.2223369626768916 -0.26340524764217688 0 -0.23592948902621311 -0.2477715507551034 0 -0.2215532654752311 -0.24133106905983459 0 -0.2223369626768916 -0.26340524764217688 0 -0.23679834765547991 -0.26494319929396648 0 -0.23592948902621311 -0.2477715507551034 0 -0.25168388931481372 -0.26752118516170359 0 -0.23592948902621311 -0.2477715507551034 0 -0.25741499207255808 -0.2468477206326791 0 -0.25168388931481372 -0.26752118516170359 0 -0.23679834765547991 -0.26494319929396648 0 -0.23592948902621311 -0.2477715507551034 0 -0.25168388931481372 -0.26752118516170359 0 -0.23679834765547991 -0.26494319929396648 0 -0.23830700692626269 -0.27997480961457749 0 -0.2223369626768916 -0.26340524764217688 0 -0.23830700692626269 -0.27997480961457749 0 -0.2154217922422037 -0.28225115606289991 0 -0.2223369626768916 -0.26340524764217688 0 -0.23679834765547991 -0.26494319929396648 0 -0.23830700692626269 -0.27997480961457749 0 -0.23830700692626269 -0.27997480961457749 0 -0.22852333204159059 -0.30152275761670611 0 -0.2154217922422037 -0.28225115606289991 0 -0.25045377421465592 -0.29854601967312189 0 -0.2601826827707801 -0.28370155148151111 0 -0.23830700692626269 -0.27997480961457749 0 -0.25045377421465592 -0.29854601967312189 0 -0.23830700692626269 -0.27997480961457749 0 -0.22852333204159059 -0.30152275761670611 0 -0.25045377421465592 -0.29854601967312189 0 -0.23665743217121341 -0.31959661948533802 0 -0.23589864074222441 -0.31809798509745468 0 -0.25045377421465592 -0.29854601967312189 0 -0.23589864074222441 -0.31809798509745468 0 -0.22852333204159059 -0.30152275761670611 0 -0.25045377421465592 -0.29854601967312189 0 -0.23665743217121341 -0.31959661948533802 0 -0.25045377421465592 -0.29854601967312189 0 -0.22852333204159059 -0.30152275761670611 0 -0.23589864074222441 -0.31809798509745468 0 -0.2127912109311432 -0.31711874256783051 0 -0.22852333204159059 -0.30152275761670611 0 -0.2127912109311432 -0.31711874256783051 0 -0.19598176242049839 -0.31255694350972463 0 -0.2011847625576991 -0.2959347788056062 0 -0.2127912109311432 -0.31711874256783051 0 -0.2011847625576991 -0.2959347788056062 0 -0.2127912109311432 -0.31711874256783051 0 -0.22852333204159059 -0.30152275761670611 0 -0.2011847625576991 -0.2959347788056062 0 -0.19598176242049839 -0.31255694350972463 0 -0.2011847625576991 -0.2959347788056062 0 -0.17755397369752429 -0.29610081000198102 0 -0.2011847625576991 -0.2959347788056062 0 -0.1925456435568299 -0.28141253501531249 0 -0.17755397369752429 -0.29610081000198102 0 -0.2011847625576991 -0.2959347788056062 0 -0.1925456435568299 -0.28141253501531249 0 -0.2154217922422037 -0.28225115606289991 0 -0.22852333204159059 -0.30152275761670611 0 -0.2011847625576991 -0.2959347788056062 0 -0.2154217922422037 -0.28225115606289991 0 -0.2223369626768916 -0.26340524764217688 0 -0.2154217922422037 -0.28225115606289991 0 -0.20045662512016379 -0.26614766917631688 0 -0.1925456435568299 -0.28141253501531249 0 -0.2154217922422037 -0.28225115606289991 0 -0.20045662512016379 -0.26614766917631688 0 -0.1925456435568299 -0.28141253501531249 0 -0.20045662512016379 -0.26614766917631688 0 -0.17775500553109469 -0.26879409258934228 0 -0.20045662512016379 -0.26614766917631688 0 -0.18821041320015461 -0.25321495835273289 0 -0.20427737249766981 -0.24797899690480421 0 -0.20045662512016379 -0.26614766917631688 0 -0.18821041320015461 -0.25321495835273289 0 -0.17775500553109469 -0.26879409258934228 0 -0.2223369626768916 -0.26340524764217688 0 -0.20427737249766981 -0.24797899690480421 0 -0.2215532654752311 -0.24133106905983459 0 -0.2223369626768916 -0.26340524764217688 0 -0.20045662512016379 -0.26614766917631688 0 -0.20427737249766981 -0.24797899690480421 0 -0.17775500553109469 -0.26879409258934228 0 -0.1549563994126926 -0.25638117026728369 0 -0.1711511126820103 -0.2454622828759119 0 -0.18821041320015461 -0.25321495835273289 0 -0.17775500553109469 -0.26879409258934228 0 -0.1711511126820103 -0.2454622828759119 0 -0.17775500553109469 -0.26879409258934228 0 -0.1608329437932019 -0.27742088269070159 0 -0.17755397369752429 -0.29610081000198102 0 -0.17775500553109469 -0.26879409258934228 0 -0.1608329437932019 -0.27742088269070159 0 -0.1549563994126926 -0.25638117026728369 0 -0.1608329437932019 -0.27742088269070159 0 -0.17755397369752429 -0.29610081000198102 0 -0.15160666793889821 -0.29410269447864268 0 -0.1925456435568299 -0.28141253501531249 0 -0.17775500553109469 -0.26879409258934228 0 -0.17755397369752429 -0.29610081000198102 0 -0.19598176242049839 -0.31255694350972463 0 -0.17755397369752429 -0.29610081000198102 0 -0.18092688492746761 -0.32131583804889952 0 -0.17755397369752429 -0.29610081000198102 0 -0.18092688492746761 -0.32131583804889952 0 -0.15820647411384761 -0.31612486714216748 0 -0.17755397369752429 -0.29610081000198102 0 -0.15160666793889821 -0.29410269447864268 0 -0.15820647411384761 -0.31612486714216748 0 -0.13793716205361531 -0.30677980464637677 0 -0.15160666793889821 -0.29410269447864268 0 -0.15820647411384761 -0.31612486714216748 0 -0.15160666793889821 -0.29410269447864268 0 -0.15820647411384761 -0.31612486714216748 0 -0.13793716205361531 -0.30677980464637677 0 -0.127923637138078 -0.28508341202542198 0 -0.1178436779573809 -0.30118316104085668 0 -0.13793716205361531 -0.30677980464637677 0 -0.12844019263109599 -0.32099186422587062 0 -0.1178436779573809 -0.30118316104085668 0 -0.13793716205361531 -0.30677980464637677 0 -0.127923637138078 -0.28508341202542198 0 -0.15160666793889821 -0.29410269447864268 0 -0.127923637138078 -0.28508341202542198 0 -0.15160666793889821 -0.29410269447864268 0 -0.1450068617639487 -0.27208052181511783 0 -0.15160666793889821 -0.29410269447864268 0 -0.1450068617639487 -0.27208052181511783 0 -0.1608329437932019 -0.27742088269070159 0 -0.1450068617639487 -0.27208052181511783 0 -0.1549563994126926 -0.25638117026728369 0 -0.1608329437932019 -0.27742088269070159 0 -0.15160666793889821 -0.29410269447864268 0 -0.1450068617639487 -0.27208052181511783 0 -0.127923637138078 -0.28508341202542198 0 -0.1450068617639487 -0.27208052181511783 0 -0.1237068476627313 -0.26448705861867527 0 -0.1237068476627313 -0.26448705861867527 0 -0.11808015724625499 -0.2469318776918972 0 -0.13696654556145929 -0.2465802172165627 0 -0.1450068617639487 -0.27208052181511783 0 -0.1237068476627313 -0.26448705861867527 0 -0.13696654556145929 -0.2465802172165627 0 -0.1450068617639487 -0.27208052181511783 0 -0.1549563994126926 -0.25638117026728369 0 -0.13696654556145929 -0.2465802172165627 0 -0.15643427386028219 -0.35234052785374242 0 -0.1714060864637465 -0.36016921246921701 0 -0.1648062802887971 -0.33814703980569222 0 -0.1714060864637465 -0.36016921246921701 0 -0.17885357167860319 -0.34698431648685962 0 -0.1648062802887971 -0.33814703980569222 0 -0.1714060864637465 -0.36016921246921701 0 -0.1648062802887971 -0.33814703980569222 0 -0.16326575244030311 -0.3860933809749314 0 -0.16423759391237089 -0.36691526723147527 0 -0.1498687773497123 -0.36104960844046918 0 -0.16326575244030311 -0.3860933809749314 0 -0.1498687773497123 -0.36104960844046918 0 -0.15643427386028219 -0.35234052785374242 0 -0.16423759391237089 -0.36691526723147527 0 -0.1714060864637465 -0.36016921246921701 0 -0.15643427386028219 -0.35234052785374242 0 -0.16423759391237089 -0.36691526723147527 0 -0.1498687773497123 -0.36104960844046918 0 -0.16423759391237089 -0.36691526723147527 0 -0.1714060864637465 -0.36016921246921701 0 -0.1774134451485132 -0.37295332569840411 0 -0.1925743714554638 -0.38685900444961252 0 -0.18998415287208709 -0.36078920192556008 0 -0.1774134451485132 -0.37295332569840411 0 -0.18998415287208709 -0.36078920192556008 0 -0.1714060864637465 -0.36016921246921701 0 -0.1774134451485132 -0.37295332569840411 0 -0.19119057616129759 -0.34223998411871048 0 -0.18998415287208709 -0.36078920192556008 0 -0.17885357167860319 -0.34698431648685962 0 -0.18998415287208709 -0.36078920192556008 0 -0.1714060864637465 -0.36016921246921701 0 -0.17885357167860319 -0.34698431648685962 0 -0.19119057616129759 -0.34223998411871048 0 -0.17885357167860319 -0.34698431648685962 0 -0.17688076260708741 -0.33357614411511782 0 -0.19119057616129759 -0.34223998411871048 0 -0.17688076260708741 -0.33357614411511782 0 -0.18092688492746761 -0.32131583804889952 0 -0.17885357167860319 -0.34698431648685962 0 -0.17688076260708741 -0.33357614411511782 0 -0.1648062802887971 -0.33814703980569222 0 -0.17688076260708741 -0.33357614411511782 0 -0.18092688492746761 -0.32131583804889952 0 -0.15820647411384761 -0.31612486714216748 0 -0.15820647411384761 -0.31612486714216748 0 -0.1648062802887971 -0.33814703980569222 0 -0.17688076260708741 -0.33357614411511782 0 -0.15820647411384761 -0.31612486714216748 0 -0.1648062802887971 -0.33814703980569222 0 -0.15820647411384761 -0.31612486714216748 0 -0.1648062802887971 -0.33814703980569222 0 -0.1509154437981278 -0.33671999184938728 0 -0.15643427386028219 -0.35234052785374242 0 -0.1648062802887971 -0.33814703980569222 0 -0.1509154437981278 -0.33671999184938728 0 -0.1509154437981278 -0.33671999184938728 0 -0.143602322542391 -0.3231928289653016 0 -0.13903670730481321 -0.34080056741088322 0 -0.1509154437981278 -0.33671999184938728 0 -0.13903670730481321 -0.34080056741088322 0 -0.1509154437981278 -0.33671999184938728 0 -0.13903670730481321 -0.34080056741088322 0 -0.14906380057823379 -0.34772767388862053 0 -0.13793716205361531 -0.30677980464637677 0 -0.15820647411384761 -0.31612486714216748 0 -0.143602322542391 -0.3231928289653016 0 -0.15820647411384761 -0.31612486714216748 0 -0.1509154437981278 -0.33671999184938728 0 -0.143602322542391 -0.3231928289653016 0 -0.13793716205361531 -0.30677980464637677 0 -0.143602322542391 -0.3231928289653016 0 -0.12844019263109599 -0.32099186422587062 0 -0.143602322542391 -0.3231928289653016 0 -0.12844019263109599 -0.32099186422587062 0 -0.13903670730481321 -0.34080056741088322 0 -0.12844019263109599 -0.32099186422587062 0 -0.13903670730481321 -0.34080056741088322 0 -0.1259096577359243 -0.3341235456274334 0 -0.12844019263109599 -0.32099186422587062 0 -0.13903670730481321 -0.34080056741088322 0 -0.13903670730481321 -0.34080056741088322 0 -0.1259096577359243 -0.3341235456274334 0 -0.1285656599401192 -0.34164394966096218 0 -0.13903670730481321 -0.34080056741088322 0 -0.13125072284716 -0.35812326904031339 0 -0.121857890254603 -0.35466205339155121 0 -0.13903670730481321 -0.34080056741088322 0 -0.1285656599401192 -0.34164394966096218 0 -0.113687377536278 -0.34950855210369852 0 -0.13903670730481321 -0.34080056741088322 0 -0.13125072284716 -0.35812326904031339 0 -0.1498687773497123 -0.36104960844046918 0 -0.13903670730481321 -0.34080056741088322 0 -0.113687377536278 -0.34950855210369852 0 -0.13903670730481321 -0.34080056741088322 0 -0.1498687773497123 -0.36104960844046918 0 -0.13903670730481321 -0.34080056741088322 0 -0.14906380057823379 -0.34772767388862053 0 -0.1498687773497123 -0.36104960844046918 0 -0.15643427386028219 -0.35234052785374242 0 -0.1498687773497123 -0.36104960844046918 0 -0.15643427386028219 -0.35234052785374242 0 -0.14906380057823379 -0.34772767388862053 0 -0.1498687773497123 -0.36104960844046918 0 -0.15643427386028219 -0.35234052785374242 0 -0.1509154437981278 -0.33671999184938728 0 -0.14906380057823379 -0.34772767388862053 0 -0.13376914947380869 -0.38240564089922952 0 -0.1498687773497123 -0.36104960844046918 0 -0.13125072284716 -0.35812326904031339 0 -0.1498687773497123 -0.36104960844046918 0 -0.12619815888375349 -0.37141732307028719 0 -0.13376914947380869 -0.38240564089922952 0 -0.1498687773497123 -0.36104960844046918 0 -0.12619815888375349 -0.37141732307028719 0 -0.13125072284716 -0.35812326904031339 0 -0.12619815888375349 -0.37141732307028719 0 -0.1185053701245844 -0.36337054499012222 0 -0.12619815888375349 -0.37141732307028719 0 -0.1185053701245844 -0.36337054499012222 0 -0.1112571933738904 -0.37385256917993742 0 -0.1185053701245844 -0.36337054499012222 0 -0.1091856426071347 -0.36553884580645168 0 -0.1110996167737615 -0.35811950586732888 0 -0.1185053701245844 -0.36337054499012222 0 -0.1112571933738904 -0.37385256917993742 0 -0.1091856426071347 -0.36553884580645168 0 -0.1112571933738904 -0.37385256917993742 0 -0.1018914545828679 -0.36962519423259399 0 -0.1091856426071347 -0.36553884580645168 0 -0.1091856426071347 -0.36553884580645168 0 -0.1031745781805691 -0.36272641476227602 0 -0.1110996167737615 -0.35811950586732888 0 -0.1031745781805691 -0.36272641476227602 0 -0.1010232255124225 -0.3589862885808997 0 -0.1110996167737615 -0.35811950586732888 0 -0.1018914545828679 -0.36962519423259399 0 -0.1091856426071347 -0.36553884580645168 0 -0.1031745781805691 -0.36272641476227602 0 -0.1018914545828679 -0.36962519423259399 0 -0.1031745781805691 -0.36272641476227602 0 -0.09650090408757786 -0.36412544740697828 0 -0.1010232255124225 -0.3589862885808997 0 -0.093338828728605786 -0.36122127454860292 0 -0.088338047767742928 -0.35821653679651411 0 -0.1031745781805691 -0.36272641476227602 0 -0.09650090408757786 -0.36412544740697828 0 -0.1010232255124225 -0.3589862885808997 0 -0.09650090408757786 -0.36412544740697828 0 -0.1010232255124225 -0.3589862885808997 0 -0.093338828728605786 -0.36122127454860292 0 -0.1018914545828679 -0.36962519423259399 0 -0.09373082316589082 -0.37181012148302339 0 -0.09809891488648112 -0.38186868850555888 0 -0.1018914545828679 -0.36962519423259399 0 -0.09650090408757786 -0.36412544740697828 0 -0.09373082316589082 -0.37181012148302339 0 -0.1068625311972481 -0.34891911451770657 0 -0.092984461200490004 -0.35044425859927908 0 -0.085159402454377101 -0.35619427937445097 0 -0.113687377536278 -0.34950855210369852 0 -0.088338047767742928 -0.35821653679651411 0 -0.1010232255124225 -0.3589862885808997 0 -0.113687377536278 -0.34950855210369852 0 -0.088338047767742928 -0.35821653679651411 0 -0.1068625311972481 -0.34891911451770657 0 -0.085159402454377101 -0.35619427937445097 0 -0.1068625311972481 -0.34891911451770657 0 -0.113687377536278 -0.34950855210369852 0 -0.088338047767742928 -0.35821653679651411 0 -0.098767574523660695 -0.34560505512341522 0 -0.1068625311972481 -0.34891911451770657 0 -0.092984461200490004 -0.35044425859927908 0 -0.098767574523660695 -0.34560505512341522 0 -0.092849285024924524 -0.34312482996851512 0 -0.092984461200490004 -0.35044425859927908 0 -0.1010232255124225 -0.3589862885808997 0 -0.113687377536278 -0.34950855210369852 0 -0.1110996167737615 -0.35811950586732888 0 -0.098767574523660695 -0.34560505512341522 0 -0.1068625311972481 -0.34891911451770657 0 -0.10237402067198011 -0.33993201740816031 0 -0.1285656599401192 -0.34164394966096218 0 -0.1068625311972481 -0.34891911451770657 0 -0.1285656599401192 -0.34164394966096218 0 -0.1068625311972481 -0.34891911451770657 0 -0.113687377536278 -0.34950855210369852 0 -0.13903670730481321 -0.34080056741088322 0 -0.113687377536278 -0.34950855210369852 0 -0.121857890254603 -0.35466205339155121 0 -0.113687377536278 -0.34950855210369852 0 -0.1110996167737615 -0.35811950586732888 0 -0.121857890254603 -0.35466205339155121 0 -0.1185053701245844 -0.36337054499012222 0 -0.1110996167737615 -0.35811950586732888 0 -0.121857890254603 -0.35466205339155121 0 -0.13125072284716 -0.35812326904031339 0 -0.1185053701245844 -0.36337054499012222 0 -0.121857890254603 -0.35466205339155121 0 -0.1259096577359243 -0.3341235456274334 0 -0.1285656599401192 -0.34164394966096218 0 -0.11576122316925019 -0.33945576154833912 0 -0.1285656599401192 -0.34164394966096218 0 -0.1068625311972481 -0.34891911451770657 0 -0.11576122316925019 -0.33945576154833912 0 -0.1259096577359243 -0.3341235456274334 0 -0.11576122316925019 -0.33945576154833912 0 -0.1177445056343427 -0.32772558529111179 0 -0.11576122316925019 -0.33945576154833912 0 -0.1177445056343427 -0.32772558529111179 0 -0.107334132842946 -0.33199394724837222 0 -0.1068625311972481 -0.34891911451770657 0 -0.11576122316925019 -0.33945576154833912 0 -0.1080829769703562 -0.34007521018064452 0 -0.11576122316925019 -0.33945576154833912 0 -0.1080829769703562 -0.34007521018064452 0 -0.107334132842946 -0.33199394724837222 0 -0.12844019263109599 -0.32099186422587062 0 -0.1129058796160243 -0.31733199835799231 0 -0.1178436779573809 -0.30118316104085668 0 -0.12844019263109599 -0.32099186422587062 0 -0.1177445056343427 -0.32772558529111179 0 -0.1129058796160243 -0.31733199835799231 0 -0.12844019263109599 -0.32099186422587062 0 -0.1259096577359243 -0.3341235456274334 0 -0.1177445056343427 -0.32772558529111179 0 -0.1177445056343427 -0.32772558529111179 0 -0.1129058796160243 -0.31733199835799231 0 -0.107334132842946 -0.33199394724837222 0 -0.1129058796160243 -0.31733199835799231 0 -0.098033938810181576 -0.32356527554347558 0 -0.1007327116538297 -0.30971028950999058 0 -0.1129058796160243 -0.31733199835799231 0 -0.098033938810181576 -0.32356527554347558 0 -0.107334132842946 -0.33199394724837222 0 -0.098033938810181576 -0.32356527554347558 0 -0.088652059634862834 -0.31807673913428941 0 -0.1007327116538297 -0.30971028950999058 0 -0.1080829769703562 -0.34007521018064452 0 -0.10237402067198011 -0.33993201740816031 0 -0.107334132842946 -0.33199394724837222 0 -0.1068625311972481 -0.34891911451770657 0 -0.1080829769703562 -0.34007521018064452 0 -0.10237402067198011 -0.33993201740816031 0 -0.10237402067198011 -0.33993201740816031 0 -0.107334132842946 -0.33199394724837222 0 -0.095655353961862893 -0.33418697996819052 0 -0.098033938810181576 -0.32356527554347558 0 -0.095655353961862893 -0.33418697996819052 0 -0.088029716814672906 -0.32874718885497112 0 -0.098033938810181576 -0.32356527554347558 0 -0.107334132842946 -0.33199394724837222 0 -0.095655353961862893 -0.33418697996819052 0 -0.098767574523660695 -0.34560505512341522 0 -0.10237402067198011 -0.33993201740816031 0 -0.092849285024924524 -0.34312482996851512 0 -0.10237402067198011 -0.33993201740816031 0 -0.095655353961862893 -0.33418697996819052 0 -0.092849285024924524 -0.34312482996851512 0 -0.095655353961862893 -0.33418697996819052 0 -0.092849285024924524 -0.34312482996851512 0 -0.085593994183176661 -0.33764873958371161 0 -0.092849285024924524 -0.34312482996851512 0 -0.085593994183176661 -0.33764873958371161 0 -0.08624520067800423 -0.34447318110950997 0 -0.095655353961862893 -0.33418697996819052 0 -0.088029716814672906 -0.32874718885497112 0 -0.085593994183176661 -0.33764873958371161 0 -0.088029716814672906 -0.32874718885497112 0 -0.085593994183176661 -0.33764873958371161 0 -0.076865282397925214 -0.33186621151016921 0 -0.085593994183176661 -0.33764873958371161 0 -0.075026114713044295 -0.34067685310217188 0 -0.076865282397925214 -0.33186621151016921 0 -0.081370738045411201 -0.34367153790127303 0 -0.085593994183176661 -0.33764873958371161 0 -0.075026114713044295 -0.34067685310217188 0 -0.081370738045411201 -0.34367153790127303 0 -0.085593994183176661 -0.33764873958371161 0 -0.08624520067800423 -0.34447318110950997 0 -0.098033938810181576 -0.32356527554347558 0 -0.088029716814672906 -0.32874718885497112 0 -0.088652059634862834 -0.31807673913428941 0 -0.088029716814672906 -0.32874718885497112 0 -0.088652059634862834 -0.31807673913428941 0 -0.080838327017069028 -0.32319167788270292 0 -0.088029716814672906 -0.32874718885497112 0 -0.080838327017069028 -0.32319167788270292 0 -0.076865282397925214 -0.33186621151016921 0 -0.088652059634862834 -0.31807673913428941 0 -0.078100819927504062 -0.31429069343154281 0 -0.086677571893623961 -0.30642113115476022 0 -0.088652059634862834 -0.31807673913428941 0 -0.080838327017069028 -0.32319167788270292 0 -0.078100819927504062 -0.31429069343154281 0 -0.078100819927504062 -0.31429069343154281 0 -0.072543756310380125 -0.32297755648254223 0 -0.066463753171253276 -0.31163794558230229 0 -0.080838327017069028 -0.32319167788270292 0 -0.078100819927504062 -0.31429069343154281 0 -0.072543756310380125 -0.32297755648254223 0 -0.080838327017069028 -0.32319167788270292 0 -0.072543756310380125 -0.32297755648254223 0 -0.076865282397925214 -0.33186621151016921 0 -0.072543756310380125 -0.32297755648254223 0 -0.065742280204007922 -0.33149802327949868 0 -0.06006222290448035 -0.32096046264570549 0 -0.072543756310380125 -0.32297755648254223 0 -0.066463753171253276 -0.31163794558230229 0 -0.06006222290448035 -0.32096046264570549 0 -0.071503704381946226 -0.33654813528754762 0 -0.075026114713044295 -0.34067685310217188 0 -0.076865282397925214 -0.33186621151016921 0 -0.071503704381946226 -0.33654813528754762 0 -0.075026114713044295 -0.34067685310217188 0 -0.068381140212807529 -0.34215145325835061 0 -0.075026114713044295 -0.34067685310217188 0 -0.068381140212807529 -0.34215145325835061 0 -0.072736270992194374 -0.34642657517974162 0 -0.072543756310380125 -0.32297755648254223 0 -0.076865282397925214 -0.33186621151016921 0 -0.065742280204007922 -0.33149802327949868 0 -0.071503704381946226 -0.33654813528754762 0 -0.076865282397925214 -0.33186621151016921 0 -0.065742280204007922 -0.33149802327949868 0 -0.071503704381946226 -0.33654813528754762 0 -0.065742280204007922 -0.33149802327949868 0 -0.068381140212807529 -0.34215145325835061 0 -0.065742280204007922 -0.33149802327949868 0 -0.068381140212807529 -0.34215145325835061 0 -0.058850610090334217 -0.34227708964461528 0 -0.068381140212807529 -0.34215145325835061 0 -0.067393526715338159 -0.3497393527455373 0 -0.058850610090334217 -0.34227708964461528 0 -0.063456273711506042 -0.36346944423119532 0 -0.078223194432675835 -0.35587933594317761 0 -0.085159402454377101 -0.35619427937445097 0 -0.068381140212807529 -0.34215145325835061 0 -0.067393526715338159 -0.3497393527455373 0 -0.072736270992194374 -0.34642657517974162 0 -0.067393526715338159 -0.3497393527455373 0 -0.072736270992194374 -0.34642657517974162 0 -0.074066200781286826 -0.35104720025366032 0 -0.072736270992194374 -0.34642657517974162 0 -0.074066200781286826 -0.35104720025366032 0 -0.077757195911873356 -0.3479113963905503 0 -0.074066200781286826 -0.35104720025366032 0 -0.077757195911873356 -0.3479113963905503 0 -0.079283281657694382 -0.35192827770904073 0 -0.075026114713044295 -0.34067685310217188 0 -0.072736270992194374 -0.34642657517974162 0 -0.077757195911873356 -0.3479113963905503 0 -0.081370738045411201 -0.34367153790127303 0 -0.075026114713044295 -0.34067685310217188 0 -0.077757195911873356 -0.3479113963905503 0 -0.074518079839290902 -0.35538001290972498 0 -0.063456273711506042 -0.36346944423119532 0 -0.078223194432675835 -0.35587933594317761 0 -0.074066200781286826 -0.35104720025366032 0 -0.074518079839290902 -0.35538001290972498 0 -0.079283281657694382 -0.35192827770904073 0 -0.074518079839290902 -0.35538001290972498 0 -0.079283281657694382 -0.35192827770904073 0 -0.078223194432675835 -0.35587933594317761 0 -0.074066200781286826 -0.35104720025366032 0 -0.074518079839290902 -0.35538001290972498 0 -0.070537106502188418 -0.35515861917650071 0 -0.067393526715338159 -0.3497393527455373 0 -0.074066200781286826 -0.35104720025366032 0 -0.070537106502188418 -0.35515861917650071 0 -0.070537106502188418 -0.35515861917650071 0 -0.064200617251401124 -0.3555332474848959 0 -0.063456273711506042 -0.36346944423119532 0 -0.074518079839290902 -0.35538001290972498 0 -0.070537106502188418 -0.35515861917650071 0 -0.063456273711506042 -0.36346944423119532 0 -0.067393526715338159 -0.3497393527455373 0 -0.070537106502188418 -0.35515861917650071 0 -0.064200617251401124 -0.3555332474848959 0 -0.067393526715338159 -0.3497393527455373 0 -0.064200617251401124 -0.3555332474848959 0 -0.0601668591538711 -0.35114995868961352 0 -0.063456273711506042 -0.36346944423119532 0 -0.062988717999207855 -0.36692452148932969 0 -0.085159402454377101 -0.35619427937445097 0 -0.063456273711506042 -0.36346944423119532 0 -0.085159402454377101 -0.35619427937445097 0 -0.062988717999207855 -0.36692452148932969 0 -0.077428061508280091 -0.367342392330816 0 -0.084054167019809028 -0.36271976208064532 0 -0.062988717999207855 -0.36692452148932969 0 -0.088338047767742928 -0.35821653679651411 0 -0.062988717999207855 -0.36692452148932969 0 -0.071526011972588746 -0.3715151644510708 0 -0.062598847692499904 -0.37739661857073742 0 -0.062988717999207855 -0.36692452148932969 0 -0.071526011972588746 -0.3715151644510708 0 -0.077428061508280091 -0.367342392330816 0 -0.071526011972588746 -0.3715151644510708 0 -0.077428061508280091 -0.367342392330816 0 -0.079131740822782085 -0.37266707297715063 0 -0.071526011972588746 -0.3715151644510708 0 -0.079131740822782085 -0.37266707297715063 0 -0.073757809905612745 -0.37687486480527532 0 -0.062988717999207855 -0.36692452148932969 0 -0.084054167019809028 -0.36271976208064532 0 -0.088338047767742928 -0.35821653679651411 0 -0.077428061508280091 -0.367342392330816 0 -0.084054167019809028 -0.36271976208064532 0 -0.08562926272781457 -0.36838383457190033 0 -0.062988717999207855 -0.36692452148932969 0 -0.088338047767742928 -0.35821653679651411 0 -0.085159402454377101 -0.35619427937445097 0 -0.077428061508280091 -0.367342392330816 0 -0.079131740822782085 -0.37266707297715063 0 -0.08562926272781457 -0.36838383457190033 0 -0.079131740822782085 -0.37266707297715063 0 -0.08562926272781457 -0.36838383457190033 0 -0.087025017306539443 -0.37745545772501632 0 -0.08562926272781457 -0.36838383457190033 0 -0.09373082316589082 -0.37181012148302339 0 -0.090305323244554439 -0.36403594836255221 0 -0.08562926272781457 -0.36838383457190033 0 -0.09373082316589082 -0.37181012148302339 0 -0.087025017306539443 -0.37745545772501632 0 -0.084054167019809028 -0.36271976208064532 0 -0.090305323244554439 -0.36403594836255221 0 -0.088338047767742928 -0.35821653679651411 0 -0.084054167019809028 -0.36271976208064532 0 -0.08562926272781457 -0.36838383457190033 0 -0.090305323244554439 -0.36403594836255221 0 -0.09650090408757786 -0.36412544740697828 0 -0.09373082316589082 -0.37181012148302339 0 -0.090305323244554439 -0.36403594836255221 0 -0.09650090408757786 -0.36412544740697828 0 -0.090305323244554439 -0.36403594836255221 0 -0.093338828728605786 -0.36122127454860292 0 -0.090305323244554439 -0.36403594836255221 0 -0.093338828728605786 -0.36122127454860292 0 -0.088338047767742928 -0.35821653679651411 0 -0.092984461200490004 -0.35044425859927908 0 -0.087337714780908779 -0.35105185921688609 0 -0.085159402454377101 -0.35619427937445097 0 -0.1068625311972481 -0.34891911451770657 0 -0.088338047767742928 -0.35821653679651411 0 -0.085159402454377101 -0.35619427937445097 0 -0.092849285024924524 -0.34312482996851512 0 -0.092984461200490004 -0.35044425859927908 0 -0.089035193423952233 -0.34767192913709011 0 -0.08624520067800423 -0.34447318110950997 0 -0.089035193423952233 -0.34767192913709011 0 -0.085759305435433628 -0.34926551679126011 0 -0.092849285024924524 -0.34312482996851512 0 -0.08624520067800423 -0.34447318110950997 0 -0.089035193423952233 -0.34767192913709011 0 -0.092984461200490004 -0.35044425859927908 0 -0.089035193423952233 -0.34767192913709011 0 -0.087337714780908779 -0.35105185921688609 0 -0.089035193423952233 -0.34767192913709011 0 -0.087337714780908779 -0.35105185921688609 0 -0.085759305435433628 -0.34926551679126011 0 -0.087337714780908779 -0.35105185921688609 0 -0.085759305435433628 -0.34926551679126011 0 -0.082921812403109502 -0.35251430864390981 0 -0.082222922355254371 -0.34829403642425733 0 -0.085759305435433628 -0.34926551679126011 0 -0.082921812403109502 -0.35251430864390981 0 -0.08624520067800423 -0.34447318110950997 0 -0.082222922355254371 -0.34829403642425733 0 -0.085759305435433628 -0.34926551679126011 0 -0.081370738045411201 -0.34367153790127303 0 -0.08624520067800423 -0.34447318110950997 0 -0.082222922355254371 -0.34829403642425733 0 -0.081370738045411201 -0.34367153790127303 0 -0.077757195911873356 -0.3479113963905503 0 -0.082222922355254371 -0.34829403642425733 0 -0.082222922355254371 -0.34829403642425733 0 -0.079283281657694382 -0.35192827770904073 0 -0.082921812403109502 -0.35251430864390981 0 -0.077757195911873356 -0.3479113963905503 0 -0.082222922355254371 -0.34829403642425733 0 -0.079283281657694382 -0.35192827770904073 0 -0.079283281657694382 -0.35192827770904073 0 -0.078223194432675835 -0.35587933594317761 0 -0.082921812403109502 -0.35251430864390981 0 -0.087337714780908779 -0.35105185921688609 0 -0.085159402454377101 -0.35619427937445097 0 -0.082921812403109502 -0.35251430864390981 0 -0.078223194432675835 -0.35587933594317761 0 -0.085159402454377101 -0.35619427937445097 0 -0.082921812403109502 -0.35251430864390981 0 -0.104587978076215 -0.25747443718160112 0 -0.083529437657296868 -0.25385245579954557 0 -0.10226620831189261 -0.2398666626675463 0 -0.104587978076215 -0.25747443718160112 0 -0.1237068476627313 -0.26448705861867527 0 -0.11808015724625499 -0.2469318776918972 0 -0.104587978076215 -0.25747443718160112 0 -0.1237068476627313 -0.26448705861867527 0 -0.1069883725642601 -0.27503877684514721 0 -0.127923637138078 -0.28508341202542198 0 -0.1237068476627313 -0.26448705861867527 0 -0.1069883725642601 -0.27503877684514721 0 -0.104587978076215 -0.25747443718160112 0 -0.1069883725642601 -0.27503877684514721 0 -0.087449230615363305 -0.27480792075198918 0 -0.1069883725642601 -0.27503877684514721 0 -0.1004027774688275 -0.29276454011451669 0 -0.087449230615363305 -0.27480792075198918 0 -0.127923637138078 -0.28508341202542198 0 -0.1069883725642601 -0.27503877684514721 0 -0.1004027774688275 -0.29276454011451669 0 -0.127923637138078 -0.28508341202542198 0 -0.1004027774688275 -0.29276454011451669 0 -0.1178436779573809 -0.30118316104085668 0 -0.12844019263109599 -0.32099186422587062 0 -0.1178436779573809 -0.30118316104085668 0 -0.1129058796160243 -0.31733199835799231 0 -0.1178436779573809 -0.30118316104085668 0 -0.1007327116538297 -0.30971028950999058 0 -0.1004027774688275 -0.29276454011451669 0 -0.1178436779573809 -0.30118316104085668 0 -0.1007327116538297 -0.30971028950999058 0 -0.1004027774688275 -0.29276454011451669 0 -0.1007327116538297 -0.30971028950999058 0 -0.086677571893623961 -0.30642113115476022 0 -0.1004027774688275 -0.29276454011451669 0 -0.086677571893623961 -0.30642113115476022 0 -0.082843703575994979 -0.29242152139165212 0 -0.088652059634862834 -0.31807673913428941 0 -0.1007327116538297 -0.30971028950999058 0 -0.086677571893623961 -0.30642113115476022 0 -0.086677571893623961 -0.30642113115476022 0 -0.073939879693765476 -0.30133443306181651 0 -0.082843703575994979 -0.29242152139165212 0 -0.078100819927504062 -0.31429069343154281 0 -0.086677571893623961 -0.30642113115476022 0 -0.073939879693765476 -0.30133443306181651 0 -0.078100819927504062 -0.31429069343154281 0 -0.066463753171253276 -0.31163794558230229 0 -0.073939879693765476 -0.30133443306181651 0 -0.066463753171253276 -0.31163794558230229 0 -0.073939879693765476 -0.30133443306181651 0 -0.060553751631969042 -0.298969841810725 0 -0.073939879693765476 -0.30133443306181651 0 -0.06899967796224761 -0.28426546499991701 0 -0.060553751631969042 -0.298969841810725 0 -0.073939879693765476 -0.30133443306181651 0 -0.06899967796224761 -0.28426546499991701 0 -0.082843703575994979 -0.29242152139165212 0 -0.1004027774688275 -0.29276454011451669 0 -0.082843703575994979 -0.29242152139165212 0 -0.087449230615363305 -0.27480792075198918 0 -0.06899967796224761 -0.28426546499991701 0 -0.082843703575994979 -0.29242152139165212 0 -0.087449230615363305 -0.27480792075198918 0 -0.06899967796224761 -0.28426546499991701 0 -0.087449230615363305 -0.27480792075198918 0 -0.064792667002701199 -0.26783824893154501 0 -0.064792667002701199 -0.26783824893154501 0 -0.065857606964651497 -0.25285372279474522 0 -0.083529437657296868 -0.25385245579954557 0 -0.064792667002701199 -0.26783824893154501 0 -0.083529437657296868 -0.25385245579954557 0 -0.104587978076215 -0.25747443718160112 0 -0.087449230615363305 -0.27480792075198918 0 -0.083529437657296868 -0.25385245579954557 0 -0.087449230615363305 -0.27480792075198918 0 -0.064792667002701199 -0.26783824893154501 0 -0.083529437657296868 -0.25385245579954557 0 -0.036848398950594899 -0.2553221433106021 0 -0.050762503913064652 -0.26257575801908078 0 -0.037970387231332572 -0.27250572099697801 0 -0.036848398950594899 -0.2553221433106021 0 -0.050762503913064652 -0.26257575801908078 0 -0.050179157051726118 -0.24768379108550251 0 -0.065857606964651497 -0.25285372279474522 0 -0.050762503913064652 -0.26257575801908078 0 -0.060304122168017268 -0.23674779300095111 0 -0.064792667002701199 -0.26783824893154501 0 -0.065857606964651497 -0.25285372279474522 0 -0.050762503913064652 -0.26257575801908078 0 -0.064792667002701199 -0.26783824893154501 0 -0.046055896348105557 -0.28182404206354428 0 -0.064792667002701199 -0.26783824893154501 0 -0.050762503913064652 -0.26257575801908078 0 -0.046055896348105557 -0.28182404206354428 0 -0.06899967796224761 -0.28426546499991701 0 -0.064792667002701199 -0.26783824893154501 0 -0.046055896348105557 -0.28182404206354428 0 -0.050762503913064652 -0.26257575801908078 0 -0.037970387231332572 -0.27250572099697801 0 -0.046055896348105557 -0.28182404206354428 0 -0.036848398950594899 -0.2553221433106021 0 -0.037970387231332572 -0.27250572099697801 0 -0.020349728214407701 -0.27752330097449263 0 -0.037970387231332572 -0.27250572099697801 0 -0.035288582854717837 -0.28957344148783781 0 -0.046055896348105557 -0.28182404206354428 0 -0.035288582854717837 -0.28957344148783781 0 -0.046055896348105557 -0.28182404206354428 0 -0.046601420286087603 -0.29757480950857301 0 -0.06899967796224761 -0.28426546499991701 0 -0.046055896348105557 -0.28182404206354428 0 -0.060553751631969042 -0.298969841810725 0 -0.046055896348105557 -0.28182404206354428 0 -0.060553751631969042 -0.298969841810725 0 -0.046601420286087603 -0.29757480950857301 0 -0.060553751631969042 -0.298969841810725 0 -0.052943766416933047 -0.30954668182822842 0 -0.046601420286087603 -0.29757480950857301 0 -0.066463753171253276 -0.31163794558230229 0 -0.060553751631969042 -0.298969841810725 0 -0.052943766416933047 -0.30954668182822842 0 -0.035288582854717837 -0.28957344148783781 0 -0.038075618495212599 -0.30664529288075798 0 -0.022463680912761231 -0.29821208857043091 0 -0.035288582854717837 -0.28957344148783781 0 -0.046601420286087603 -0.29757480950857301 0 -0.038075618495212599 -0.30664529288075798 0 -0.052943766416933047 -0.30954668182822842 0 -0.046601420286087603 -0.29757480950857301 0 -0.038075618495212599 -0.30664529288075798 0 -0.022463680912761231 -0.29821208857043091 0 -0.027283375278466322 -0.31874895819585969 0 -0.010878028330920241 -0.31527613423858081 0 -0.038075618495212599 -0.30664529288075798 0 -0.022463680912761231 -0.29821208857043091 0 -0.027283375278466322 -0.31874895819585969 0 -0.022463680912761231 -0.29821208857043091 0 -0.0038510574782205579 -0.2997244586383831 0 -0.010878028330920241 -0.31527613423858081 0 -0.0038510574782205579 -0.2997244586383831 0 -0.010878028330920241 -0.31527613423858081 0 0.0035157764707993179 -0.30776509704669819 0 -0.022463680912761231 -0.29821208857043091 0 -0.0038510574782205579 -0.2997244586383831 0 -0.020349728214407701 -0.27752330097449263 0 -0.0038510574782205579 -0.2997244586383831 0 -0.020349728214407701 -0.27752330097449263 0 0.00069600354279332824 -0.2758447591784694 0 -0.0038510574782205579 -0.2997244586383831 0 -0.020349728214407701 -0.27752330097449263 0 -0.035288582854717837 -0.28957344148783781 0 -0.022463680912761231 -0.29821208857043091 0 -0.020349728214407701 -0.27752330097449263 0 -0.037970387231332572 -0.27250572099697801 0 -0.035288582854717837 -0.28957344148783781 0 -0.020349728214407701 -0.27752330097449263 0 -0.036848398950594899 -0.2553221433106021 0 -0.020349728214407701 -0.27752330097449263 0 -0.020349728214407701 -0.27752330097449263 0 -0.01337552196006451 -0.25409280855202881 0 0.00069600354279332824 -0.2758447591784694 0 -0.01337552196006451 -0.25409280855202881 0 0.00069600354279332824 -0.2758447591784694 0 0.0049407412643659313 -0.25867424517361032 0 -0.01337552196006451 -0.25409280855202881 0 0.00069600354279332824 -0.2758447591784694 0 -0.01337552196006451 -0.25409280855202881 0 0.0049407412643659313 -0.25867424517361032 0 0.00030022057776212072 -0.24629662869332139 0 -0.036848398950594899 -0.2553221433106021 0 -0.020349728214407701 -0.27752330097449263 0 -0.01337552196006451 -0.25409280855202881 0 -0.031461439422729928 -0.35225511747148602 0 -0.050301446229713102 -0.36023597743977398 0 -0.049141767769004731 -0.34818466074682591 0 -0.031461439422729928 -0.35225511747148602 0 -0.049141767769004731 -0.34818466074682591 0 -0.037185115597177673 -0.33503843258435517 0 -0.031461439422729928 -0.35225511747148602 0 -0.041753144968634602 -0.37074460908793871 0 -0.031461439422729928 -0.35225511747148602 0 -0.041753144968634602 -0.37074460908793871 0 -0.050301446229713102 -0.36023597743977398 0 -0.063456273711506042 -0.36346944423119532 0 -0.041753144968634602 -0.37074460908793871 0 -0.062988717999207855 -0.36692452148932969 0 -0.041753144968634602 -0.37074460908793871 0 -0.062598847692499904 -0.37739661857073742 0 -0.063456273711506042 -0.36346944423119532 0 -0.041753144968634602 -0.37074460908793871 0 -0.050301446229713102 -0.36023597743977398 0 -0.063456273711506042 -0.36346944423119532 0 -0.062988717999207855 -0.36692452148932969 0 -0.041753144968634602 -0.37074460908793871 0 -0.063456273711506042 -0.36346944423119532 0 -0.050301446229713102 -0.36023597743977398 0 -0.058929763908222438 -0.35751521908330602 0 -0.058929763908222438 -0.35751521908330602 0 -0.049141767769004731 -0.34818466074682591 0 -0.0601668591538711 -0.35114995868961352 0 -0.064200617251401124 -0.3555332474848959 0 -0.063456273711506042 -0.36346944423119532 0 -0.058929763908222438 -0.35751521908330602 0 -0.064200617251401124 -0.3555332474848959 0 -0.058929763908222438 -0.35751521908330602 0 -0.0601668591538711 -0.35114995868961352 0 -0.050301446229713102 -0.36023597743977398 0 -0.058929763908222438 -0.35751521908330602 0 -0.049141767769004731 -0.34818466074682591 0 -0.049141767769004731 -0.34818466074682591 0 -0.0601668591538711 -0.35114995868961352 0 -0.058850610090334217 -0.34227708964461528 0 -0.067393526715338159 -0.3497393527455373 0 -0.0601668591538711 -0.35114995868961352 0 -0.058850610090334217 -0.34227708964461528 0 -0.065742280204007922 -0.33149802327949868 0 -0.058850610090334217 -0.34227708964461528 0 -0.05664315048212086 -0.32966330142235578 0 -0.058850610090334217 -0.34227708964461528 0 -0.05664315048212086 -0.32966330142235578 0 -0.0493996275795546 -0.33500242410796049 0 -0.05664315048212086 -0.32966330142235578 0 -0.0493996275795546 -0.33500242410796049 0 -0.045788168422185367 -0.32213830977171309 0 -0.049141767769004731 -0.34818466074682591 0 -0.058850610090334217 -0.34227708964461528 0 -0.0493996275795546 -0.33500242410796049 0 -0.066463753171253276 -0.31163794558230229 0 -0.052943766416933047 -0.30954668182822842 0 -0.06006222290448035 -0.32096046264570549 0 -0.065742280204007922 -0.33149802327949868 0 -0.05664315048212086 -0.32966330142235578 0 -0.06006222290448035 -0.32096046264570549 0 -0.05664315048212086 -0.32966330142235578 0 -0.06006222290448035 -0.32096046264570549 0 -0.045788168422185367 -0.32213830977171309 0 -0.052943766416933047 -0.30954668182822842 0 -0.06006222290448035 -0.32096046264570549 0 -0.045788168422185367 -0.32213830977171309 0 -0.038075618495212599 -0.30664529288075798 0 -0.045788168422185367 -0.32213830977171309 0 -0.027283375278466322 -0.31874895819585969 0 -0.045788168422185367 -0.32213830977171309 0 -0.037185115597177673 -0.33503843258435517 0 -0.027283375278466322 -0.31874895819585969 0 -0.052943766416933047 -0.30954668182822842 0 -0.038075618495212599 -0.30664529288075798 0 -0.045788168422185367 -0.32213830977171309 0 -0.049141767769004731 -0.34818466074682591 0 -0.0493996275795546 -0.33500242410796049 0 -0.037185115597177673 -0.33503843258435517 0 -0.0493996275795546 -0.33500242410796049 0 -0.045788168422185367 -0.32213830977171309 0 -0.037185115597177673 -0.33503843258435517 0 -0.031461439422729928 -0.35225511747148602 0 -0.037185115597177673 -0.33503843258435517 0 -0.02116973387682507 -0.33376562585503339 0 -0.037185115597177673 -0.33503843258435517 0 -0.02116973387682507 -0.33376562585503339 0 -0.027283375278466322 -0.31874895819585969 0 -0.031461439422729928 -0.35225511747148602 0 -0.02116973387682507 -0.33376562585503339 0 -0.02116973387682507 -0.33376562585503339 0 -0.027283375278466322 -0.31874895819585969 0 -0.010878028330920241 -0.31527613423858081 0 -0.02116973387682507 -0.33376562585503339 0 -0.010878028330920241 -0.31527613423858081 0 -0.010878028330920241 -0.31527613423858081 0 -0.0057683781166291059 -0.33491740435489159 0 0.0020100022948757179 -0.32433636602676391 0 -0.02116973387682507 -0.33376562585503339 0 -0.010878028330920241 -0.31527613423858081 0 -0.0057683781166291059 -0.33491740435489159 0 -0.010878028330920241 -0.31527613423858081 0 0.0020100022948757179 -0.32433636602676391 0 0.0035157764707993179 -0.30776509704669819 0 -0.0057683781166291059 -0.33491740435489159 0 -0.0074167715464010572 -0.35345822621748818 0 0.0111485868661024 -0.33716895756166398 0 -0.02116973387682507 -0.33376562585503339 0 -0.0057683781166291059 -0.33491740435489159 0 -0.0074167715464010572 -0.35345822621748818 0 -0.031461439422729928 -0.35225511747148602 0 -0.02116973387682507 -0.33376562585503339 0 -0.0074167715464010572 -0.35345822621748818 0 -0.031461439422729928 -0.35225511747148602 0 -0.0074167715464010572 -0.35345822621748818 0 -0.016182503267495291 -0.37931621348989208 0 -0.031461439422729928 -0.35225511747148602 0 -0.041753144968634602 -0.37074460908793871 0 -0.016182503267495291 -0.37931621348989208 0 -0.0074167715464010572 -0.35345822621748818 0 -0.016182503267495291 -0.37931621348989208 0 0.003309102918704366 -0.37262758108984068 0 -0.016182503267495291 -0.37931621348989208 0 0.0093881384336444995 -0.38788781789184462 0 0.0001548961855554003 -0.40425103983522143 0 -0.016182503267495291 -0.37931621348989208 0 -0.034900795561575458 -0.39420945261642493 0 -0.019050460664629461 -0.41231842672472518 0 -0.016182503267495291 -0.37931621348989208 0 0.0093881384336444995 -0.38788781789184462 0 -0.016182503267495291 -0.37931621348989208 0 0.0093881384336444995 -0.38788781789184462 0 0.003309102918704366 -0.37262758108984068 0 -0.016182503267495291 -0.37931621348989208 0 -0.019050460664629461 -0.41231842672472518 0 0.0001548961855554003 -0.40425103983522143 0 -0.041753144968634602 -0.37074460908793871 0 -0.016182503267495291 -0.37931621348989208 0 -0.034900795561575458 -0.39420945261642493 0 -0.041753144968634602 -0.37074460908793871 0 -0.016182503267495291 -0.37931621348989208 0 -0.041753144968634602 -0.37074460908793871 0 -0.034900795561575458 -0.39420945261642493 0 -0.054093898303567589 -0.39291530317835999 0 -0.034900795561575458 -0.39420945261642493 0 -0.054093898303567589 -0.39291530317835999 0 -0.043423970603550348 -0.41575271060120828 0 -0.054093898303567589 -0.39291530317835999 0 -0.066434651638500347 -0.41508599726878131 0 -0.041753144968634602 -0.37074460908793871 0 -0.054093898303567589 -0.39291530317835999 0 -0.062598847692499904 -0.37739661857073742 0 -0.041753144968634602 -0.37074460908793871 0 -0.054093898303567589 -0.39291530317835999 0 -0.0592050482887286 -0.43724862561442102 0 -0.043423970603550348 -0.41575271060120828 0 -0.066434651638500347 -0.41508599726878131 0 -0.054093898303567589 -0.39291530317835999 0 -0.043423970603550348 -0.41575271060120828 0 -0.066434651638500347 -0.41508599726878131 0 -0.034900795561575458 -0.39420945261642493 0 -0.043423970603550348 -0.41575271060120828 0 -0.019050460664629461 -0.41231842672472518 0 -0.0592050482887286 -0.43724862561442102 0 -0.043423970603550348 -0.41575271060120828 0 -0.029940962632043398 -0.44157836874350842 0 -0.019050460664629461 -0.41231842672472518 0 -0.0027692131281891888 -0.43342354364163282 0 -0.029940962632043398 -0.44157836874350842 0 -0.043423970603550348 -0.41575271060120828 0 -0.019050460664629461 -0.41231842672472518 0 -0.029940962632043398 -0.44157836874350842 0 -0.019050460664629461 -0.41231842672472518 0 -0.0027692131281891888 -0.43342354364163282 0 0.0001548961855554003 -0.40425103983522143 0 -0.0027692131281891888 -0.43342354364163282 0 -0.013412257425639749 -0.45577403748516582 0 0.007382801424827435 -0.4580761117798875 0 -0.0027692131281891888 -0.43342354364163282 0 -0.013412257425639749 -0.45577403748516582 0 -0.029940962632043398 -0.44157836874350842 0 -0.013412257425639749 -0.45577403748516582 0 -0.012960156365352761 -0.47869733803054187 0 0.007382801424827435 -0.4580761117798875 0 -0.013412257425639749 -0.45577403748516582 0 -0.028773756427440841 -0.4670948252302583 0 -0.012960156365352761 -0.47869733803054187 0 -0.013412257425639749 -0.45577403748516582 0 -0.028773756427440841 -0.4670948252302583 0 -0.029940962632043398 -0.44157836874350842 0 -0.0072485533882910569 -0.5 0 -0.012960156365352761 -0.47869733803054187 0 0.0028652109536792029 -0.48687931248582872 0 -0.028773756427440841 -0.4670948252302583 0 -0.012960156365352761 -0.47869733803054187 0 -0.040622524934169027 -0.48272476237275508 0 -0.012960156365352761 -0.47869733803054187 0 -0.040622524934169027 -0.48272476237275508 0 -0.012960156365352761 -0.47869733803054187 0 -0.035872324174526793 -0.5 0 -0.040622524934169027 -0.48272476237275508 0 -0.0072485533882910569 -0.5 0 -0.012960156365352761 -0.47869733803054187 0 -0.035872324174526793 -0.5 0 -0.028773756427440841 -0.4670948252302583 0 -0.040622524934169027 -0.48272476237275508 0 -0.046989275041331609 -0.45982274630938391 0 -0.040622524934169027 -0.48272476237275508 0 -0.056316832862168952 -0.47428236653284372 0 -0.046989275041331609 -0.45982274630938391 0 -0.040622524934169027 -0.48272476237275508 0 -0.056316832862168952 -0.47428236653284372 0 -0.068284893502985222 -0.48675218671496823 0 -0.035872324174526793 -0.5 0 -0.040622524934169027 -0.48272476237275508 0 -0.064496094960762473 -0.5 0 -0.040622524934169027 -0.48272476237275508 0 -0.068284893502985222 -0.48675218671496823 0 -0.040622524934169027 -0.48272476237275508 0 -0.064496094960762473 -0.5 0 -0.068284893502985222 -0.48675218671496823 0 -0.0592050482887286 -0.43724862561442102 0 -0.029940962632043398 -0.44157836874350842 0 -0.046989275041331609 -0.45982274630938391 0 -0.028773756427440841 -0.4670948252302583 0 -0.029940962632043398 -0.44157836874350842 0 -0.046989275041331609 -0.45982274630938391 0 -0.056316832862168952 -0.47428236653284372 0 -0.046989275041331609 -0.45982274630938391 0 -0.069370637970189927 -0.46782977073426751 0 -0.046989275041331609 -0.45982274630938391 0 -0.064335537278912364 -0.4529089215486013 0 -0.069370637970189927 -0.46782977073426751 0 -0.0592050482887286 -0.43724862561442102 0 -0.046989275041331609 -0.45982274630938391 0 -0.064335537278912364 -0.4529089215486013 0 -0.0592050482887286 -0.43724862561442102 0 -0.064335537278912364 -0.4529089215486013 0 -0.085470265846094615 -0.44647373827550801 0 -0.064335537278912364 -0.4529089215486013 0 -0.069370637970189927 -0.46782977073426751 0 -0.085470265846094615 -0.44647373827550801 0 -0.069370637970189927 -0.46782977073426751 0 -0.085470265846094615 -0.44647373827550801 0 -0.069370637970189927 -0.46782977073426751 0 -0.085470265846094615 -0.44647373827550801 0 -0.09615940511688198 -0.46334946179542508 0 -0.064496094960762473 -0.5 0 -0.068284893502985222 -0.48675218671496823 0 -0.093119865746998265 -0.5 0 -0.069370637970189927 -0.46782977073426751 0 -0.068284893502985222 -0.48675218671496823 0 -0.087520409847341024 -0.47970027998336751 0 -0.056316832862168952 -0.47428236653284372 0 -0.069370637970189927 -0.46782977073426751 0 -0.068284893502985222 -0.48675218671496823 0 -0.069370637970189927 -0.46782977073426751 0 -0.087520409847341024 -0.47970027998336751 0 -0.09615940511688198 -0.46334946179542508 0 -0.068284893502985222 -0.48675218671496823 0 -0.087520409847341024 -0.47970027998336751 0 -0.093119865746998265 -0.5 0 -0.087520409847341024 -0.47970027998336751 0 -0.093119865746998265 -0.5 0 -0.10797596573858111 -0.48380568069613361 0 -0.093119865746998265 -0.5 0 -0.10797596573858111 -0.48380568069613361 0 -0.121743636533234 -0.5 0 -0.10797596573858111 -0.48380568069613361 0 -0.09615940511688198 -0.46334946179542508 0 -0.1147096293411029 -0.46571286975442222 0 -0.087520409847341024 -0.47970027998336751 0 -0.10797596573858111 -0.48380568069613361 0 -0.09615940511688198 -0.46334946179542508 0 -0.1340485458086379 -0.47628554922756372 0 -0.10797596573858111 -0.48380568069613361 0 -0.1147096293411029 -0.46571286975442222 0 -0.1340485458086379 -0.47628554922756372 0 -0.10797596573858111 -0.48380568069613361 0 -0.121743636533234 -0.5 0 -0.085470265846094615 -0.44647373827550801 0 -0.1097733172218608 -0.44720863277194772 0 -0.1015698937219993 -0.42511770581674851 0 -0.085470265846094615 -0.44647373827550801 0 -0.09615940511688198 -0.46334946179542508 0 -0.1097733172218608 -0.44720863277194772 0 -0.09615940511688198 -0.46334946179542508 0 -0.1147096293411029 -0.46571286975442222 0 -0.1097733172218608 -0.44720863277194772 0 -0.1275588856758908 -0.45503704772575038 0 -0.1147096293411029 -0.46571286975442222 0 -0.1097733172218608 -0.44720863277194772 0 -0.1275588856758908 -0.45503704772575038 0 -0.13127005720907819 -0.43109628490700719 0 -0.1097733172218608 -0.44720863277194772 0 -0.13127005720907819 -0.43109628490700719 0 -0.1097733172218608 -0.44720863277194772 0 -0.1015698937219993 -0.42511770581674851 0 -0.1015698937219993 -0.42511770581674851 0 -0.117669521597904 -0.40376167335798901 0 -0.093129802726593783 -0.40425860006547881 0 -0.1015698937219993 -0.42511770581674851 0 -0.117669521597904 -0.40376167335798901 0 -0.13127005720907819 -0.43109628490700719 0 -0.1015698937219993 -0.42511770581674851 0 -0.117669521597904 -0.40376167335798901 0 -0.13376914947380869 -0.38240564089922952 0 -0.117669521597904 -0.40376167335798901 0 -0.11312063300744141 -0.38724405109171978 0 -0.12619815888375349 -0.37141732307028719 0 -0.1112571933738904 -0.37385256917993742 0 -0.11312063300744141 -0.38724405109171978 0 -0.13376914947380869 -0.38240564089922952 0 -0.12619815888375349 -0.37141732307028719 0 -0.11312063300744141 -0.38724405109171978 0 -0.1112571933738904 -0.37385256917993742 0 -0.11312063300744141 -0.38724405109171978 0 -0.09809891488648112 -0.38186868850555888 0 -0.1112571933738904 -0.37385256917993742 0 -0.1018914545828679 -0.36962519423259399 0 -0.09809891488648112 -0.38186868850555888 0 -0.117669521597904 -0.40376167335798901 0 -0.11312063300744141 -0.38724405109171978 0 -0.093129802726593783 -0.40425860006547881 0 -0.11312063300744141 -0.38724405109171978 0 -0.09809891488648112 -0.38186868850555888 0 -0.093129802726593783 -0.40425860006547881 0 -0.09809891488648112 -0.38186868850555888 0 -0.093129802726593783 -0.40425860006547881 0 -0.084698315725514436 -0.38887161947882648 0 -0.093129802726593783 -0.40425860006547881 0 -0.084698315725514436 -0.38887161947882648 0 -0.072565307919049998 -0.3980733794824301 0 -0.09809891488648112 -0.38186868850555888 0 -0.087025017306539443 -0.37745545772501632 0 -0.084698315725514436 -0.38887161947882648 0 -0.09373082316589082 -0.37181012148302339 0 -0.09809891488648112 -0.38186868850555888 0 -0.087025017306539443 -0.37745545772501632 0 -0.084698315725514436 -0.38887161947882648 0 -0.079686925683906298 -0.38050529743799949 0 -0.071473503005387892 -0.38540524841244977 0 -0.079131740822782085 -0.37266707297715063 0 -0.087025017306539443 -0.37745545772501632 0 -0.079686925683906298 -0.38050529743799949 0 -0.087025017306539443 -0.37745545772501632 0 -0.084698315725514436 -0.38887161947882648 0 -0.079686925683906298 -0.38050529743799949 0 -0.054093898303567589 -0.39291530317835999 0 -0.071473503005387892 -0.38540524841244977 0 -0.062598847692499904 -0.37739661857073742 0 -0.079686925683906298 -0.38050529743799949 0 -0.073757809905612745 -0.37687486480527532 0 -0.071473503005387892 -0.38540524841244977 0 -0.079131740822782085 -0.37266707297715063 0 -0.079686925683906298 -0.38050529743799949 0 -0.073757809905612745 -0.37687486480527532 0 -0.073757809905612745 -0.37687486480527532 0 -0.071473503005387892 -0.38540524841244977 0 -0.062598847692499904 -0.37739661857073742 0 -0.071526011972588746 -0.3715151644510708 0 -0.073757809905612745 -0.37687486480527532 0 -0.062598847692499904 -0.37739661857073742 0 -0.054093898303567589 -0.39291530317835999 0 -0.071473503005387892 -0.38540524841244977 0 -0.072565307919049998 -0.3980733794824301 0 -0.093129802726593783 -0.40425860006547881 0 -0.072565307919049998 -0.3980733794824301 0 -0.066434651638500347 -0.41508599726878131 0 -0.054093898303567589 -0.39291530317835999 0 -0.072565307919049998 -0.3980733794824301 0 -0.066434651638500347 -0.41508599726878131 0 -0.084698315725514436 -0.38887161947882648 0 -0.071473503005387892 -0.38540524841244977 0 -0.072565307919049998 -0.3980733794824301 0 -0.0592050482887286 -0.43724862561442102 0 -0.066434651638500347 -0.41508599726878131 0 -0.082000832912009602 -0.42711173130914942 0 -0.0592050482887286 -0.43724862561442102 0 -0.085470265846094615 -0.44647373827550801 0 -0.082000832912009602 -0.42711173130914942 0 -0.085470265846094615 -0.44647373827550801 0 -0.1015698937219993 -0.42511770581674851 0 -0.085470265846094615 -0.44647373827550801 0 -0.1015698937219993 -0.42511770581674851 0 -0.082000832912009602 -0.42711173130914942 0 -0.093129802726593783 -0.40425860006547881 0 -0.066434651638500347 -0.41508599726878131 0 -0.082000832912009602 -0.42711173130914942 0 -0.1015698937219993 -0.42511770581674851 0 -0.093129802726593783 -0.40425860006547881 0 -0.082000832912009602 -0.42711173130914942 0 -0.082790848221126437 -0.077614145209601304 0 -0.082166818669955746 -0.095356426783555159 0 -0.1023216692844521 -0.084600165711802025 0 -0.082790848221126437 -0.077614145209601304 0 -0.1004453461215105 -0.061861320794464519 0 -0.082790848221126437 -0.077614145209601304 0 -0.1004453461215105 -0.061861320794464519 0 -0.08159054264021362 -0.059168341883478623 0 -0.082790848221126437 -0.077614145209601304 0 -0.064632417218049909 -0.074264629315241137 0 -0.08159054264021362 -0.059168341883478623 0 -0.064632417218049909 -0.074264629315241137 0 -0.08159054264021362 -0.059168341883478623 0 -0.06273573915891674 -0.056475362972492803 0 -0.082790848221126437 -0.077614145209601304 0 -0.065136350320742331 -0.093366969624738075 0 -0.082790848221126437 -0.077614145209601304 0 -0.065136350320742331 -0.093366969624738075 0 -0.082166818669955746 -0.095356426783555159 0 -0.082790848221126437 -0.077614145209601304 0 -0.064632417218049909 -0.074264629315241137 0 -0.065136350320742331 -0.093366969624738075 0 -0.065136350320742331 -0.093366969624738075 0 -0.069924248612258391 -0.10852839035850111 0 -0.082166818669955746 -0.095356426783555159 0 -0.095177687828399193 -0.1097606763009157 0 -0.06869195565623587 -0.12921451161898631 0 -0.10231991339600249 -0.1312300764166251 0 -0.069924248612258391 -0.10852839035850111 0 -0.095177687828399193 -0.1097606763009157 0 -0.06869195565623587 -0.12921451161898631 0 -0.069924248612258391 -0.10852839035850111 0 -0.082166818669955746 -0.095356426783555159 0 -0.095177687828399193 -0.1097606763009157 0 -0.082166818669955746 -0.095356426783555159 0 -0.095177687828399193 -0.1097606763009157 0 -0.1023216692844521 -0.084600165711802025 0 -0.095177687828399193 -0.1097606763009157 0 -0.12256317794057529 -0.094196919881979008 0 -0.1023216692844521 -0.084600165711802025 0 -0.095177687828399193 -0.1097606763009157 0 -0.1155091227126646 -0.1177598473990125 0 -0.10231991339600249 -0.1312300764166251 0 -0.1155091227126646 -0.1177598473990125 0 -0.1237657710554881 -0.1358272565332431 0 -0.13392623501744799 -0.1137333990212667 0 -0.095177687828399193 -0.1097606763009157 0 -0.1155091227126646 -0.1177598473990125 0 -0.12256317794057529 -0.094196919881979008 0 -0.1155091227126646 -0.1177598473990125 0 -0.12256317794057529 -0.094196919881979008 0 -0.13392623501744799 -0.1137333990212667 0 -0.12256317794057529 -0.094196919881979008 0 -0.1023216692844521 -0.084600165711802025 0 -0.1273462545314373 -0.065703502395887903 0 -0.082790848221126437 -0.077614145209601304 0 -0.1023216692844521 -0.084600165711802025 0 -0.1004453461215105 -0.061861320794464519 0 -0.1004453461215105 -0.061861320794464519 0 -0.1273462545314373 -0.065703502395887903 0 -0.1023216692844521 -0.084600165711802025 0 -0.1004453461215105 -0.061861320794464519 0 -0.1273462545314373 -0.065703502395887903 0 -0.116677632603769 -0.047377512744298883 0 -0.1004453461215105 -0.061861320794464519 0 -0.1273462545314373 -0.065703502395887903 0 -0.116677632603769 -0.047377512744298883 0 -0.10637879821625169 -0.035276157595210321 0 -0.1179857531923746 -0.02859964174018529 0 -0.116677632603769 -0.047377512744298883 0 -0.13290991908602751 -0.032893704694133233 0 -0.116677632603769 -0.047377512744298883 0 -0.1179857531923746 -0.02859964174018529 0 -0.13290991908602751 -0.032893704694133233 0 -0.116677632603769 -0.047377512744298883 0 -0.10637879821625169 -0.035276157595210321 0 -0.1037830027264957 -0.047669441281668327 0 -0.10637879821625169 -0.035276157595210321 0 -0.1037830027264957 -0.047669441281668327 0 -0.091630233964451413 -0.046162773992699552 0 -0.116677632603769 -0.047377512744298883 0 -0.1004453461215105 -0.061861320794464519 0 -0.1037830027264957 -0.047669441281668327 0 -0.1004453461215105 -0.061861320794464519 0 -0.1037830027264957 -0.047669441281668327 0 -0.091630233964451413 -0.046162773992699552 0 -0.116677632603769 -0.047377512744298883 0 -0.1004453461215105 -0.061861320794464519 0 -0.1198072775707657 -0.0035428438909860371 0 -0.12809890080586719 -0.01116188753518595 0 -0.1270076602408961 0.0054890085451015942 0 -0.1198072775707657 -0.0035428438909860371 0 -0.11515655270422689 -0.01411595257478058 0 -0.109004284113599 0.0029875152561677238 0 -0.11515655270422689 -0.01411595257478058 0 -0.12809890080586719 -0.01116188753518595 0 -0.1260570433250007 -0.021116881940496671 0 -0.1198072775707657 -0.0035428438909860371 0 -0.11515655270422689 -0.01411595257478058 0 -0.12809890080586719 -0.01116188753518595 0 -0.11515655270422689 -0.01411595257478058 0 -0.1179857531923746 -0.02859964174018529 0 -0.1082324824208393 -0.023644396934330479 0 -0.11515655270422689 -0.01411595257478058 0 -0.1179857531923746 -0.02859964174018529 0 -0.1260570433250007 -0.021116881940496671 0 -0.10637879821625169 -0.035276157595210321 0 -0.1179857531923746 -0.02859964174018529 0 -0.1082324824208393 -0.023644396934330479 0 -0.11515655270422689 -0.01411595257478058 0 -0.096263024058796443 -0.018679181958643098 0 -0.1082324824208393 -0.023644396934330479 0 -0.10637879821625169 -0.035276157595210321 0 -0.096263024058796443 -0.018679181958643098 0 -0.1082324824208393 -0.023644396934330479 0 -0.10637879821625169 -0.035276157595210321 0 -0.096263024058796443 -0.018679181958643098 0 -0.07916989295605692 -0.027931930533526429 0 -0.11515655270422689 -0.01411595257478058 0 -0.096263024058796443 -0.018679181958643098 0 -0.109004284113599 0.0029875152561677238 0 -0.096263024058796443 -0.018679181958643098 0 -0.109004284113599 0.0029875152561677238 0 -0.09076148652287061 0.00039294385896961791 0 -0.096263024058796443 -0.018679181958643098 0 -0.072867677892725358 -0.0056960314549651548 0 -0.09076148652287061 0.00039294385896961791 0 -0.096263024058796443 -0.018679181958643098 0 -0.07916989295605692 -0.027931930533526429 0 -0.072867677892725358 -0.0056960314549651548 0 -0.07916989295605692 -0.027931930533526429 0 -0.072867677892725358 -0.0056960314549651548 0 -0.051960987695862167 -0.02058770347184256 0 -0.07916989295605692 -0.027931930533526429 0 -0.059292778841464153 -0.03903421017403385 0 -0.051960987695862167 -0.02058770347184256 0 -0.07916989295605692 -0.027931930533526429 0 -0.051960987695862167 -0.02058770347184256 0 -0.1004453461215105 -0.061861320794464519 0 -0.08159054264021362 -0.059168341883478623 0 -0.091630233964451413 -0.046162773992699552 0 -0.1004453461215105 -0.061861320794464519 0 -0.08159054264021362 -0.059168341883478623 0 -0.08159054264021362 -0.059168341883478623 0 -0.091630233964451413 -0.046162773992699552 0 -0.07488383751222058 -0.04575452391124625 0 -0.10637879821625169 -0.035276157595210321 0 -0.07916989295605692 -0.027931930533526429 0 -0.10637879821625169 -0.035276157595210321 0 -0.07916989295605692 -0.027931930533526429 0 -0.091630233964451413 -0.046162773992699552 0 -0.07916989295605692 -0.027931930533526429 0 -0.091630233964451413 -0.046162773992699552 0 -0.07488383751222058 -0.04575452391124625 0 -0.07916989295605692 -0.027931930533526429 0 -0.07488383751222058 -0.04575452391124625 0 -0.059292778841464153 -0.03903421017403385 0 -0.08159054264021362 -0.059168341883478623 0 -0.06273573915891674 -0.056475362972492803 0 -0.07488383751222058 -0.04575452391124625 0 -0.06273573915891674 -0.056475362972492803 0 -0.059292778841464153 -0.03903421017403385 0 -0.08159054264021362 -0.059168341883478623 0 -0.07488383751222058 -0.04575452391124625 0 -0.06273573915891674 -0.056475362972492803 0 -0.06273573915891674 -0.056475362972492803 0 -0.059292778841464153 -0.03903421017403385 0 -0.045505070427684848 -0.050255693954087521 0 -0.06273573915891674 -0.056475362972492803 0 -0.045505070427684848 -0.050255693954087521 0 -0.045327038674947598 -0.070019755375743856 0 -0.059292778841464153 -0.03903421017403385 0 -0.042463147736335263 -0.033446157238532372 0 -0.045505070427684848 -0.050255693954087521 0 -0.042463147736335263 -0.033446157238532372 0 -0.032183744271097707 -0.043321805188187373 0 -0.045505070427684848 -0.050255693954087521 0 -0.042463147736335263 -0.033446157238532372 0 -0.032183744271097707 -0.043321805188187373 0 -0.029503579780018298 -0.033559745971006687 0 -0.032183744271097707 -0.043321805188187373 0 -0.045505070427684848 -0.050255693954087521 0 -0.030313387073253949 -0.059356394622248621 0 -0.045505070427684848 -0.050255693954087521 0 -0.030313387073253949 -0.059356394622248621 0 -0.045327038674947598 -0.070019755375743856 0 -0.051960987695862167 -0.02058770347184256 0 -0.056754197590857008 0.0022484061051966271 0 -0.039511076852245842 0.0034204325671171889 0 -0.072867677892725358 -0.0056960314549651548 0 -0.051960987695862167 -0.02058770347184256 0 -0.056754197590857008 0.0022484061051966271 0 -0.059292778841464153 -0.03903421017403385 0 -0.042463147736335263 -0.033446157238532372 0 -0.051960987695862167 -0.02058770347184256 0 -0.042463147736335263 -0.033446157238532372 0 -0.051960987695862167 -0.02058770347184256 0 -0.02667309666574013 -0.025502671644261721 0 -0.042463147736335263 -0.033446157238532372 0 -0.02667309666574013 -0.025502671644261721 0 -0.029503579780018298 -0.033559745971006687 0 -0.051960987695862167 -0.02058770347184256 0 -0.02475208243566742 -0.013243476410158699 0 -0.051960987695862167 -0.02058770347184256 0 -0.02475208243566742 -0.013243476410158699 0 -0.02667309666574013 -0.025502671644261721 0 -0.051960987695862167 -0.02058770347184256 0 -0.02475208243566742 -0.013243476410158699 0 -0.039511076852245842 0.0034204325671171889 0 -0.02475208243566742 -0.013243476410158699 0 -0.039511076852245842 0.0034204325671171889 0 -0.027135101676566669 0.00097548958815388644 0 -0.020691166216051309 -0.0040443791037982563 0 -0.02475208243566742 -0.013243476410158699 0 -0.01190346157300424 -0.0036268694762264472 0 -0.020691166216051309 -0.0040443791037982563 0 -0.02475208243566742 -0.013243476410158699 0 -0.027135101676566669 0.00097548958815388644 0 -0.02667309666574013 -0.025502671644261721 0 -0.0097148324078655795 -0.028082529143142972 0 -0.019905839713198609 -0.03783494139214507 0 -0.02667309666574013 -0.025502671644261721 0 -0.0097148324078655795 -0.028082529143142972 0 -0.015373571140669029 -0.018780066613720951 0 -0.02475208243566742 -0.013243476410158699 0 -0.02667309666574013 -0.025502671644261721 0 -0.015373571140669029 -0.018780066613720951 0 -0.0015370784557240469 -0.02005925164403383 0 -0.015373571140669029 -0.018780066613720951 0 0.0086717366238725311 -0.0095015071444512437 0 -0.0097148324078655795 -0.028082529143142972 0 0.0023413406826586491 -0.025706590140771781 0 0.00026944013316385822 -0.035283918163044208 0 -0.0097148324078655795 -0.028082529143142972 0 -0.0015370784557240469 -0.02005925164403383 0 0.0023413406826586491 -0.025706590140771781 0 -0.0097148324078655795 -0.028082529143142972 0 -0.0015370784557240469 -0.02005925164403383 0 -0.015373571140669029 -0.018780066613720951 0 -0.02475208243566742 -0.013243476410158699 0 -0.015373571140669029 -0.018780066613720951 0 0.0024568228245273188 -0.0058992493484748354 0 -0.015373571140669029 -0.018780066613720951 0 0.0024568228245273188 -0.0058992493484748354 0 0.0086717366238725311 -0.0095015071444512437 0 -0.015373571140669029 -0.018780066613720951 0 0.0086717366238725311 -0.0095015071444512437 0 -0.02475208243566742 -0.013243476410158699 0 0.0024568228245273188 -0.0058992493484748354 0 -0.02475208243566742 -0.013243476410158699 0 -0.01190346157300424 -0.0036268694762264472 0 0.0024568228245273188 -0.0058992493484748354 0 -0.01190346157300424 -0.0036268694762264472 0 -0.0036174073565606751 0.0035994414650109569 0 0.0024568228245273188 -0.0058992493484748354 0 -0.020691166216051309 -0.0040443791037982563 0 -0.01190346157300424 -0.0036268694762264472 0 -0.01243404289280208 0.0024010229120926809 0 -0.032183744271097707 -0.043321805188187373 0 -0.022504516949813331 -0.049022498361542613 0 -0.030313387073253949 -0.059356394622248621 0 -0.022504516949813331 -0.049022498361542613 0 -0.01829608107134692 -0.05784858398942825 0 -0.011882446174205211 -0.049305184638853888 0 -0.01829608107134692 -0.05784858398942825 0 -0.030313387073253949 -0.059356394622248621 0 -0.01859852049316162 -0.068894775850046733 0 -0.022504516949813331 -0.049022498361542613 0 -0.01829608107134692 -0.05784858398942825 0 -0.030313387073253949 -0.059356394622248621 0 -0.032183744271097707 -0.043321805188187373 0 -0.022504516949813331 -0.049022498361542613 0 -0.019905839713198609 -0.03783494139214507 0 -0.032183744271097707 -0.043321805188187373 0 -0.029503579780018298 -0.033559745971006687 0 -0.019905839713198609 -0.03783494139214507 0 -0.02667309666574013 -0.025502671644261721 0 -0.029503579780018298 -0.033559745971006687 0 -0.019905839713198609 -0.03783494139214507 0 -0.022504516949813331 -0.049022498361542613 0 -0.019905839713198609 -0.03783494139214507 0 -0.011882446174205211 -0.049305184638853888 0 -0.019905839713198609 -0.03783494139214507 0 -0.0083459338507978504 -0.039270911438509852 0 -0.011882446174205211 -0.049305184638853888 0 -0.0097148324078655795 -0.028082529143142972 0 -0.019905839713198609 -0.03783494139214507 0 -0.0083459338507978504 -0.039270911438509852 0 -0.0097148324078655795 -0.028082529143142972 0 -0.0083459338507978504 -0.039270911438509852 0 0.00026944013316385822 -0.035283918163044208 0 -0.0083459338507978504 -0.039270911438509852 0 -0.00089835853485555409 -0.044715385004938837 0 0.00026944013316385822 -0.035283918163044208 0 -0.0083459338507978504 -0.039270911438509852 0 -0.00089835853485555409 -0.044715385004938837 0 -0.011882446174205211 -0.049305184638853888 0 -0.00089835853485555409 -0.044715385004938837 0 -0.0021208385016765201 -0.054023033810274658 0 -0.011882446174205211 -0.049305184638853888 0 -0.01829608107134692 -0.05784858398942825 0 -0.011882446174205211 -0.049305184638853888 0 -0.0081815346663004843 -0.062664066474449415 0 -0.0021208385016765201 -0.054023033810274658 0 -0.011882446174205211 -0.049305184638853888 0 -0.0081815346663004843 -0.062664066474449415 0 -0.0021208385016765201 -0.054023033810274658 0 -0.0081815346663004843 -0.062664066474449415 0 0.0036254775754798541 -0.064395336985159243 0 -0.0075674146404035893 -0.074661578839568449 0 -0.0081815346663004843 -0.062664066474449415 0 0.0036254775754798541 -0.064395336985159243 0 -0.0075674146404035893 -0.074661578839568449 0 0.0036254775754798541 -0.064395336985159243 0 0.003715720870280929 -0.075830019088264103 0 -0.0075674146404035893 -0.074661578839568449 0 -0.017836261464933209 -0.079263417991369434 0 -0.01859852049316162 -0.068894775850046733 0 -0.0075674146404035893 -0.074661578839568449 0 -0.0081815346663004843 -0.062664066474449415 0 -0.01859852049316162 -0.068894775850046733 0 -0.01829608107134692 -0.05784858398942825 0 -0.0081815346663004843 -0.062664066474449415 0 -0.01859852049316162 -0.068894775850046733 0 -0.0075674146404035893 -0.074661578839568449 0 -0.0070486383949544054 -0.087522709136193089 0 0.003715720870280929 -0.075830019088264103 0 -0.0075674146404035893 -0.074661578839568449 0 -0.0070486383949544054 -0.087522709136193089 0 -0.017836261464933209 -0.079263417991369434 0 -0.0070486383949544054 -0.087522709136193089 0 -0.017836261464933209 -0.079263417991369434 0 -0.02615849603114807 -0.088917779004178868 0 -0.0070486383949544054 -0.087522709136193089 0 -0.031967572856722727 -0.094421371179431335 0 -0.0070486383949544054 -0.087522709136193089 0 -0.031967572856722727 -0.094421371179431335 0 -0.018858547124150901 -0.097891963624570297 0 -0.0070486383949544054 -0.087522709136193089 0 -0.02615849603114807 -0.088917779004178868 0 -0.031967572856722727 -0.094421371179431335 0 -0.02615849603114807 -0.088917779004178868 0 -0.02980823776499834 -0.07632024712686003 0 -0.031967572856722727 -0.094421371179431335 0 -0.017836261464933209 -0.079263417991369434 0 -0.02615849603114807 -0.088917779004178868 0 -0.02980823776499834 -0.07632024712686003 0 -0.02615849603114807 -0.088917779004178868 0 -0.031967572856722727 -0.094421371179431335 0 -0.030313387073253949 -0.059356394622248621 0 -0.01859852049316162 -0.068894775850046733 0 -0.02980823776499834 -0.07632024712686003 0 -0.017836261464933209 -0.079263417991369434 0 -0.01859852049316162 -0.068894775850046733 0 -0.02980823776499834 -0.07632024712686003 0 -0.030313387073253949 -0.059356394622248621 0 -0.02980823776499834 -0.07632024712686003 0 -0.045327038674947598 -0.070019755375743856 0 -0.045327038674947598 -0.070019755375743856 0 -0.031967572856722727 -0.094421371179431335 0 -0.02980823776499834 -0.07632024712686003 0 -0.045327038674947598 -0.070019755375743856 0 -0.031967572856722727 -0.094421371179431335 0 -0.048850747794387153 -0.08739010708506581 0 -0.036964601292650903 -0.09513497413513404 0 -0.031967572856722727 -0.094421371179431335 0 -0.045327038674947598 -0.070019755375743856 0 -0.048850747794387153 -0.08739010708506581 0 -0.031967572856722727 -0.094421371179431335 0 -0.048850747794387153 -0.08739010708506581 0 -0.049608387957034643 -0.09625296122120322 0 -0.036964601292650903 -0.09513497413513404 0 -0.064632417218049909 -0.074264629315241137 0 -0.065136350320742331 -0.093366969624738075 0 -0.048850747794387153 -0.08739010708506581 0 -0.065136350320742331 -0.093366969624738075 0 -0.048850747794387153 -0.08739010708506581 0 -0.049608387957034643 -0.09625296122120322 0 -0.064632417218049909 -0.074264629315241137 0 -0.045327038674947598 -0.070019755375743856 0 -0.048850747794387153 -0.08739010708506581 0 -0.064632417218049909 -0.074264629315241137 0 -0.06273573915891674 -0.056475362972492803 0 -0.045327038674947598 -0.070019755375743856 0 -0.047481852420358212 -0.109119794039875 0 -0.06869195565623587 -0.12921451161898631 0 -0.047481852420358212 -0.109119794039875 0 -0.045563247953021691 -0.12565442676634581 0 -0.06869195565623587 -0.12921451161898631 0 -0.069924248612258391 -0.10852839035850111 0 -0.047481852420358212 -0.109119794039875 0 -0.06869195565623587 -0.12921451161898631 0 -0.065136350320742331 -0.093366969624738075 0 -0.069924248612258391 -0.10852839035850111 0 -0.047481852420358212 -0.109119794039875 0 -0.065136350320742331 -0.093366969624738075 0 -0.047481852420358212 -0.109119794039875 0 -0.065136350320742331 -0.093366969624738075 0 -0.049608387957034643 -0.09625296122120322 0 -0.047481852420358212 -0.109119794039875 0 -0.047481852420358212 -0.109119794039875 0 -0.031967572856722727 -0.094421371179431335 0 -0.031729699686876563 -0.11213651906547061 0 -0.047481852420358212 -0.109119794039875 0 -0.031967572856722727 -0.094421371179431335 0 -0.049608387957034643 -0.09625296122120322 0 -0.047481852420358212 -0.109119794039875 0 -0.036964601292650903 -0.09513497413513404 0 -0.047481852420358212 -0.109119794039875 0 -0.036964601292650903 -0.09513497413513404 0 -0.031967572856722727 -0.094421371179431335 0 -0.036964601292650903 -0.09513497413513404 0 -0.031967572856722727 -0.094421371179431335 0 -0.047481852420358212 -0.109119794039875 0 -0.029340021817679741 -0.1253074575840718 0 -0.047481852420358212 -0.109119794039875 0 -0.029340021817679741 -0.1253074575840718 0 -0.045563247953021691 -0.12565442676634581 0 -0.047481852420358212 -0.109119794039875 0 -0.031729699686876563 -0.11213651906547061 0 -0.029340021817679741 -0.1253074575840718 0 -0.031729699686876563 -0.11213651906547061 0 -0.01812935165274563 -0.1196974534585042 0 -0.029340021817679741 -0.1253074575840718 0 -0.01812935165274563 -0.1196974534585042 0 -0.017450945659027679 -0.1055440703262762 0 -0.01137653374665607 -0.1112393652131312 0 -0.031967572856722727 -0.094421371179431335 0 -0.031729699686876563 -0.11213651906547061 0 -0.01812935165274563 -0.1196974534585042 0 -0.01812935165274563 -0.1196974534585042 0 -0.02549545190467014 -0.1000468486574056 0 -0.017450945659027679 -0.1055440703262762 0 -0.031967572856722727 -0.094421371179431335 0 -0.01812935165274563 -0.1196974534585042 0 -0.031967572856722727 -0.094421371179431335 0 -0.01812935165274563 -0.1196974534585042 0 -0.02549545190467014 -0.1000468486574056 0 -0.031967572856722727 -0.094421371179431335 0 -0.02549545190467014 -0.1000468486574056 0 -0.018858547124150901 -0.097891963624570297 0 -0.02549545190467014 -0.1000468486574056 0 -0.017450945659027679 -0.1055440703262762 0 -0.018858547124150901 -0.097891963624570297 0 -0.0070486383949544054 -0.087522709136193089 0 -0.018858547124150901 -0.097891963624570297 0 -0.0093951580297607605 -0.10185191554885251 0 -0.017450945659027679 -0.1055440703262762 0 -0.0093951580297607605 -0.10185191554885251 0 -0.01137653374665607 -0.1112393652131312 0 -0.0093951580297607605 -0.10185191554885251 0 -0.0035869806737475439 -0.109254310938091 0 -0.01137653374665607 -0.1112393652131312 0 -0.017450945659027679 -0.1055440703262762 0 -0.018858547124150901 -0.097891963624570297 0 -0.0093951580297607605 -0.10185191554885251 0 -0.0093951580297607605 -0.10185191554885251 0 -0.0035869806737475439 -0.109254310938091 0 0.0019506974199720399 -0.09965907405485358 0 -0.0070486383949544054 -0.087522709136193089 0 -0.0093951580297607605 -0.10185191554885251 0 0.0019506974199720399 -0.09965907405485358 0 -0.01812935165274563 -0.1196974534585042 0 -0.0045801415063462221 -0.11901338943474531 0 9.826656896625493e-06 -0.1313325988566085 0 -0.01812935165274563 -0.1196974534585042 0 -0.01137653374665607 -0.1112393652131312 0 -0.0045801415063462221 -0.11901338943474531 0 -0.0035869806737475439 -0.109254310938091 0 -0.0045801415063462221 -0.11901338943474531 0 0.0050755095359780464 -0.1176346018525178 0 -0.0035869806737475439 -0.109254310938091 0 -0.01137653374665607 -0.1112393652131312 0 -0.0045801415063462221 -0.11901338943474531 0 -0.01812935165274563 -0.1196974534585042 0 -0.0042911304487681804 -0.1449735357375769 0 -0.01812935165274563 -0.1196974534585042 0 -0.01119819121500139 -0.14149512112826859 0 -0.0042911304487681804 -0.1449735357375769 0 -0.0045801415063462221 -0.11901338943474531 0 9.826656896625493e-06 -0.1313325988566085 0 0.0028017473852785121 -0.12509361147560369 0 -0.01812935165274563 -0.1196974534585042 0 9.826656896625493e-06 -0.1313325988566085 0 -0.0042911304487681804 -0.1449735357375769 0 -0.02573247105784323 -0.13844273957598499 0 -0.029340021817679741 -0.1253074575840718 0 -0.01119819121500139 -0.14149512112826859 0 -0.029340021817679741 -0.1253074575840718 0 -0.01119819121500139 -0.14149512112826859 0 -0.01812935165274563 -0.1196974534585042 0 -0.029340021817679741 -0.1253074575840718 0 -0.01119819121500139 -0.14149512112826859 0 -0.02573247105784323 -0.13844273957598499 0 -0.029340021817679741 -0.1253074575840718 0 -0.037583070405603228 -0.13486253745322471 0 -0.02573247105784323 -0.13844273957598499 0 -0.02962545377514874 -0.14467118375912191 0 -0.037583070405603228 -0.13486253745322471 0 -0.02962545377514874 -0.14467118375912191 0 -0.022955864228792529 -0.1552533787338776 0 -0.033240937642084453 -0.15449405307590919 0 -0.02962545377514874 -0.14467118375912191 0 -0.020915618075783071 -0.14587739795523841 0 -0.022955864228792529 -0.1552533787338776 0 -0.02573247105784323 -0.13844273957598499 0 -0.02962545377514874 -0.14467118375912191 0 -0.020915618075783071 -0.14587739795523841 0 -0.02573247105784323 -0.13844273957598499 0 -0.020915618075783071 -0.14587739795523841 0 -0.01119819121500139 -0.14149512112826859 0 -0.020915618075783071 -0.14587739795523841 0 -0.022955864228792529 -0.1552533787338776 0 -0.013188374713158471 -0.15327147787407391 0 -0.013188374713158471 -0.15327147787407391 0 -0.0042911304487681804 -0.1449735357375769 0 -0.0071458368837113064 -0.16233451461267639 0 -0.020915618075783071 -0.14587739795523841 0 -0.013188374713158471 -0.15327147787407391 0 -0.01119819121500139 -0.14149512112826859 0 -0.013188374713158471 -0.15327147787407391 0 -0.01119819121500139 -0.14149512112826859 0 -0.0042911304487681804 -0.1449735357375769 0 -0.0042911304487681804 -0.1449735357375769 0 -0.0071458368837113064 -0.16233451461267639 0 0.0095470907552092765 -0.17024961801664959 0 -0.0071458368837113064 -0.16233451461267639 0 -0.01004160949427578 -0.1777901312346947 0 0.0095470907552092765 -0.17024961801664959 0 -0.0071458368837113064 -0.16233451461267639 0 -0.01004160949427578 -0.1777901312346947 0 -0.01775516051756338 -0.16538781020038651 0 -0.013188374713158471 -0.15327147787407391 0 -0.0071458368837113064 -0.16233451461267639 0 -0.01775516051756338 -0.16538781020038651 0 -0.01004160949427578 -0.1777901312346947 0 -0.01150313280436043 -0.19210061927939939 0 0.002640502934626776 -0.19032053178508629 0 -0.01004160949427578 -0.1777901312346947 0 -0.023890753912799899 -0.18613776185906319 0 -0.01150313280436043 -0.19210061927939939 0 -0.01004160949427578 -0.1777901312346947 0 -0.023461828320481559 -0.1748995209018166 0 -0.01775516051756338 -0.16538781020038651 0 -0.01004160949427578 -0.1777901312346947 0 -0.023461828320481559 -0.1748995209018166 0 -0.023890753912799899 -0.18613776185906319 0 -0.023461828320481559 -0.1748995209018166 0 -0.032201320752337427 -0.16626705287711041 0 -0.033420296925431303 -0.17891484833782839 0 -0.023461828320481559 -0.1748995209018166 0 -0.023890753912799899 -0.18613776185906319 0 -0.033420296925431303 -0.17891484833782839 0 -0.022955864228792529 -0.1552533787338776 0 -0.013188374713158471 -0.15327147787407391 0 -0.01775516051756338 -0.16538781020038651 0 -0.023461828320481559 -0.1748995209018166 0 -0.01775516051756338 -0.16538781020038651 0 -0.032201320752337427 -0.16626705287711041 0 -0.022955864228792529 -0.1552533787338776 0 -0.01775516051756338 -0.16538781020038651 0 -0.032201320752337427 -0.16626705287711041 0 -0.022955864228792529 -0.1552533787338776 0 -0.032201320752337427 -0.16626705287711041 0 -0.033240937642084453 -0.15449405307590919 0 -0.032201320752337427 -0.16626705287711041 0 -0.043434230479875047 -0.15832830106009291 0 -0.033240937642084453 -0.15449405307590919 0 -0.032201320752337427 -0.16626705287711041 0 -0.043687505939618308 -0.1673568449601813 0 -0.040935563781011347 -0.17468514146938069 0 -0.043687505939618308 -0.1673568449601813 0 -0.040935563781011347 -0.17468514146938069 0 -0.048744738925107417 -0.1734800557606514 0 -0.032201320752337427 -0.16626705287711041 0 -0.043687505939618308 -0.1673568449601813 0 -0.043434230479875047 -0.15832830106009291 0 -0.043687505939618308 -0.1673568449601813 0 -0.043434230479875047 -0.15832830106009291 0 -0.051854560213446553 -0.16624130154598499 0 -0.033420296925431303 -0.17891484833782839 0 -0.040924532128100731 -0.18183331827627419 0 -0.038546764299253182 -0.18895639886596791 0 -0.023890753912799899 -0.18613776185906319 0 -0.033420296925431303 -0.17891484833782839 0 -0.038546764299253182 -0.18895639886596791 0 -0.032201320752337427 -0.16626705287711041 0 -0.033420296925431303 -0.17891484833782839 0 -0.040935563781011347 -0.17468514146938069 0 -0.033420296925431303 -0.17891484833782839 0 -0.040935563781011347 -0.17468514146938069 0 -0.040924532128100731 -0.18183331827627419 0 -0.040935563781011347 -0.17468514146938069 0 -0.046634988015472938 -0.18025872860423861 0 -0.048744738925107417 -0.1734800557606514 0 -0.040935563781011347 -0.17468514146938069 0 -0.040924532128100731 -0.18183331827627419 0 -0.046634988015472938 -0.18025872860423861 0 -0.040924532128100731 -0.18183331827627419 0 -0.046634988015472938 -0.18025872860423861 0 -0.045332322771230962 -0.18519050899865069 0 -0.040924532128100731 -0.18183331827627419 0 -0.045332322771230962 -0.18519050899865069 0 -0.038546764299253182 -0.18895639886596791 0 -0.058091797745387197 -0.18050324616302379 0 -0.055435849363365111 -0.18853271889981429 0 -0.073503216488820231 -0.17937253084284269 0 -0.050604095605847943 -0.18355865227444981 0 -0.058091797745387197 -0.18050324616302379 0 -0.050634812899979287 -0.19096685313573361 0 -0.045332322771230962 -0.18519050899865069 0 -0.050604095605847943 -0.18355865227444981 0 -0.050634812899979287 -0.19096685313573361 0 -0.046634988015472938 -0.18025872860423861 0 -0.050604095605847943 -0.18355865227444981 0 -0.052035646457771083 -0.17831228491601361 0 -0.046634988015472938 -0.18025872860423861 0 -0.045332322771230962 -0.18519050899865069 0 -0.050604095605847943 -0.18355865227444981 0 -0.050604095605847943 -0.18355865227444981 0 -0.052035646457771083 -0.17831228491601361 0 -0.058091797745387197 -0.18050324616302379 0 -0.046634988015472938 -0.18025872860423861 0 -0.052035646457771083 -0.17831228491601361 0 -0.048744738925107417 -0.1734800557606514 0 -0.052035646457771083 -0.17831228491601361 0 -0.048744738925107417 -0.1734800557606514 0 -0.056200286110221827 -0.17362225563598391 0 -0.056200286110221827 -0.17362225563598391 0 -0.058091797745387197 -0.18050324616302379 0 -0.06429903277862424 -0.17448067255320129 0 -0.052035646457771083 -0.17831228491601361 0 -0.056200286110221827 -0.17362225563598391 0 -0.058091797745387197 -0.18050324616302379 0 -0.058091797745387197 -0.18050324616302379 0 -0.050634812899979287 -0.19096685313573361 0 -0.055435849363365111 -0.18853271889981429 0 -0.043434230479875047 -0.15832830106009291 0 -0.051854560213446553 -0.16624130154598499 0 -0.056394738855570503 -0.15768618928085559 0 -0.043687505939618308 -0.1673568449601813 0 -0.048744738925107417 -0.1734800557606514 0 -0.051854560213446553 -0.16624130154598499 0 -0.048744738925107417 -0.1734800557606514 0 -0.056200286110221827 -0.17362225563598391 0 -0.051854560213446553 -0.16624130154598499 0 -0.056200286110221827 -0.17362225563598391 0 -0.051854560213446553 -0.16624130154598499 0 -0.059779740176486233 -0.1667521897721643 0 -0.056200286110221827 -0.17362225563598391 0 -0.059779740176486233 -0.1667521897721643 0 -0.06429903277862424 -0.17448067255320129 0 -0.051854560213446553 -0.16624130154598499 0 -0.059779740176486233 -0.1667521897721643 0 -0.056394738855570503 -0.15768618928085559 0 -0.059779740176486233 -0.1667521897721643 0 -0.056394738855570503 -0.15768618928085559 0 -0.07015008292456805 -0.16173052984479541 0 -0.056394738855570503 -0.15768618928085559 0 -0.050139196861436169 -0.14935228213583079 0 -0.063451253054240528 -0.14682003484689721 0 -0.043434230479875047 -0.15832830106009291 0 -0.056394738855570503 -0.15768618928085559 0 -0.050139196861436169 -0.14935228213583079 0 -0.050139196861436169 -0.14935228213583079 0 -0.050042193950698442 -0.13838577923163731 0 -0.063451253054240528 -0.14682003484689721 0 -0.050042193950698442 -0.13838577923163731 0 -0.06869195565623587 -0.12921451161898631 0 -0.063451253054240528 -0.14682003484689721 0 -0.050042193950698442 -0.13838577923163731 0 -0.045563247953021691 -0.12565442676634581 0 -0.06869195565623587 -0.12921451161898631 0 -0.050042193950698442 -0.13838577923163731 0 -0.045563247953021691 -0.12565442676634581 0 -0.037583070405603228 -0.13486253745322471 0 -0.050042193950698442 -0.13838577923163731 0 -0.037583070405603228 -0.13486253745322471 0 -0.039295529973121267 -0.14752373635501251 0 -0.029340021817679741 -0.1253074575840718 0 -0.045563247953021691 -0.12565442676634581 0 -0.037583070405603228 -0.13486253745322471 0 -0.02962545377514874 -0.14467118375912191 0 -0.037583070405603228 -0.13486253745322471 0 -0.039295529973121267 -0.14752373635501251 0 -0.043434230479875047 -0.15832830106009291 0 -0.033240937642084453 -0.15449405307590919 0 -0.039295529973121267 -0.14752373635501251 0 -0.02962545377514874 -0.14467118375912191 0 -0.033240937642084453 -0.15449405307590919 0 -0.039295529973121267 -0.14752373635501251 0 -0.043434230479875047 -0.15832830106009291 0 -0.050139196861436169 -0.14935228213583079 0 -0.039295529973121267 -0.14752373635501251 0 -0.050139196861436169 -0.14935228213583079 0 -0.050042193950698442 -0.13838577923163731 0 -0.039295529973121267 -0.14752373635501251 0 -0.036848398950594899 -0.2553221433106021 0 -0.01337552196006451 -0.25409280855202881 0 -0.027447047462922279 -0.2323408579255884 0 -0.01337552196006451 -0.25409280855202881 0 -0.027447047462922279 -0.2323408579255884 0 -0.01337552196006451 -0.25409280855202881 0 -0.0091063790605239205 -0.2364425148976132 0 -0.027447047462922279 -0.2323408579255884 0 -0.01337552196006451 -0.25409280855202881 0 -0.0091063790605239205 -0.2364425148976132 0 0.00030022057776212072 -0.24629662869332139 0 -0.0091063790605239205 -0.2364425148976132 0 0.00030022057776212072 -0.24629662869332139 0 0.0046442973170082603 -0.23576555496681531 0 -0.0091063790605239205 -0.2364425148976132 0 -0.0025393444666661361 -0.22566425141104671 0 -0.015885494014903991 -0.2248619605488362 0 -0.0091063790605239205 -0.2364425148976132 0 -0.0025393444666661361 -0.22566425141104671 0 0.0046442973170082603 -0.23576555496681531 0 -0.0025393444666661361 -0.22566425141104671 0 -0.0086360185701775533 -0.21661767075634711 0 -0.0048980057222967749 -0.2141554977215134 0 -0.0025393444666661361 -0.22566425141104671 0 -0.015885494014903991 -0.2248619605488362 0 -0.0086360185701775533 -0.21661767075634711 0 -0.0091063790605239205 -0.2364425148976132 0 -0.015885494014903991 -0.2248619605488362 0 -0.027447047462922279 -0.2323408579255884 0 -0.027447047462922279 -0.2323408579255884 0 -0.02394887774736287 -0.21741178933004179 0 -0.041518572965780029 -0.210588907299148 0 -0.015885494014903991 -0.2248619605488362 0 -0.02394887774736287 -0.21741178933004179 0 -0.0086360185701775533 -0.21661767075634711 0 -0.015885494014903991 -0.2248619605488362 0 -0.027447047462922279 -0.2323408579255884 0 -0.02394887774736287 -0.21741178933004179 0 -0.0048980057222967749 -0.2141554977215134 0 -0.02776640931113851 -0.20256117542862451 0 -0.02394887774736287 -0.21741178933004179 0 -0.0086360185701775533 -0.21661767075634711 0 -0.02776640931113851 -0.20256117542862451 0 -0.02394887774736287 -0.21741178933004179 0 -0.02776640931113851 -0.20256117542862451 0 -0.041518572965780029 -0.210588907299148 0 -0.0048980057222967749 -0.2141554977215134 0 -0.0047882959264406531 -0.20141652287543249 0 -0.02776640931113851 -0.20256117542862451 0 -0.0086360185701775533 -0.21661767075634711 0 -0.0048980057222967749 -0.2141554977215134 0 -0.02776640931113851 -0.20256117542862451 0 -0.0086360185701775533 -0.21661767075634711 0 -0.0048980057222967749 -0.2141554977215134 0 -0.0048980057222967749 -0.2141554977215134 0 -0.0047882959264406531 -0.20141652287543249 0 0.0092436531184435858 -0.2048405990086179 0 -0.0047882959264406531 -0.20141652287543249 0 -0.01150313280436043 -0.19210061927939939 0 -0.02776640931113851 -0.20256117542862451 0 -0.0047882959264406531 -0.20141652287543249 0 -0.01150313280436043 -0.19210061927939939 0 0.002640502934626776 -0.19032053178508629 0 -0.023890753912799899 -0.18613776185906319 0 -0.01150313280436043 -0.19210061927939939 0 -0.02776640931113851 -0.20256117542862451 0 -0.023890753912799899 -0.18613776185906319 0 -0.02776640931113851 -0.20256117542862451 0 -0.038546764299253182 -0.18895639886596791 0 -0.02776640931113851 -0.20256117542862451 0 -0.050634812899979287 -0.19096685313573361 0 -0.02776640931113851 -0.20256117542862451 0 -0.038546764299253182 -0.18895639886596791 0 -0.050634812899979287 -0.19096685313573361 0 -0.02776640931113851 -0.20256117542862451 0 -0.050634812899979287 -0.19096685313573361 0 -0.041518572965780029 -0.210588907299148 0 -0.045332322771230962 -0.18519050899865069 0 -0.038546764299253182 -0.18895639886596791 0 -0.050634812899979287 -0.19096685313573361 0 -0.055435849363365111 -0.18853271889981429 0 -0.041518572965780029 -0.210588907299148 0 -0.055435849363365111 -0.18853271889981429 0 -0.055108985367665488 -0.20581055016808489 0 -0.041518572965780029 -0.210588907299148 0 -0.055435849363365111 -0.18853271889981429 0 -0.06203781403843292 -0.20031743574030481 0 -0.055108985367665488 -0.20581055016808489 0 -0.050634812899979287 -0.19096685313573361 0 -0.055435849363365111 -0.18853271889981429 0 -0.041518572965780029 -0.210588907299148 0 -0.050634812899979287 -0.19096685313573361 0 -0.055435849363365111 -0.18853271889981429 0 -0.055435849363365111 -0.18853271889981429 0 -0.06203781403843292 -0.20031743574030481 0 -0.063141010736911043 -0.19327916992240879 0 -0.055435849363365111 -0.18853271889981429 0 -0.063141010736911043 -0.19327916992240879 0 -0.066606942483051851 -0.18870244153473689 0 -0.055108985367665488 -0.20581055016808489 0 -0.052153914018988869 -0.21698608600263361 0 -0.069845740422969566 -0.2109198279828213 0 -0.06203781403843292 -0.20031743574030481 0 -0.055108985367665488 -0.20581055016808489 0 -0.069845740422969566 -0.2109198279828213 0 -0.055108985367665488 -0.20581055016808489 0 -0.052153914018988869 -0.21698608600263361 0 -0.041518572965780029 -0.210588907299148 0 -0.052153914018988869 -0.21698608600263361 0 -0.041518572965780029 -0.210588907299148 0 -0.043749808189988082 -0.22378839034499759 0 -0.027447047462922279 -0.2323408579255884 0 -0.042148774194249818 -0.23224325476855459 0 -0.043749808189988082 -0.22378839034499759 0 -0.027447047462922279 -0.2323408579255884 0 -0.041518572965780029 -0.210588907299148 0 -0.043749808189988082 -0.22378839034499759 0 -0.027447047462922279 -0.2323408579255884 0 -0.041518572965780029 -0.210588907299148 0 -0.042148774194249818 -0.23224325476855459 0 -0.043749808189988082 -0.22378839034499759 0 -0.053347069686782073 -0.2331209856467116 0 -0.052153914018988869 -0.21698608600263361 0 -0.043749808189988082 -0.22378839034499759 0 -0.053347069686782073 -0.2331209856467116 0 -0.052153914018988869 -0.21698608600263361 0 -0.053347069686782073 -0.2331209856467116 0 -0.069845740422969566 -0.2109198279828213 0 -0.053347069686782073 -0.2331209856467116 0 -0.069845740422969566 -0.2109198279828213 0 -0.053347069686782073 -0.2331209856467116 0 -0.060304122168017268 -0.23674779300095111 0 -0.069845740422969566 -0.2109198279828213 0 -0.050762503913064652 -0.26257575801908078 0 -0.060304122168017268 -0.23674779300095111 0 -0.050762503913064652 -0.26257575801908078 0 -0.060304122168017268 -0.23674779300095111 0 -0.050179157051726118 -0.24768379108550251 0 -0.053347069686782073 -0.2331209856467116 0 -0.060304122168017268 -0.23674779300095111 0 -0.050179157051726118 -0.24768379108550251 0 -0.036848398950594899 -0.2553221433106021 0 -0.053347069686782073 -0.2331209856467116 0 -0.036848398950594899 -0.2553221433106021 0 -0.027447047462922279 -0.2323408579255884 0 -0.040414712655136617 -0.23899423036048759 0 -0.036848398950594899 -0.2553221433106021 0 -0.053347069686782073 -0.2331209856467116 0 -0.040414712655136617 -0.23899423036048759 0 -0.036848398950594899 -0.2553221433106021 0 -0.053347069686782073 -0.2331209856467116 0 -0.050179157051726118 -0.24768379108550251 0 -0.042148774194249818 -0.23224325476855459 0 -0.053347069686782073 -0.2331209856467116 0 -0.040414712655136617 -0.23899423036048759 0 -0.027447047462922279 -0.2323408579255884 0 -0.042148774194249818 -0.23224325476855459 0 -0.040414712655136617 -0.23899423036048759 0 -0.083529437657296868 -0.25385245579954557 0 -0.10226620831189261 -0.2398666626675463 0 -0.083529437657296868 -0.25385245579954557 0 -0.081177927262070612 -0.23596080721511689 0 -0.071445417037491687 -0.24278740934712811 0 -0.083529437657296868 -0.25385245579954557 0 -0.081177927262070612 -0.23596080721511689 0 -0.10226620831189261 -0.2398666626675463 0 -0.065857606964651497 -0.25285372279474522 0 -0.060304122168017268 -0.23674779300095111 0 -0.071445417037491687 -0.24278740934712811 0 -0.065857606964651497 -0.25285372279474522 0 -0.083529437657296868 -0.25385245579954557 0 -0.071445417037491687 -0.24278740934712811 0 -0.060304122168017268 -0.23674779300095111 0 -0.071445417037491687 -0.24278740934712811 0 -0.071980609511168941 -0.22979269168691011 0 -0.081177927262070612 -0.23596080721511689 0 -0.071445417037491687 -0.24278740934712811 0 -0.071980609511168941 -0.22979269168691011 0 -0.060304122168017268 -0.23674779300095111 0 -0.069845740422969566 -0.2109198279828213 0 -0.081177927262070612 -0.23596080721511689 0 -0.071980609511168941 -0.22979269168691011 0 -0.079145055461641217 -0.22117666045830409 0 -0.060304122168017268 -0.23674779300095111 0 -0.071980609511168941 -0.22979269168691011 0 -0.069845740422969566 -0.2109198279828213 0 -0.071980609511168941 -0.22979269168691011 0 -0.079145055461641217 -0.22117666045830409 0 -0.069845740422969566 -0.2109198279828213 0 -0.081177927262070612 -0.23596080721511689 0 -0.090379925814139062 -0.22283455729441409 0 -0.10226620831189261 -0.2398666626675463 0 -0.081177927262070612 -0.23596080721511689 0 -0.079145055461641217 -0.22117666045830409 0 -0.090379925814139062 -0.22283455729441409 0 -0.090379925814139062 -0.22283455729441409 0 -0.08234107429785785 -0.2063754181122581 0 -0.094248478256742499 -0.2086229789818177 0 -0.08234107429785785 -0.2063754181122581 0 -0.069845740422969566 -0.2109198279828213 0 -0.083088173793509981 -0.19310037114208889 0 -0.079145055461641217 -0.22117666045830409 0 -0.090379925814139062 -0.22283455729441409 0 -0.08234107429785785 -0.2063754181122581 0 -0.08234107429785785 -0.2063754181122581 0 -0.08834384652095012 -0.20043254091069559 0 -0.094248478256742499 -0.2086229789818177 0 -0.08834384652095012 -0.20043254091069559 0 -0.095032524993158632 -0.20031816737945801 0 -0.094248478256742499 -0.2086229789818177 0 -0.079145055461641217 -0.22117666045830409 0 -0.08234107429785785 -0.2063754181122581 0 -0.069845740422969566 -0.2109198279828213 0 -0.069845740422969566 -0.2109198279828213 0 -0.083088173793509981 -0.19310037114208889 0 -0.069845740422969566 -0.2109198279828213 0 -0.076741738930729358 -0.1922532241149672 0 -0.06203781403843292 -0.20031743574030481 0 -0.069845740422969566 -0.2109198279828213 0 -0.068329187957521575 -0.19525984574188621 0 -0.069845740422969566 -0.2109198279828213 0 -0.076741738930729358 -0.1922532241149672 0 -0.083088173793509981 -0.19310037114208889 0 -0.069845740422969566 -0.2109198279828213 0 -0.068329187957521575 -0.19525984574188621 0 -0.076741738930729358 -0.1922532241149672 0 -0.06203781403843292 -0.20031743574030481 0 -0.063141010736911043 -0.19327916992240879 0 -0.068329187957521575 -0.19525984574188621 0 -0.068329187957521575 -0.19525984574188621 0 -0.066606942483051851 -0.18870244153473689 0 -0.073281720766020422 -0.1862756889554697 0 -0.063141010736911043 -0.19327916992240879 0 -0.068329187957521575 -0.19525984574188621 0 -0.066606942483051851 -0.18870244153473689 0 -0.068329187957521575 -0.19525984574188621 0 -0.076741738930729358 -0.1922532241149672 0 -0.073281720766020422 -0.1862756889554697 0 -0.08234107429785785 -0.2063754181122581 0 -0.083088173793509981 -0.19310037114208889 0 -0.08834384652095012 -0.20043254091069559 0 -0.083088173793509981 -0.19310037114208889 0 -0.08834384652095012 -0.20043254091069559 0 -0.091147533238153097 -0.19473436473423539 0 -0.08834384652095012 -0.20043254091069559 0 -0.091147533238153097 -0.19473436473423539 0 -0.095032524993158632 -0.20031816737945801 0 -0.083088173793509981 -0.19310037114208889 0 -0.091147533238153097 -0.19473436473423539 0 -0.093606709146700134 -0.18708691409772341 0 -0.098764355755873751 -0.1943291605183847 0 -0.093606709146700134 -0.18708691409772341 0 -0.1019193288190722 -0.18732105397562829 0 -0.091147533238153097 -0.19473436473423539 0 -0.098764355755873751 -0.1943291605183847 0 -0.093606709146700134 -0.18708691409772341 0 -0.098764355755873751 -0.1943291605183847 0 -0.095032524993158632 -0.20031816737945801 0 -0.1052534552091709 -0.2036341211720081 0 -0.091147533238153097 -0.19473436473423539 0 -0.098764355755873751 -0.1943291605183847 0 -0.095032524993158632 -0.20031816737945801 0 -0.098764355755873751 -0.1943291605183847 0 -0.1067485786643496 -0.1934903758181197 0 -0.1052534552091709 -0.2036341211720081 0 -0.1067485786643496 -0.1934903758181197 0 -0.11446643551075519 -0.19674352147712049 0 -0.1052534552091709 -0.2036341211720081 0 -0.098764355755873751 -0.1943291605183847 0 -0.1067485786643496 -0.1934903758181197 0 -0.1019193288190722 -0.18732105397562829 0 -0.1067485786643496 -0.1934903758181197 0 -0.1019193288190722 -0.18732105397562829 0 -0.1120246044731837 -0.18736918337352951 0 -0.11446643551075519 -0.19674352147712049 0 -0.1227985886545105 -0.2084038747399454 0 -0.125506950552561 -0.1908200522819998 0 -0.11446643551075519 -0.19674352147712049 0 -0.1227985886545105 -0.2084038747399454 0 -0.1052534552091709 -0.2036341211720081 0 -0.1067485786643496 -0.1934903758181197 0 -0.11446643551075519 -0.19674352147712049 0 -0.1120246044731837 -0.18736918337352951 0 -0.11446643551075519 -0.19674352147712049 0 -0.1120246044731837 -0.18736918337352951 0 -0.125506950552561 -0.1908200522819998 0 -0.1227985886545105 -0.2084038747399454 0 -0.1062093186925142 -0.21863736692026259 0 -0.1052534552091709 -0.2036341211720081 0 -0.1227985886545105 -0.2084038747399454 0 -0.1062093186925142 -0.21863736692026259 0 -0.1210029789664883 -0.2258808695355469 0 -0.090379925814139062 -0.22283455729441409 0 -0.1062093186925142 -0.21863736692026259 0 -0.094248478256742499 -0.2086229789818177 0 -0.1062093186925142 -0.21863736692026259 0 -0.1052534552091709 -0.2036341211720081 0 -0.094248478256742499 -0.2086229789818177 0 -0.095032524993158632 -0.20031816737945801 0 -0.1052534552091709 -0.2036341211720081 0 -0.094248478256742499 -0.2086229789818177 0 -0.090379925814139062 -0.22283455729441409 0 -0.1062093186925142 -0.21863736692026259 0 -0.10226620831189261 -0.2398666626675463 0 -0.1210029789664883 -0.2258808695355469 0 -0.10226620831189261 -0.2398666626675463 0 -0.1062093186925142 -0.21863736692026259 0 -0.1210029789664883 -0.2258808695355469 0 -0.10226620831189261 -0.2398666626675463 0 -0.1210029789664883 -0.2258808695355469 0 -0.11808015724625499 -0.2469318776918972 0 -0.10226620831189261 -0.2398666626675463 0 -0.104587978076215 -0.25747443718160112 0 -0.11808015724625499 -0.2469318776918972 0 -0.10226620831189261 -0.2398666626675463 0 -0.089902058892114209 -0.14930922919809711 0 -0.06869195565623587 -0.12921451161898631 0 -0.10231991339600249 -0.1312300764166251 0 -0.089902058892114209 -0.14930922919809711 0 -0.06869195565623587 -0.12921451161898631 0 -0.089902058892114209 -0.14930922919809711 0 -0.063451253054240528 -0.14682003484689721 0 -0.07015008292456805 -0.16173052984479541 0 -0.089902058892114209 -0.14930922919809711 0 -0.06869195565623587 -0.12921451161898631 0 -0.063451253054240528 -0.14682003484689721 0 -0.056394738855570503 -0.15768618928085559 0 -0.063451253054240528 -0.14682003484689721 0 -0.07015008292456805 -0.16173052984479541 0 -0.07015008292456805 -0.16173052984479541 0 -0.073503216488820231 -0.17937253084284269 0 -0.081749186113828504 -0.16533619623432691 0 -0.07015008292456805 -0.16173052984479541 0 -0.06429903277862424 -0.17448067255320129 0 -0.073503216488820231 -0.17937253084284269 0 -0.059779740176486233 -0.1667521897721643 0 -0.07015008292456805 -0.16173052984479541 0 -0.06429903277862424 -0.17448067255320129 0 -0.076741738930729358 -0.1922532241149672 0 -0.073281720766020422 -0.1862756889554697 0 -0.083637737438488832 -0.17358662024711299 0 -0.055435849363365111 -0.18853271889981429 0 -0.066606942483051851 -0.18870244153473689 0 -0.073503216488820231 -0.17937253084284269 0 -0.055435849363365111 -0.18853271889981429 0 -0.073503216488820231 -0.17937253084284269 0 -0.058091797745387197 -0.18050324616302379 0 -0.06429903277862424 -0.17448067255320129 0 -0.073503216488820231 -0.17937253084284269 0 -0.066606942483051851 -0.18870244153473689 0 -0.073503216488820231 -0.17937253084284269 0 -0.073281720766020422 -0.1862756889554697 0 -0.073503216488820231 -0.17937253084284269 0 -0.073281720766020422 -0.1862756889554697 0 -0.083637737438488832 -0.17358662024711299 0 -0.083088173793509981 -0.19310037114208889 0 -0.093606709146700134 -0.18708691409772341 0 -0.09633060716405073 -0.17528091430135659 0 -0.083088173793509981 -0.19310037114208889 0 -0.09633060716405073 -0.17528091430135659 0 -0.076741738930729358 -0.1922532241149672 0 -0.083637737438488832 -0.17358662024711299 0 -0.083088173793509981 -0.19310037114208889 0 -0.083637737438488832 -0.17358662024711299 0 -0.09633060716405073 -0.17528091430135659 0 -0.076741738930729358 -0.1922532241149672 0 -0.083088173793509981 -0.19310037114208889 0 -0.083637737438488832 -0.17358662024711299 0 -0.073503216488820231 -0.17937253084284269 0 -0.083637737438488832 -0.17358662024711299 0 -0.081749186113828504 -0.16533619623432691 0 -0.089902058892114209 -0.14930922919809711 0 -0.081749186113828504 -0.16533619623432691 0 -0.091552834825151197 -0.16268207103878601 0 -0.089902058892114209 -0.14930922919809711 0 -0.07015008292456805 -0.16173052984479541 0 -0.081749186113828504 -0.16533619623432691 0 -0.083637737438488832 -0.17358662024711299 0 -0.081749186113828504 -0.16533619623432691 0 -0.091552834825151197 -0.16268207103878601 0 -0.083637737438488832 -0.17358662024711299 0 -0.091552834825151197 -0.16268207103878601 0 -0.09633060716405073 -0.17528091430135659 0 -0.091552834825151197 -0.16268207103878601 0 -0.09633060716405073 -0.17528091430135659 0 -0.1136053070935282 -0.1579211140452195 0 -0.09633060716405073 -0.17528091430135659 0 -0.1034448431315682 -0.1800149715571959 0 -0.1136053070935282 -0.1579211140452195 0 -0.089902058892114209 -0.14930922919809711 0 -0.091552834825151197 -0.16268207103878601 0 -0.1136053070935282 -0.1579211140452195 0 -0.1034448431315682 -0.1800149715571959 0 -0.1136053070935282 -0.1579211140452195 0 -0.093606709146700134 -0.18708691409772341 0 -0.098825372065347819 -0.18242596348297599 0 -0.09633060716405073 -0.17528091430135659 0 -0.093606709146700134 -0.18708691409772341 0 -0.098825372065347819 -0.18242596348297599 0 -0.1019193288190722 -0.18732105397562829 0 -0.098825372065347819 -0.18242596348297599 0 -0.1034448431315682 -0.1800149715571959 0 -0.1019193288190722 -0.18732105397562829 0 -0.098825372065347819 -0.18242596348297599 0 -0.09633060716405073 -0.17528091430135659 0 -0.1034448431315682 -0.1800149715571959 0 -0.1034448431315682 -0.1800149715571959 0 -0.1019193288190722 -0.18732105397562829 0 -0.1120246044731837 -0.18736918337352951 0 -0.1034448431315682 -0.1800149715571959 0 -0.120174673664546 -0.17432542895230019 0 -0.1120246044731837 -0.18736918337352951 0 -0.120174673664546 -0.17432542895230019 0 -0.1120246044731837 -0.18736918337352951 0 -0.125506950552561 -0.1908200522819998 0 -0.1034448431315682 -0.1800149715571959 0 -0.120174673664546 -0.17432542895230019 0 -0.1136053070935282 -0.1579211140452195 0 -0.120174673664546 -0.17432542895230019 0 -0.1136053070935282 -0.1579211140452195 0 -0.13545341440724179 -0.16156209145281139 0 -0.1136053070935282 -0.1579211140452195 0 -0.1237657710554881 -0.1358272565332431 0 -0.1136053070935282 -0.1579211140452195 0 -0.10231991339600249 -0.1312300764166251 0 -0.1237657710554881 -0.1358272565332431 0 -0.089902058892114209 -0.14930922919809711 0 -0.1136053070935282 -0.1579211140452195 0 -0.10231991339600249 -0.1312300764166251 0 -0.1155091227126646 -0.1177598473990125 0 -0.10231991339600249 -0.1312300764166251 0 -0.1237657710554881 -0.1358272565332431 0 -0.1237657710554881 -0.1358272565332431 0 -0.14275978701905889 -0.12772012913660111 0 -0.13392623501744799 -0.1137333990212667 0 -0.1237657710554881 -0.1358272565332431 0 -0.14275978701905889 -0.12772012913660111 0 -0.1376444295167342 -0.14475357770421801 0 -0.14275978701905889 -0.12772012913660111 0 -0.1513521505779423 -0.1358503771511535 0 -0.1376444295167342 -0.14475357770421801 0 -0.14275978701905889 -0.12772012913660111 0 -0.1513521505779423 -0.1358503771511535 0 -0.15810287542058279 -0.1243064578130951 0 -0.15114954164027811 -0.14995818884503409 0 -0.1376444295167342 -0.14475357770421801 0 -0.13545341440724179 -0.16156209145281139 0 -0.1513521505779423 -0.1358503771511535 0 -0.15114954164027811 -0.14995818884503409 0 -0.16451957836064371 -0.13718483230815701 0 -0.1513521505779423 -0.1358503771511535 0 -0.15114954164027811 -0.14995818884503409 0 -0.1376444295167342 -0.14475357770421801 0 -0.1136053070935282 -0.1579211140452195 0 -0.1376444295167342 -0.14475357770421801 0 -0.13545341440724179 -0.16156209145281139 0 -0.1136053070935282 -0.1579211140452195 0 -0.1237657710554881 -0.1358272565332431 0 -0.1376444295167342 -0.14475357770421801 0 -0.120174673664546 -0.17432542895230019 0 -0.13545341440724179 -0.16156209145281139 0 -0.14120900881520401 -0.17859507864850629 0 -0.120174673664546 -0.17432542895230019 0 -0.14120900881520401 -0.17859507864850629 0 -0.125506950552561 -0.1908200522819998 0 -0.14120900881520401 -0.17859507864850629 0 -0.15091106966405629 -0.1643188846364099 0 -0.162183137385531 -0.1746707784741986 0 -0.14120900881520401 -0.17859507864850629 0 -0.162183137385531 -0.1746707784741986 0 -0.15295181950933759 -0.1895278279665463 0 -0.15114954164027811 -0.14995818884503409 0 -0.13545341440724179 -0.16156209145281139 0 -0.15091106966405629 -0.1643188846364099 0 -0.13545341440724179 -0.16156209145281139 0 -0.14120900881520401 -0.17859507864850629 0 -0.15091106966405629 -0.1643188846364099 0 -0.15114954164027811 -0.14995818884503409 0 -0.15091106966405629 -0.1643188846364099 0 -0.1645602460720266 -0.1568082857614988 0 -0.15091106966405629 -0.1643188846364099 0 -0.1645602460720266 -0.1568082857614988 0 -0.162183137385531 -0.1746707784741986 0 -0.1645602460720266 -0.1568082857614988 0 -0.162183137385531 -0.1746707784741986 0 -0.18114584608108811 -0.16213902632913679 0 -0.162183137385531 -0.1746707784741986 0 -0.15295181950933759 -0.1895278279665463 0 -0.16638916090187039 -0.19089622456834329 0 -0.162183137385531 -0.1746707784741986 0 -0.1789210489840653 -0.18075921301553091 0 -0.16638916090187039 -0.19089622456834329 0 -0.162183137385531 -0.1746707784741986 0 -0.1789210489840653 -0.18075921301553091 0 -0.18114584608108811 -0.16213902632913679 0 -0.1789210489840653 -0.18075921301553091 0 -0.18114584608108811 -0.16213902632913679 0 -0.19230296492543231 -0.17558266003431719 0 -0.18114584608108811 -0.16213902632913679 0 -0.17910127373205309 -0.14476320778896559 0 -0.19285819503716581 -0.15089707990853149 0 -0.1645602460720266 -0.1568082857614988 0 -0.18114584608108811 -0.16213902632913679 0 -0.17910127373205309 -0.14476320778896559 0 -0.1974861366251737 -0.1346223331293194 0 -0.171687344136814 -0.123091166387347 0 -0.1781985832136711 -0.13491538490344721 0 -0.1974861366251737 -0.1346223331293194 0 -0.171687344136814 -0.123091166387347 0 -0.17910127373205309 -0.14476320778896559 0 -0.1781985832136711 -0.13491538490344721 0 -0.1974861366251737 -0.1346223331293194 0 -0.1974861366251737 -0.1346223331293194 0 -0.18670154425786009 -0.12220563002721729 0 -0.171687344136814 -0.123091166387347 0 -0.17910127373205309 -0.14476320778896559 0 -0.1781985832136711 -0.13491538490344721 0 -0.16451957836064371 -0.13718483230815701 0 -0.16451957836064371 -0.13718483230815701 0 -0.171687344136814 -0.123091166387347 0 -0.15810287542058279 -0.1243064578130951 0 -0.1781985832136711 -0.13491538490344721 0 -0.16451957836064371 -0.13718483230815701 0 -0.171687344136814 -0.123091166387347 0 -0.1513521505779423 -0.1358503771511535 0 -0.16451957836064371 -0.13718483230815701 0 -0.15810287542058279 -0.1243064578130951 0 -0.15114954164027811 -0.14995818884503409 0 -0.1645602460720266 -0.1568082857614988 0 -0.16451957836064371 -0.13718483230815701 0 -0.1645602460720266 -0.1568082857614988 0 -0.17910127373205309 -0.14476320778896559 0 -0.16451957836064371 -0.13718483230815701 0 -0.1549563994126926 -0.25638117026728369 0 -0.13696654556145929 -0.2465802172165627 0 -0.15365965796257949 -0.2299931084414959 0 -0.1210029789664883 -0.2258808695355469 0 -0.11808015724625499 -0.2469318776918972 0 -0.13696654556145929 -0.2465802172165627 0 -0.1210029789664883 -0.2258808695355469 0 -0.13696654556145929 -0.2465802172165627 0 -0.138191590637953 -0.22647853689450981 0 -0.1227985886545105 -0.2084038747399454 0 -0.1210029789664883 -0.2258808695355469 0 -0.138191590637953 -0.22647853689450981 0 -0.138191590637953 -0.22647853689450981 0 -0.15365965796257949 -0.2299931084414959 0 -0.14161168050696279 -0.21160407954434299 0 -0.13696654556145929 -0.2465802172165627 0 -0.138191590637953 -0.22647853689450981 0 -0.15365965796257949 -0.2299931084414959 0 -0.15365965796257949 -0.2299931084414959 0 -0.14161168050696279 -0.21160407954434299 0 -0.15835174474388319 -0.2063157035694109 0 -0.14161168050696279 -0.21160407954434299 0 -0.13963141598605511 -0.19662605241616021 0 -0.15835174474388319 -0.2063157035694109 0 -0.1227985886545105 -0.2084038747399454 0 -0.14161168050696279 -0.21160407954434299 0 -0.13963141598605511 -0.19662605241616021 0 -0.1227985886545105 -0.2084038747399454 0 -0.138191590637953 -0.22647853689450981 0 -0.14161168050696279 -0.21160407954434299 0 -0.1227985886545105 -0.2084038747399454 0 -0.13963141598605511 -0.19662605241616021 0 -0.125506950552561 -0.1908200522819998 0 -0.14120900881520401 -0.17859507864850629 0 -0.13963141598605511 -0.19662605241616021 0 -0.125506950552561 -0.1908200522819998 0 -0.13963141598605511 -0.19662605241616021 0 -0.15295181950933759 -0.1895278279665463 0 -0.15835174474388319 -0.2063157035694109 0 -0.14120900881520401 -0.17859507864850629 0 -0.13963141598605511 -0.19662605241616021 0 -0.15295181950933759 -0.1895278279665463 0 -0.16638916090187039 -0.19089622456834329 0 -0.1795380538865349 -0.20320759981602951 0 -0.15835174474388319 -0.2063157035694109 0 -0.15295181950933759 -0.1895278279665463 0 -0.16638916090187039 -0.19089622456834329 0 -0.15835174474388319 -0.2063157035694109 0 -0.1789210489840653 -0.18075921301553091 0 -0.1795380538865349 -0.20320759981602951 0 -0.19495851875280459 -0.19445531521795009 0 -0.1789210489840653 -0.18075921301553091 0 -0.16638916090187039 -0.19089622456834329 0 -0.1795380538865349 -0.20320759981602951 0 -0.1795380538865349 -0.20320759981602951 0 -0.17403775036096211 -0.22266416074263479 0 -0.1908778617433434 -0.21654733783798691 0 -0.1795380538865349 -0.20320759981602951 0 -0.15835174474388319 -0.2063157035694109 0 -0.17403775036096211 -0.22266416074263479 0 -0.15365965796257949 -0.2299931084414959 0 -0.15835174474388319 -0.2063157035694109 0 -0.17403775036096211 -0.22266416074263479 0 -0.15365965796257949 -0.2299931084414959 0 -0.17403775036096211 -0.22266416074263479 0 -0.1711511126820103 -0.2454622828759119 0 -0.17403775036096211 -0.22266416074263479 0 -0.18871061161523961 -0.23588040243197769 0 -0.1908778617433434 -0.21654733783798691 0 -0.17403775036096211 -0.22266416074263479 0 -0.1711511126820103 -0.2454622828759119 0 -0.18871061161523961 -0.23588040243197769 0 -0.18821041320015461 -0.25321495835273289 0 -0.1711511126820103 -0.2454622828759119 0 -0.18871061161523961 -0.23588040243197769 0 -0.1549563994126926 -0.25638117026728369 0 -0.15365965796257949 -0.2299931084414959 0 -0.1711511126820103 -0.2454622828759119 0 -0.20427737249766981 -0.24797899690480421 0 -0.20621014913701191 -0.22758520757719869 0 -0.2215532654752311 -0.24133106905983459 0 -0.18821041320015461 -0.25321495835273289 0 -0.20427737249766981 -0.24797899690480421 0 -0.18871061161523961 -0.23588040243197769 0 -0.20427737249766981 -0.24797899690480421 0 -0.18871061161523961 -0.23588040243197769 0 -0.20621014913701191 -0.22758520757719869 0 -0.18871061161523961 -0.23588040243197769 0 -0.20621014913701191 -0.22758520757719869 0 -0.1908778617433434 -0.21654733783798691 0 -0.20621014913701191 -0.22758520757719869 0 -0.22224486842701091 -0.22713437756392699 0 -0.2215532654752311 -0.24133106905983459 0 -0.20621014913701191 -0.22758520757719869 0 -0.217072132600347 -0.21622468905513531 0 -0.22224486842701091 -0.22713437756392699 0 -0.20621014913701191 -0.22758520757719869 0 -0.217072132600347 -0.21622468905513531 0 -0.2056326469088835 -0.2085405100335597 0 -0.217072132600347 -0.21622468905513531 0 -0.2056326469088835 -0.2085405100335597 0 -0.21968540764397879 -0.20557320755319661 0 -0.2056326469088835 -0.2085405100335597 0 -0.2106710430964556 -0.1968602222531359 0 -0.21968540764397879 -0.20557320755319661 0 -0.20621014913701191 -0.22758520757719869 0 -0.2056326469088835 -0.2085405100335597 0 -0.1908778617433434 -0.21654733783798691 0 -0.1795380538865349 -0.20320759981602951 0 -0.1908778617433434 -0.21654733783798691 0 -0.19495851875280459 -0.19445531521795009 0 -0.2056326469088835 -0.2085405100335597 0 -0.1908778617433434 -0.21654733783798691 0 -0.19495851875280459 -0.19445531521795009 0 -0.2106710430964556 -0.1968602222531359 0 -0.22728142096427759 -0.19425397980670309 0 -0.20522675148825131 -0.18158782910824481 0 -0.2056326469088835 -0.2085405100335597 0 -0.19495851875280459 -0.19445531521795009 0 -0.2106710430964556 -0.1968602222531359 0 -0.22728142096427759 -0.19425397980670309 0 -0.20522675148825131 -0.18158782910824481 0 -0.19495851875280459 -0.19445531521795009 0 -0.2106710430964556 -0.1968602222531359 0 -0.20522675148825131 -0.18158782910824481 0 -0.22728142096427759 -0.19425397980670309 0 -0.24692575768292011 -0.19600501844481719 0 -0.22271580934176971 -0.1793788101085306 0 -0.2106710430964556 -0.1968602222531359 0 -0.22728142096427759 -0.19425397980670309 0 -0.21968540764397879 -0.20557320755319661 0 -0.22728142096427759 -0.19425397980670309 0 -0.24692575768292011 -0.19600501844481719 0 -0.24933609044030389 -0.20692013050516139 0 -0.24692575768292011 -0.19600501844481719 0 -0.22271580934176971 -0.1793788101085306 0 -0.22728142096427759 -0.19425397980670309 0 -0.24933609044030389 -0.20692013050516139 0 -0.22728142096427759 -0.19425397980670309 0 -0.24933609044030389 -0.20692013050516139 0 -0.2315875908848499 -0.21229014254779449 0 -0.24933609044030389 -0.20692013050516139 0 -0.2443222649532667 -0.21836723814268599 0 -0.2315875908848499 -0.21229014254779449 0 -0.24933609044030389 -0.20692013050516139 0 -0.2443222649532667 -0.21836723814268599 0 -0.25170803779926798 -0.2184142035842741 0 -0.22728142096427759 -0.19425397980670309 0 -0.2315875908848499 -0.21229014254779449 0 -0.21968540764397879 -0.20557320755319661 0 -0.217072132600347 -0.21622468905513531 0 -0.2315875908848499 -0.21229014254779449 0 -0.21968540764397879 -0.20557320755319661 0 -0.217072132600347 -0.21622468905513531 0 -0.2315875908848499 -0.21229014254779449 0 -0.22224486842701091 -0.22713437756392699 0 -0.2315875908848499 -0.21229014254779449 0 -0.22224486842701091 -0.22713437756392699 0 -0.23622916876500799 -0.22897103137762501 0 -0.22224486842701091 -0.22713437756392699 0 -0.23622916876500799 -0.22897103137762501 0 -0.2215532654752311 -0.24133106905983459 0 -0.2443222649532667 -0.21836723814268599 0 -0.23622916876500799 -0.22897103137762501 0 -0.25215205956079811 -0.2272816576573034 0 -0.2443222649532667 -0.21836723814268599 0 -0.2315875908848499 -0.21229014254779449 0 -0.23622916876500799 -0.22897103137762501 0 -0.23622916876500799 -0.22897103137762501 0 -0.2448759247925982 -0.23766676242721729 0 -0.25215205956079811 -0.2272816576573034 0 -0.2443222649532667 -0.21836723814268599 0 -0.25215205956079811 -0.2272816576573034 0 -0.25170803779926798 -0.2184142035842741 0 -0.23592948902621311 -0.2477715507551034 0 -0.2448759247925982 -0.23766676242721729 0 -0.25741499207255808 -0.2468477206326791 0 -0.23622916876500799 -0.22897103137762501 0 -0.23592948902621311 -0.2477715507551034 0 -0.2448759247925982 -0.23766676242721729 0 -0.23622916876500799 -0.22897103137762501 0 -0.23592948902621311 -0.2477715507551034 0 -0.2215532654752311 -0.24133106905983459 0 -0.2061565224662168 -0.15124154296024339 0 -0.1974861366251737 -0.1346223331293194 0 -0.2232849291135334 -0.14615349987129159 0 -0.2061565224662168 -0.15124154296024339 0 -0.21864749055459171 -0.16178220011983041 0 -0.2232849291135334 -0.14615349987129159 0 -0.21393053126983869 -0.13110201379163039 0 -0.1974861366251737 -0.1346223331293194 0 -0.2232849291135334 -0.14615349987129159 0 -0.1974861366251737 -0.1346223331293194 0 -0.2232849291135334 -0.14615349987129159 0 -0.21393053126983869 -0.13110201379163039 0 -0.22975118582055801 -0.12539958860092129 0 -0.20225593608176021 -0.1189976926349819 0 -0.21393053126983869 -0.13110201379163039 0 -0.1974861366251737 -0.1346223331293194 0 -0.20225593608176021 -0.1189976926349819 0 -0.1974861366251737 -0.1346223331293194 0 -0.20225593608176021 -0.1189976926349819 0 -0.18670154425786009 -0.12220563002721729 0 -0.17910127373205309 -0.14476320778896559 0 -0.1974861366251737 -0.1346223331293194 0 -0.19285819503716581 -0.15089707990853149 0 -0.2061565224662168 -0.15124154296024339 0 -0.1974861366251737 -0.1346223331293194 0 -0.19285819503716581 -0.15089707990853149 0 -0.2061565224662168 -0.15124154296024339 0 -0.19285819503716581 -0.15089707990853149 0 -0.19850586100061929 -0.16275260177224399 0 -0.18114584608108811 -0.16213902632913679 0 -0.19850586100061929 -0.16275260177224399 0 -0.19230296492543231 -0.17558266003431719 0 -0.18114584608108811 -0.16213902632913679 0 -0.19285819503716581 -0.15089707990853149 0 -0.19850586100061929 -0.16275260177224399 0 -0.1789210489840653 -0.18075921301553091 0 -0.19495851875280459 -0.19445531521795009 0 -0.19230296492543231 -0.17558266003431719 0 -0.19495851875280459 -0.19445531521795009 0 -0.19230296492543231 -0.17558266003431719 0 -0.20522675148825131 -0.18158782910824481 0 -0.19850586100061929 -0.16275260177224399 0 -0.19230296492543231 -0.17558266003431719 0 -0.20522675148825131 -0.18158782910824481 0 -0.22728142096427759 -0.19425397980670309 0 -0.20522675148825131 -0.18158782910824481 0 -0.22271580934176971 -0.1793788101085306 0 -0.19850586100061929 -0.16275260177224399 0 -0.20522675148825131 -0.18158782910824481 0 -0.22271580934176971 -0.1793788101085306 0 -0.2061565224662168 -0.15124154296024339 0 -0.19850586100061929 -0.16275260177224399 0 -0.21864749055459171 -0.16178220011983041 0 -0.19850586100061929 -0.16275260177224399 0 -0.21864749055459171 -0.16178220011983041 0 -0.22271580934176971 -0.1793788101085306 0 -0.19850586100061929 -0.16275260177224399 0 -0.22271580934176971 -0.1793788101085306 0 -0.21864749055459171 -0.16178220011983041 0 -0.2288175402157793 -0.1615656347197178 0 -0.2232849291135334 -0.14615349987129159 0 -0.21864749055459171 -0.16178220011983041 0 -0.23024779901317491 -0.17106100739123881 0 -0.22271580934176971 -0.1793788101085306 0 -0.21864749055459171 -0.16178220011983041 0 -0.23024779901317491 -0.17106100739123881 0 -0.2288175402157793 -0.1615656347197178 0 -0.23024779901317491 -0.17106100739123881 0 -0.2288175402157793 -0.1615656347197178 0 -0.23669499565750471 -0.1660626901431827 0 -0.23024779901317491 -0.17106100739123881 0 -0.22271580934176971 -0.1793788101085306 0 -0.23790124951302791 -0.18090394508946189 0 -0.24692575768292011 -0.19600501844481719 0 -0.22271580934176971 -0.1793788101085306 0 -0.23790124951302791 -0.18090394508946189 0 -0.23024779901317491 -0.17106100739123881 0 -0.23790124951302791 -0.18090394508946189 0 -0.238180233643773 -0.17264475543636509 0 -0.23790124951302791 -0.18090394508946189 0 -0.238180233643773 -0.17264475543636509 0 -0.24424249797212791 -0.175980572320725 0 -0.238180233643773 -0.17264475543636509 0 -0.24424249797212791 -0.175980572320725 0 -0.24248590012259039 -0.16874156103166549 0 -0.24996747062821489 -0.1776172147900528 0 -0.24424249797212791 -0.175980572320725 0 -0.2481423511905558 -0.1700161807078017 0 -0.24996747062821489 -0.1776172147900528 0 -0.24424249797212791 -0.175980572320725 0 -0.24907905928585861 -0.18352758111344969 0 -0.24692575768292011 -0.19600501844481719 0 -0.23790124951302791 -0.18090394508946189 0 -0.24907905928585861 -0.18352758111344969 0 -0.23790124951302791 -0.18090394508946189 0 -0.24424249797212791 -0.175980572320725 0 -0.24907905928585861 -0.18352758111344969 0 -0.2288175402157793 -0.1615656347197178 0 -0.23778105099972599 -0.15875891222506949 0 -0.23669499565750471 -0.1660626901431827 0 -0.23778105099972599 -0.15875891222506949 0 -0.23669499565750471 -0.1660626901431827 0 -0.24265744994998459 -0.1636042700550398 0 -0.23024779901317491 -0.17106100739123881 0 -0.238180233643773 -0.17264475543636509 0 -0.23669499565750471 -0.1660626901431827 0 -0.238180233643773 -0.17264475543636509 0 -0.23669499565750471 -0.1660626901431827 0 -0.24248590012259039 -0.16874156103166549 0 -0.23669499565750471 -0.1660626901431827 0 -0.24248590012259039 -0.16874156103166549 0 -0.24265744994998459 -0.1636042700550398 0 -0.24575161844544599 -0.16550056645148031 0 -0.24248590012259039 -0.16874156103166549 0 -0.24265744994998459 -0.1636042700550398 0 -0.24424249797212791 -0.175980572320725 0 -0.24248590012259039 -0.16874156103166549 0 -0.2481423511905558 -0.1700161807078017 0 -0.24575161844544599 -0.16550056645148031 0 -0.24248590012259039 -0.16874156103166549 0 -0.2481423511905558 -0.1700161807078017 0 -0.24575161844544599 -0.16550056645148031 0 -0.2481423511905558 -0.1700161807078017 0 -0.249072028622703 -0.16615182420934929 0 -0.24575161844544599 -0.16550056645148031 0 -0.249072028622703 -0.16615182420934929 0 -0.24734788027843749 -0.1629205955995687 0 -0.249072028622703 -0.16615182420934929 0 -0.24734788027843749 -0.1629205955995687 0 -0.25038409082640922 -0.16381984975180011 0 -0.23778105099972599 -0.15875891222506949 0 -0.24653744436367839 -0.1592978736252528 0 -0.24908372160189399 -0.15768466661326169 0 -0.23778105099972599 -0.15875891222506949 0 -0.24265744994998459 -0.1636042700550398 0 -0.24653744436367839 -0.1592978736252528 0 -0.2493933759359015 -0.16137552544613121 0 -0.24908372160189399 -0.15768466661326169 0 -0.25038409082640922 -0.16381984975180011 0 -0.2493933759359015 -0.16137552544613121 0 -0.24734788027843749 -0.1629205955995687 0 -0.25038409082640922 -0.16381984975180011 0 -0.2493933759359015 -0.16137552544613121 0 -0.24734788027843749 -0.1629205955995687 0 -0.24653744436367839 -0.1592978736252528 0 -0.24734788027843749 -0.1629205955995687 0 -0.24265744994998459 -0.1636042700550398 0 -0.24653744436367839 -0.1592978736252528 0 -0.24575161844544599 -0.16550056645148031 0 -0.24734788027843749 -0.1629205955995687 0 -0.24265744994998459 -0.1636042700550398 0 -0.24653744436367839 -0.1592978736252528 0 -0.24908372160189399 -0.15768466661326169 0 -0.2493933759359015 -0.16137552544613121 0 -0.24653744436367839 -0.1592978736252528 0 -0.24908372160189399 -0.15768466661326169 0 -0.24908372160189399 -0.15768466661326169 0 -0.24211142644617789 -0.1398353473551551 0 -0.25447166707179603 -0.1542711061093904 0 -0.24908372160189399 -0.15768466661326169 0 -0.2232849291135334 -0.14615349987129159 0 -0.24908372160189399 -0.15768466661326169 0 -0.2232849291135334 -0.14615349987129159 0 -0.24211142644617789 -0.1398353473551551 0 -0.23778105099972599 -0.15875891222506949 0 -0.24908372160189399 -0.15768466661326169 0 -0.2232849291135334 -0.14615349987129159 0 -0.24211142644617789 -0.1398353473551551 0 -0.25447166707179603 -0.1542711061093904 0 -0.2288175402157793 -0.1615656347197178 0 -0.23778105099972599 -0.15875891222506949 0 -0.2232849291135334 -0.14615349987129159 0 -0.2232849291135334 -0.14615349987129159 0 -0.22975118582055801 -0.12539958860092129 0 -0.24211142644617789 -0.1398353473551551 0 -0.21393053126983869 -0.13110201379163039 0 -0.2232849291135334 -0.14615349987129159 0 -0.22975118582055801 -0.12539958860092129 0 -0.22975118582055801 -0.12539958860092129 0 -0.24211142644617789 -0.1398353473551551 0 -0.25545163518708708 -0.13138358964421271 0 -0.22975118582055801 -0.12539958860092129 0 -0.24211142644617789 -0.1398353473551551 0 -0.22975118582055801 -0.12539958860092129 0 -0.25545163518708708 -0.13138358964421271 0 -0.22975118582055801 -0.12539958860092129 0 -0.2391705189568494 -0.11326632217287751 0 -0.25545163518708708 -0.13138358964421271 0 -0.2391705189568494 -0.11326632217287751 0 -0.24514954582311629 -0.10133274003856201 0 -0.25640897086900277 -0.1124834958395014 0 -0.24514954582311629 -0.10133274003856201 0 -0.22919681459679159 -0.09607957383444729 0 -0.24555390681774389 -0.085262056606915188 0 -0.2391705189568494 -0.11326632217287751 0 -0.24514954582311629 -0.10133274003856201 0 -0.22919681459679159 -0.09607957383444729 0 -0.22919681459679159 -0.09607957383444729 0 -0.21906496144454071 -0.1129189450796186 0 -0.21228642659443001 -0.097172647152769298 0 -0.2391705189568494 -0.11326632217287751 0 -0.22919681459679159 -0.09607957383444729 0 -0.21906496144454071 -0.1129189450796186 0 -0.22975118582055801 -0.12539958860092129 0 -0.2391705189568494 -0.11326632217287751 0 -0.21906496144454071 -0.1129189450796186 0 -0.22975118582055801 -0.12539958860092129 0 -0.21906496144454071 -0.1129189450796186 0 -0.2301735080372628 -0.076931335197850503 0 -0.23977546518461251 -0.056304918150352531 0 -0.25655880488831317 -0.071666108523075783 0 -0.24555390681774389 -0.085262056606915188 0 -0.2301735080372628 -0.076931335197850503 0 -0.25655880488831317 -0.071666108523075783 0 -0.22919681459679159 -0.09607957383444729 0 -0.24555390681774389 -0.085262056606915188 0 -0.2301735080372628 -0.076931335197850503 0 -0.22919681459679159 -0.09607957383444729 0 -0.21911268395182459 -0.087168035319395445 0 -0.21228642659443001 -0.097172647152769298 0 -0.21911268395182459 -0.087168035319395445 0 -0.2301735080372628 -0.076931335197850503 0 -0.211941893586965 -0.077786061207168342 0 -0.22919681459679159 -0.09607957383444729 0 -0.21911268395182459 -0.087168035319395445 0 -0.2301735080372628 -0.076931335197850503 0 -0.2301735080372628 -0.076931335197850503 0 -0.21324483229015359 -0.065399402779659235 0 -0.2301735080372628 -0.076931335197850503 0 -0.2272548016815481 -0.063024478600742548 0 -0.21324483229015359 -0.065399402779659235 0 -0.2301735080372628 -0.076931335197850503 0 -0.2272548016815481 -0.063024478600742548 0 -0.23977546518461251 -0.056304918150352531 0 -0.2301735080372628 -0.076931335197850503 0 -0.21324483229015359 -0.065399402779659235 0 -0.211941893586965 -0.077786061207168342 0 -0.21324483229015359 -0.065399402779659235 0 -0.211941893586965 -0.077786061207168342 0 -0.19868563270185499 -0.066919239399244129 0 -0.211941893586965 -0.077786061207168342 0 -0.20692791686870801 -0.08788786711214816 0 -0.19656128880224311 -0.083989714088137102 0 -0.21911268395182459 -0.087168035319395445 0 -0.211941893586965 -0.077786061207168342 0 -0.20692791686870801 -0.08788786711214816 0 -0.21911268395182459 -0.087168035319395445 0 -0.20692791686870801 -0.08788786711214816 0 -0.21228642659443001 -0.097172647152769298 0 -0.20692791686870801 -0.08788786711214816 0 -0.21228642659443001 -0.097172647152769298 0 -0.1966977687536971 -0.095437705988763152 0 -0.211941893586965 -0.077786061207168342 0 -0.19656128880224311 -0.083989714088137102 0 -0.1830945282641647 -0.073665872602239876 0 -0.20692791686870801 -0.08788786711214816 0 -0.19656128880224311 -0.083989714088137102 0 -0.1966977687536971 -0.095437705988763152 0 -0.19656128880224311 -0.083989714088137102 0 -0.1966977687536971 -0.095437705988763152 0 -0.18461908388071771 -0.086986760877682395 0 -0.19656128880224311 -0.083989714088137102 0 -0.18461908388071771 -0.086986760877682395 0 -0.1830945282641647 -0.073665872602239876 0 -0.211941893586965 -0.077786061207168342 0 -0.19868563270185499 -0.066919239399244129 0 -0.1830945282641647 -0.073665872602239876 0 -0.211941893586965 -0.077786061207168342 0 -0.1830945282641647 -0.073665872602239876 0 -0.18893955922053149 -0.064084006499044638 0 -0.19868563270185499 -0.066919239399244129 0 -0.1830945282641647 -0.073665872602239876 0 -0.22975118582055801 -0.12539958860092129 0 -0.20225593608176021 -0.1189976926349819 0 -0.21906496144454071 -0.1129189450796186 0 -0.2042582321366207 -0.1065324074543952 0 -0.20225593608176021 -0.1189976926349819 0 -0.22975118582055801 -0.12539958860092129 0 -0.21906496144454071 -0.1129189450796186 0 -0.20225593608176021 -0.1189976926349819 0 -0.21906496144454071 -0.1129189450796186 0 -0.21228642659443001 -0.097172647152769298 0 -0.2042582321366207 -0.1065324074543952 0 -0.21228642659443001 -0.097172647152769298 0 -0.2042582321366207 -0.1065324074543952 0 -0.1966977687536971 -0.095437705988763152 0 -0.1966977687536971 -0.095437705988763152 0 -0.19180145271110241 -0.10671487279132651 0 -0.18103464024047139 -0.1000107612094519 0 -0.2042582321366207 -0.1065324074543952 0 -0.1966977687536971 -0.095437705988763152 0 -0.19180145271110241 -0.10671487279132651 0 -0.20225593608176021 -0.1189976926349819 0 -0.17476068634296271 -0.1125957966690404 0 -0.19180145271110241 -0.10671487279132651 0 -0.20225593608176021 -0.1189976926349819 0 -0.17476068634296271 -0.1125957966690404 0 -0.20225593608176021 -0.1189976926349819 0 -0.18670154425786009 -0.12220563002721729 0 -0.17476068634296271 -0.1125957966690404 0 -0.2042582321366207 -0.1065324074543952 0 -0.19180145271110241 -0.10671487279132651 0 -0.20225593608176021 -0.1189976926349819 0 -0.18670154425786009 -0.12220563002721729 0 -0.17476068634296271 -0.1125957966690404 0 -0.171687344136814 -0.123091166387347 0 -0.171687344136814 -0.123091166387347 0 -0.16407891958125481 -0.11473127846198571 0 -0.15810287542058279 -0.1243064578130951 0 -0.17476068634296271 -0.1125957966690404 0 -0.171687344136814 -0.123091166387347 0 -0.16407891958125481 -0.11473127846198571 0 -0.17476068634296271 -0.1125957966690404 0 -0.16407891958125481 -0.11473127846198571 0 -0.16407643147975631 -0.1018132648438155 0 -0.16407891958125481 -0.11473127846198571 0 -0.15810287542058279 -0.1243064578130951 0 -0.15176726052615819 -0.1118497065966302 0 -0.16407891958125481 -0.11473127846198571 0 -0.16407643147975631 -0.1018132648438155 0 -0.15176726052615819 -0.1118497065966302 0 -0.19180145271110241 -0.10671487279132651 0 -0.17476068634296271 -0.1125957966690404 0 -0.18103464024047139 -0.1000107612094519 0 -0.16407643147975631 -0.1018132648438155 0 -0.18103464024047139 -0.1000107612094519 0 -0.17234876516596731 -0.089502269635095305 0 -0.1966977687536971 -0.095437705988763152 0 -0.18103464024047139 -0.1000107612094519 0 -0.18461908388071771 -0.086986760877682395 0 -0.17476068634296271 -0.1125957966690404 0 -0.16407643147975631 -0.1018132648438155 0 -0.18103464024047139 -0.1000107612094519 0 -0.18461908388071771 -0.086986760877682395 0 -0.17718112506962461 -0.082393777976951882 0 -0.1830945282641647 -0.073665872602239876 0 -0.17718112506962461 -0.082393777976951882 0 -0.17234876516596731 -0.089502269635095305 0 -0.16866212296764879 -0.079420208792789937 0 -0.17718112506962461 -0.082393777976951882 0 -0.1830945282641647 -0.073665872602239876 0 -0.16866212296764879 -0.079420208792789937 0 -0.18461908388071771 -0.086986760877682395 0 -0.17718112506962461 -0.082393777976951882 0 -0.17234876516596731 -0.089502269635095305 0 -0.18103464024047139 -0.1000107612094519 0 -0.18461908388071771 -0.086986760877682395 0 -0.17234876516596731 -0.089502269635095305 0 -0.1830945282641647 -0.073665872602239876 0 -0.1589620235638706 -0.070219094369223231 0 -0.177661919373062 -0.061883443633226211 0 -0.18893955922053149 -0.064084006499044638 0 -0.1830945282641647 -0.073665872602239876 0 -0.177661919373062 -0.061883443633226211 0 -0.1589620235638706 -0.070219094369223231 0 -0.1542471629413642 -0.069545683997312507 0 -0.1620098668213362 -0.052665738940296657 0 -0.1830945282641647 -0.073665872602239876 0 -0.1589620235638706 -0.070219094369223231 0 -0.16866212296764879 -0.079420208792789937 0 -0.1589620235638706 -0.070219094369223231 0 -0.177661919373062 -0.061883443633226211 0 -0.1830945282641647 -0.073665872602239876 0 -0.1589620235638706 -0.070219094369223231 0 -0.1589620235638706 -0.070219094369223231 0 -0.16866212296764879 -0.079420208792789937 0 -0.1542471629413642 -0.069545683997312507 0 -0.1589620235638706 -0.070219094369223231 0 -0.1542471629413642 -0.069545683997312507 0 -0.16866212296764879 -0.079420208792789937 0 -0.1592134173365391 -0.0875115484213803 0 -0.1542471629413642 -0.069545683997312507 0 -0.16407643147975631 -0.1018132648438155 0 -0.17234876516596731 -0.089502269635095305 0 -0.1592134173365391 -0.0875115484213803 0 -0.17234876516596731 -0.089502269635095305 0 -0.16866212296764879 -0.079420208792789937 0 -0.1592134173365391 -0.0875115484213803 0 -0.1592134173365391 -0.0875115484213803 0 -0.1440866989794079 -0.091639541509290434 0 -0.1542471629413642 -0.069545683997312507 0 -0.1440866989794079 -0.091639541509290434 0 -0.1542471629413642 -0.069545683997312507 0 -0.1377790389216309 -0.079102810485991673 0 -0.1440866989794079 -0.091639541509290434 0 -0.1542471629413642 -0.069545683997312507 0 -0.16407643147975631 -0.1018132648438155 0 -0.1592134173365391 -0.0875115484213803 0 -0.1440866989794079 -0.091639541509290434 0 -0.1542471629413642 -0.069545683997312507 0 -0.1273462545314373 -0.065703502395887903 0 -0.1542471629413642 -0.069545683997312507 0 -0.1273462545314373 -0.065703502395887903 0 -0.1377790389216309 -0.079102810485991673 0 -0.12256317794057529 -0.094196919881979008 0 -0.1273462545314373 -0.065703502395887903 0 -0.1377790389216309 -0.079102810485991673 0 -0.12256317794057529 -0.094196919881979008 0 -0.1440866989794079 -0.091639541509290434 0 -0.1377790389216309 -0.079102810485991673 0 -0.1440866989794079 -0.091639541509290434 0 -0.13392623501744799 -0.1137333990212667 0 -0.12256317794057529 -0.094196919881979008 0 -0.1440866989794079 -0.091639541509290434 0 -0.13392623501744799 -0.1137333990212667 0 -0.1237657710554881 -0.1358272565332431 0 -0.13392623501744799 -0.1137333990212667 0 -0.14275978701905889 -0.12772012913660111 0 -0.13392623501744799 -0.1137333990212667 0 -0.15176726052615819 -0.1118497065966302 0 -0.14275978701905889 -0.12772012913660111 0 -0.15810287542058279 -0.1243064578130951 0 -0.15176726052615819 -0.1118497065966302 0 -0.1440866989794079 -0.091639541509290434 0 -0.13392623501744799 -0.1137333990212667 0 -0.15176726052615819 -0.1118497065966302 0 -0.16407643147975631 -0.1018132648438155 0 -0.1440866989794079 -0.091639541509290434 0 -0.15176726052615819 -0.1118497065966302 0 -0.149142205568286 -0.018409896643967642 0 -0.13290991908602751 -0.032893704694133233 0 -0.14981208925821429 -0.03063708571700061 0 -0.149142205568286 -0.018409896643967642 0 -0.13290991908602751 -0.032893704694133233 0 -0.149142205568286 -0.018409896643967642 0 -0.14422967234624631 -0.01310578201341526 0 -0.1365363064596273 -0.022344523514878829 0 -0.149142205568286 -0.018409896643967642 0 -0.14422967234624631 -0.01310578201341526 0 -0.14981208925821429 -0.03063708571700061 0 -0.15409518357207999 -0.024321113853385371 0 -0.149142205568286 -0.018409896643967642 0 -0.14981208925821429 -0.03063708571700061 0 -0.15409518357207999 -0.024321113853385371 0 -0.1625152222808964 -0.030842037338487619 0 -0.15409518357207999 -0.024321113853385371 0 -0.149142205568286 -0.018409896643967642 0 -0.15524144618814689 -0.018108675806430202 0 -0.14422967234624631 -0.01310578201341526 0 -0.161915684297986 0.0081328403297782435 0 -0.149142205568286 -0.018409896643967642 0 -0.14422967234624631 -0.01310578201341526 0 -0.16333232793836591 -0.0057482787726198551 0 -0.149142205568286 -0.018409896643967642 0 -0.15524144618814689 -0.018108675806430202 0 -0.16333232793836591 -0.0057482787726198551 0 -0.14422967234624631 -0.01310578201341526 0 -0.12809890080586719 -0.01116188753518595 0 -0.1365363064596273 -0.022344523514878829 0 -0.14422967234624631 -0.01310578201341526 0 -0.1270076602408961 0.0054890085451015942 0 -0.14422967234624631 -0.01310578201341526 0 -0.12809890080586719 -0.01116188753518595 0 -0.1270076602408961 0.0054890085451015942 0 -0.12809890080586719 -0.01116188753518595 0 -0.1260570433250007 -0.021116881940496671 0 -0.1365363064596273 -0.022344523514878829 0 -0.149142205568286 -0.018409896643967642 0 -0.1365363064596273 -0.022344523514878829 0 -0.13290991908602751 -0.032893704694133233 0 -0.14422967234624631 -0.01310578201341526 0 -0.1365363064596273 -0.022344523514878829 0 -0.1260570433250007 -0.021116881940496671 0 -0.1365363064596273 -0.022344523514878829 0 -0.13290991908602751 -0.032893704694133233 0 -0.1179857531923746 -0.02859964174018529 0 -0.1260570433250007 -0.021116881940496671 0 -0.13290991908602751 -0.032893704694133233 0 -0.116677632603769 -0.047377512744298883 0 -0.13290991908602751 -0.032893704694133233 0 -0.14396845660025431 -0.047641793902280842 0 -0.116677632603769 -0.047377512744298883 0 -0.1273462545314373 -0.065703502395887903 0 -0.14396845660025431 -0.047641793902280842 0 -0.1542471629413642 -0.069545683997312507 0 -0.14396845660025431 -0.047641793902280842 0 -0.1620098668213362 -0.052665738940296657 0 -0.1542471629413642 -0.069545683997312507 0 -0.1273462545314373 -0.065703502395887903 0 -0.14396845660025431 -0.047641793902280842 0 -0.14396845660025431 -0.047641793902280842 0 -0.1572451229633732 -0.040114993923558093 0 -0.1620098668213362 -0.052665738940296657 0 -0.14981208925821429 -0.03063708571700061 0 -0.13290991908602751 -0.032893704694133233 0 -0.14396845660025431 -0.047641793902280842 0 -0.14981208925821429 -0.03063708571700061 0 -0.14396845660025431 -0.047641793902280842 0 -0.1572451229633732 -0.040114993923558093 0 -0.16977257070130591 -0.035785793883279668 0 -0.1620098668213362 -0.052665738940296657 0 -0.1572451229633732 -0.040114993923558093 0 -0.16977257070130591 -0.035785793883279668 0 -0.1625152222808964 -0.030842037338487619 0 -0.1572451229633732 -0.040114993923558093 0 -0.16977257070130591 -0.035785793883279668 0 -0.1620098668213362 -0.052665738940296657 0 -0.14981208925821429 -0.03063708571700061 0 -0.1572451229633732 -0.040114993923558093 0 -0.1625152222808964 -0.030842037338487619 0 -0.16977257070130591 -0.035785793883279668 0 -0.1620098668213362 -0.052665738940296657 0 -0.17335033961901589 -0.050550994367936017 0 -0.16977257070130591 -0.035785793883279668 0 -0.1625152222808964 -0.030842037338487619 0 -0.1589620235638706 -0.070219094369223231 0 -0.1620098668213362 -0.052665738940296657 0 -0.177661919373062 -0.061883443633226211 0 -0.1542471629413642 -0.069545683997312507 0 -0.1620098668213362 -0.052665738940296657 0 -0.1620098668213362 -0.052665738940296657 0 -0.177661919373062 -0.061883443633226211 0 -0.17335033961901589 -0.050550994367936017 0 -0.177661919373062 -0.061883443633226211 0 -0.17335033961901589 -0.050550994367936017 0 -0.1830443636221751 -0.044826632122373727 0 -0.177661919373062 -0.061883443633226211 0 -0.1963161565430441 -0.053867470361468189 0 -0.177661919373062 -0.061883443633226211 0 -0.1830443636221751 -0.044826632122373727 0 -0.1963161565430441 -0.053867470361468189 0 -0.16977257070130591 -0.035785793883279668 0 -0.1830443636221751 -0.044826632122373727 0 -0.1881193352265291 -0.0301442605115642 0 -0.16977257070130591 -0.035785793883279668 0 -0.17335033961901589 -0.050550994367936017 0 -0.1830443636221751 -0.044826632122373727 0 -0.16977257070130591 -0.035785793883279668 0 -0.1830443636221751 -0.044826632122373727 0 -0.16977257070130591 -0.035785793883279668 0 -0.1804094400903643 -0.01265599611663721 0 -0.1881193352265291 -0.0301442605115642 0 -0.16977257070130591 -0.035785793883279668 0 -0.1804094400903643 -0.01265599611663721 0 -0.15982393950381751 -0.022929309059400049 0 -0.1625152222808964 -0.030842037338487619 0 -0.1804094400903643 -0.01265599611663721 0 -0.16977257070130591 -0.035785793883279668 0 -0.1625152222808964 -0.030842037338487619 0 -0.1804094400903643 -0.01265599611663721 0 -0.15409518357207999 -0.024321113853385371 0 -0.15524144618814689 -0.018108675806430202 0 -0.15982393950381751 -0.022929309059400049 0 -0.15409518357207999 -0.024321113853385371 0 -0.15982393950381751 -0.022929309059400049 0 -0.1625152222808964 -0.030842037338487619 0 -0.15524144618814689 -0.018108675806430202 0 -0.15982393950381751 -0.022929309059400049 0 -0.16333232793836591 -0.0057482787726198551 0 -0.15982393950381751 -0.022929309059400049 0 -0.1804094400903643 -0.01265599611663721 0 -0.17383021784488911 -0.00087598240050870343 0 -0.15982393950381751 -0.022929309059400049 0 -0.17383021784488911 -0.00087598240050870343 0 -0.14422967234624631 -0.01310578201341526 0 -0.16333232793836591 -0.0057482787726198551 0 -0.161915684297986 0.0081328403297782435 0 -0.15982393950381751 -0.022929309059400049 0 -0.16333232793836591 -0.0057482787726198551 0 -0.17383021784488911 -0.00087598240050870343 0 -0.149142205568286 -0.018409896643967642 0 -0.16333232793836591 -0.0057482787726198551 0 -0.1804094400903643 -0.01265599611663721 0 -0.17383021784488911 -0.00087598240050870343 0 -0.19104630947942389 0.01047380165000469 0 -0.1804094400903643 -0.01265599611663721 0 -0.19104630947942389 0.01047380165000469 0 -0.1804094400903643 -0.01265599611663721 0 -0.19771232677283049 -0.0035869177676293379 0 -0.1977520353780145 -0.0169456522455728 0 -0.1804094400903643 -0.01265599611663721 0 -0.19771232677283049 -0.0035869177676293379 0 -0.19104630947942389 0.01047380165000469 0 -0.19771232677283049 -0.0035869177676293379 0 -0.1977520353780145 -0.0169456522455728 0 -0.20970438837856969 -0.0069460019217090288 0 -0.1804094400903643 -0.01265599611663721 0 -0.1881193352265291 -0.0301442605115642 0 -0.1977520353780145 -0.0169456522455728 0 -0.1881193352265291 -0.0301442605115642 0 -0.20232759468190151 -0.029715605876152289 0 -0.1977520353780145 -0.0169456522455728 0 -0.20232759468190151 -0.029715605876152289 0 -0.21131464996518601 -0.020299747948645828 0 -0.22119256990360681 -0.043177745406306298 0 -0.20232759468190151 -0.029715605876152289 0 -0.1977520353780145 -0.0169456522455728 0 -0.21131464996518601 -0.020299747948645828 0 -0.21131464996518601 -0.020299747948645828 0 -0.20970438837856969 -0.0069460019217090288 0 -0.22788668582136981 -0.019717011186425659 0 -0.20970438837856969 -0.0069460019217090288 0 -0.22661941181265161 -0.002192526522613961 0 -0.20987163203899811 0.0031202334755927319 0 -0.19771232677283049 -0.0035869177676293379 0 -0.20970438837856969 -0.0069460019217090288 0 -0.20987163203899811 0.0031202334755927319 0 -0.1977520353780145 -0.0169456522455728 0 -0.21131464996518601 -0.020299747948645828 0 -0.20970438837856969 -0.0069460019217090288 0 -0.18893955922053149 -0.064084006499044638 0 -0.177661919373062 -0.061883443633226211 0 -0.1963161565430441 -0.053867470361468189 0 -0.21324483229015359 -0.065399402779659235 0 -0.19868563270185499 -0.066919239399244129 0 -0.1963161565430441 -0.053867470361468189 0 -0.18893955922053149 -0.064084006499044638 0 -0.19868563270185499 -0.066919239399244129 0 -0.1963161565430441 -0.053867470361468189 0 -0.1830443636221751 -0.044826632122373727 0 -0.1963161565430441 -0.053867470361468189 0 -0.1830443636221751 -0.044826632122373727 0 -0.1963161565430441 -0.053867470361468189 0 -0.196833474798698 -0.040635097126493817 0 -0.1830443636221751 -0.044826632122373727 0 -0.1881193352265291 -0.0301442605115642 0 -0.196833474798698 -0.040635097126493817 0 -0.1881193352265291 -0.0301442605115642 0 -0.20232759468190151 -0.029715605876152289 0 -0.196833474798698 -0.040635097126493817 0 -0.20232759468190151 -0.029715605876152289 0 -0.196833474798698 -0.040635097126493817 0 -0.22119256990360681 -0.043177745406306298 0 -0.1963161565430441 -0.053867470361468189 0 -0.196833474798698 -0.040635097126493817 0 -0.22119256990360681 -0.043177745406306298 0 -0.21324483229015359 -0.065399402779659235 0 -0.1963161565430441 -0.053867470361468189 0 -0.1963161565430441 -0.053867470361468189 0 -0.22119256990360681 -0.043177745406306298 0 -0.21324483229015359 -0.065399402779659235 0 -0.1963161565430441 -0.053867470361468189 0 -0.22119256990360681 -0.043177745406306298 0 -0.2272548016815481 -0.063024478600742548 0 -0.21324483229015359 -0.065399402779659235 0 -0.22119256990360681 -0.043177745406306298 0 -0.2272548016815481 -0.063024478600742548 0 -0.22119256990360681 -0.043177745406306298 0 -0.23977546518461251 -0.056304918150352531 0 -0.22119256990360681 -0.043177745406306298 0 -0.24606898326416901 -0.032488020451143552 0 -0.22119256990360681 -0.043177745406306298 0 -0.24606898326416901 -0.032488020451143552 0 -0.22788668582136981 -0.019717011186425659 0 -0.22119256990360681 -0.043177745406306298 0 -0.24606898326416901 -0.032488020451143552 0 -0.23977546518461251 -0.056304918150352531 0 -0.22661941181265161 -0.002192526522613961 0 -0.22788668582136981 -0.019717011186425659 0 -0.2457341329903851 -0.01253522981326796 0 -0.20970438837856969 -0.0069460019217090288 0 -0.22661941181265161 -0.002192526522613961 0 -0.22788668582136981 -0.019717011186425659 0 -0.20970438837856969 -0.0069460019217090288 0 -0.22788668582136981 -0.019717011186425659 0 -0.21131464996518601 -0.020299747948645828 0 -0.22119256990360681 -0.043177745406306298 0 -0.22788668582136981 -0.019717011186425659 0 -0.24606898326416901 -0.032488020451143552 0 -0.22788668582136981 -0.019717011186425659 0 -0.24740207735718189 -0.022523559374643631 0 -0.24606898326416901 -0.032488020451143552 0 -0.22788668582136981 -0.019717011186425659 0 -0.22788668582136981 -0.019717011186425659 0 -0.24740207735718189 -0.022523559374643631 0 -0.2457341329903851 -0.01253522981326796 0 -0.24740207735718189 -0.022523559374643631 0 -0.2457341329903851 -0.01253522981326796 0 -0.2557006066445256 -0.019932535511397838 0 -0.22661941181265161 -0.002192526522613961 0 -0.2457341329903851 -0.01253522981326796 0 -0.24960084376701569 0.0020560893945085678 0 -0.2457341329903851 -0.01253522981326796 0 -0.26129007469328452 -0.01175620120180206 0 -0.24960084376701569 0.0020560893945085678 0 -0.2457341329903851 -0.01253522981326796 0 -0.26129007469328452 -0.01175620120180206 0 -0.2557006066445256 -0.019932535511397838 0 -0.24606898326416901 -0.032488020451143552 0 -0.25700117952287937 -0.027790310637931099 0 -0.26015822018888568 -0.032874827229555703 0 -0.24606898326416901 -0.032488020451143552 0 -0.24740207735718189 -0.022523559374643631 0 -0.25700117952287937 -0.027790310637931099 0 -0.24606898326416901 -0.032488020451143552 0 -0.25700117952287937 -0.027790310637931099 0 -0.24740207735718189 -0.022523559374643631 0 -0.25700117952287937 -0.027790310637931099 0 -0.2557006066445256 -0.019932535511397838 0 -0.26129007469328452 -0.01175620120180206 0 -0.2557006066445256 -0.019932535511397838 0 -0.2670755686588972 -0.02505737652934446 0 -0.25700117952287937 -0.027790310637931099 0 -0.2670755686588972 -0.02505737652934446 0 -0.26015822018888568 -0.032874827229555703 0 -0.25700117952287937 -0.027790310637931099 0 -0.2557006066445256 -0.019932535511397838 0 -0.2670755686588972 -0.02505737652934446 0 -0.26129007469328452 -0.01175620120180206 0 -0.2670755686588972 -0.02505737652934446 0 -0.27711765511504161 -0.018212414202884181 0 -0.2670755686588972 -0.02505737652934446 0 -0.27635544808043422 -0.0299144516208859 0 -0.26015822018888568 -0.032874827229555703 0 -0.27711765511504161 -0.018212414202884181 0 -0.27635544808043422 -0.0299144516208859 0 -0.29007302368476517 -0.026507025218126451 0 -0.2670755686588972 -0.02505737652934446 0 -0.27711765511504161 -0.018212414202884181 0 -0.27635544808043422 -0.0299144516208859 0 -0.26129007469328452 -0.01175620120180206 0 -0.27711765511504161 -0.018212414202884181 0 -0.27499301778672641 -0.0036671053792906058 0 -0.26129007469328452 -0.01175620120180206 0 -0.27499301778672641 -0.0036671053792906058 0 -0.26365804434625278 0.010739703857289029 0 -0.27499301778672641 -0.0036671053792906058 0 -0.29372437073348062 -0.0090368829173401739 0 -0.28016864702839289 0.01138005324287753 0 -0.27711765511504161 -0.018212414202884181 0 -0.27499301778672641 -0.0036671053792906058 0 -0.29372437073348062 -0.0090368829173401739 0 -0.27711765511504161 -0.018212414202884181 0 -0.29372437073348062 -0.0090368829173401739 0 -0.29007302368476517 -0.026507025218126451 0 -0.29372437073348062 -0.0090368829173401739 0 -0.3072800944385683 -0.029453819077557859 0 -0.31105552914382723 -0.010423022317807191 0 -0.29372437073348062 -0.0090368829173401739 0 -0.29007302368476517 -0.026507025218126451 0 -0.3072800944385683 -0.029453819077557859 0 -0.29372437073348062 -0.0090368829173401739 0 -0.3072800944385683 -0.029453819077557859 0 -0.29372437073348062 -0.0090368829173401739 0 -0.31105552914382723 -0.010423022317807191 0 -0.30222657664053859 0.011676498958688591 0 -0.30752461697015621 -0.055503381678231108 0 -0.30070195478699452 -0.041830009225648328 0 -0.283841418579521 -0.044189104453893423 0 -0.30752461697015621 -0.055503381678231108 0 -0.30070195478699452 -0.041830009225648328 0 -0.32216388524578549 -0.050012368499061592 0 -0.29007302368476517 -0.026507025218126451 0 -0.3072800944385683 -0.029453819077557859 0 -0.30070195478699452 -0.041830009225648328 0 -0.3072800944385683 -0.029453819077557859 0 -0.30070195478699452 -0.041830009225648328 0 -0.32216388524578549 -0.050012368499061592 0 -0.29007302368476517 -0.026507025218126451 0 -0.30070195478699452 -0.041830009225648328 0 -0.283841418579521 -0.044189104453893423 0 -0.27635544808043422 -0.0299144516208859 0 -0.29007302368476517 -0.026507025218126451 0 -0.283841418579521 -0.044189104453893423 0 -0.30752461697015621 -0.055503381678231108 0 -0.283841418579521 -0.044189104453893423 0 -0.28583460308811109 -0.060418874667249857 0 -0.30752461697015621 -0.055503381678231108 0 -0.283841418579521 -0.044189104453893423 0 -0.28583460308811109 -0.060418874667249857 0 -0.26595179317614048 -0.046453447559196087 0 -0.25655880488831317 -0.071666108523075783 0 -0.28583460308811109 -0.060418874667249857 0 -0.26595179317614048 -0.046453447559196087 0 -0.283841418579521 -0.044189104453893423 0 -0.28583460308811109 -0.060418874667249857 0 -0.26595179317614048 -0.046453447559196087 0 -0.27635544808043422 -0.0299144516208859 0 -0.283841418579521 -0.044189104453893423 0 -0.26015822018888568 -0.032874827229555703 0 -0.283841418579521 -0.044189104453893423 0 -0.26595179317614048 -0.046453447559196087 0 -0.26015822018888568 -0.032874827229555703 0 -0.283841418579521 -0.044189104453893423 0 -0.26015822018888568 -0.032874827229555703 0 -0.24606898326416901 -0.032488020451143552 0 -0.26595179317614048 -0.046453447559196087 0 -0.26015822018888568 -0.032874827229555703 0 -0.24606898326416901 -0.032488020451143552 0 -0.26595179317614048 -0.046453447559196087 0 -0.24606898326416901 -0.032488020451143552 0 -0.23977546518461251 -0.056304918150352531 0 -0.26595179317614048 -0.046453447559196087 0 -0.23977546518461251 -0.056304918150352531 0 -0.26595179317614048 -0.046453447559196087 0 -0.25655880488831317 -0.071666108523075783 0 -0.24555390681774389 -0.085262056606915188 0 -0.25655880488831317 -0.071666108523075783 0 -0.26803153391442991 -0.095378392255273434 0 -0.25655880488831317 -0.071666108523075783 0 -0.26803153391442991 -0.095378392255273434 0 -0.28638021740512642 -0.082763814475016392 0 -0.26803153391442991 -0.095378392255273434 0 -0.28345381965668448 -0.1005580612787146 0 -0.28638021740512642 -0.082763814475016392 0 -0.28583460308811109 -0.060418874667249857 0 -0.25655880488831317 -0.071666108523075783 0 -0.28638021740512642 -0.082763814475016392 0 -0.25640897086900277 -0.1124834958395014 0 -0.27505909307764498 -0.1164075210735606 0 -0.25545163518708708 -0.13138358964421271 0 -0.2391705189568494 -0.11326632217287751 0 -0.25640897086900277 -0.1124834958395014 0 -0.25545163518708708 -0.13138358964421271 0 -0.24514954582311629 -0.10133274003856201 0 -0.25640897086900277 -0.1124834958395014 0 -0.26803153391442991 -0.095378392255273434 0 -0.24514954582311629 -0.10133274003856201 0 -0.24555390681774389 -0.085262056606915188 0 -0.26803153391442991 -0.095378392255273434 0 -0.25640897086900277 -0.1124834958395014 0 -0.26803153391442991 -0.095378392255273434 0 -0.27505909307764498 -0.1164075210735606 0 -0.26803153391442991 -0.095378392255273434 0 -0.27505909307764498 -0.1164075210735606 0 -0.28345381965668448 -0.1005580612787146 0 -0.29566688275770492 -0.12360252405131909 0 -0.28843975759755353 -0.1182142688638067 0 -0.2867526655933279 -0.1255306518788101 0 -0.29566688275770492 -0.12360252405131909 0 -0.28843975759755353 -0.1182142688638067 0 -0.29369344050953761 -0.1160603338841294 0 -0.27505909307764498 -0.1164075210735606 0 -0.28843975759755353 -0.1182142688638067 0 -0.2867526655933279 -0.1255306518788101 0 -0.27505909307764498 -0.1164075210735606 0 -0.28843975759755353 -0.1182142688638067 0 -0.28940155529108552 -0.10977843881110989 0 -0.28843975759755353 -0.1182142688638067 0 -0.28940155529108552 -0.10977843881110989 0 -0.29369344050953761 -0.1160603338841294 0 -0.28940155529108552 -0.10977843881110989 0 -0.29369344050953761 -0.1160603338841294 0 -0.30126556639180641 -0.1126461038102818 0 -0.28345381965668448 -0.1005580612787146 0 -0.29839669859513568 -0.098462139778612845 0 -0.28638021740512642 -0.082763814475016392 0 -0.27505909307764498 -0.1164075210735606 0 -0.28940155529108552 -0.10977843881110989 0 -0.28345381965668448 -0.1005580612787146 0 -0.28940155529108552 -0.10977843881110989 0 -0.28345381965668448 -0.1005580612787146 0 -0.29839669859513568 -0.098462139778612845 0 -0.28940155529108552 -0.10977843881110989 0 -0.29839669859513568 -0.098462139778612845 0 -0.30126556639180641 -0.1126461038102818 0 -0.31113871349541611 -0.1010988719485461 0 -0.30126556639180641 -0.1126461038102818 0 -0.32063296738022878 -0.1123542747533071 0 -0.29839669859513568 -0.098462139778612845 0 -0.31113871349541611 -0.1010988719485461 0 -0.30810108118804042 -0.087972476261675842 0 -0.31113871349541611 -0.1010988719485461 0 -0.30810108118804042 -0.087972476261675842 0 -0.31791098823753039 -0.093987083567516005 0 -0.29839669859513568 -0.098462139778612845 0 -0.31113871349541611 -0.1010988719485461 0 -0.30126556639180641 -0.1126461038102818 0 -0.32063296738022878 -0.1123542747533071 0 -0.29634726323047522 -0.12774060725377789 0 -0.31220072318521042 -0.1319900570544435 0 -0.32063296738022878 -0.1123542747533071 0 -0.29634726323047522 -0.12774060725377789 0 -0.30126556639180641 -0.1126461038102818 0 -0.32063296738022878 -0.1123542747533071 0 -0.29634726323047522 -0.12774060725377789 0 -0.29566688275770492 -0.12360252405131909 0 -0.30126556639180641 -0.1126461038102818 0 -0.29634726323047522 -0.12774060725377789 0 -0.29566688275770492 -0.12360252405131909 0 -0.29369344050953761 -0.1160603338841294 0 -0.30126556639180641 -0.1126461038102818 0 -0.28583460308811109 -0.060418874667249857 0 -0.30571741300008187 -0.074384301775303655 0 -0.28583460308811109 -0.060418874667249857 0 -0.28638021740512642 -0.082763814475016392 0 -0.30571741300008187 -0.074384301775303655 0 -0.28638021740512642 -0.082763814475016392 0 -0.30810108118804042 -0.087972476261675842 0 -0.30571741300008187 -0.074384301775303655 0 -0.29839669859513568 -0.098462139778612845 0 -0.28638021740512642 -0.082763814475016392 0 -0.30810108118804042 -0.087972476261675842 0 -0.30752461697015621 -0.055503381678231108 0 -0.28583460308811109 -0.060418874667249857 0 -0.30571741300008187 -0.074384301775303655 0 -0.30752461697015621 -0.055503381678231108 0 -0.30571741300008187 -0.074384301775303655 0 -0.33120781536079169 -0.066817658902568133 0 -0.30571741300008187 -0.074384301775303655 0 -0.32560022291205282 -0.088349728883357043 0 -0.33120781536079169 -0.066817658902568133 0 -0.30571741300008187 -0.074384301775303655 0 -0.32560022291205282 -0.088349728883357043 0 -0.30810108118804042 -0.087972476261675842 0 -0.30571741300008187 -0.074384301775303655 0 -0.32560022291205282 -0.088349728883357043 0 -0.30810108118804042 -0.087972476261675842 0 -0.32560022291205282 -0.088349728883357043 0 -0.31791098823753039 -0.093987083567516005 0 -0.32560022291205282 -0.088349728883357043 0 -0.32439717918942951 -0.092969183999308258 0 -0.31791098823753039 -0.093987083567516005 0 -0.32560022291205282 -0.088349728883357043 0 -0.32923382513965932 -0.090901923833365594 0 -0.32560022291205282 -0.088349728883357043 0 -0.32439717918942951 -0.092969183999308258 0 -0.32923382513965932 -0.090901923833365594 0 -0.32560022291205282 -0.088349728883357043 0 -0.32439717918942951 -0.092969183999308258 0 -0.32439717918942951 -0.092969183999308258 0 -0.32923382513965932 -0.090901923833365594 0 -0.32962211623213489 -0.096885380531372467 0 -0.33823230975079549 -0.088573801604723876 0 -0.34491867152998318 -0.096967942252837599 0 -0.3479725441035455 -0.074826745574803954 0 -0.32560022291205282 -0.088349728883357043 0 -0.33464181455897168 -0.081870683920727896 0 -0.33120781536079169 -0.066817658902568133 0 -0.32923382513965932 -0.090901923833365594 0 -0.33823230975079549 -0.088573801604723876 0 -0.32962211623213489 -0.096885380531372467 0 -0.32560022291205282 -0.088349728883357043 0 -0.33464181455897168 -0.081870683920727896 0 -0.32923382513965932 -0.090901923833365594 0 -0.33464181455897168 -0.081870683920727896 0 -0.32923382513965932 -0.090901923833365594 0 -0.33823230975079549 -0.088573801604723876 0 -0.33464181455897168 -0.081870683920727896 0 -0.33823230975079549 -0.088573801604723876 0 -0.3479725441035455 -0.074826745574803954 0 -0.33464181455897168 -0.081870683920727896 0 -0.33120781536079169 -0.066817658902568133 0 -0.3479725441035455 -0.074826745574803954 0 -0.32560022291205282 -0.088349728883357043 0 -0.33120781536079169 -0.066817658902568133 0 -0.33120781536079169 -0.066817658902568133 0 -0.3479725441035455 -0.074826745574803954 0 -0.33120781536079169 -0.066817658902568133 0 -0.34593996383306391 -0.067383739300363066 0 -0.3479725441035455 -0.074826745574803954 0 -0.32063296738022878 -0.1123542747533071 0 -0.32031774440271321 -0.099545156744692359 0 -0.32962211623213489 -0.096885380531372467 0 -0.31113871349541611 -0.1010988719485461 0 -0.32063296738022878 -0.1123542747533071 0 -0.32031774440271321 -0.099545156744692359 0 -0.31113871349541611 -0.1010988719485461 0 -0.31791098823753039 -0.093987083567516005 0 -0.32031774440271321 -0.099545156744692359 0 -0.32439717918942951 -0.092969183999308258 0 -0.32031774440271321 -0.099545156744692359 0 -0.32962211623213489 -0.096885380531372467 0 -0.32439717918942951 -0.092969183999308258 0 -0.31791098823753039 -0.093987083567516005 0 -0.32031774440271321 -0.099545156744692359 0 -0.32063296738022878 -0.1123542747533071 0 -0.34491867152998318 -0.096967942252837599 0 -0.32063296738022878 -0.1123542747533071 0 -0.32962211623213489 -0.096885380531372467 0 -0.34491867152998318 -0.096967942252837599 0 -0.33823230975079549 -0.088573801604723876 0 -0.32962211623213489 -0.096885380531372467 0 -0.34491867152998318 -0.096967942252837599 0 -0.32063296738022878 -0.1123542747533071 0 -0.34122720148201829 -0.1237318501744108 0 -0.34491867152998318 -0.096967942252837599 0 -0.34122720148201829 -0.1237318501744108 0 -0.34491867152998318 -0.096967942252837599 0 -0.32063296738022878 -0.1123542747533071 0 -0.34122720148201829 -0.1237318501744108 0 -0.32663105754698429 -0.1326895278805936 0 -0.34122720148201829 -0.1237318501744108 0 -0.35615663959531541 -0.11802001385421799 0 -0.34491867152998318 -0.096967942252837599 0 -0.35615663959531541 -0.11802001385421799 0 -0.35588320456471062 -0.09899250827923306 0 -0.34491867152998318 -0.096967942252837599 0 -0.35615663959531541 -0.11802001385421799 0 -0.35588320456471062 -0.09899250827923306 0 -0.35615663959531541 -0.11802001385421799 0 -0.35588320456471062 -0.09899250827923306 0 -0.36216190767238438 -0.1084179975782822 0 -0.35588320456471062 -0.09899250827923306 0 -0.37232941934761499 -0.099242541508515247 0 -0.36671192124631657 -0.08316071705016026 0 -0.35588320456471062 -0.09899250827923306 0 -0.37232941934761499 -0.099242541508515247 0 -0.36216190767238438 -0.1084179975782822 0 -0.37232941934761499 -0.099242541508515247 0 -0.36216190767238438 -0.1084179975782822 0 -0.3721164519794673 -0.1103027432889376 0 -0.35615663959531541 -0.11802001385421799 0 -0.36574709414584772 -0.1129698554934646 0 -0.36551509918699598 -0.11837061039799231 0 -0.36216190767238438 -0.1084179975782822 0 -0.36574709414584772 -0.1129698554934646 0 -0.3721164519794673 -0.1103027432889376 0 -0.35615663959531541 -0.11802001385421799 0 -0.36216190767238438 -0.1084179975782822 0 -0.36574709414584772 -0.1129698554934646 0 -0.36574709414584772 -0.1129698554934646 0 -0.3721164519794673 -0.1103027432889376 0 -0.37089559062818073 -0.1156280421876069 0 -0.3721164519794673 -0.1103027432889376 0 -0.37089559062818073 -0.1156280421876069 0 -0.37446835130961909 -0.1190712911890162 0 -0.36574709414584772 -0.1129698554934646 0 -0.37089559062818073 -0.1156280421876069 0 -0.36551509918699598 -0.11837061039799231 0 -0.37089559062818073 -0.1156280421876069 0 -0.37446835130961909 -0.1190712911890162 0 -0.36551509918699598 -0.11837061039799231 0 -0.37446835130961909 -0.1190712911890162 0 -0.3637671517752642 -0.1260612571391854 0 -0.36515874731498721 -0.12834887181203791 0 -0.37446835130961909 -0.1190712911890162 0 -0.36515874731498721 -0.12834887181203791 0 -0.37446835130961909 -0.1190712911890162 0 -0.36551509918699598 -0.11837061039799231 0 -0.3637671517752642 -0.1260612571391854 0 -0.37089559062818073 -0.1156280421876069 0 -0.37446835130961909 -0.1190712911890162 0 -0.35615663959531541 -0.11802001385421799 0 -0.36551509918699598 -0.11837061039799231 0 -0.3637671517752642 -0.1260612571391854 0 -0.35910781973558759 -0.073259978319068497 0 -0.3479725441035455 -0.074826745574803954 0 -0.36440564389032459 -0.082677401705622322 0 -0.35910781973558759 -0.073259978319068497 0 -0.35296142065491742 -0.069780418132558253 0 -0.3479725441035455 -0.074826745574803954 0 -0.35910781973558759 -0.073259978319068497 0 -0.3578606447163708 -0.066281438231983389 0 -0.35296142065491742 -0.069780418132558253 0 -0.3578606447163708 -0.066281438231983389 0 -0.36407645212730883 -0.062816252256658447 0 -0.35276904631665978 -0.059204219883170997 0 -0.3578606447163708 -0.066281438231983389 0 -0.35296142065491742 -0.069780418132558253 0 -0.35276904631665978 -0.059204219883170997 0 -0.35296142065491742 -0.069780418132558253 0 -0.34593996383306391 -0.067383739300363066 0 -0.35276904631665978 -0.059204219883170997 0 -0.35296142065491742 -0.069780418132558253 0 -0.34593996383306391 -0.067383739300363066 0 -0.3479725441035455 -0.074826745574803954 0 -0.35588320456471062 -0.09899250827923306 0 -0.34491867152998318 -0.096967942252837599 0 -0.36671192124631657 -0.08316071705016026 0 -0.34491867152998318 -0.096967942252837599 0 -0.3479725441035455 -0.074826745574803954 0 -0.36440564389032459 -0.082677401705622322 0 -0.34491867152998318 -0.096967942252837599 0 -0.36671192124631657 -0.08316071705016026 0 -0.34491867152998318 -0.096967942252837599 0 -0.36671192124631657 -0.08316071705016026 0 -0.36440564389032459 -0.082677401705622322 0 -0.34491867152998318 -0.096967942252837599 0 -0.3479725441035455 -0.074826745574803954 0 -0.3479725441035455 -0.074826745574803954 0 -0.36440564389032459 -0.082677401705622322 0 -0.35910781973558759 -0.073259978319068497 0 -0.36671192124631657 -0.08316071705016026 0 -0.36440564389032459 -0.082677401705622322 0 -0.37232941934761499 -0.099242541508515247 0 -0.36671192124631657 -0.08316071705016026 0 -0.38353159609917009 -0.090673626234151788 0 -0.36671192124631657 -0.08316071705016026 0 -0.36407645212730883 -0.062816252256658447 0 -0.38850517096265003 -0.069353491847482573 0 -0.35910781973558759 -0.073259978319068497 0 -0.36671192124631657 -0.08316071705016026 0 -0.36407645212730883 -0.062816252256658447 0 -0.35910781973558759 -0.073259978319068497 0 -0.3578606447163708 -0.066281438231983389 0 -0.36407645212730883 -0.062816252256658447 0 -0.36407645212730883 -0.062816252256658447 0 -0.35756566361037551 -0.045477496466802138 0 -0.37579340756508861 -0.046776097022995483 0 -0.36407645212730883 -0.062816252256658447 0 -0.35276904631665978 -0.059204219883170997 0 -0.35756566361037551 -0.045477496466802138 0 -0.34593996383306391 -0.067383739300363066 0 -0.35276904631665978 -0.059204219883170997 0 -0.33739254470778268 -0.043069494903692267 0 -0.35276904631665978 -0.059204219883170997 0 -0.35756566361037551 -0.045477496466802138 0 -0.33739254470778268 -0.043069494903692267 0 -0.35040428163511411 -0.033016756118454497 0 -0.34357727405477012 -0.019321330904815529 0 -0.33739254470778268 -0.043069494903692267 0 -0.35756566361037551 -0.045477496466802138 0 -0.35040428163511411 -0.033016756118454497 0 -0.36308164416752797 -0.024198702198508091 0 -0.35756566361037551 -0.045477496466802138 0 -0.35040428163511411 -0.033016756118454497 0 -0.33739254470778268 -0.043069494903692267 0 -0.35756566361037551 -0.045477496466802138 0 -0.36308164416752797 -0.024198702198508091 0 -0.37579340756508861 -0.046776097022995483 0 -0.36308164416752797 -0.024198702198508091 0 -0.37579340756508861 -0.046776097022995483 0 -0.36308164416752797 -0.024198702198508091 0 -0.37386683033107732 -0.0057703736779719239 0 -0.35036988076996728 -0.001621307374020602 0 -0.36308164416752797 -0.024198702198508091 0 -0.35036988076996728 -0.001621307374020602 0 -0.34357727405477012 -0.019321330904815529 0 -0.36308164416752797 -0.024198702198508091 0 -0.35036988076996728 -0.001621307374020602 0 -0.35040428163511411 -0.033016756118454497 0 -0.36308164416752797 -0.024198702198508091 0 -0.34357727405477012 -0.019321330904815529 0 -0.34357727405477012 -0.019321330904815529 0 -0.33739254470778268 -0.043069494903692267 0 -0.34357727405477012 -0.019321330904815529 0 -0.32490308862797312 -0.025843295000844521 0 -0.33739254470778268 -0.043069494903692267 0 -0.35036988076996728 -0.001621307374020602 0 -0.34357727405477012 -0.019321330904815529 0 -0.32714351527857533 0.00054238644801803419 0 -0.34357727405477012 -0.019321330904815529 0 -0.32490308862797312 -0.025843295000844521 0 -0.32714351527857533 0.00054238644801803419 0 -0.31105552914382723 -0.010423022317807191 0 -0.32490308862797312 -0.025843295000844521 0 -0.32714351527857533 0.00054238644801803419 0 -0.3072800944385683 -0.029453819077557859 0 -0.31105552914382723 -0.010423022317807191 0 -0.32490308862797312 -0.025843295000844521 0 -0.3072800944385683 -0.029453819077557859 0 -0.32490308862797312 -0.025843295000844521 0 -0.32216388524578549 -0.050012368499061592 0 -0.30752461697015621 -0.055503381678231108 0 -0.33120781536079169 -0.066817658902568133 0 -0.30752461697015621 -0.055503381678231108 0 -0.33120781536079169 -0.066817658902568133 0 -0.32216388524578549 -0.050012368499061592 0 -0.33120781536079169 -0.066817658902568133 0 -0.32216388524578549 -0.050012368499061592 0 -0.33739254470778268 -0.043069494903692267 0 -0.33120781536079169 -0.066817658902568133 0 -0.34593996383306391 -0.067383739300363066 0 -0.33739254470778268 -0.043069494903692267 0 -0.33120781536079169 -0.066817658902568133 0 -0.33739254470778268 -0.043069494903692267 0 -0.32490308862797312 -0.025843295000844521 0 -0.32216388524578549 -0.050012368499061592 0 -0.33739254470778268 -0.043069494903692267 0 -0.2953456543652212 -0.22925743511739041 0 -0.31529067626906931 -0.24295470058744989 0 -0.29344542939235668 -0.232252431902078 0 -0.31562540891235408 -0.24499054903389081 0 -0.31529067626906931 -0.24295470058744989 0 -0.29344542939235668 -0.232252431902078 0 -0.2953456543652212 -0.22925743511739041 0 -0.31529067626906931 -0.24295470058744989 0 -0.30213545205644998 -0.25474964514874388 0 -0.29344542939235668 -0.232252431902078 0 -0.31562540891235408 -0.24499054903389081 0 -0.29344542939235668 -0.232252431902078 0 -0.31562540891235408 -0.24499054903389081 0 -0.31234393222515783 -0.22503256360959481 0 -0.2953456543652212 -0.22925743511739041 0 -0.31529067626906931 -0.24295470058744989 0 -0.31234393222515783 -0.22503256360959481 0 -0.2953456543652212 -0.22925743511739041 0 -0.30939718818124612 -0.2071104266317397 0 -0.2953456543652212 -0.22925743511739041 0 -0.27113570602407072 -0.21263122678110391 0 -0.29344542939235668 -0.232252431902078 0 -0.27139075991633033 -0.21958628120361981 0 -0.29344542939235668 -0.232252431902078 0 -0.2953456543652212 -0.22925743511739041 0 -0.27139075991633033 -0.21958628120361981 0 -0.29344542939235668 -0.232252431902078 0 -0.2953456543652212 -0.22925743511739041 0 -0.28161261259963222 -0.25100354534260161 0 -0.30213545205644998 -0.25474964514874388 0 -0.29344542939235668 -0.232252431902078 0 -0.28161261259963222 -0.25100354534260161 0 -0.29344542939235668 -0.232252431902078 0 -0.27715588799895341 -0.2350820636184815 0 -0.28161261259963222 -0.25100354534260161 0 -0.29344542939235668 -0.232252431902078 0 -0.28161261259963222 -0.25100354534260161 0 -0.27715588799895341 -0.2350820636184815 0 -0.25741499207255808 -0.2468477206326791 0 -0.27715588799895341 -0.2350820636184815 0 -0.25741499207255808 -0.2468477206326791 0 -0.26412509992495281 -0.23022152526295869 0 -0.2448759247925982 -0.23766676242721729 0 -0.25741499207255808 -0.2468477206326791 0 -0.25215205956079811 -0.2272816576573034 0 -0.25741499207255808 -0.2468477206326791 0 -0.25215205956079811 -0.2272816576573034 0 -0.26412509992495281 -0.23022152526295869 0 -0.25215205956079811 -0.2272816576573034 0 -0.26102173624270331 -0.22108778803194559 0 -0.25170803779926798 -0.2184142035842741 0 -0.25215205956079811 -0.2272816576573034 0 -0.26412509992495281 -0.23022152526295869 0 -0.26102173624270331 -0.22108778803194559 0 -0.26412509992495281 -0.23022152526295869 0 -0.26102173624270331 -0.22108778803194559 0 -0.27139075991633033 -0.21958628120361981 0 -0.29344542939235668 -0.232252431902078 0 -0.27715588799895341 -0.2350820636184815 0 -0.27139075991633033 -0.21958628120361981 0 -0.2953456543652212 -0.22925743511739041 0 -0.27139075991633033 -0.21958628120361981 0 -0.27113570602407072 -0.21263122678110391 0 -0.27715588799895341 -0.2350820636184815 0 -0.26412509992495281 -0.23022152526295869 0 -0.27139075991633033 -0.21958628120361981 0 -0.27944382444320492 -0.20569988932139399 0 -0.27113570602407072 -0.21263122678110391 0 -0.28657899864344488 -0.21185951192372551 0 -0.27944382444320492 -0.20569988932139399 0 -0.27100190357648729 -0.2039747392976782 0 -0.27113570602407072 -0.21263122678110391 0 -0.27100190357648729 -0.2039747392976782 0 -0.27113570602407072 -0.21263122678110391 0 -0.26396414653240557 -0.19994396307351001 0 -0.24933609044030389 -0.20692013050516139 0 -0.27139075991633033 -0.21958628120361981 0 -0.24692575768292011 -0.19600501844481719 0 -0.27113570602407072 -0.21263122678110391 0 -0.24933609044030389 -0.20692013050516139 0 -0.27139075991633033 -0.21958628120361981 0 -0.27113570602407072 -0.21263122678110391 0 -0.24933609044030389 -0.20692013050516139 0 -0.26102173624270331 -0.22108778803194559 0 -0.27139075991633033 -0.21958628120361981 0 -0.24692575768292011 -0.19600501844481719 0 -0.24933609044030389 -0.20692013050516139 0 -0.27113570602407072 -0.21263122678110391 0 -0.24933609044030389 -0.20692013050516139 0 -0.26102173624270331 -0.22108778803194559 0 -0.25170803779926798 -0.2184142035842741 0 -0.24692575768292011 -0.19600501844481719 0 -0.27113570602407072 -0.21263122678110391 0 -0.26396414653240557 -0.19994396307351001 0 -0.24692575768292011 -0.19600501844481719 0 -0.26396414653240557 -0.19994396307351001 0 -0.2582243666820917 -0.19037710227150059 0 -0.24692575768292011 -0.19600501844481719 0 -0.24907905928585861 -0.18352758111344969 0 -0.2582243666820917 -0.19037710227150059 0 -0.26396414653240557 -0.19994396307351001 0 -0.2582243666820917 -0.19037710227150059 0 -0.27253299869645842 -0.19673172857245019 0 -0.2582243666820917 -0.19037710227150059 0 -0.27253299869645842 -0.19673172857245019 0 -0.26672173610191241 -0.18208110987605111 0 -0.27253299869645842 -0.19673172857245019 0 -0.28099491777395108 -0.18950209657790201 0 -0.26672173610191241 -0.18208110987605111 0 -0.27100190357648729 -0.2039747392976782 0 -0.26396414653240557 -0.19994396307351001 0 -0.27253299869645842 -0.19673172857245019 0 -0.27944382444320492 -0.20569988932139399 0 -0.27253299869645842 -0.19673172857245019 0 -0.28714881259108449 -0.19887694203022541 0 -0.27944382444320492 -0.20569988932139399 0 -0.27100190357648729 -0.2039747392976782 0 -0.27253299869645842 -0.19673172857245019 0 -0.27253299869645842 -0.19673172857245019 0 -0.28099491777395108 -0.18950209657790201 0 -0.28714881259108449 -0.19887694203022541 0 -0.28099491777395108 -0.18950209657790201 0 -0.28714881259108449 -0.19887694203022541 0 -0.29193602177569727 -0.18743073178882891 0 -0.28714881259108449 -0.19887694203022541 0 -0.29651567672813189 -0.20490571674892019 0 -0.29193602177569727 -0.18743073178882891 0 -0.27944382444320492 -0.20569988932139399 0 -0.28714881259108449 -0.19887694203022541 0 -0.28657899864344488 -0.21185951192372551 0 -0.2953456543652212 -0.22925743511739041 0 -0.27113570602407072 -0.21263122678110391 0 -0.28657899864344488 -0.21185951192372551 0 -0.2953456543652212 -0.22925743511739041 0 -0.28657899864344488 -0.21185951192372551 0 -0.29651567672813189 -0.20490571674892019 0 -0.28714881259108449 -0.19887694203022541 0 -0.28657899864344488 -0.21185951192372551 0 -0.29651567672813189 -0.20490571674892019 0 -0.2953456543652212 -0.22925743511739041 0 -0.30939718818124612 -0.2071104266317397 0 -0.2953456543652212 -0.22925743511739041 0 -0.29651567672813189 -0.20490571674892019 0 -0.30939718818124612 -0.2071104266317397 0 -0.31234393222515783 -0.22503256360959481 0 -0.30939718818124612 -0.2071104266317397 0 -0.30939718818124612 -0.2071104266317397 0 -0.31376517377250662 -0.20022592453955329 0 -0.29651567672813189 -0.20490571674892019 0 -0.30939718818124612 -0.2071104266317397 0 -0.30560043623471572 -0.18401853013763611 0 -0.29651567672813189 -0.20490571674892019 0 -0.30560043623471572 -0.18401853013763611 0 -0.29193602177569727 -0.18743073178882891 0 -0.30939718818124612 -0.2071104266317397 0 -0.30560043623471572 -0.18401853013763611 0 -0.31376517377250662 -0.20022592453955329 0 -0.30939718818124612 -0.2071104266317397 0 -0.30560043623471572 -0.18401853013763611 0 -0.30560043623471572 -0.18401853013763611 0 -0.30180368428818732 -0.16092663364353221 0 -0.29229196391410017 -0.1735925500309429 0 -0.30560043623471572 -0.18401853013763611 0 -0.30180368428818732 -0.16092663364353221 0 -0.30180368428818732 -0.16092663364353221 0 -0.32017254169737208 -0.17010047110032239 0 -0.30180368428818732 -0.16092663364353221 0 -0.31318380971752291 -0.1568254476793759 0 -0.32017254169737208 -0.17010047110032239 0 -0.30560043623471572 -0.18401853013763611 0 -0.30180368428818732 -0.16092663364353221 0 -0.32017254169737208 -0.17010047110032239 0 -0.29229196391410017 -0.1735925500309429 0 -0.27943563052183051 -0.16555738982802121 0 -0.28745248247897481 -0.15375930745798691 0 -0.30180368428818732 -0.16092663364353221 0 -0.29229196391410017 -0.1735925500309429 0 -0.28745248247897481 -0.15375930745798691 0 -0.30180368428818732 -0.16092663364353221 0 -0.28745248247897481 -0.15375930745798691 0 -0.28099491777395108 -0.18950209657790201 0 -0.29193602177569727 -0.18743073178882891 0 -0.27598597596034852 -0.17939807428795049 0 -0.29229196391410017 -0.1735925500309429 0 -0.27598597596034852 -0.17939807428795049 0 -0.27943563052183051 -0.16555738982802121 0 -0.29229196391410017 -0.1735925500309429 0 -0.29193602177569727 -0.18743073178882891 0 -0.27598597596034852 -0.17939807428795049 0 -0.30560043623471572 -0.18401853013763611 0 -0.29229196391410017 -0.1735925500309429 0 -0.29193602177569727 -0.18743073178882891 0 -0.28099491777395108 -0.18950209657790201 0 -0.27598597596034852 -0.17939807428795049 0 -0.26672173610191241 -0.18208110987605111 0 -0.27598597596034852 -0.17939807428795049 0 -0.26605222632075343 -0.17462604452880429 0 -0.26672173610191241 -0.18208110987605111 0 -0.27598597596034852 -0.17939807428795049 0 -0.26522882151607219 -0.1668345901986705 0 -0.27598597596034852 -0.17939807428795049 0 -0.26605222632075343 -0.17462604452880429 0 -0.26522882151607219 -0.1668345901986705 0 -0.2582243666820917 -0.19037710227150059 0 -0.26672173610191241 -0.18208110987605111 0 -0.25650270545956211 -0.18103622873945979 0 -0.26672173610191241 -0.18208110987605111 0 -0.25976484624105728 -0.17431292186175071 0 -0.25650270545956211 -0.18103622873945979 0 -0.26605222632075343 -0.17462604452880429 0 -0.26672173610191241 -0.18208110987605111 0 -0.25976484624105728 -0.17431292186175071 0 -0.26605222632075343 -0.17462604452880429 0 -0.25976484624105728 -0.17431292186175071 0 -0.26245172528994709 -0.17100315189148099 0 -0.24996747062821489 -0.1776172147900528 0 -0.25372295983756732 -0.17266205551982561 0 -0.25650270545956211 -0.18103622873945979 0 -0.25976484624105728 -0.17431292186175071 0 -0.25372295983756732 -0.17266205551982561 0 -0.25650270545956211 -0.18103622873945979 0 -0.24996747062821489 -0.1776172147900528 0 -0.2481423511905558 -0.1700161807078017 0 -0.25372295983756732 -0.17266205551982561 0 -0.24996747062821489 -0.1776172147900528 0 -0.24907905928585861 -0.18352758111344969 0 -0.25650270545956211 -0.18103622873945979 0 -0.24907905928585861 -0.18352758111344969 0 -0.2582243666820917 -0.19037710227150059 0 -0.25650270545956211 -0.18103622873945979 0 -0.24908372160189399 -0.15768466661326169 0 -0.25654654189594578 -0.16345600980702499 0 -0.26231065183551699 -0.16342640464724131 0 -0.24908372160189399 -0.15768466661326169 0 -0.26231065183551699 -0.16342640464724131 0 -0.25447166707179603 -0.1542711061093904 0 -0.24908372160189399 -0.15768466661326169 0 -0.26231065183551699 -0.16342640464724131 0 -0.24908372160189399 -0.15768466661326169 0 -0.25654654189594578 -0.16345600980702499 0 -0.25038409082640922 -0.16381984975180011 0 -0.2481423511905558 -0.1700161807078017 0 -0.249072028622703 -0.16615182420934929 0 -0.25295218475615933 -0.16660674659945809 0 -0.25654654189594578 -0.16345600980702499 0 -0.25038409082640922 -0.16381984975180011 0 -0.25295218475615933 -0.16660674659945809 0 -0.249072028622703 -0.16615182420934929 0 -0.25038409082640922 -0.16381984975180011 0 -0.25295218475615933 -0.16660674659945809 0 -0.2481423511905558 -0.1700161807078017 0 -0.25372295983756732 -0.17266205551982561 0 -0.25295218475615933 -0.16660674659945809 0 -0.25976484624105728 -0.17431292186175071 0 -0.25372295983756732 -0.17266205551982561 0 -0.25876100708190558 -0.1682390509766987 0 -0.25372295983756732 -0.17266205551982561 0 -0.25295218475615933 -0.16660674659945809 0 -0.25876100708190558 -0.1682390509766987 0 -0.25654654189594578 -0.16345600980702499 0 -0.25295218475615933 -0.16660674659945809 0 -0.25876100708190558 -0.1682390509766987 0 -0.25654654189594578 -0.16345600980702499 0 -0.25876100708190558 -0.1682390509766987 0 -0.26231065183551699 -0.16342640464724131 0 -0.25976484624105728 -0.17431292186175071 0 -0.25876100708190558 -0.1682390509766987 0 -0.26245172528994709 -0.17100315189148099 0 -0.25876100708190558 -0.1682390509766987 0 -0.26245172528994709 -0.17100315189148099 0 -0.26522882151607219 -0.1668345901986705 0 -0.26605222632075343 -0.17462604452880429 0 -0.26245172528994709 -0.17100315189148099 0 -0.26522882151607219 -0.1668345901986705 0 -0.25876100708190558 -0.1682390509766987 0 -0.26522882151607219 -0.1668345901986705 0 -0.26231065183551699 -0.16342640464724131 0 -0.26522882151607219 -0.1668345901986705 0 -0.26231065183551699 -0.16342640464724131 0 -0.26231065183551699 -0.16342640464724131 0 -0.26614972118325059 -0.15607019707325179 0 -0.25447166707179603 -0.1542711061093904 0 -0.26231065183551699 -0.16342640464724131 0 -0.25447166707179603 -0.1542711061093904 0 -0.26522882151607219 -0.1668345901986705 0 -0.26231065183551699 -0.16342640464724131 0 -0.26614972118325059 -0.15607019707325179 0 -0.27190893424898138 -0.16042095640958531 0 -0.27599188067387642 -0.15275947598951209 0 -0.26614972118325059 -0.15607019707325179 0 -0.26522882151607219 -0.1668345901986705 0 -0.27190893424898138 -0.16042095640958531 0 -0.26614972118325059 -0.15607019707325179 0 -0.26522882151607219 -0.1668345901986705 0 -0.27190893424898138 -0.16042095640958531 0 -0.27943563052183051 -0.16555738982802121 0 -0.27598597596034852 -0.17939807428795049 0 -0.26522882151607219 -0.1668345901986705 0 -0.27943563052183051 -0.16555738982802121 0 -0.27190893424898138 -0.16042095640958531 0 -0.27943563052183051 -0.16555738982802121 0 -0.27599188067387642 -0.15275947598951209 0 -0.27943563052183051 -0.16555738982802121 0 -0.27599188067387642 -0.15275947598951209 0 -0.28745248247897481 -0.15375930745798691 0 -0.27599188067387642 -0.15275947598951209 0 -0.26781187581270638 -0.1458193483984479 0 -0.28115208455361612 -0.13736759068750409 0 -0.26781187581270638 -0.1458193483984479 0 -0.28115208455361612 -0.13736759068750409 0 -0.27599188067387642 -0.15275947598951209 0 -0.26781187581270638 -0.1458193483984479 0 -0.26614972118325059 -0.15607019707325179 0 -0.26781187581270638 -0.1458193483984479 0 -0.25447166707179603 -0.1542711061093904 0 -0.26781187581270638 -0.1458193483984479 0 -0.26614972118325059 -0.15607019707325179 0 -0.25447166707179603 -0.1542711061093904 0 -0.26781187581270638 -0.1458193483984479 0 -0.2549616511294418 -0.14282734787680151 0 -0.25447166707179603 -0.1542711061093904 0 -0.24211142644617789 -0.1398353473551551 0 -0.2549616511294418 -0.14282734787680151 0 -0.25447166707179603 -0.1542711061093904 0 -0.24908372160189399 -0.15768466661326169 0 -0.25447166707179603 -0.1542711061093904 0 -0.24211142644617789 -0.1398353473551551 0 -0.2549616511294418 -0.14282734787680151 0 -0.25545163518708708 -0.13138358964421271 0 -0.26781187581270638 -0.1458193483984479 0 -0.2549616511294418 -0.14282734787680151 0 -0.25545163518708708 -0.13138358964421271 0 -0.26781187581270638 -0.1458193483984479 0 -0.25545163518708708 -0.13138358964421271 0 -0.28115208455361612 -0.13736759068750409 0 -0.27505909307764498 -0.1164075210735606 0 -0.25545163518708708 -0.13138358964421271 0 -0.28115208455361612 -0.13736759068750409 0 -0.27505909307764498 -0.1164075210735606 0 -0.28115208455361612 -0.13736759068750409 0 -0.2867526655933279 -0.1255306518788101 0 -0.25545163518708708 -0.13138358964421271 0 -0.28115208455361612 -0.13736759068750409 0 -0.28115208455361612 -0.13736759068750409 0 -0.29634726323047522 -0.12774060725377789 0 -0.29859800288209293 -0.1414296361400906 0 -0.28115208455361612 -0.13736759068750409 0 -0.29634726323047522 -0.12774060725377789 0 -0.28115208455361612 -0.13736759068750409 0 -0.29859800288209293 -0.1414296361400906 0 -0.28115208455361612 -0.13736759068750409 0 -0.2867526655933279 -0.1255306518788101 0 -0.29634726323047522 -0.12774060725377789 0 -0.29566688275770492 -0.12360252405131909 0 -0.2867526655933279 -0.1255306518788101 0 -0.29634726323047522 -0.12774060725377789 0 -0.29566688275770492 -0.12360252405131909 0 -0.29634726323047522 -0.12774060725377789 0 -0.27599188067387642 -0.15275947598951209 0 -0.28115208455361612 -0.13736759068750409 0 -0.28745248247897481 -0.15375930745798691 0 -0.30180368428818732 -0.16092663364353221 0 -0.28745248247897481 -0.15375930745798691 0 -0.29859800288209293 -0.1414296361400906 0 -0.28115208455361612 -0.13736759068750409 0 -0.28745248247897481 -0.15375930745798691 0 -0.29859800288209293 -0.1414296361400906 0 -0.30180368428818732 -0.16092663364353221 0 -0.29859800288209293 -0.1414296361400906 0 -0.31318380971752291 -0.1568254476793759 0 -0.29859800288209293 -0.1414296361400906 0 -0.31806686715807531 -0.14596269711803661 0 -0.29859800288209293 -0.1414296361400906 0 -0.31806686715807531 -0.14596269711803661 0 -0.31318380971752291 -0.1568254476793759 0 -0.30180368428818732 -0.16092663364353221 0 -0.29859800288209293 -0.1414296361400906 0 -0.29859800288209293 -0.1414296361400906 0 -0.31220072318521042 -0.1319900570544435 0 -0.31806686715807531 -0.14596269711803661 0 -0.29634726323047522 -0.12774060725377789 0 -0.29859800288209293 -0.1414296361400906 0 -0.31220072318521042 -0.1319900570544435 0 -0.29634726323047522 -0.12774060725377789 0 -0.29859800288209293 -0.1414296361400906 0 -0.32063296738022878 -0.1123542747533071 0 -0.31220072318521042 -0.1319900570544435 0 -0.32663105754698429 -0.1326895278805936 0 -0.31220072318521042 -0.1319900570544435 0 -0.32663105754698429 -0.1326895278805936 0 -0.31806686715807531 -0.14596269711803661 0 -0.31806686715807531 -0.14596269711803661 0 -0.33753573143405707 -0.15049575809598459 0 -0.31806686715807531 -0.14596269711803661 0 -0.32578788269758169 -0.15380960446084119 0 -0.33753573143405707 -0.15049575809598459 0 -0.32663105754698429 -0.1326895278805936 0 -0.31806686715807531 -0.14596269711803661 0 -0.33753573143405707 -0.15049575809598459 0 -0.31806686715807531 -0.14596269711803661 0 -0.32578788269758169 -0.15380960446084119 0 -0.31318380971752291 -0.1568254476793759 0 -0.32578788269758169 -0.15380960446084119 0 -0.33733743043350373 -0.1519334806429678 0 -0.33753573143405707 -0.15049575809598459 0 -0.32578788269758169 -0.15380960446084119 0 -0.33733743043350373 -0.1519334806429678 0 -0.32354860881437431 -0.1615663566863049 0 -0.33733743043350373 -0.1519334806429678 0 -0.33753573143405707 -0.15049575809598459 0 -0.34191276590683062 -0.1515148912044392 0 -0.33753573143405707 -0.15049575809598459 0 -0.34191276590683062 -0.1515148912044392 0 -0.33733743043350373 -0.1519334806429678 0 -0.33753573143405707 -0.15049575809598459 0 -0.33753573143405707 -0.15049575809598459 0 -0.34191276590683062 -0.1515148912044392 0 -0.34665248260882858 -0.13616200655165109 0 -0.34122720148201829 -0.1237318501744108 0 -0.32663105754698429 -0.1326895278805936 0 -0.33753573143405707 -0.15049575809598459 0 -0.34122720148201829 -0.1237318501744108 0 -0.33753573143405707 -0.15049575809598459 0 -0.34122720148201829 -0.1237318501744108 0 -0.33753573143405707 -0.15049575809598459 0 -0.34665248260882858 -0.13616200655165109 0 -0.35615663959531541 -0.11802001385421799 0 -0.34665248260882858 -0.13616200655165109 0 -0.3564300746259208 -0.1370475194292029 0 -0.35615663959531541 -0.11802001385421799 0 -0.3564300746259208 -0.1370475194292029 0 -0.35615663959531541 -0.11802001385421799 0 -0.3564300746259208 -0.1370475194292029 0 -0.3637671517752642 -0.1260612571391854 0 -0.34122720148201829 -0.1237318501744108 0 -0.35615663959531541 -0.11802001385421799 0 -0.34665248260882858 -0.13616200655165109 0 -0.36515874731498721 -0.12834887181203791 0 -0.37528549039322923 -0.1449960120138393 0 -0.3564300746259208 -0.1370475194292029 0 -0.36515874731498721 -0.12834887181203791 0 -0.3564300746259208 -0.1370475194292029 0 -0.36515874731498721 -0.12834887181203791 0 -0.37528549039322923 -0.1449960120138393 0 -0.3564300746259208 -0.1370475194292029 0 -0.3637671517752642 -0.1260612571391854 0 -0.36515874731498721 -0.12834887181203791 0 -0.36515874731498721 -0.12834887181203791 0 -0.37528549039322923 -0.1449960120138393 0 -0.37846185340904842 -0.13460212654896381 0 -0.3637671517752642 -0.1260612571391854 0 -0.36515874731498721 -0.12834887181203791 0 -0.37446835130961909 -0.1190712911890162 0 -0.36515874731498721 -0.12834887181203791 0 -0.37846185340904842 -0.13460212654896381 0 -0.35668741385592662 -0.15495496758134419 0 -0.38541223347147141 -0.16164315221564071 0 -0.37528549039322923 -0.1449960120138393 0 -0.3564300746259208 -0.1370475194292029 0 -0.35668741385592662 -0.15495496758134419 0 -0.37528549039322923 -0.1449960120138393 0 -0.3564300746259208 -0.1370475194292029 0 -0.35668741385592662 -0.15495496758134419 0 -0.34191276590683062 -0.1515148912044392 0 -0.3564300746259208 -0.1370475194292029 0 -0.35668741385592662 -0.15495496758134419 0 -0.34191276590683062 -0.1515148912044392 0 -0.3564300746259208 -0.1370475194292029 0 -0.34191276590683062 -0.1515148912044392 0 -0.34665248260882858 -0.13616200655165109 0 -0.3564300746259208 -0.1370475194292029 0 -0.34191276590683062 -0.1515148912044392 0 -0.35668741385592662 -0.15495496758134419 0 -0.34191276590683062 -0.1515148912044392 0 -0.35668741385592662 -0.15495496758134419 0 -0.34739710302741139 -0.16215146572485931 0 -0.35668741385592662 -0.15495496758134419 0 -0.34739710302741139 -0.16215146572485931 0 -0.35692693391199132 -0.171622434043435 0 -0.35668741385592662 -0.15495496758134419 0 -0.35692693391199132 -0.171622434043435 0 -0.34739710302741139 -0.16215146572485931 0 -0.35692693391199132 -0.171622434043435 0 -0.34772862848711389 -0.17366744123063799 0 -0.34739710302741139 -0.16215146572485931 0 -0.34772862848711389 -0.17366744123063799 0 -0.33886744987387152 -0.1668408518138752 0 -0.35668741385592662 -0.15495496758134419 0 -0.38541223347147141 -0.16164315221564071 0 -0.35668741385592662 -0.15495496758134419 0 -0.35692693391199132 -0.171622434043435 0 -0.38541223347147141 -0.16164315221564071 0 -0.35692693391199132 -0.171622434043435 0 -0.37332338635268508 -0.17831024631329251 0 -0.38541223347147141 -0.16164315221564071 0 -0.37332338635268508 -0.17831024631329251 0 -0.35691025651573999 -0.18844814601390611 0 -0.35977028446242493 -0.18987651093178501 0 -0.37332338635268508 -0.17831024631329251 0 -0.35691025651573999 -0.18844814601390611 0 -0.35692693391199132 -0.171622434043435 0 -0.37332338635268508 -0.17831024631329251 0 -0.35691025651573999 -0.18844814601390611 0 -0.37332338635268508 -0.17831024631329251 0 -0.36992062117441488 -0.19019085015314671 0 -0.37854345557504288 -0.1905265959620572 0 -0.37332338635268508 -0.17831024631329251 0 -0.35977028446242493 -0.18987651093178501 0 -0.36992062117441488 -0.19019085015314671 0 -0.35692693391199132 -0.171622434043435 0 -0.35691025651573999 -0.18844814601390611 0 -0.33854139910655578 -0.17927430855711479 0 -0.35016459356534502 -0.19261474038588841 0 -0.35691025651573999 -0.18844814601390611 0 -0.34772862848711389 -0.17366744123063799 0 -0.33854139910655578 -0.17927430855711479 0 -0.35691025651573999 -0.18844814601390611 0 -0.35692693391199132 -0.171622434043435 0 -0.34772862848711389 -0.17366744123063799 0 -0.35691025651573999 -0.18844814601390611 0 -0.33854139910655578 -0.17927430855711479 0 -0.35691025651573999 -0.18844814601390611 0 -0.33854139910655578 -0.17927430855711479 0 -0.33886744987387152 -0.1668408518138752 0 -0.32272744766514111 -0.170634215384944 0 -0.33854139910655578 -0.17927430855711479 0 -0.32017254169737208 -0.17010047110032239 0 -0.33854139910655578 -0.17927430855711479 0 -0.32461123580212942 -0.18536235847152899 0 -0.33633353156934143 -0.1911820373907567 0 -0.34772862848711389 -0.17366744123063799 0 -0.33854139910655578 -0.17927430855711479 0 -0.33886744987387152 -0.1668408518138752 0 -0.34191276590683062 -0.1515148912044392 0 -0.33886744987387152 -0.1668408518138752 0 -0.32272744766514111 -0.170634215384944 0 -0.34191276590683062 -0.1515148912044392 0 -0.32272744766514111 -0.170634215384944 0 -0.33733743043350373 -0.1519334806429678 0 -0.34191276590683062 -0.1515148912044392 0 -0.32272744766514111 -0.170634215384944 0 -0.34191276590683062 -0.1515148912044392 0 -0.34739710302741139 -0.16215146572485931 0 -0.33886744987387152 -0.1668408518138752 0 -0.33733743043350373 -0.1519334806429678 0 -0.32272744766514111 -0.170634215384944 0 -0.32354860881437431 -0.1615663566863049 0 -0.32272744766514111 -0.170634215384944 0 -0.32354860881437431 -0.1615663566863049 0 -0.32017254169737208 -0.17010047110032239 0 -0.32578788269758169 -0.15380960446084119 0 -0.32354860881437431 -0.1615663566863049 0 -0.31318380971752291 -0.1568254476793759 0 -0.32354860881437431 -0.1615663566863049 0 -0.31318380971752291 -0.1568254476793759 0 -0.32017254169737208 -0.17010047110032239 0 -0.33854139910655578 -0.17927430855711479 0 -0.32017254169737208 -0.17010047110032239 0 -0.32461123580212942 -0.18536235847152899 0 -0.33854139910655578 -0.17927430855711479 0 -0.32272744766514111 -0.170634215384944 0 -0.32017254169737208 -0.17010047110032239 0 -0.30560043623471572 -0.18401853013763611 0 -0.32017254169737208 -0.17010047110032239 0 -0.32461123580212942 -0.18536235847152899 0 -0.30560043623471572 -0.18401853013763611 0 -0.31871604460186748 -0.19321143368735541 0 -0.31376517377250662 -0.20022592453955329 0 -0.30560043623471572 -0.18401853013763611 0 -0.32461123580212942 -0.18536235847152899 0 -0.31871604460186748 -0.19321143368735541 0 -0.32326530528390879 -0.2014012960001843 0 -0.32654492721683082 -0.19481546314326151 0 -0.33273751894001308 -0.19960125614382099 0 -0.32326530528390879 -0.2014012960001843 0 -0.32654492721683082 -0.19481546314326151 0 -0.31871604460186748 -0.19321143368735541 0 -0.32461123580212942 -0.18536235847152899 0 -0.32654492721683082 -0.19481546314326151 0 -0.31871604460186748 -0.19321143368735541 0 -0.32326530528390879 -0.2014012960001843 0 -0.31871604460186748 -0.19321143368735541 0 -0.31376517377250662 -0.20022592453955329 0 -0.32326530528390879 -0.2014012960001843 0 -0.31376517377250662 -0.20022592453955329 0 -0.31778984107301977 -0.20667676158269199 0 -0.31234393222515783 -0.22503256360959481 0 -0.30939718818124612 -0.2071104266317397 0 -0.31778984107301977 -0.20667676158269199 0 -0.30939718818124612 -0.2071104266317397 0 -0.31376517377250662 -0.20022592453955329 0 -0.31778984107301977 -0.20667676158269199 0 -0.31234393222515783 -0.22503256360959481 0 -0.31778984107301977 -0.20667676158269199 0 -0.32466484193892498 -0.21282343509709409 0 -0.32326530528390879 -0.2014012960001843 0 -0.31778984107301977 -0.20667676158269199 0 -0.32466484193892498 -0.21282343509709409 0 -0.32326530528390879 -0.2014012960001843 0 -0.32466484193892498 -0.21282343509709409 0 -0.3295619897284548 -0.2056631043537778 0 -0.3295619897284548 -0.2056631043537778 0 -0.33750254042044592 -0.2159347274252166 0 -0.33731922585860219 -0.20627148423756009 0 -0.3295619897284548 -0.2056631043537778 0 -0.33731922585860219 -0.20627148423756009 0 -0.33273751894001308 -0.19960125614382099 0 -0.32466484193892498 -0.21282343509709409 0 -0.33750254042044592 -0.2159347274252166 0 -0.32924231831849943 -0.22327066548083091 0 -0.32466484193892498 -0.21282343509709409 0 -0.3295619897284548 -0.2056631043537778 0 -0.33750254042044592 -0.2159347274252166 0 -0.33731922585860219 -0.20627148423756009 0 -0.34240475996574032 -0.1988967871362638 0 -0.3451619797206924 -0.21032490077113361 0 -0.33750254042044592 -0.2159347274252166 0 -0.33731922585860219 -0.20627148423756009 0 -0.3451619797206924 -0.21032490077113361 0 -0.34240475996574032 -0.1988967871362638 0 -0.33273751894001308 -0.19960125614382099 0 -0.33633353156934143 -0.1911820373907567 0 -0.33731922585860219 -0.20627148423756009 0 -0.34240475996574032 -0.1988967871362638 0 -0.33273751894001308 -0.19960125614382099 0 -0.32326530528390879 -0.2014012960001843 0 -0.3295619897284548 -0.2056631043537778 0 -0.33273751894001308 -0.19960125614382099 0 -0.32461123580212942 -0.18536235847152899 0 -0.32654492721683082 -0.19481546314326151 0 -0.33633353156934143 -0.1911820373907567 0 -0.32654492721683082 -0.19481546314326151 0 -0.33273751894001308 -0.19960125614382099 0 -0.33633353156934143 -0.1911820373907567 0 -0.33854139910655578 -0.17927430855711479 0 -0.33633353156934143 -0.1911820373907567 0 -0.35016459356534502 -0.19261474038588841 0 -0.34240475996574032 -0.1988967871362638 0 -0.33633353156934143 -0.1911820373907567 0 -0.35016459356534502 -0.19261474038588841 0 -0.34240475996574032 -0.1988967871362638 0 -0.34911187141308392 -0.1985122133748656 0 -0.35034062549283951 -0.20403806271291169 0 -0.34240475996574032 -0.1988967871362638 0 -0.35016459356534502 -0.19261474038588841 0 -0.34911187141308392 -0.1985122133748656 0 -0.35016459356534502 -0.19261474038588841 0 -0.34911187141308392 -0.1985122133748656 0 -0.35353750662841071 -0.19849926326439871 0 -0.34911187141308392 -0.1985122133748656 0 -0.35353750662841071 -0.19849926326439871 0 -0.35034062549283951 -0.20403806271291169 0 -0.35353750662841071 -0.19849926326439871 0 -0.35654254196950458 -0.20364953100732361 0 -0.35034062549283951 -0.20403806271291169 0 -0.35661689634176252 -0.19444235418781941 0 -0.36000876332041959 -0.19440477349139951 0 -0.35985492173771899 -0.19865080201936239 0 -0.35353750662841071 -0.19849926326439871 0 -0.35661689634176252 -0.19444235418781941 0 -0.35985492173771899 -0.19865080201936239 0 -0.35353750662841071 -0.19849926326439871 0 -0.35985492173771899 -0.19865080201936239 0 -0.35654254196950458 -0.20364953100732361 0 -0.35016459356534502 -0.19261474038588841 0 -0.35719899109012332 -0.19055405908859599 0 -0.35691025651573999 -0.18844814601390611 0 -0.35016459356534502 -0.19261474038588841 0 -0.35691025651573999 -0.18844814601390611 0 -0.35016459356534502 -0.19261474038588841 0 -0.35353750662841071 -0.19849926326439871 0 -0.35661689634176252 -0.19444235418781941 0 -0.35016459356534502 -0.19261474038588841 0 -0.35661689634176252 -0.19444235418781941 0 -0.35719899109012332 -0.19055405908859599 0 -0.35661689634176252 -0.19444235418781941 0 -0.35926569886762671 -0.19226508861895139 0 -0.36000876332041959 -0.19440477349139951 0 -0.35661689634176252 -0.19444235418781941 0 -0.35926569886762671 -0.19226508861895139 0 -0.35719899109012332 -0.19055405908859599 0 -0.35926569886762671 -0.19226508861895139 0 -0.35719899109012332 -0.19055405908859599 0 -0.35977028446242493 -0.18987651093178501 0 -0.35719899109012332 -0.19055405908859599 0 -0.35691025651573999 -0.18844814601390611 0 -0.35977028446242493 -0.18987651093178501 0 -0.35719899109012332 -0.19055405908859599 0 -0.35691025651573999 -0.18844814601390611 0 -0.35691025651573999 -0.18844814601390611 0 -0.35977028446242493 -0.18987651093178501 0 -0.35977028446242493 -0.18987651093178501 0 -0.36339175344154112 -0.19271694887851709 0 -0.36992062117441488 -0.19019085015314671 0 -0.36339175344154112 -0.19271694887851709 0 -0.36347931666782418 -0.19557882604094151 0 -0.36823493331560581 -0.1943202457765589 0 -0.36339175344154112 -0.19271694887851709 0 -0.36000876332041959 -0.19440477349139951 0 -0.36347931666782418 -0.19557882604094151 0 -0.35926569886762671 -0.19226508861895139 0 -0.36339175344154112 -0.19271694887851709 0 -0.36000876332041959 -0.19440477349139951 0 -0.35926569886762671 -0.19226508861895139 0 -0.35977028446242493 -0.18987651093178501 0 -0.36339175344154112 -0.19271694887851709 0 -0.36000876332041959 -0.19440477349139951 0 -0.35985492173771899 -0.19865080201936239 0 -0.36347931666782418 -0.19557882604094151 0 -0.35985492173771899 -0.19865080201936239 0 -0.36187873621008743 -0.2055047669660276 0 -0.35654254196950458 -0.20364953100732361 0 -0.35985492173771899 -0.19865080201936239 0 -0.36760251540788841 -0.20154590335683581 0 -0.36187873621008743 -0.2055047669660276 0 -0.35985492173771899 -0.19865080201936239 0 -0.36347931666782418 -0.19557882604094151 0 -0.36760251540788841 -0.20154590335683581 0 -0.36347931666782418 -0.19557882604094151 0 -0.36760251540788841 -0.20154590335683581 0 -0.36823493331560581 -0.1943202457765589 0 -0.36760251540788841 -0.20154590335683581 0 -0.36823493331560581 -0.1943202457765589 0 -0.37504253256815029 -0.1965843699532486 0 -0.36760251540788841 -0.20154590335683581 0 -0.37710548144123213 -0.20982693797764149 0 -0.37504253256815029 -0.1965843699532486 0 -0.36992062117441488 -0.19019085015314671 0 -0.37854345557504288 -0.1905265959620572 0 -0.37504253256815029 -0.1965843699532486 0 -0.36339175344154112 -0.19271694887851709 0 -0.36992062117441488 -0.19019085015314671 0 -0.36823493331560581 -0.1943202457765589 0 -0.36992062117441488 -0.19019085015314671 0 -0.36823493331560581 -0.1943202457765589 0 -0.37504253256815029 -0.1965843699532486 0 -0.36665986171497328 -0.2110321626386498 0 -0.36690705876439161 -0.22217834925555879 0 -0.37710548144123213 -0.20982693797764149 0 -0.36760251540788841 -0.20154590335683581 0 -0.36665986171497328 -0.2110321626386498 0 -0.37710548144123213 -0.20982693797764149 0 -0.36187873621008743 -0.2055047669660276 0 -0.36665986171497328 -0.2110321626386498 0 -0.35682036025073921 -0.2115876681125089 0 -0.36760251540788841 -0.20154590335683581 0 -0.36187873621008743 -0.2055047669660276 0 -0.36665986171497328 -0.2110321626386498 0 -0.36665986171497328 -0.2110321626386498 0 -0.35682036025073921 -0.2115876681125089 0 -0.36690705876439161 -0.22217834925555879 0 -0.35682036025073921 -0.2115876681125089 0 -0.35103488495404012 -0.21982559774263449 0 -0.36690705876439161 -0.22217834925555879 0 -0.36187873621008743 -0.2055047669660276 0 -0.35682036025073921 -0.2115876681125089 0 -0.35654254196950458 -0.20364953100732361 0 -0.35682036025073921 -0.2115876681125089 0 -0.35654254196950458 -0.20364953100732361 0 -0.35034062549283951 -0.20403806271291169 0 -0.35682036025073921 -0.2115876681125089 0 -0.3451619797206924 -0.21032490077113361 0 -0.35034062549283951 -0.20403806271291169 0 -0.34240475996574032 -0.1988967871362638 0 -0.3451619797206924 -0.21032490077113361 0 -0.35034062549283951 -0.20403806271291169 0 -0.33750254042044592 -0.2159347274252166 0 -0.3451619797206924 -0.21032490077113361 0 -0.35103488495404012 -0.21982559774263449 0 -0.35682036025073921 -0.2115876681125089 0 -0.3451619797206924 -0.21032490077113361 0 -0.35103488495404012 -0.21982559774263449 0 -0.35103488495404012 -0.21982559774263449 0 -0.35811506254885389 -0.23021829818560119 0 -0.34280771584388481 -0.2273809804201537 0 -0.33750254042044592 -0.2159347274252166 0 -0.35103488495404012 -0.21982559774263449 0 -0.34280771584388481 -0.2273809804201537 0 -0.35103488495404012 -0.21982559774263449 0 -0.35811506254885389 -0.23021829818560119 0 -0.36690705876439161 -0.22217834925555879 0 -0.35811506254885389 -0.23021829818560119 0 -0.34882924485425448 -0.23768245024691359 0 -0.34280771584388481 -0.2273809804201537 0 -0.35811506254885389 -0.23021829818560119 0 -0.36690705876439161 -0.22217834925555879 0 -0.3689443854345229 -0.2416094576424957 0 -0.36690705876439161 -0.22217834925555879 0 -0.3689443854345229 -0.2416094576424957 0 -0.38156329505330949 -0.2243542697352347 0 -0.34616816808376821 -0.25207713586638669 0 -0.3689443854345229 -0.2416094576424957 0 -0.34882924485425448 -0.23768245024691359 0 -0.35811506254885389 -0.23021829818560119 0 -0.3689443854345229 -0.2416094576424957 0 -0.34882924485425448 -0.23768245024691359 0 -0.33168645956306869 -0.2542145225846455 0 -0.34616816808376821 -0.25207713586638669 0 -0.33212224396721529 -0.2373541434397253 0 -0.34616816808376821 -0.25207713586638669 0 -0.34882924485425448 -0.23768245024691359 0 -0.33212224396721529 -0.2373541434397253 0 -0.34882924485425448 -0.23768245024691359 0 -0.33212224396721529 -0.2373541434397253 0 -0.34280771584388481 -0.2273809804201537 0 -0.33750254042044592 -0.2159347274252166 0 -0.34280771584388481 -0.2273809804201537 0 -0.32924231831849943 -0.22327066548083091 0 -0.33212224396721529 -0.2373541434397253 0 -0.34280771584388481 -0.2273809804201537 0 -0.32924231831849943 -0.22327066548083091 0 -0.31234393222515783 -0.22503256360959481 0 -0.31529067626906931 -0.24295470058744989 0 -0.31234393222515783 -0.22503256360959481 0 -0.33212224396721529 -0.2373541434397253 0 -0.32924231831849943 -0.22327066548083091 0 -0.31234393222515783 -0.22503256360959481 0 -0.32466484193892498 -0.21282343509709409 0 -0.32924231831849943 -0.22327066548083091 0 -0.33168645956306869 -0.2542145225846455 0 -0.31562540891235408 -0.24499054903389081 0 -0.31529067626906931 -0.24295470058744989 0 -0.33168645956306869 -0.2542145225846455 0 -0.31529067626906931 -0.24295470058744989 0 -0.33168645956306869 -0.2542145225846455 0 -0.33212224396721529 -0.2373541434397253 0 -0.31529067626906931 -0.24295470058744989 0 -0.31234393222515783 -0.22503256360959481 0 -0.33212224396721529 -0.2373541434397253 0 -0.31529067626906931 -0.24295470058744989 0 -0.33168645956306869 -0.2542145225846455 0 -0.31562540891235408 -0.24499054903389081 0 -0.31562540891235408 -0.24499054903389081 0 -0.31529067626906931 -0.24295470058744989 0 -0.44077913706085309 -0.25265964186792861 0 -0.42736086759810438 -0.23060163059163041 0 -0.44022348047835519 -0.2423530460955565 0 -0.44077913706085309 -0.25265964186792861 0 -0.42228007360992031 -0.24400999108587701 0 -0.42736086759810438 -0.23060163059163041 0 -0.44077913706085309 -0.25265964186792861 0 -0.42736086759810438 -0.23060163059163041 0 -0.42228007360992031 -0.24400999108587701 0 -0.42736086759810438 -0.23060163059163041 0 -0.41603051253650869 -0.24036420679564921 0 -0.42228007360992031 -0.24400999108587701 0 -0.42736086759810438 -0.23060163059163041 0 -0.42736086759810438 -0.23060163059163041 0 -0.43842836541689251 -0.2360538851166937 0 -0.44022348047835519 -0.2423530460955565 0 -0.42736086759810438 -0.23060163059163041 0 -0.43489803334774008 -0.2107108348398376 0 -0.42736086759810438 -0.23060163059163041 0 -0.4373516967015787 -0.21388589486958451 0 -0.43484168810467078 -0.22520862762548891 0 -0.42736086759810438 -0.23060163059163041 0 -0.4373516967015787 -0.21388589486958451 0 -0.43601009865010448 -0.23073475532807661 0 -0.43484168810467078 -0.22520862762548891 0 -0.42736086759810438 -0.23060163059163041 0 -0.43601009865010448 -0.23073475532807661 0 -0.42736086759810438 -0.23060163059163041 0 -0.43842836541689251 -0.2360538851166937 0 -0.43601009865010448 -0.23073475532807661 0 -0.43484168810467078 -0.22520862762548891 0 -0.43837374922590272 -0.2256525351467418 0 -0.43484168810467078 -0.22520862762548891 0 -0.4373516967015787 -0.21388589486958451 0 -0.43837374922590272 -0.2256525351467418 0 -0.42736086759810438 -0.23060163059163041 0 -0.4137943981515152 -0.20829999647532579 0 -0.41603051253650869 -0.24036420679564921 0 -0.39739763337210943 -0.23501061977264379 0 -0.41031953365521329 -0.21396061293343269 0 -0.41603051253650869 -0.24036420679564921 0 -0.41031953365521329 -0.21396061293343269 0 -0.42736086759810438 -0.23060163059163041 0 -0.41603051253650869 -0.24036420679564921 0 -0.41031953365521329 -0.21396061293343269 0 -0.40190870609421009 -0.25449723798200929 0 -0.41603051253650869 -0.24036420679564921 0 -0.39739763337210943 -0.23501061977264379 0 -0.38447573308900712 -0.25606062661185608 0 -0.39739763337210943 -0.23501061977264379 0 -0.38447573308900712 -0.25606062661185608 0 -0.40190870609421009 -0.25449723798200929 0 -0.39739763337210943 -0.23501061977264379 0 -0.38447573308900712 -0.25606062661185608 0 -0.3689443854345229 -0.2416094576424957 0 -0.39739763337210943 -0.23501061977264379 0 -0.3689443854345229 -0.2416094576424957 0 -0.39739763337210943 -0.23501061977264379 0 -0.38156329505330949 -0.2243542697352347 0 -0.36690705876439161 -0.22217834925555879 0 -0.38156329505330949 -0.2243542697352347 0 -0.37710548144123213 -0.20982693797764149 0 -0.39739763337210943 -0.23501061977264379 0 -0.38156329505330949 -0.2243542697352347 0 -0.39297621060536042 -0.21226177226555881 0 -0.39739763337210943 -0.23501061977264379 0 -0.41031953365521329 -0.21396061293343269 0 -0.39739763337210943 -0.23501061977264379 0 -0.39297621060536042 -0.21226177226555881 0 -0.41031953365521329 -0.21396061293343269 0 -0.40165510463213372 -0.2062184062256909 0 -0.39297621060536042 -0.21226177226555881 0 -0.41031953365521329 -0.21396061293343269 0 -0.40165510463213372 -0.2062184062256909 0 -0.40650239726254722 -0.1963128294056744 0 -0.41031953365521329 -0.21396061293343269 0 -0.39297621060536042 -0.21226177226555881 0 -0.38519646603041308 -0.1990041102365066 0 -0.39602523949119067 -0.19819637819966721 0 -0.40165510463213372 -0.2062184062256909 0 -0.39297621060536042 -0.21226177226555881 0 -0.39602523949119067 -0.19819637819966721 0 -0.38156329505330949 -0.2243542697352347 0 -0.39297621060536042 -0.21226177226555881 0 -0.37710548144123213 -0.20982693797764149 0 -0.39297621060536042 -0.21226177226555881 0 -0.37710548144123213 -0.20982693797764149 0 -0.38519646603041308 -0.1990041102365066 0 -0.37710548144123213 -0.20982693797764149 0 -0.37504253256815029 -0.1965843699532486 0 -0.38519646603041308 -0.1990041102365066 0 -0.37854345557504288 -0.1905265959620572 0 -0.37504253256815029 -0.1965843699532486 0 -0.38519646603041308 -0.1990041102365066 0 -0.37854345557504288 -0.1905265959620572 0 -0.38519646603041308 -0.1990041102365066 0 -0.38923427174955111 -0.1885434031540916 0 -0.38519646603041308 -0.1990041102365066 0 -0.38923427174955111 -0.1885434031540916 0 -0.39602523949119067 -0.19819637819966721 0 -0.38923427174955111 -0.1885434031540916 0 -0.39602523949119067 -0.19819637819966721 0 -0.40051686441961809 -0.18647333771037999 0 -0.38923427174955111 -0.1885434031540916 0 -0.40051686441961809 -0.18647333771037999 0 -0.40165510463213372 -0.2062184062256909 0 -0.39602523949119067 -0.19819637819966721 0 -0.40650239726254722 -0.1963128294056744 0 -0.40650239726254722 -0.1963128294056744 0 -0.40422692678988958 -0.18579263672866969 0 -0.39602523949119067 -0.19819637819966721 0 -0.40650239726254722 -0.1963128294056744 0 -0.40051686441961809 -0.18647333771037999 0 -0.40650239726254722 -0.1963128294056744 0 -0.40051686441961809 -0.18647333771037999 0 -0.40650239726254722 -0.1963128294056744 0 -0.40422692678988958 -0.18579263672866969 0 -0.40051686441961809 -0.18647333771037999 0 -0.4140580329532586 -0.19244493638747379 0 -0.40650239726254722 -0.1963128294056744 0 -0.4137943981515152 -0.20829999647532579 0 -0.4140580329532586 -0.19244493638747379 0 -0.4137943981515152 -0.20829999647532579 0 -0.42231209022185368 -0.19442452364186419 0 -0.4140580329532586 -0.19244493638747379 0 -0.40650239726254722 -0.1963128294056744 0 -0.40422692678988958 -0.18579263672866969 0 -0.4140580329532586 -0.19244493638747379 0 -0.42231209022185368 -0.19442452364186419 0 -0.41422397354014989 -0.1839584358829901 0 -0.42231209022185368 -0.19442452364186419 0 -0.41422397354014989 -0.1839584358829901 0 -0.4137943981515152 -0.20829999647532579 0 -0.42231209022185368 -0.19442452364186419 0 -0.40650239726254722 -0.1963128294056744 0 -0.4137943981515152 -0.20829999647532579 0 -0.42736086759810438 -0.23060163059163041 0 -0.4137943981515152 -0.20829999647532579 0 -0.41031953365521329 -0.21396061293343269 0 -0.40650239726254722 -0.1963128294056744 0 -0.4137943981515152 -0.20829999647532579 0 -0.41031953365521329 -0.21396061293343269 0 -0.40650239726254722 -0.1963128294056744 0 -0.41031953365521329 -0.21396061293343269 0 -0.4137943981515152 -0.20829999647532579 0 -0.41031953365521329 -0.21396061293343269 0 -0.4137943981515152 -0.20829999647532579 0 -0.43489803334774008 -0.2107108348398376 0 -0.42231209022185368 -0.19442452364186419 0 -0.42736086759810438 -0.23060163059163041 0 -0.4137943981515152 -0.20829999647532579 0 -0.43489803334774008 -0.2107108348398376 0 -0.42736086759810438 -0.23060163059163041 0 -0.4373516967015787 -0.21388589486958451 0 -0.43489803334774008 -0.2107108348398376 0 -0.4373516967015787 -0.21388589486958451 0 -0.43489803334774008 -0.2107108348398376 0 -0.42231209022185368 -0.19442452364186419 0 -0.43057891027166728 -0.18095772581997491 0 -0.44111772007090622 -0.19429690387956 0 -0.43489803334774008 -0.2107108348398376 0 -0.42231209022185368 -0.19442452364186419 0 -0.43489803334774008 -0.2107108348398376 0 -0.42231209022185368 -0.19442452364186419 0 -0.44111772007090622 -0.19429690387956 0 -0.42231209022185368 -0.19442452364186419 0 -0.43057891027166728 -0.18095772581997491 0 -0.43057891027166728 -0.18095772581997491 0 -0.41422397354014989 -0.1839584358829901 0 -0.43057891027166728 -0.18095772581997491 0 -0.42922682725352368 -0.171844786092304 0 -0.41422397354014989 -0.1839584358829901 0 -0.43057891027166728 -0.18095772581997491 0 -0.44140876524852229 -0.16331569822836481 0 -0.42231209022185368 -0.19442452364186419 0 -0.43057891027166728 -0.18095772581997491 0 -0.41422397354014989 -0.1839584358829901 0 -0.43057891027166728 -0.18095772581997491 0 -0.4309419184098367 -0.17224412180516829 0 -0.44140876524852229 -0.16331569822836481 0 -0.43057891027166728 -0.18095772581997491 0 -0.4309419184098367 -0.17224412180516829 0 -0.42922682725352368 -0.171844786092304 0 -0.4309419184098367 -0.17224412180516829 0 -0.42922682725352368 -0.171844786092304 0 -0.43314509164951948 -0.16422752876596811 0 -0.43203501857303628 -0.1466669632686152 0 -0.44140876524852229 -0.16331569822836481 0 -0.42595550280748851 -0.16005265768260021 0 -0.42922682725352368 -0.171844786092304 0 -0.41148048671939391 -0.15474174595858459 0 -0.4309419184098367 -0.17224412180516829 0 -0.43314509164951948 -0.16422752876596811 0 -0.42922682725352368 -0.171844786092304 0 -0.4309419184098367 -0.17224412180516829 0 -0.43314509164951948 -0.16422752876596811 0 -0.44140876524852229 -0.16331569822836481 0 -0.43314509164951948 -0.16422752876596811 0 -0.42595550280748851 -0.16005265768260021 0 -0.42505442157884721 -0.15402606797891441 0 -0.43314509164951948 -0.16422752876596811 0 -0.42595550280748851 -0.16005265768260021 0 -0.42922682725352368 -0.171844786092304 0 -0.42922682725352368 -0.171844786092304 0 -0.39972427730547622 -0.16497551749894099 0 -0.41148048671939391 -0.15474174595858459 0 -0.42922682725352368 -0.171844786092304 0 -0.41148048671939391 -0.15474174595858459 0 -0.42922682725352368 -0.171844786092304 0 -0.39972427730547622 -0.16497551749894099 0 -0.42922682725352368 -0.171844786092304 0 -0.40740510916547079 -0.1751347707740627 0 -0.39972427730547622 -0.16497551749894099 0 -0.42595550280748851 -0.16005265768260021 0 -0.41148048671939391 -0.15474174595858459 0 -0.42505442157884721 -0.15402606797891441 0 -0.40740510916547079 -0.1751347707740627 0 -0.41422397354014989 -0.1839584358829901 0 -0.42922682725352368 -0.171844786092304 0 -0.40740510916547079 -0.1751347707740627 0 -0.41422397354014989 -0.1839584358829901 0 -0.40740510916547079 -0.1751347707740627 0 -0.41422397354014989 -0.1839584358829901 0 -0.40422692678988958 -0.18579263672866969 0 -0.41422397354014989 -0.1839584358829901 0 -0.40422692678988958 -0.18579263672866969 0 -0.4140580329532586 -0.19244493638747379 0 -0.41422397354014989 -0.1839584358829901 0 -0.40422692678988958 -0.18579263672866969 0 -0.40051686441961809 -0.18647333771037999 0 -0.38948031873731331 -0.16833059212106191 0 -0.40740510916547079 -0.1751347707740627 0 -0.40422692678988958 -0.18579263672866969 0 -0.39972427730547622 -0.16497551749894099 0 -0.38923427174955111 -0.1885434031540916 0 -0.40051686441961809 -0.18647333771037999 0 -0.38948031873731331 -0.16833059212106191 0 -0.40422692678988958 -0.18579263672866969 0 -0.39972427730547622 -0.16497551749894099 0 -0.40051686441961809 -0.18647333771037999 0 -0.38948031873731331 -0.16833059212106191 0 -0.39972427730547622 -0.16497551749894099 0 -0.40422692678988958 -0.18579263672866969 0 -0.40051686441961809 -0.18647333771037999 0 -0.39972427730547622 -0.16497551749894099 0 -0.40422692678988958 -0.18579263672866969 0 -0.40051686441961809 -0.18647333771037999 0 -0.37332338635268508 -0.17831024631329251 0 -0.37854345557504288 -0.1905265959620572 0 -0.38923427174955111 -0.1885434031540916 0 -0.37332338635268508 -0.17831024631329251 0 -0.38948031873731331 -0.16833059212106191 0 -0.37332338635268508 -0.17831024631329251 0 -0.38923427174955111 -0.1885434031540916 0 -0.38948031873731331 -0.16833059212106191 0 -0.37332338635268508 -0.17831024631329251 0 -0.38948031873731331 -0.16833059212106191 0 -0.38541223347147141 -0.16164315221564071 0 -0.38948031873731331 -0.16833059212106191 0 -0.38541223347147141 -0.16164315221564071 0 -0.39622952185458249 -0.1641618110938147 0 -0.38948031873731331 -0.16833059212106191 0 -0.38541223347147141 -0.16164315221564071 0 -0.38541223347147141 -0.16164315221564071 0 -0.39271177990959588 -0.156857957040483 0 -0.39622952185458249 -0.1641618110938147 0 -0.38541223347147141 -0.16164315221564071 0 -0.39622952185458249 -0.1641618110938147 0 -0.39271177990959588 -0.156857957040483 0 -0.39622952185458249 -0.1641618110938147 0 -0.39915714759055743 -0.16235350418543859 0 -0.39622952185458249 -0.1641618110938147 0 -0.39972427730547622 -0.16497551749894099 0 -0.39915714759055743 -0.16235350418543859 0 -0.39622952185458249 -0.1641618110938147 0 -0.39915714759055743 -0.16235350418543859 0 -0.38948031873731331 -0.16833059212106191 0 -0.39622952185458249 -0.1641618110938147 0 -0.39972427730547622 -0.16497551749894099 0 -0.38948031873731331 -0.16833059212106191 0 -0.39622952185458249 -0.1641618110938147 0 -0.39622952185458249 -0.1641618110938147 0 -0.39972427730547622 -0.16497551749894099 0 -0.39972427730547622 -0.16497551749894099 0 -0.39915714759055743 -0.16235350418543859 0 -0.41148048671939391 -0.15474174595858459 0 -0.39915714759055743 -0.16235350418543859 0 -0.41148048671939391 -0.15474174595858459 0 -0.39972427730547622 -0.16497551749894099 0 -0.39915714759055743 -0.16235350418543859 0 -0.39297441901450642 -0.13690651857380051 0 -0.41148048671939391 -0.15474174595858459 0 -0.39915714759055743 -0.16235350418543859 0 -0.39612006169404052 -0.14831213155858591 0 -0.41148048671939391 -0.15474174595858459 0 -0.39612006169404052 -0.14831213155858591 0 -0.39297441901450642 -0.13690651857380051 0 -0.41148048671939391 -0.15474174595858459 0 -0.39297441901450642 -0.13690651857380051 0 -0.4079994844475347 -0.13860737181033189 0 -0.41148048671939391 -0.15474174595858459 0 -0.39612006169404052 -0.14831213155858591 0 -0.38682763964864841 -0.14721964965855219 0 -0.39297441901450642 -0.13690651857380051 0 -0.39915714759055743 -0.16235350418543859 0 -0.39612006169404052 -0.14831213155858591 0 -0.39271177990959588 -0.156857957040483 0 -0.39915714759055743 -0.16235350418543859 0 -0.39612006169404052 -0.14831213155858591 0 -0.39271177990959588 -0.156857957040483 0 -0.39612006169404052 -0.14831213155858591 0 -0.38682763964864841 -0.14721964965855219 0 -0.38541223347147141 -0.16164315221564071 0 -0.37528549039322923 -0.1449960120138393 0 -0.38541223347147141 -0.16164315221564071 0 -0.38682763964864841 -0.14721964965855219 0 -0.37528549039322923 -0.1449960120138393 0 -0.38541223347147141 -0.16164315221564071 0 -0.39271177990959588 -0.156857957040483 0 -0.38682763964864841 -0.14721964965855219 0 -0.38682763964864841 -0.14721964965855219 0 -0.37528549039322923 -0.1449960120138393 0 -0.37846185340904842 -0.13460212654896381 0 -0.37446835130961909 -0.1190712911890162 0 -0.39297441901450642 -0.13690651857380051 0 -0.39717979884675048 -0.1195153947443312 0 -0.37446835130961909 -0.1190712911890162 0 -0.39297441901450642 -0.13690651857380051 0 -0.37446835130961909 -0.1190712911890162 0 -0.37846185340904842 -0.13460212654896381 0 -0.39297441901450642 -0.13690651857380051 0 -0.38682763964864841 -0.14721964965855219 0 -0.37846185340904842 -0.13460212654896381 0 -0.39297441901450642 -0.13690651857380051 0 -0.39297441901450642 -0.13690651857380051 0 -0.4079994844475347 -0.13860737181033189 0 -0.39717979884675048 -0.1195153947443312 0 -0.4079994844475347 -0.13860737181033189 0 -0.42099081209764982 -0.14886750224256121 0 -0.4175250693695744 -0.1208958061282376 0 -0.4079994844475347 -0.13860737181033189 0 -0.39717979884675048 -0.1195153947443312 0 -0.4175250693695744 -0.1208958061282376 0 -0.4079994844475347 -0.13860737181033189 0 -0.41148048671939391 -0.15474174595858459 0 -0.42099081209764982 -0.14886750224256121 0 -0.41148048671939391 -0.15474174595858459 0 -0.42099081209764982 -0.14886750224256121 0 -0.41148048671939391 -0.15474174595858459 0 -0.42099081209764982 -0.14886750224256121 0 -0.42505442157884721 -0.15402606797891441 0 -0.43203501857303628 -0.1466669632686152 0 -0.44140876524852229 -0.16331569822836481 0 -0.43314509164951948 -0.16422752876596811 0 -0.42890364790961721 -0.14817560853228609 0 -0.42505442157884721 -0.15402606797891441 0 -0.43314509164951948 -0.16422752876596811 0 -0.42890364790961721 -0.14817560853228609 0 -0.43203501857303628 -0.1466669632686152 0 -0.42099081209764982 -0.14886750224256121 0 -0.42890364790961721 -0.14817560853228609 0 -0.42505442157884721 -0.15402606797891441 0 -0.42890364790961721 -0.14817560853228609 0 -0.43203501857303628 -0.1466669632686152 0 -0.43203501857303628 -0.1466669632686152 0 -0.4175250693695744 -0.1208958061282376 0 -0.43203501857303628 -0.1466669632686152 0 -0.4175250693695744 -0.1208958061282376 0 -0.44270194581816669 -0.1237995845843381 0 -0.42099081209764982 -0.14886750224256121 0 -0.42890364790961721 -0.14817560853228609 0 -0.4175250693695744 -0.1208958061282376 0 -0.42890364790961721 -0.14817560853228609 0 -0.43203501857303628 -0.1466669632686152 0 -0.4175250693695744 -0.1208958061282376 0 -0.43203501857303628 -0.1466669632686152 0 -0.44594619432605948 -0.13996477701610199 0 -0.44270194581816669 -0.1237995845843381 0 -0.44594619432605948 -0.13996477701610199 0 -0.45985737007908289 -0.1332625907635894 0 -0.44270194581816669 -0.1237995845843381 0 -0.44594619432605948 -0.13996477701610199 0 -0.45063306766380401 -0.14828914449597791 0 -0.45985737007908289 -0.1332625907635894 0 -0.44594619432605948 -0.13996477701610199 0 -0.45985737007908289 -0.1332625907635894 0 -0.43203501857303628 -0.1466669632686152 0 -0.44172810830543269 -0.14861418840754839 0 -0.44140876524852229 -0.16331569822836481 0 -0.43203501857303628 -0.1466669632686152 0 -0.44594619432605948 -0.13996477701610199 0 -0.44172810830543269 -0.14861418840754839 0 -0.43203501857303628 -0.1466669632686152 0 -0.44594619432605948 -0.13996477701610199 0 -0.44172810830543269 -0.14861418840754839 0 -0.45063306766380401 -0.14828914449597791 0 -0.44140876524852229 -0.16331569822836481 0 -0.45063306766380401 -0.14828914449597791 0 -0.44140876524852229 -0.16331569822836481 0 -0.45063306766380401 -0.14828914449597791 0 -0.45673855453176587 -0.15307307544661489 0 -0.44140876524852229 -0.16331569822836481 0 -0.44594619432605948 -0.13996477701610199 0 -0.44172810830543269 -0.14861418840754839 0 -0.45063306766380401 -0.14828914449597791 0 -0.45063306766380401 -0.14828914449597791 0 -0.45985737007908289 -0.1332625907635894 0 -0.45063306766380401 -0.14828914449597791 0 -0.45673855453176587 -0.15307307544661489 0 -0.45985737007908289 -0.1332625907635894 0 -0.45673855453176587 -0.15307307544661489 0 -0.46682999009711768 -0.15073376937958241 0 -0.46522525612599441 -0.1306764274724784 0 -0.45673855453176587 -0.15307307544661489 0 -0.46522525612599441 -0.1306764274724784 0 -0.45673855453176587 -0.15307307544661489 0 -0.46682999009711768 -0.15073376937958241 0 -0.46817728976359851 -0.1610048067299972 0 -0.45985737007908289 -0.1332625907635894 0 -0.44270194581816669 -0.1237995845843381 0 -0.45788115182577938 -0.11993283980912391 0 -0.45673855453176587 -0.15307307544661489 0 -0.45985737007908289 -0.1332625907635894 0 -0.46522525612599441 -0.1306764274724784 0 -0.45985737007908289 -0.1332625907635894 0 -0.46522525612599441 -0.1306764274724784 0 -0.47084733415767871 -0.1158396029228486 0 -0.45985737007908289 -0.1332625907635894 0 -0.46522525612599441 -0.1306764274724784 0 -0.46522525612599441 -0.1306764274724784 0 -0.47926957317607938 -0.1239100958316325 0 -0.46522525612599441 -0.1306764274724784 0 -0.47555414163115761 -0.14501006247650791 0 -0.47926957317607938 -0.1239100958316325 0 -0.48548478670023099 -0.14271227174620421 0 -0.47555414163115761 -0.14501006247650791 0 -0.47926957317607938 -0.1239100958316325 0 -0.50000000000000022 -0.1437747378006998 0 -0.48548478670023099 -0.14271227174620421 0 -0.47926957317607938 -0.1239100958316325 0 -0.50000000000000022 -0.1437747378006998 0 -0.47926957317607938 -0.1239100958316325 0 -0.50000000000000167 -0.1139225013870849 0 -0.50000000000000022 -0.1437747378006998 0 -0.47926957317607938 -0.1239100958316325 0 -0.50000000000000022 -0.1437747378006998 0 -0.48548478670023099 -0.14271227174620421 0 -0.48711543199368612 -0.15815419087597571 0 -0.47555414163115761 -0.14501006247650791 0 -0.48711543199368612 -0.15815419087597571 0 -0.46817728976359851 -0.1610048067299972 0 -0.46682999009711768 -0.15073376937958241 0 -0.47555414163115761 -0.14501006247650791 0 -0.46817728976359851 -0.1610048067299972 0 -0.46682999009711768 -0.15073376937958241 0 -0.46522525612599441 -0.1306764274724784 0 -0.47555414163115761 -0.14501006247650791 0 -0.48548478670023099 -0.14271227174620421 0 -0.47555414163115761 -0.14501006247650791 0 -0.48711543199368612 -0.15815419087597571 0 -0.47375146362347309 -0.1702915791018528 0 -0.48711543199368612 -0.15815419087597571 0 -0.48233363497072662 -0.17844164009879721 0 -0.47375146362347309 -0.1702915791018528 0 -0.48711543199368612 -0.15815419087597571 0 -0.46817728976359851 -0.1610048067299972 0 -0.50000000000000022 -0.1437747378006998 0 -0.5 -0.16805839682296839 0 -0.48711543199368612 -0.15815419087597571 0 -0.5 -0.16805839682296839 0 -0.48711543199368612 -0.15815419087597571 0 -0.48233363497072662 -0.17844164009879721 0 -0.48711543199368612 -0.15815419087597571 0 -0.48233363497072662 -0.17844164009879721 0 -0.5 -0.16805839682296839 0 -0.48233363497072662 -0.17844164009879721 0 -0.5 -0.19234205584523709 0 -0.48233363497072662 -0.17844164009879721 0 -0.47150950157309179 -0.1814829416590025 0 -0.47755183794776718 -0.19872908932161881 0 -0.47375146362347309 -0.1702915791018528 0 -0.47150950157309179 -0.1814829416590025 0 -0.46421955343776738 -0.17478553340296529 0 -0.47375146362347309 -0.1702915791018528 0 -0.48233363497072662 -0.17844164009879721 0 -0.47150950157309179 -0.1814829416590025 0 -0.47150950157309179 -0.1814829416590025 0 -0.46328121282885232 -0.1816938166781841 0 -0.46613699333081049 -0.1897092416762754 0 -0.46328121282885232 -0.1816938166781841 0 -0.45389885019697862 -0.1854993694039119 0 -0.46613699333081049 -0.1897092416762754 0 -0.46328121282885232 -0.1816938166781841 0 -0.45389885019697862 -0.1854993694039119 0 -0.45965612491054098 -0.1756228051165952 0 -0.45389885019697862 -0.1854993694039119 0 -0.45965612491054098 -0.1756228051165952 0 -0.45389885019697862 -0.1854993694039119 0 -0.45965612491054098 -0.1756228051165952 0 -0.44939774943386501 -0.1775049530593493 0 -0.45965612491054098 -0.1756228051165952 0 -0.44939774943386501 -0.1775049530593493 0 -0.47150950157309179 -0.1814829416590025 0 -0.46328121282885232 -0.1816938166781841 0 -0.46421955343776738 -0.17478553340296529 0 -0.45965612491054098 -0.1756228051165952 0 -0.46421955343776738 -0.17478553340296529 0 -0.46328121282885232 -0.1816938166781841 0 -0.45965612491054098 -0.1756228051165952 0 -0.46421955343776738 -0.17478553340296529 0 -0.45965612491054098 -0.1756228051165952 0 -0.46421955343776738 -0.17478553340296529 0 -0.46817728976359851 -0.1610048067299972 0 -0.45965612491054098 -0.1756228051165952 0 -0.46817728976359851 -0.1610048067299972 0 -0.45673855453176587 -0.15307307544661489 0 -0.45965612491054098 -0.1756228051165952 0 -0.44825185293753661 -0.17546972342075129 0 -0.45673855453176587 -0.15307307544661489 0 -0.45965612491054098 -0.1756228051165952 0 -0.46817728976359851 -0.1610048067299972 0 -0.47375146362347309 -0.1702915791018528 0 -0.46421955343776738 -0.17478553340296529 0 -0.46817728976359851 -0.1610048067299972 0 -0.45673855453176587 -0.15307307544661489 0 -0.44140876524852229 -0.16331569822836481 0 -0.44825185293753661 -0.17546972342075129 0 -0.45673855453176587 -0.15307307544661489 0 -0.44825185293753661 -0.17546972342075129 0 -0.44140876524852229 -0.16331569822836481 0 -0.44825185293753661 -0.17546972342075129 0 -0.43057891027166728 -0.18095772581997491 0 -0.44140876524852229 -0.16331569822836481 0 -0.44733740679407308 -0.17788297291928279 0 -0.45389885019697862 -0.1854993694039119 0 -0.44733740679407308 -0.17788297291928279 0 -0.44111772007090622 -0.19429690387956 0 -0.43057891027166728 -0.18095772581997491 0 -0.44733740679407308 -0.17788297291928279 0 -0.44111772007090622 -0.19429690387956 0 -0.43057891027166728 -0.18095772581997491 0 -0.44733740679407308 -0.17788297291928279 0 -0.44733740679407308 -0.17788297291928279 0 -0.44111772007090622 -0.19429690387956 0 -0.45389885019697862 -0.1854993694039119 0 -0.44939774943386501 -0.1775049530593493 0 -0.45389885019697862 -0.1854993694039119 0 -0.44939774943386501 -0.1775049530593493 0 -0.44733740679407308 -0.17788297291928279 0 -0.45965612491054098 -0.1756228051165952 0 -0.44939774943386501 -0.1775049530593493 0 -0.44825185293753661 -0.17546972342075129 0 -0.44140876524852229 -0.16331569822836481 0 -0.44825185293753661 -0.17546972342075129 0 -0.44733740679407308 -0.17788297291928279 0 -0.44939774943386501 -0.1775049530593493 0 -0.44825185293753661 -0.17546972342075129 0 -0.44733740679407308 -0.17788297291928279 0 -0.44825185293753661 -0.17546972342075129 0 -0.44733740679407308 -0.17788297291928279 0 -0.44939774943386501 -0.1775049530593493 0 -0.44825185293753661 -0.17546972342075129 0 -0.44939774943386501 -0.1775049530593493 0 -0.44733740679407308 -0.17788297291928279 0 -0.43489803334774008 -0.2107108348398376 0 -0.44111772007090622 -0.19429690387956 0 -0.43489803334774008 -0.2107108348398376 0 -0.44562527344927833 -0.19969263213674801 0 -0.44111772007090622 -0.19429690387956 0 -0.45389885019697862 -0.1854993694039119 0 -0.44562527344927833 -0.19969263213674801 0 -0.44111772007090622 -0.19429690387956 0 -0.45389885019697862 -0.1854993694039119 0 -0.44562527344927833 -0.19969263213674801 0 -0.4373516967015787 -0.21388589486958451 0 -0.43489803334774008 -0.2107108348398376 0 -0.44562527344927833 -0.19969263213674801 0 -0.4373516967015787 -0.21388589486958451 0 -0.44622550185687587 -0.20955057868729021 0 -0.45382672822652842 -0.2158561906331635 0 -0.4373516967015787 -0.21388589486958451 0 -0.44562527344927833 -0.19969263213674801 0 -0.44562527344927833 -0.19969263213674801 0 -0.44622550185687587 -0.20955057868729021 0 -0.4633344455608947 -0.20225795397417559 0 -0.4373516967015787 -0.21388589486958451 0 -0.44562527344927833 -0.19969263213674801 0 -0.44622550185687587 -0.20955057868729021 0 -0.44622550185687587 -0.20955057868729021 0 -0.45382672822652842 -0.2158561906331635 0 -0.4633344455608947 -0.20225795397417559 0 -0.4633344455608947 -0.20225795397417559 0 -0.47277004092480862 -0.2190165385444405 0 -0.45382672822652842 -0.2158561906331635 0 -0.4633344455608947 -0.20225795397417559 0 -0.47277004092480862 -0.2190165385444405 0 -0.45389885019697862 -0.1854993694039119 0 -0.4633344455608947 -0.20225795397417559 0 -0.46613699333081049 -0.1897092416762754 0 -0.45389885019697862 -0.1854993694039119 0 -0.44562527344927833 -0.19969263213674801 0 -0.4633344455608947 -0.20225795397417559 0 -0.45389885019697862 -0.1854993694039119 0 -0.4633344455608947 -0.20225795397417559 0 -0.47150950157309179 -0.1814829416590025 0 -0.46613699333081049 -0.1897092416762754 0 -0.47755183794776718 -0.19872908932161881 0 -0.48233363497072662 -0.17844164009879721 0 -0.47755183794776718 -0.19872908932161881 0 -0.4633344455608947 -0.20225795397417559 0 -0.46613699333081049 -0.1897092416762754 0 -0.47755183794776718 -0.19872908932161881 0 -0.48233363497072662 -0.17844164009879721 0 -0.47755183794776718 -0.19872908932161881 0 -0.5 -0.19234205584523709 0 -0.47755183794776718 -0.19872908932161881 0 -0.5 -0.19234205584523709 0 -0.48581993498126458 -0.2113851629526064 0 -0.5 -0.19234205584523709 0 -0.5 -0.2166257148675057 0 -0.48581993498126458 -0.2113851629526064 0 -0.5 -0.2166257148675057 0 -0.48581993498126458 -0.2113851629526064 0 -0.48892480932967591 -0.22610232107912201 0 -0.47755183794776718 -0.19872908932161881 0 -0.48581993498126458 -0.2113851629526064 0 -0.47277004092480862 -0.2190165385444405 0 -0.4633344455608947 -0.20225795397417559 0 -0.47755183794776718 -0.19872908932161881 0 -0.47277004092480862 -0.2190165385444405 0 -0.47755183794776718 -0.19872908932161881 0 -0.47277004092480862 -0.2190165385444405 0 -0.47277004092480862 -0.2190165385444405 0 -0.48603407074230492 -0.2425748151412834 0 -0.48581993498126458 -0.2113851629526064 0 -0.47277004092480862 -0.2190165385444405 0 -0.48892480932967591 -0.22610232107912201 0 -0.47277004092480862 -0.2190165385444405 0 -0.48892480932967591 -0.22610232107912201 0 -0.48603407074230492 -0.2425748151412834 0 -0.47277004092480862 -0.2190165385444405 0 -0.46741965326655049 -0.24171631384191331 0 -0.5 -0.2166257148675057 0 -0.48892480932967591 -0.22610232107912201 0 -0.5 -0.2409093738897744 0 -0.48892480932967591 -0.22610232107912201 0 -0.5 -0.2409093738897744 0 -0.48603407074230492 -0.2425748151412834 0 -0.49929810055980212 -0.26613309173812583 0 -0.5 -0.2409093738897744 0 -0.48603407074230492 -0.2425748151412834 0 -0.47927821206045718 -0.2549957909490197 0 -0.48603407074230492 -0.2425748151412834 0 -0.47463435663203962 -0.24749806294815899 0 -0.48603407074230492 -0.2425748151412834 0 -0.47463435663203962 -0.24749806294815899 0 -0.46741965326655049 -0.24171631384191331 0 -0.47277004092480862 -0.2190165385444405 0 -0.48603407074230492 -0.2425748151412834 0 -0.46741965326655049 -0.24171631384191331 0 -0.46580549045884612 -0.25070533186041938 0 -0.47463435663203962 -0.24749806294815899 0 -0.46741965326655049 -0.24171631384191331 0 -0.46580549045884612 -0.25070533186041938 0 -0.45157859358021252 -0.2322956133650019 0 -0.46580549045884612 -0.25070533186041938 0 -0.46741965326655049 -0.24171631384191331 0 -0.45157859358021252 -0.2322956133650019 0 -0.46580549045884612 -0.25070533186041938 0 -0.45322302897513811 -0.24734791131453041 0 -0.45157859358021252 -0.2322956133650019 0 -0.45382672822652842 -0.2158561906331635 0 -0.47277004092480862 -0.2190165385444405 0 -0.46139875399952518 -0.22722116409612969 0 -0.47277004092480862 -0.2190165385444405 0 -0.46741965326655049 -0.24171631384191331 0 -0.46139875399952518 -0.22722116409612969 0 -0.45382672822652842 -0.2158561906331635 0 -0.46139875399952518 -0.22722116409612969 0 -0.45157859358021252 -0.2322956133650019 0 -0.46741965326655049 -0.24171631384191331 0 -0.46139875399952518 -0.22722116409612969 0 -0.45157859358021252 -0.2322956133650019 0 -0.4373516967015787 -0.21388589486958451 0 -0.45157859358021252 -0.2322956133650019 0 -0.43837374922590272 -0.2256525351467418 0 -0.4373516967015787 -0.21388589486958451 0 -0.45157859358021252 -0.2322956133650019 0 -0.4373516967015787 -0.21388589486958451 0 -0.45382672822652842 -0.2158561906331635 0 -0.45157859358021252 -0.2322956133650019 0 -0.45157859358021252 -0.2322956133650019 0 -0.43837374922590272 -0.2256525351467418 0 -0.44256160292688312 -0.23318291885774259 0 -0.43601009865010448 -0.23073475532807661 0 -0.43837374922590272 -0.2256525351467418 0 -0.44256160292688312 -0.23318291885774259 0 -0.43601009865010448 -0.23073475532807661 0 -0.44256160292688312 -0.23318291885774259 0 -0.43842836541689251 -0.2360538851166937 0 -0.43842836541689251 -0.2360538851166937 0 -0.44022348047835519 -0.2423530460955565 0 -0.44652778436588508 -0.24030905954491261 0 -0.44256160292688312 -0.23318291885774259 0 -0.43842836541689251 -0.2360538851166937 0 -0.44652778436588508 -0.24030905954491261 0 -0.44022348047835519 -0.2423530460955565 0 -0.44497996325768502 -0.24954655088257049 0 -0.44652778436588508 -0.24030905954491261 0 -0.44077913706085309 -0.25265964186792861 0 -0.44022348047835519 -0.2423530460955565 0 -0.44497996325768502 -0.24954655088257049 0 -0.45322302897513811 -0.24734791131453041 0 -0.44497996325768502 -0.24954655088257049 0 -0.44652778436588508 -0.24030905954491261 0 -0.45322302897513811 -0.24734791131453041 0 -0.45157859358021252 -0.2322956133650019 0 -0.44652778436588508 -0.24030905954491261 0 -0.45157859358021252 -0.2322956133650019 0 -0.44256160292688312 -0.23318291885774259 0 -0.44652778436588508 -0.24030905954491261 0 -0.41335658653367269 -0.053608749972787507 0 -0.41312331080503573 -0.030221837676415859 0 -0.39575382196091108 -0.043711718060366403 0 -0.41335658653367269 -0.053608749972787507 0 -0.41312331080503573 -0.030221837676415859 0 -0.43820800210469563 -0.037864008098092351 0 -0.41335658653367269 -0.053608749972787507 0 -0.43820800210469563 -0.037864008098092351 0 -0.43831874725749392 -0.061808615173961523 0 -0.41335658653367269 -0.053608749972787507 0 -0.43820800210469563 -0.037864008098092351 0 -0.43060494516913078 -0.01179346857363894 0 -0.41312331080503573 -0.030221837676415859 0 -0.43820800210469563 -0.037864008098092351 0 -0.43060494516913078 -0.01179346857363894 0 -0.41045745653796167 -0.010878751280657359 0 -0.41452005595584318 0.012840333182226219 0 -0.43060494516913078 -0.01179346857363894 0 -0.41045745653796167 -0.010878751280657359 0 -0.41312331080503573 -0.030221837676415859 0 -0.41045745653796167 -0.010878751280657359 0 -0.41312331080503573 -0.030221837676415859 0 -0.39035905252384251 -0.023474330072952639 0 -0.41045745653796167 -0.010878751280657359 0 -0.39035905252384251 -0.023474330072952639 0 -0.39392003490616567 0.0019241882577540001 0 -0.37386683033107732 -0.0057703736779719239 0 -0.39035905252384251 -0.023474330072952639 0 -0.39392003490616567 0.0019241882577540001 0 -0.36308164416752797 -0.024198702198508091 0 -0.37386683033107732 -0.0057703736779719239 0 -0.39035905252384251 -0.023474330072952639 0 -0.39035905252384251 -0.023474330072952639 0 -0.37579340756508861 -0.046776097022995483 0 -0.39575382196091108 -0.043711718060366403 0 -0.36308164416752797 -0.024198702198508091 0 -0.39035905252384251 -0.023474330072952639 0 -0.37579340756508861 -0.046776097022995483 0 -0.41312331080503573 -0.030221837676415859 0 -0.39035905252384251 -0.023474330072952639 0 -0.39575382196091108 -0.043711718060366403 0 -0.41335658653367269 -0.053608749972787507 0 -0.38850517096265003 -0.069353491847482573 0 -0.41335658653367269 -0.053608749972787507 0 -0.39575382196091108 -0.043711718060366403 0 -0.38850517096265003 -0.069353491847482573 0 -0.37579340756508861 -0.046776097022995483 0 -0.39575382196091108 -0.043711718060366403 0 -0.38850517096265003 -0.069353491847482573 0 -0.37579340756508861 -0.046776097022995483 0 -0.38850517096265003 -0.069353491847482573 0 -0.36407645212730883 -0.062816252256658447 0 -0.37579340756508861 -0.046776097022995483 0 -0.38850517096265003 -0.069353491847482573 0 -0.36671192124631657 -0.08316071705016026 0 -0.38850517096265003 -0.069353491847482573 0 -0.36671192124631657 -0.08316071705016026 0 -0.38850517096265003 -0.069353491847482573 0 -0.38353159609917009 -0.090673626234151788 0 -0.38850517096265003 -0.069353491847482573 0 -0.40301512016611191 -0.095124648987860355 0 -0.41897054108937282 -0.077829773601207103 0 -0.38850517096265003 -0.069353491847482573 0 -0.38353159609917009 -0.090673626234151788 0 -0.40301512016611191 -0.095124648987860355 0 -0.38850517096265003 -0.069353491847482573 0 -0.40301512016611191 -0.095124648987860355 0 -0.37446835130961909 -0.1190712911890162 0 -0.38709634877315702 -0.10648673177674051 0 -0.39717979884675048 -0.1195153947443312 0 -0.37446835130961909 -0.1190712911890162 0 -0.38709634877315702 -0.10648673177674051 0 -0.3721164519794673 -0.1103027432889376 0 -0.37446835130961909 -0.1190712911890162 0 -0.38709634877315702 -0.10648673177674051 0 -0.37232941934761499 -0.099242541508515247 0 -0.38353159609917009 -0.090673626234151788 0 -0.38709634877315702 -0.10648673177674051 0 -0.37232941934761499 -0.099242541508515247 0 -0.3721164519794673 -0.1103027432889376 0 -0.38709634877315702 -0.10648673177674051 0 -0.38353159609917009 -0.090673626234151788 0 -0.38709634877315702 -0.10648673177674051 0 -0.40301512016611191 -0.095124648987860355 0 -0.38709634877315702 -0.10648673177674051 0 -0.40301512016611191 -0.095124648987860355 0 -0.39717979884675048 -0.1195153947443312 0 -0.40301512016611191 -0.095124648987860355 0 -0.39717979884675048 -0.1195153947443312 0 -0.4175250693695744 -0.1208958061282376 0 -0.40301512016611191 -0.095124648987860355 0 -0.4175250693695744 -0.1208958061282376 0 -0.42987313529714738 -0.103229458652802 0 -0.40301512016611191 -0.095124648987860355 0 -0.4175250693695744 -0.1208958061282376 0 -0.4175250693695744 -0.1208958061282376 0 -0.42987313529714738 -0.103229458652802 0 -0.44270194581816669 -0.1237995845843381 0 -0.41335658653367269 -0.053608749972787507 0 -0.38850517096265003 -0.069353491847482573 0 -0.41897054108937282 -0.077829773601207103 0 -0.40301512016611191 -0.095124648987860355 0 -0.42987313529714738 -0.103229458652802 0 -0.41897054108937282 -0.077829773601207103 0 -0.42987313529714738 -0.103229458652802 0 -0.41897054108937282 -0.077829773601207103 0 -0.44084885756810999 -0.087093981709601365 0 -0.41897054108937282 -0.077829773601207103 0 -0.44084885756810999 -0.087093981709601365 0 -0.43831874725749392 -0.061808615173961523 0 -0.41335658653367269 -0.053608749972787507 0 -0.41897054108937282 -0.077829773601207103 0 -0.43831874725749392 -0.061808615173961523 0 -0.44084885756810999 -0.087093981709601365 0 -0.45493170804705652 -0.068108193074449083 0 -0.43831874725749392 -0.061808615173961523 0 -0.44084885756810999 -0.087093981709601365 0 -0.46338563635750529 -0.081157913918780883 0 -0.45493170804705652 -0.068108193074449083 0 -0.44084885756810999 -0.087093981709601365 0 -0.46268585558858571 -0.092758471456503677 0 -0.46338563635750529 -0.081157913918780883 0 -0.46268585558858571 -0.092758471456503677 0 -0.46961619317019632 -0.097307299729926897 0 -0.47064595207155252 -0.087726515824668769 0 -0.46268585558858571 -0.092758471456503677 0 -0.46338563635750529 -0.081157913918780883 0 -0.47064595207155252 -0.087726515824668769 0 -0.46338563635750529 -0.081157913918780883 0 -0.45493170804705652 -0.068108193074449083 0 -0.47113163608963882 -0.066262076241195123 0 -0.42987313529714738 -0.103229458652802 0 -0.44270194581816669 -0.1237995845843381 0 -0.45575536040747378 -0.1013779298612726 0 -0.44270194581816669 -0.1237995845843381 0 -0.45575536040747378 -0.1013779298612726 0 -0.45788115182577938 -0.11993283980912391 0 -0.44084885756810999 -0.087093981709601365 0 -0.46268585558858571 -0.092758471456503677 0 -0.45575536040747378 -0.1013779298612726 0 -0.42987313529714738 -0.103229458652802 0 -0.44084885756810999 -0.087093981709601365 0 -0.45575536040747378 -0.1013779298612726 0 -0.44084885756810999 -0.087093981709601365 0 -0.45575536040747378 -0.1013779298612726 0 -0.45575536040747378 -0.1013779298612726 0 -0.47084733415767871 -0.1158396029228486 0 -0.46961619317019632 -0.097307299729926897 0 -0.46268585558858571 -0.092758471456503677 0 -0.45575536040747378 -0.1013779298612726 0 -0.46961619317019632 -0.097307299729926897 0 -0.45575536040747378 -0.1013779298612726 0 -0.47084733415767871 -0.1158396029228486 0 -0.45575536040747378 -0.1013779298612726 0 -0.45788115182577938 -0.11993283980912391 0 -0.47084733415767871 -0.1158396029228486 0 -0.45985737007908289 -0.1332625907635894 0 -0.47084733415767871 -0.1158396029228486 0 -0.45985737007908289 -0.1332625907635894 0 -0.45788115182577938 -0.11993283980912391 0 -0.47084733415767871 -0.1158396029228486 0 -0.46522525612599441 -0.1306764274724784 0 -0.47084733415767871 -0.1158396029228486 0 -0.46522525612599441 -0.1306764274724784 0 -0.47926957317607938 -0.1239100958316325 0 -0.47084733415767871 -0.1158396029228486 0 -0.47926957317607938 -0.1239100958316325 0 -0.47084733415767871 -0.1158396029228486 0 -0.47926957317607938 -0.1239100958316325 0 -0.47084733415767871 -0.1158396029228486 0 -0.47675316281530639 -0.11619716137486839 0 -0.47926957317607938 -0.1239100958316325 0 -0.47675316281530639 -0.11619716137486839 0 -0.48557330553920108 -0.11045315746050501 0 -0.47084733415767871 -0.1158396029228486 0 -0.47675316281530639 -0.11619716137486839 0 -0.48557330553920108 -0.11045315746050501 0 -0.47084733415767871 -0.1158396029228486 0 -0.48198685085580761 -0.086442100097992886 0 -0.47084733415767871 -0.1158396029228486 0 -0.48280833066571388 -0.09587506518835992 0 -0.47084733415767871 -0.1158396029228486 0 -0.48280833066571388 -0.09587506518835992 0 -0.48557330553920108 -0.11045315746050501 0 -0.47084733415767871 -0.1158396029228486 0 -0.46961619317019632 -0.097307299729926897 0 -0.48198685085580761 -0.086442100097992886 0 -0.47084733415767871 -0.1158396029228486 0 -0.48280833066571388 -0.09587506518835992 0 -0.48198685085580761 -0.086442100097992886 0 -0.48280833066571388 -0.09587506518835992 0 -0.50000000000000167 -0.1139225013870849 0 -0.5 -0.087125175517278941 0 -0.48280833066571388 -0.09587506518835992 0 -0.50000000000000167 -0.1139225013870849 0 -0.48557330553920108 -0.11045315746050501 0 -0.47926957317607938 -0.1239100958316325 0 -0.50000000000000167 -0.1139225013870849 0 -0.48557330553920108 -0.11045315746050501 0 -0.47926957317607938 -0.1239100958316325 0 -0.50000000000000167 -0.1139225013870849 0 -0.4805007694158861 -0.070642814599713333 0 -0.47113163608963882 -0.066262076241195123 0 -0.48117887242496649 -0.06124469182774115 0 -0.4805007694158861 -0.070642814599713333 0 -0.47113163608963882 -0.066262076241195123 0 -0.47410875622310372 -0.07916642978894714 0 -0.46338563635750529 -0.081157913918780883 0 -0.47113163608963882 -0.066262076241195123 0 -0.47410875622310372 -0.07916642978894714 0 -0.4805007694158861 -0.070642814599713333 0 -0.47410875622310372 -0.07916642978894714 0 -0.48198685085580761 -0.086442100097992886 0 -0.47410875622310372 -0.07916642978894714 0 -0.47064595207155252 -0.087726515824668769 0 -0.48198685085580761 -0.086442100097992886 0 -0.46338563635750529 -0.081157913918780883 0 -0.47410875622310372 -0.07916642978894714 0 -0.47064595207155252 -0.087726515824668769 0 -0.46961619317019632 -0.097307299729926897 0 -0.47064595207155252 -0.087726515824668769 0 -0.48198685085580761 -0.086442100097992886 0 -0.48280833066571388 -0.09587506518835992 0 -0.49429422294316439 -0.077164341092233302 0 -0.48280833066571388 -0.09587506518835992 0 -0.48198685085580761 -0.086442100097992886 0 -0.49429422294316439 -0.077164341092233302 0 -0.48280833066571388 -0.09587506518835992 0 -0.5 -0.087125175517278941 0 -0.49429422294316439 -0.077164341092233302 0 -0.48198685085580761 -0.086442100097992886 0 -0.49265126332334991 -0.058298410911498011 0 -0.5 -0.087125175517278941 0 -0.49429422294316439 -0.077164341092233302 0 -0.5 -0.060327849647472953 0 -0.49429422294316439 -0.077164341092233302 0 -0.5 -0.060327849647472953 0 -0.49265126332334991 -0.058298410911498011 0 -0.4805007694158861 -0.070642814599713333 0 -0.48198685085580761 -0.086442100097992886 0 -0.49265126332334991 -0.058298410911498011 0 -0.48198685085580761 -0.086442100097992886 0 -0.49429422294316439 -0.077164341092233302 0 -0.49265126332334991 -0.058298410911498011 0 -0.4805007694158861 -0.070642814599713333 0 -0.49265126332334991 -0.058298410911498011 0 -0.48117887242496649 -0.06124469182774115 0 -0.5 -0.060327849647472953 0 -0.49265126332334991 -0.058298410911498011 0 -0.48967846391895858 -0.045825604281208437 0 -0.49265126332334991 -0.058298410911498011 0 -0.48521636436096488 -0.053850577332439413 0 -0.48967846391895858 -0.045825604281208437 0 -0.49265126332334991 -0.058298410911498011 0 -0.48521636436096488 -0.053850577332439413 0 -0.48117887242496649 -0.06124469182774115 0 -0.5 -0.060327849647472953 0 -0.5 -0.033530523777666972 0 -0.48967846391895858 -0.045825604281208437 0 -0.5 -0.033530523777666972 0 -0.48967846391895858 -0.045825604281208437 0 -0.47851790483816808 -0.028784415602774852 0 -0.47735685777658482 -0.050033602309310032 0 -0.46097366296253423 -0.044218378328706551 0 -0.47851790483816808 -0.028784415602774852 0 -0.48967846391895858 -0.045825604281208437 0 -0.47735685777658482 -0.050033602309310032 0 -0.47851790483816808 -0.028784415602774852 0 -0.47113163608963882 -0.066262076241195123 0 -0.47735685777658482 -0.050033602309310032 0 -0.46097366296253423 -0.044218378328706551 0 -0.47113163608963882 -0.066262076241195123 0 -0.48117887242496649 -0.06124469182774115 0 -0.47735685777658482 -0.050033602309310032 0 -0.48521636436096488 -0.053850577332439413 0 -0.48117887242496649 -0.06124469182774115 0 -0.47735685777658482 -0.050033602309310032 0 -0.48521636436096488 -0.053850577332439413 0 -0.48967846391895858 -0.045825604281208437 0 -0.47735685777658482 -0.050033602309310032 0 -0.45493170804705652 -0.068108193074449083 0 -0.47113163608963882 -0.066262076241195123 0 -0.46097366296253423 -0.044218378328706551 0 -0.46097366296253423 -0.044218378328706551 0 -0.44849985755273353 -0.018439543671980519 0 -0.46097366296253423 -0.044218378328706551 0 -0.43820800210469563 -0.037864008098092351 0 -0.44849985755273353 -0.018439543671980519 0 -0.45493170804705652 -0.068108193074449083 0 -0.46097366296253423 -0.044218378328706551 0 -0.43831874725749392 -0.061808615173961523 0 -0.46097366296253423 -0.044218378328706551 0 -0.43820800210469563 -0.037864008098092351 0 -0.43831874725749392 -0.061808615173961523 0 -0.44849985755273353 -0.018439543671980519 0 -0.43602605214293289 0.0073392909847455091 0 -0.43060494516913078 -0.01179346857363894 0 -0.44849985755273353 -0.018439543671980519 0 -0.43602605214293289 0.0073392909847455091 0 -0.45247801815206601 -0.00021267159895182791 0 -0.44849985755273353 -0.018439543671980519 0 -0.43602605214293289 0.0073392909847455091 0 -0.43060494516913078 -0.01179346857363894 0 -0.43820800210469563 -0.037864008098092351 0 -0.44849985755273353 -0.018439543671980519 0 -0.46097366296253423 -0.044218378328706551 0 -0.44849985755273353 -0.018439543671980519 0 -0.47851790483816808 -0.028784415602774852 0 -0.44849985755273353 -0.018439543671980519 0 -0.47238365416176142 -0.004376002632806574 0 -0.47851790483816808 -0.028784415602774852 0 -0.45247801815206601 -0.00021267159895182791 0 -0.44849985755273353 -0.018439543671980519 0 -0.47238365416176142 -0.004376002632806574 0 -0.47238365416176142 -0.004376002632806574 0 -0.47851790483816808 -0.028784415602774852 0 -0.5 -0.0067331979078609772 0 -0.5 -0.033530523777666972 0 -0.47851790483816808 -0.028784415602774852 0 -0.5 -0.0067331979078609772 0 -0.47238365416176142 -0.004376002632806574 0 -0.5 -0.0067331979078609772 0 -0.48692396532733678 0.0070167764544100189 0 -0.5 -0.0067331979078609772 0 -0.48692396532733678 0.0070167764544100189 0 -0.5 0.020064127961944959 0 -0.48692396532733678 0.0070167764544100189 0 -0.5 0.020064127961944959 0 -0.47762003056999952 0.022823648640905751 0 -0.5 0.020064127961944959 0 -0.47762003056999952 0.022823648640905751 0 -0.5 0.046861453831750943 0 -0.47238365416176142 -0.004376002632806574 0 -0.48692396532733678 0.0070167764544100189 0 -0.47762003056999952 0.022823648640905751 0 -0.5 0.046861453831750943 0 -0.47543357440467909 0.044437254085042968 0 -0.48238442449370511 0.058683293355730921 0 -0.5 0.046861453831750943 0 -0.48238442449370511 0.058683293355730921 0 -0.5 0.073658779701557042 0 -0.47762003056999952 0.022823648640905751 0 -0.47543357440467909 0.044437254085042968 0 -0.46446931605284869 0.033031902833482181 0 -0.47762003056999952 0.022823648640905751 0 -0.5 0.046861453831750943 0 -0.47543357440467909 0.044437254085042968 0 -0.47543357440467909 0.044437254085042968 0 -0.48238442449370511 0.058683293355730921 0 -0.46819378720837718 0.056616265984737242 0 -0.46819378720837718 0.056616265984737242 0 -0.45950085312514732 0.047878326131107221 0 -0.45254448407653208 0.058961093097241707 0 -0.47543357440467909 0.044437254085042968 0 -0.46819378720837718 0.056616265984737242 0 -0.45950085312514732 0.047878326131107221 0 -0.47543357440467909 0.044437254085042968 0 -0.45950085312514732 0.047878326131107221 0 -0.46446931605284869 0.033031902833482181 0 -0.45950085312514732 0.047878326131107221 0 -0.46446931605284869 0.033031902833482181 0 -0.45016148447121218 0.037218678055738787 0 -0.45016148447121218 0.037218678055738787 0 -0.44563558557344718 0.057481201632299778 0 -0.43682294489754081 0.044876062345568631 0 -0.45016148447121218 0.037218678055738787 0 -0.440250022322759 0.02790166230134046 0 -0.43682294489754081 0.044876062345568631 0 -0.45016148447121218 0.037218678055738787 0 -0.44563558557344718 0.057481201632299778 0 -0.45950085312514732 0.047878326131107221 0 -0.45016148447121218 0.037218678055738787 0 -0.44563558557344718 0.057481201632299778 0 -0.44563558557344718 0.057481201632299778 0 -0.43682294489754081 0.044876062345568631 0 -0.43547360317257888 0.055202592411633611 0 -0.44563558557344718 0.057481201632299778 0 -0.43547360317257888 0.055202592411633611 0 -0.43868161657570071 0.063903283280005316 0 -0.45950085312514732 0.047878326131107221 0 -0.45254448407653208 0.058961093097241707 0 -0.44563558557344718 0.057481201632299778 0 -0.45254448407653208 0.058961093097241707 0 -0.44563558557344718 0.057481201632299778 0 -0.44947150862254459 0.069962324306870827 0 -0.47238365416176142 -0.004376002632806574 0 -0.47762003056999952 0.022823648640905751 0 -0.45468738336897713 0.016956154479177869 0 -0.45247801815206601 -0.00021267159895182791 0 -0.47238365416176142 -0.004376002632806574 0 -0.45468738336897713 0.016956154479177869 0 -0.46446931605284869 0.033031902833482181 0 -0.45016148447121218 0.037218678055738787 0 -0.45468738336897713 0.016956154479177869 0 -0.47762003056999952 0.022823648640905751 0 -0.46446931605284869 0.033031902833482181 0 -0.45468738336897713 0.016956154479177869 0 -0.45016148447121218 0.037218678055738787 0 -0.45468738336897713 0.016956154479177869 0 -0.440250022322759 0.02790166230134046 0 -0.45468738336897713 0.016956154479177869 0 -0.440250022322759 0.02790166230134046 0 -0.43602605214293289 0.0073392909847455091 0 -0.45016148447121218 0.037218678055738787 0 -0.45468738336897713 0.016956154479177869 0 -0.45247801815206601 -0.00021267159895182791 0 -0.45468738336897713 0.016956154479177869 0 -0.43602605214293289 0.0073392909847455091 0 -0.43060494516913078 -0.01179346857363894 0 -0.43602605214293289 0.0073392909847455091 0 -0.41452005595584318 0.012840333182226219 0 -0.41045745653796167 -0.010878751280657359 0 -0.41452005595584318 0.012840333182226219 0 -0.39392003490616567 0.0019241882577540001 0 -0.41452005595584318 0.012840333182226219 0 -0.41064186946719738 0.03886414427874945 0 -0.39474023141196701 0.024403084373331479 0 -0.41452005595584318 0.012840333182226219 0 -0.42355224673313219 0.03311812564147152 0 -0.41064186946719738 0.03886414427874945 0 -0.43602605214293289 0.0073392909847455091 0 -0.41452005595584318 0.012840333182226219 0 -0.42355224673313219 0.03311812564147152 0 -0.43602605214293289 0.0073392909847455091 0 -0.42355224673313219 0.03311812564147152 0 -0.440250022322759 0.02790166230134046 0 -0.43602605214293289 0.0073392909847455091 0 -0.42355224673313219 0.03311812564147152 0 -0.440250022322759 0.02790166230134046 0 -0.42355224673313219 0.03311812564147152 0 -0.43682294489754081 0.044876062345568631 0 -0.42355224673313219 0.03311812564147152 0 -0.43682294489754081 0.044876062345568631 0 -0.42612414911499441 0.053887291217118063 0 -0.43547360317257888 0.055202592411633611 0 -0.42612414911499441 0.053887291217118063 0 -0.43250759088109397 0.06518561386722703 0 -0.43547360317257888 0.055202592411633611 0 -0.43250759088109397 0.06518561386722703 0 -0.43868161657570071 0.063903283280005316 0 -0.43682294489754081 0.044876062345568631 0 -0.43547360317257888 0.055202592411633611 0 -0.42612414911499441 0.053887291217118063 0 -0.42612414911499441 0.053887291217118063 0 -0.41731006768228862 0.066044392738610194 0 -0.43250759088109397 0.06518561386722703 0 -0.42355224673313219 0.03311812564147152 0 -0.42612414911499441 0.053887291217118063 0 -0.41107844132332999 0.058896960298196868 0 -0.41107844132332999 0.058896960298196868 0 -0.41064186946719738 0.03886414427874945 0 -0.40485119833265742 0.05175455541029679 0 -0.42612414911499441 0.053887291217118063 0 -0.41107844132332999 0.058896960298196868 0 -0.41731006768228862 0.066044392738610194 0 -0.41107844132332999 0.058896960298196868 0 -0.41731006768228862 0.066044392738610194 0 -0.40948197144517728 0.062196284896531173 0 -0.41107844132332999 0.058896960298196868 0 -0.41731006768228862 0.066044392738610194 0 -0.40948197144517728 0.062196284896531173 0 -0.41107844132332999 0.058896960298196868 0 -0.40485119833265742 0.05175455541029679 0 -0.41107844132332999 0.058896960298196868 0 -0.40485119833265742 0.05175455541029679 0 -0.40948197144517728 0.062196284896531173 0 -0.41107844132332999 0.058896960298196868 0 -0.42355224673313219 0.03311812564147152 0 -0.41107844132332999 0.058896960298196868 0 -0.41064186946719738 0.03886414427874945 0 -0.42355224673313219 0.03311812564147152 0 -0.41107844132332999 0.058896960298196868 0 -0.41064186946719738 0.03886414427874945 0 -0.39648568672133039 0.040530274070019433 0 -0.39474023141196701 0.024403084373331479 0 -0.39648568672133039 0.040530274070019433 0 -0.38347171402920532 0.035392599189949039 0 -0.39474023141196701 0.024403084373331479 0 -0.41064186946719738 0.03886414427874945 0 -0.39648568672133039 0.040530274070019433 0 -0.40485119833265742 0.05175455541029679 0 -0.40948197144517728 0.062196284896531173 0 -0.38941771508337569 0.052333168768062148 0 -0.40948197144517728 0.062196284896531173 0 -0.40485119833265742 0.05175455541029679 0 -0.38941771508337569 0.052333168768062148 0 -0.40948197144517728 0.062196284896531173 0 -0.38941771508337569 0.052333168768062148 0 -0.394616154297806 0.063972435058113897 0 -0.39648568672133039 0.040530274070019433 0 -0.40485119833265742 0.05175455541029679 0 -0.38941771508337569 0.052333168768062148 0 -0.38941771508337569 0.052333168768062148 0 -0.36935345872157233 0.042470052639596932 0 -0.38941771508337569 0.052333168768062148 0 -0.37681524306003711 0.065250811082137608 0 -0.394616154297806 0.063972435058113897 0 -0.38941771508337569 0.052333168768062148 0 -0.37681524306003711 0.065250811082137608 0 -0.36935345872157233 0.042470052639596932 0 -0.39648568672133039 0.040530274070019433 0 -0.38941771508337569 0.052333168768062148 0 -0.38347171402920532 0.035392599189949039 0 -0.38941771508337569 0.052333168768062148 0 -0.38347171402920532 0.035392599189949039 0 -0.36935345872157233 0.042470052639596932 0 -0.38347171402920532 0.035392599189949039 0 -0.39474023141196701 0.024403084373331479 0 -0.3706940928529856 0.017688088116135699 0 -0.39392003490616567 0.0019241882577540001 0 -0.39474023141196701 0.024403084373331479 0 -0.3706940928529856 0.017688088116135699 0 -0.37386683033107732 -0.0057703736779719239 0 -0.39392003490616567 0.0019241882577540001 0 -0.3706940928529856 0.017688088116135699 0 -0.41452005595584318 0.012840333182226219 0 -0.39392003490616567 0.0019241882577540001 0 -0.39474023141196701 0.024403084373331479 0 -0.39707696675619802 0.1200314486644503 0 -0.39770196468127023 0.093532139762760216 0 -0.40667111190036209 0.10767678159311039 0 -0.39063735938267691 0.1011412678082938 0 -0.39707696675619802 0.1200314486644503 0 -0.39770196468127023 0.093532139762760216 0 -0.39707696675619802 0.1200314486644503 0 -0.39770196468127023 0.093532139762760216 0 -0.39770196468127023 0.093532139762760216 0 -0.40667111190036209 0.10767678159311039 0 -0.41023017150533758 0.098384891557798004 0 -0.39707696675619802 0.1200314486644503 0 -0.40667111190036209 0.10767678159311039 0 -0.41488522895406871 0.1192449970498325 0 -0.39063735938267691 0.1011412678082938 0 -0.39707696675619802 0.1200314486644503 0 -0.38060826231021638 0.1138275894597852 0 -0.39707696675619802 0.1200314486644503 0 -0.3860036274130878 0.123961055762184 0 -0.38060826231021638 0.1138275894597852 0 -0.3860036274130878 0.123961055762184 0 -0.38060826231021638 0.1138275894597852 0 -0.3757865004079588 0.1288508230644082 0 -0.38060826231021638 0.1138275894597852 0 -0.37913303111269347 0.1011472026539591 0 -0.36875202228408638 0.1025718974637901 0 -0.39063735938267691 0.1011412678082938 0 -0.38060826231021638 0.1138275894597852 0 -0.37913303111269347 0.1011472026539591 0 -0.39063735938267691 0.1011412678082938 0 -0.37913303111269347 0.1011472026539591 0 -0.3833614672091788 0.09351775071029772 0 -0.37913303111269347 0.1011472026539591 0 -0.3833614672091788 0.09351775071029772 0 -0.37429617338574228 0.086844948952546519 0 -0.38821369211171242 0.085150643953555205 0 -0.3833614672091788 0.09351775071029772 0 -0.37429617338574228 0.086844948952546519 0 -0.38821369211171242 0.085150643953555205 0 -0.37681524306003711 0.065250811082137608 0 -0.37429617338574228 0.086844948952546519 0 -0.39063735938267691 0.1011412678082938 0 -0.38821369211171242 0.085150643953555205 0 -0.3833614672091788 0.09351775071029772 0 -0.37681524306003711 0.065250811082137608 0 -0.40274968760263402 0.076109475485724692 0 -0.38821369211171242 0.085150643953555205 0 -0.37681524306003711 0.065250811082137608 0 -0.40274968760263402 0.076109475485724692 0 -0.37681524306003711 0.065250811082137608 0 -0.394616154297806 0.063972435058113897 0 -0.40274968760263402 0.076109475485724692 0 -0.40948197144517728 0.062196284896531173 0 -0.40274968760263402 0.076109475485724692 0 -0.40948197144517728 0.062196284896531173 0 -0.394616154297806 0.063972435058113897 0 -0.40274968760263402 0.076109475485724692 0 -0.39063735938267691 0.1011412678082938 0 -0.38821369211171242 0.085150643953555205 0 -0.40274968760263402 0.076109475485724692 0 -0.39063735938267691 0.1011412678082938 0 -0.40274968760263402 0.076109475485724692 0 -0.39770196468127023 0.093532139762760216 0 -0.40274968760263402 0.076109475485724692 0 -0.39770196468127023 0.093532139762760216 0 -0.41162859171729538 0.08920906016293273 0 -0.39063735938267691 0.1011412678082938 0 -0.40274968760263402 0.076109475485724692 0 -0.41162859171729538 0.08920906016293273 0 -0.428761965412914 0.087000728415810719 0 -0.41907035698170619 0.095341845387973551 0 -0.40274968760263402 0.076109475485724692 0 -0.41162859171729538 0.08920906016293273 0 -0.428761965412914 0.087000728415810719 0 -0.40274968760263402 0.076109475485724692 0 -0.428761965412914 0.087000728415810719 0 -0.40274968760263402 0.076109475485724692 0 -0.4278231448573353 0.078102482316046412 0 -0.428761965412914 0.087000728415810719 0 -0.39770196468127023 0.093532139762760216 0 -0.41162859171729538 0.08920906016293273 0 -0.41023017150533758 0.098384891557798004 0 -0.40274968760263402 0.076109475485724692 0 -0.41731006768228862 0.066044392738610194 0 -0.4278231448573353 0.078102482316046412 0 -0.40948197144517728 0.062196284896531173 0 -0.41731006768228862 0.066044392738610194 0 -0.40948197144517728 0.062196284896531173 0 -0.40274968760263402 0.076109475485724692 0 -0.41731006768228862 0.066044392738610194 0 -0.41731006768228862 0.066044392738610194 0 -0.4278231448573353 0.078102482316046412 0 -0.44110968667568251 0.077743725208860831 0 -0.41731006768228862 0.066044392738610194 0 -0.43250759088109397 0.06518561386722703 0 -0.44110968667568251 0.077743725208860831 0 -0.41731006768228862 0.066044392738610194 0 -0.44110968667568251 0.077743725208860831 0 -0.41731006768228862 0.066044392738610194 0 -0.4278231448573353 0.078102482316046412 0 -0.43250759088109397 0.06518561386722703 0 -0.43868161657570071 0.063903283280005316 0 -0.44110968667568251 0.077743725208860831 0 -0.4278231448573353 0.078102482316046412 0 -0.44110968667568251 0.077743725208860831 0 -0.43833622203238159 0.090160571893483032 0 -0.4278231448573353 0.078102482316046412 0 -0.428761965412914 0.087000728415810719 0 -0.43833622203238159 0.090160571893483032 0 -0.4278231448573353 0.078102482316046412 0 -0.43833622203238159 0.090160571893483032 0 -0.428761965412914 0.087000728415810719 0 -0.42850333895073639 0.099435603576946724 0 -0.43833622203238159 0.090160571893483032 0 -0.4333986769481889 0.112266042196451 0 -0.43833622203238159 0.090160571893483032 0 -0.42850333895073639 0.099435603576946724 0 -0.4333986769481889 0.112266042196451 0 -0.43833622203238159 0.090160571893483032 0 -0.42850333895073639 0.099435603576946724 0 -0.41869643688717129 0.10513883083371529 0 -0.4333986769481889 0.112266042196451 0 -0.42850333895073639 0.099435603576946724 0 -0.41907035698170619 0.095341845387973551 0 -0.41869643688717129 0.10513883083371529 0 -0.428761965412914 0.087000728415810719 0 -0.42850333895073639 0.099435603576946724 0 -0.41907035698170619 0.095341845387973551 0 -0.41907035698170619 0.095341845387973551 0 -0.41869643688717129 0.10513883083371529 0 -0.41023017150533758 0.098384891557798004 0 -0.41869643688717129 0.10513883083371529 0 -0.40667111190036209 0.10767678159311039 0 -0.41023017150533758 0.098384891557798004 0 -0.41162859171729538 0.08920906016293273 0 -0.41907035698170619 0.095341845387973551 0 -0.41023017150533758 0.098384891557798004 0 -0.39707696675619802 0.1200314486644503 0 -0.41488522895406871 0.1192449970498325 0 -0.40762465400961301 0.13495956646335119 0 -0.41869643688717129 0.10513883083371529 0 -0.40667111190036209 0.10767678159311039 0 -0.41488522895406871 0.1192449970498325 0 -0.41869643688717129 0.10513883083371529 0 -0.41488522895406871 0.1192449970498325 0 -0.4333986769481889 0.112266042196451 0 -0.41488522895406871 0.1192449970498325 0 -0.4333986769481889 0.112266042196451 0 -0.42846113186399659 0.13437151249941909 0 -0.4333986769481889 0.112266042196451 0 -0.42846113186399659 0.13437151249941909 0 -0.4333986769481889 0.112266042196451 0 -0.45412659820604639 0.1082715176416391 0 -0.44968682629133111 0.13295997446018029 0 -0.4333986769481889 0.112266042196451 0 -0.45412659820604639 0.1082715176416391 0 -0.43833622203238159 0.090160571893483032 0 -0.45412659820604639 0.1082715176416391 0 -0.43833622203238159 0.090160571893483032 0 -0.45412659820604639 0.1082715176416391 0 -0.43833622203238159 0.090160571893483032 0 -0.45943578718363592 0.088569484297218518 0 -0.45412659820604639 0.1082715176416391 0 -0.45943578718363592 0.088569484297218518 0 -0.47042123002214842 0.099727779442537579 0 -0.45412659820604639 0.1082715176416391 0 -0.47753125562638682 0.1129348803927601 0 -0.47042123002214842 0.099727779442537579 0 -0.45412659820604639 0.1082715176416391 0 -0.47753125562638682 0.1129348803927601 0 -0.46991697437971058 0.12638246338979581 0 -0.45412659820604639 0.1082715176416391 0 -0.46991697437971058 0.12638246338979581 0 -0.45412659820604639 0.1082715176416391 0 -0.46991697437971058 0.12638246338979581 0 -0.44968682629133111 0.13295997446018029 0 -0.44563558557344718 0.057481201632299778 0 -0.43868161657570071 0.063903283280005316 0 -0.44110968667568251 0.077743725208860831 0 -0.44563558557344718 0.057481201632299778 0 -0.44110968667568251 0.077743725208860831 0 -0.44563558557344718 0.057481201632299778 0 -0.44947150862254459 0.069962324306870827 0 -0.44110968667568251 0.077743725208860831 0 -0.44947150862254459 0.069962324306870827 0 -0.44110968667568251 0.077743725208860831 0 -0.44841718536067238 0.081335919548834346 0 -0.44947150862254459 0.069962324306870827 0 -0.44841718536067238 0.081335919548834346 0 -0.45747010360644269 0.075604174110592115 0 -0.44841718536067238 0.081335919548834346 0 -0.43833622203238159 0.090160571893483032 0 -0.45943578718363592 0.088569484297218518 0 -0.44110968667568251 0.077743725208860831 0 -0.44841718536067238 0.081335919548834346 0 -0.43833622203238159 0.090160571893483032 0 -0.44110968667568251 0.077743725208860831 0 -0.43833622203238159 0.090160571893483032 0 -0.44110968667568251 0.077743725208860831 0 -0.44841718536067238 0.081335919548834346 0 -0.45943578718363592 0.088569484297218518 0 -0.47394209580671409 0.090046654868542159 0 -0.47042123002214842 0.099727779442537579 0 -0.45943578718363592 0.088569484297218518 0 -0.45747010360644269 0.075604174110592115 0 -0.47033902398692878 0.074520604803825594 0 -0.45943578718363592 0.088569484297218518 0 -0.47033902398692878 0.074520604803825594 0 -0.47394209580671409 0.090046654868542159 0 -0.44841718536067238 0.081335919548834346 0 -0.45943578718363592 0.088569484297218518 0 -0.45747010360644269 0.075604174110592115 0 -0.45254448407653208 0.058961093097241707 0 -0.47033902398692878 0.074520604803825594 0 -0.45254448407653208 0.058961093097241707 0 -0.45747010360644269 0.075604174110592115 0 -0.47033902398692878 0.074520604803825594 0 -0.46819378720837718 0.056616265984737242 0 -0.45254448407653208 0.058961093097241707 0 -0.47033902398692878 0.074520604803825594 0 -0.45254448407653208 0.058961093097241707 0 -0.44947150862254459 0.069962324306870827 0 -0.45747010360644269 0.075604174110592115 0 -0.48238442449370511 0.058683293355730921 0 -0.47033902398692878 0.074520604803825594 0 -0.48500539140706839 0.073101848464219202 0 -0.48238442449370511 0.058683293355730921 0 -0.46819378720837718 0.056616265984737242 0 -0.47033902398692878 0.074520604803825594 0 -0.47033902398692878 0.074520604803825594 0 -0.4875717440975284 0.086547463669418179 0 -0.48500539140706839 0.073101848464219202 0 -0.47033902398692878 0.074520604803825594 0 -0.48813356389732532 0.090080116510409827 0 -0.4875717440975284 0.086547463669418179 0 -0.47033902398692878 0.074520604803825594 0 -0.48813356389732532 0.090080116510409827 0 -0.47033902398692878 0.074520604803825594 0 -0.47394209580671409 0.090046654868542159 0 -0.48813356389732532 0.090080116510409827 0 -0.47394209580671409 0.090046654868542159 0 -0.48813356389732532 0.090080116510409827 0 -0.4810132168917477 0.098500264066286619 0 -0.48813356389732532 0.090080116510409827 0 -0.5 0.073658779701557042 0 -0.49999999999999961 0.1004561055713631 0 -0.48813356389732532 0.090080116510409827 0 -0.4875717440975284 0.086547463669418179 0 -0.5 0.073658779701557042 0 -0.48813356389732532 0.090080116510409827 0 -0.4875717440975284 0.086547463669418179 0 -0.48238442449370511 0.058683293355730921 0 -0.48500539140706839 0.073101848464219202 0 -0.5 0.073658779701557042 0 -0.4875717440975284 0.086547463669418179 0 -0.48500539140706839 0.073101848464219202 0 -0.5 0.073658779701557042 0 -0.47753125562638682 0.1129348803927601 0 -0.49382952800422991 0.12589562851573621 0 -0.46991697437971058 0.12638246338979581 0 -0.47753125562638682 0.1129348803927601 0 -0.47042123002214842 0.099727779442537579 0 -0.4810132168917477 0.098500264066286619 0 -0.47394209580671409 0.090046654868542159 0 -0.47042123002214842 0.099727779442537579 0 -0.4810132168917477 0.098500264066286619 0 -0.47753125562638682 0.1129348803927601 0 -0.4810132168917477 0.098500264066286619 0 -0.49098154595077659 0.10798787251307319 0 -0.48813356389732532 0.090080116510409827 0 -0.49098154595077659 0.10798787251307319 0 -0.48813356389732532 0.090080116510409827 0 -0.4810132168917477 0.098500264066286619 0 -0.49098154595077659 0.10798787251307319 0 -0.48813356389732532 0.090080116510409827 0 -0.49098154595077659 0.10798787251307319 0 -0.49999999999999961 0.1004561055713631 0 -0.48813356389732532 0.090080116510409827 0 -0.49999999999999961 0.1004561055713631 0 -0.49098154595077659 0.10798787251307319 0 -0.49999999999999961 0.1004561055713631 0 -0.49999999999999922 0.1117667714195722 0 -0.49098154595077659 0.10798787251307319 0 -0.49999999999999922 0.1117667714195722 0 -0.49382952800422991 0.12589562851573621 0 -0.49098154595077659 0.10798787251307319 0 -0.49382952800422991 0.12589562851573621 0 -0.47753125562638682 0.1129348803927601 0 -0.49098154595077659 0.10798787251307319 0 -0.49382952800422991 0.12589562851573621 0 -0.49999999999999922 0.1117667714195722 0 -0.49382952800422991 0.12589562851573621 0 -0.5 0.1363266460757406 0 -0.49999999999999922 0.1117667714195722 0 -0.49382952800422991 0.12589562851573621 0 -0.49382952800422991 0.12589562851573621 0 -0.48570735055337649 0.14449340913795081 0 -0.49382952800422991 0.12589562851573621 0 -0.5 0.1363266460757406 0 -0.49654437597322121 0.14296625399742641 0 -0.49382952800422991 0.12589562851573621 0 -0.49654437597322121 0.14296625399742641 0 -0.49382952800422991 0.12589562851573621 0 -0.49654437597322121 0.14296625399742641 0 -0.48570735055337649 0.14449340913795081 0 -0.49382952800422991 0.12589562851573621 0 -0.46991697437971058 0.12638246338979581 0 -0.48570735055337649 0.14449340913795081 0 -0.46991697437971058 0.12638246338979581 0 -0.48570735055337649 0.14449340913795081 0 -0.46708314560197051 0.14866023307784509 0 -0.46991697437971058 0.12638246338979581 0 -0.48570735055337649 0.14449340913795081 0 -0.48570735055337649 0.14449340913795081 0 -0.47661157543449162 0.16532048799378909 0 -0.48570735055337649 0.14449340913795081 0 -0.47661157543449162 0.16532048799378909 0 -0.46708314560197051 0.14866023307784509 0 -0.48570735055337649 0.14449340913795081 0 -0.49925922394221461 0.16003687947911621 0 -0.49546389145776398 0.16308701247538551 0 -0.49654437597322121 0.14296625399742641 0 -0.49925922394221461 0.16003687947911621 0 -0.49654437597322121 0.14296625399742641 0 -0.48570735055337649 0.14449340913795081 0 -0.49925922394221461 0.16003687947911621 0 -0.5 0.1363266460757406 0 -0.49654437597322121 0.14296625399742641 0 -0.49925922394221461 0.16003687947911621 0 -0.48570735055337649 0.14449340913795081 0 -0.49925922394221461 0.16003687947911621 0 -0.48570735055337649 0.14449340913795081 0 -0.49546389145776398 0.16308701247538551 0 -0.47661157543449162 0.16532048799378909 0 -0.49925922394221461 0.16003687947911621 0 -0.5 0.16469478695411871 0 -0.49925922394221461 0.16003687947911621 0 -0.49546389145776398 0.16308701247538551 0 -0.5 0.16469478695411871 0 -0.49546389145776398 0.16308701247538551 0 -0.5 0.16469478695411871 0 -0.48795890287818172 0.17747622480328701 0 -0.48795890287818172 0.17747622480328701 0 -0.5 0.19096591515044051 0 -0.4755123496152211 0.19245995545728939 0 -0.5 0.16469478695411871 0 -0.48795890287818172 0.17747622480328701 0 -0.5 0.19096591515044051 0 -0.49546389145776398 0.16308701247538551 0 -0.48795890287818172 0.17747622480328701 0 -0.46881827331792347 0.17617345397920059 0 -0.48795890287818172 0.17747622480328701 0 -0.46881827331792347 0.17617345397920059 0 -0.4755123496152211 0.19245995545728939 0 -0.49546389145776398 0.16308701247538551 0 -0.46881827331792347 0.17617345397920059 0 -0.47661157543449162 0.16532048799378909 0 -0.49546389145776398 0.16308701247538551 0 -0.46881827331792347 0.17617345397920059 0 -0.46881827331792347 0.17617345397920059 0 -0.47661157543449162 0.16532048799378909 0 -0.46185610583665399 0.1629494662655285 0 -0.46881827331792347 0.17617345397920059 0 -0.46185610583665399 0.1629494662655285 0 -0.44613060252609321 0.1703760744692728 0 -0.47661157543449162 0.16532048799378909 0 -0.46185610583665399 0.1629494662655285 0 -0.46708314560197051 0.14866023307784509 0 -0.46881827331792347 0.17617345397920059 0 -0.4755123496152211 0.19245995545728939 0 -0.44217265517808269 0.18925989548301519 0 -0.46881827331792347 0.17617345397920059 0 -0.44217265517808269 0.18925989548301519 0 -0.46881827331792347 0.17617345397920059 0 -0.44613060252609321 0.1703760744692728 0 -0.44217265517808269 0.18925989548301519 0 -0.46185610583665399 0.1629494662655285 0 -0.44613060252609321 0.1703760744692728 0 -0.44971688602049331 0.1542325304883467 0 -0.44613060252609321 0.1703760744692728 0 -0.44971688602049331 0.1542325304883467 0 -0.43041577037961443 0.15668839696730641 0 -0.4393214139917323 0.14460759234472151 0 -0.44971688602049331 0.1542325304883467 0 -0.43041577037961443 0.15668839696730641 0 -0.4393214139917323 0.14460759234472151 0 -0.44971688602049331 0.1542325304883467 0 -0.44968682629133111 0.13295997446018029 0 -0.4393214139917323 0.14460759234472151 0 -0.44968682629133111 0.13295997446018029 0 -0.42846113186399659 0.13437151249941909 0 -0.46991697437971058 0.12638246338979581 0 -0.44968682629133111 0.13295997446018029 0 -0.46708314560197051 0.14866023307784509 0 -0.46185610583665399 0.1629494662655285 0 -0.44971688602049331 0.1542325304883467 0 -0.46708314560197051 0.14866023307784509 0 -0.44971688602049331 0.1542325304883467 0 -0.44968682629133111 0.13295997446018029 0 -0.46708314560197051 0.14866023307784509 0 -0.4697666247372328 0.246778541961896 0 -0.5 0.2435081715430846 0 -0.47363116297533631 0.226754593661495 0 -0.5 0.2435081715430846 0 -0.47363116297533631 0.226754593661495 0 -0.5 0.2172370433467625 0 -0.47363116297533631 0.226754593661495 0 -0.48364437975213459 0.20779923113439239 0 -0.46461099041149428 0.20628822922450779 0 -0.48364437975213459 0.20779923113439239 0 -0.5 0.2172370433467625 0 -0.5 0.19096591515044051 0 -0.47363116297533631 0.226754593661495 0 -0.48364437975213459 0.20779923113439239 0 -0.5 0.2172370433467625 0 -0.48364437975213459 0.20779923113439239 0 -0.5 0.19096591515044051 0 -0.4755123496152211 0.19245995545728939 0 -0.48364437975213459 0.20779923113439239 0 -0.4755123496152211 0.19245995545728939 0 -0.46461099041149428 0.20628822922450779 0 -0.4755123496152211 0.19245995545728939 0 -0.44217265517808269 0.18925989548301519 0 -0.46461099041149428 0.20628822922450779 0 -0.44217265517808269 0.18925989548301519 0 -0.46461099041149428 0.20628822922450779 0 -0.44217265517808269 0.18925989548301519 0 -0.44266698117153019 0.20772580261396731 0 -0.46461099041149428 0.20628822922450779 0 -0.44266698117153019 0.20772580261396731 0 -0.46461099041149428 0.20628822922450779 0 -0.44589531302757418 0.2241937500113822 0 -0.44266698117153019 0.20772580261396731 0 -0.44589531302757418 0.2241937500113822 0 -0.42681265787157119 0.22389809705147259 0 -0.47363116297533631 0.226754593661495 0 -0.44589531302757418 0.2241937500113822 0 -0.45227703132625979 0.24254031856665259 0 -0.47363116297533631 0.226754593661495 0 -0.46461099041149428 0.20628822922450779 0 -0.44589531302757418 0.2241937500113822 0 -0.44589531302757418 0.2241937500113822 0 -0.45227703132625979 0.24254031856665259 0 -0.43492665015400073 0.24765803541183851 0 -0.4697666247372328 0.246778541961896 0 -0.45227703132625979 0.24254031856665259 0 -0.46070258907804629 0.26034453476876251 0 -0.4697666247372328 0.246778541961896 0 -0.47363116297533631 0.226754593661495 0 -0.45227703132625979 0.24254031856665259 0 -0.41169286489136492 0.2420245503970109 0 -0.43492665015400073 0.24765803541183851 0 -0.42681265787157119 0.22389809705147259 0 -0.44589531302757418 0.2241937500113822 0 -0.43492665015400073 0.24765803541183851 0 -0.42681265787157119 0.22389809705147259 0 -0.42681265787157119 0.22389809705147259 0 -0.41010746517943147 0.22501810856660809 0 -0.41395441857776838 0.21466535356254179 0 -0.41169286489136492 0.2420245503970109 0 -0.41010746517943147 0.22501810856660809 0 -0.39848310169784751 0.23069419786626769 0 -0.41169286489136492 0.2420245503970109 0 -0.42681265787157119 0.22389809705147259 0 -0.41010746517943147 0.22501810856660809 0 -0.41395441857776838 0.21466535356254179 0 -0.41510395819146839 0.20255412336846901 0 -0.3920525537276402 0.21387534153325369 0 -0.42569545791873059 0.2079810972929059 0 -0.41510395819146839 0.20255412336846901 0 -0.41395441857776838 0.21466535356254179 0 -0.42569545791873059 0.2079810972929059 0 -0.41510395819146839 0.20255412336846901 0 -0.42681265787157119 0.22389809705147259 0 -0.41395441857776838 0.21466535356254179 0 -0.42569545791873059 0.2079810972929059 0 -0.44266698117153019 0.20772580261396731 0 -0.42681265787157119 0.22389809705147259 0 -0.42569545791873059 0.2079810972929059 0 -0.44217265517808269 0.18925989548301519 0 -0.42569545791873059 0.2079810972929059 0 -0.41510395819146839 0.20255412336846901 0 -0.44217265517808269 0.18925989548301519 0 -0.44266698117153019 0.20772580261396731 0 -0.42569545791873059 0.2079810972929059 0 -0.44217265517808269 0.18925989548301519 0 -0.41510395819146839 0.20255412336846901 0 -0.44217265517808269 0.18925989548301519 0 -0.41510395819146839 0.20255412336846901 0 -0.41171920951588198 0.1863261197594662 0 -0.41510395819146839 0.20255412336846901 0 -0.39515840879978881 0.19233423201742419 0 -0.41171920951588198 0.1863261197594662 0 -0.41510395819146839 0.20255412336846901 0 -0.39515840879978881 0.19233423201742419 0 -0.41510395819146839 0.20255412336846901 0 -0.39515840879978881 0.19233423201742419 0 -0.3920525537276402 0.21387534153325369 0 -0.39515840879978881 0.19233423201742419 0 -0.38101957528007507 0.19558147659755079 0 -0.3920525537276402 0.21387534153325369 0 -0.39515840879978881 0.19233423201742419 0 -0.38101957528007507 0.19558147659755079 0 -0.37521285940810861 0.18211434066638041 0 -0.38101957528007507 0.19558147659755079 0 -0.37521285940810861 0.18211434066638041 0 -0.37095721161068029 0.19719176923319681 0 -0.38101957528007507 0.19558147659755079 0 -0.37521285940810861 0.18211434066638041 0 -0.38101957528007507 0.19558147659755079 0 -0.37590864940513352 0.21075356203291459 0 -0.37095721161068029 0.19719176923319681 0 -0.37590864940513352 0.21075356203291459 0 -0.3920525537276402 0.21387534153325369 0 -0.36900114926381172 0.22519655969803809 0 -0.38101957528007507 0.19558147659755079 0 -0.37590864940513352 0.21075356203291459 0 -0.3920525537276402 0.21387534153325369 0 -0.41510395819146839 0.20255412336846901 0 -0.3920525537276402 0.21387534153325369 0 -0.41010746517943147 0.22501810856660809 0 -0.41395441857776838 0.21466535356254179 0 -0.3920525537276402 0.21387534153325369 0 -0.41010746517943147 0.22501810856660809 0 -0.3920525537276402 0.21387534153325369 0 -0.39848310169784751 0.23069419786626769 0 -0.3920525537276402 0.21387534153325369 0 -0.39848310169784751 0.23069419786626769 0 -0.386039657251464 0.2302061138209982 0 -0.3920525537276402 0.21387534153325369 0 -0.36900114926381172 0.22519655969803809 0 -0.3920525537276402 0.21387534153325369 0 -0.386039657251464 0.2302061138209982 0 -0.36900114926381172 0.22519655969803809 0 -0.386039657251464 0.2302061138209982 0 -0.37661380802373873 0.23842031180005979 0 -0.36900114926381172 0.22519655969803809 0 -0.37661380802373873 0.23842031180005979 0 -0.39252296743933662 0.24234687501346749 0 -0.3808842698206959 0.25160229322625349 0 -0.386039657251464 0.2302061138209982 0 -0.37661380802373873 0.23842031180005979 0 -0.39252296743933662 0.24234687501346749 0 -0.37661380802373873 0.23842031180005979 0 -0.37189546908600152 0.24710649406950619 0 -0.3808842698206959 0.25160229322625349 0 -0.41169286489136492 0.2420245503970109 0 -0.39848310169784751 0.23069419786626769 0 -0.39252296743933662 0.24234687501346749 0 -0.41169286489136492 0.2420245503970109 0 -0.39252296743933662 0.24234687501346749 0 -0.39748669628250699 0.25861498906765301 0 -0.39848310169784751 0.23069419786626769 0 -0.386039657251464 0.2302061138209982 0 -0.39252296743933662 0.24234687501346749 0 -0.41728108020441418 0.14673336956544211 0 -0.43041577037961443 0.15668839696730641 0 -0.41708653918283828 0.15885175152504291 0 -0.41728108020441418 0.14673336956544211 0 -0.40706081970745001 0.1498422928203593 0 -0.41708653918283828 0.15885175152504291 0 -0.40706081970745001 0.1498422928203593 0 -0.41708653918283828 0.15885175152504291 0 -0.40363284929875021 0.16001224096591821 0 -0.41728108020441418 0.14673336956544211 0 -0.40706081970745001 0.1498422928203593 0 -0.40762465400961301 0.13495956646335119 0 -0.41488522895406871 0.1192449970498325 0 -0.40762465400961301 0.13495956646335119 0 -0.42846113186399659 0.13437151249941909 0 -0.41728108020441418 0.14673336956544211 0 -0.40762465400961301 0.13495956646335119 0 -0.42846113186399659 0.13437151249941909 0 -0.4333986769481889 0.112266042196451 0 -0.44968682629133111 0.13295997446018029 0 -0.42846113186399659 0.13437151249941909 0 -0.4393214139917323 0.14460759234472151 0 -0.42846113186399659 0.13437151249941909 0 -0.43041577037961443 0.15668839696730641 0 -0.41728108020441418 0.14673336956544211 0 -0.42846113186399659 0.13437151249941909 0 -0.43041577037961443 0.15668839696730641 0 -0.44613060252609321 0.1703760744692728 0 -0.43041577037961443 0.15668839696730641 0 -0.4229027522384165 0.17463606822446659 0 -0.43041577037961443 0.15668839696730641 0 -0.4229027522384165 0.17463606822446659 0 -0.41708653918283828 0.15885175152504291 0 -0.44217265517808269 0.18925989548301519 0 -0.4229027522384165 0.17463606822446659 0 -0.44217265517808269 0.18925989548301519 0 -0.4229027522384165 0.17463606822446659 0 -0.41171920951588198 0.1863261197594662 0 -0.44613060252609321 0.1703760744692728 0 -0.44217265517808269 0.18925989548301519 0 -0.4229027522384165 0.17463606822446659 0 -0.4229027522384165 0.17463606822446659 0 -0.41171920951588198 0.1863261197594662 0 -0.3958269709060534 0.1730300664678304 0 -0.4229027522384165 0.17463606822446659 0 -0.40363284929875021 0.16001224096591821 0 -0.4229027522384165 0.17463606822446659 0 -0.40363284929875021 0.16001224096591821 0 -0.3958269709060534 0.1730300664678304 0 -0.4229027522384165 0.17463606822446659 0 -0.41708653918283828 0.15885175152504291 0 -0.40363284929875021 0.16001224096591821 0 -0.3958269709060534 0.1730300664678304 0 -0.39645196883112571 0.1465307575661402 0 -0.40363284929875021 0.16001224096591821 0 -0.3958269709060534 0.1730300664678304 0 -0.39645196883112571 0.1465307575661402 0 -0.3958269709060534 0.1730300664678304 0 -0.38580029260298032 0.1616138533475904 0 -0.39645196883112571 0.1465307575661402 0 -0.39515840879978881 0.19233423201742419 0 -0.3958269709060534 0.1730300664678304 0 -0.38681605211362802 0.1800842864330838 0 -0.39515840879978881 0.19233423201742419 0 -0.41171920951588198 0.1863261197594662 0 -0.3958269709060534 0.1730300664678304 0 -0.39515840879978881 0.19233423201742419 0 -0.37521285940810861 0.18211434066638041 0 -0.39515840879978881 0.19233423201742419 0 -0.38681605211362802 0.1800842864330838 0 -0.37521285940810861 0.18211434066638041 0 -0.3958269709060534 0.1730300664678304 0 -0.38681605211362802 0.1800842864330838 0 -0.38106596934056158 0.17285850658070021 0 -0.38681605211362802 0.1800842864330838 0 -0.38106596934056158 0.17285850658070021 0 -0.37521285940810861 0.18211434066638041 0 -0.38106596934056158 0.17285850658070021 0 -0.37521285940810861 0.18211434066638041 0 -0.36940079741169912 0.16863480581882531 0 -0.38580029260298032 0.1616138533475904 0 -0.38795086493183351 0.1475449102121959 0 -0.36940079741169912 0.16863480581882531 0 -0.38795086493183351 0.1475449102121959 0 -0.36940079741169912 0.16863480581882531 0 -0.38106596934056158 0.17285850658070021 0 -0.38580029260298032 0.1616138533475904 0 -0.36940079741169912 0.16863480581882531 0 -0.3958269709060534 0.1730300664678304 0 -0.38106596934056158 0.17285850658070021 0 -0.38580029260298032 0.1616138533475904 0 -0.37700340153538109 0.14949247443069749 0 -0.38795086493183351 0.1475449102121959 0 -0.36940079741169912 0.16863480581882531 0 -0.37700340153538109 0.14949247443069749 0 -0.38795086493183351 0.1475449102121959 0 -0.38082038703108162 0.14057405178263521 0 -0.37700340153538109 0.14949247443069749 0 -0.38082038703108162 0.14057405178263521 0 -0.37143337269002891 0.1406957462444772 0 -0.38894150024300472 0.14194602035526591 0 -0.38795086493183351 0.1475449102121959 0 -0.38082038703108162 0.14057405178263521 0 -0.38580029260298032 0.1616138533475904 0 -0.38795086493183351 0.1475449102121959 0 -0.39645196883112571 0.1465307575661402 0 -0.38894150024300472 0.14194602035526591 0 -0.38795086493183351 0.1475449102121959 0 -0.39645196883112571 0.1465307575661402 0 -0.40706081970745001 0.1498422928203593 0 -0.40762465400961301 0.13495956646335119 0 -0.39645196883112571 0.1465307575661402 0 -0.40706081970745001 0.1498422928203593 0 -0.40363284929875021 0.16001224096591821 0 -0.39645196883112571 0.1465307575661402 0 -0.39707696675619802 0.1200314486644503 0 -0.39645196883112571 0.1465307575661402 0 -0.39054278017797828 0.13313436186009231 0 -0.39707696675619802 0.1200314486644503 0 -0.39645196883112571 0.1465307575661402 0 -0.39707696675619802 0.1200314486644503 0 -0.40762465400961301 0.13495956646335119 0 -0.39645196883112571 0.1465307575661402 0 -0.38894150024300472 0.14194602035526591 0 -0.39645196883112571 0.1465307575661402 0 -0.39054278017797828 0.13313436186009231 0 -0.39707696675619802 0.1200314486644503 0 -0.3860036274130878 0.123961055762184 0 -0.39054278017797828 0.13313436186009231 0 -0.3860036274130878 0.123961055762184 0 -0.39054278017797828 0.13313436186009231 0 -0.3757865004079588 0.1288508230644082 0 -0.38894150024300472 0.14194602035526591 0 -0.39054278017797828 0.13313436186009231 0 -0.38082038703108162 0.14057405178263521 0 -0.38082038703108162 0.14057405178263521 0 -0.3757865004079588 0.1288508230644082 0 -0.37143337269002891 0.1406957462444772 0 -0.39054278017797828 0.13313436186009231 0 -0.38082038703108162 0.14057405178263521 0 -0.3757865004079588 0.1288508230644082 0 -0.3757865004079588 0.1288508230644082 0 -0.36365945666973548 0.13075123516802761 0 -0.36537835329425011 0.11658336638688931 0 -0.3757865004079588 0.1288508230644082 0 -0.36365945666973548 0.13075123516802761 0 -0.37143337269002891 0.1406957462444772 0 -0.36365945666973548 0.13075123516802761 0 -0.35864456615364471 0.1436885829187782 0 -0.37143337269002891 0.1406957462444772 0 -0.36365945666973548 0.13075123516802761 0 -0.35864456615364471 0.1436885829187782 0 -0.34788833489559018 0.1187423600187314 0 -0.35864456615364471 0.1436885829187782 0 -0.34788833489559018 0.1187423600187314 0 -0.34936906004984508 0.1365039253897396 0 -0.35864456615364471 0.1436885829187782 0 -0.34788833489559018 0.1187423600187314 0 -0.34936906004984508 0.1365039253897396 0 -0.33713317186269892 0.12811771566020949 0 -0.34788833489559018 0.1187423600187314 0 -0.34936906004984508 0.1365039253897396 0 -0.35022277488156878 0.15663004324405369 0 -0.33692117457573678 0.14205888185722981 0 -0.34936906004984508 0.1365039253897396 0 -0.35864456615364471 0.1436885829187782 0 -0.35022277488156878 0.15663004324405369 0 -0.34936906004984508 0.1365039253897396 0 -0.35022277488156878 0.15663004324405369 0 -0.35864456615364471 0.1436885829187782 0 -0.35886674500735349 0.15681254586861951 0 -0.35022277488156878 0.15663004324405369 0 -0.35864456615364471 0.1436885829187782 0 -0.36940079741169912 0.16863480581882531 0 -0.35864456615364471 0.1436885829187782 0 -0.3699602630724812 0.15162176210927941 0 -0.36940079741169912 0.16863480581882531 0 -0.35864456615364471 0.1436885829187782 0 -0.37143337269002891 0.1406957462444772 0 -0.3699602630724812 0.15162176210927941 0 -0.37700340153538109 0.14949247443069749 0 -0.37143337269002891 0.1406957462444772 0 -0.3699602630724812 0.15162176210927941 0 -0.35864456615364471 0.1436885829187782 0 -0.36940079741169912 0.16863480581882531 0 -0.35886674500735349 0.15681254586861951 0 -0.37700340153538109 0.14949247443069749 0 -0.3699602630724812 0.15162176210927941 0 -0.36940079741169912 0.16863480581882531 0 -0.36940079741169912 0.16863480581882531 0 -0.36207307424430191 0.1707096377479369 0 -0.36045198533109812 0.16595613495424691 0 -0.36940079741169912 0.16863480581882531 0 -0.36207307424430191 0.1707096377479369 0 -0.36303358087775039 0.1758738054537331 0 -0.36207307424430191 0.1707096377479369 0 -0.36045198533109812 0.16595613495424691 0 -0.3563488685336369 0.17244862861211049 0 -0.36940079741169912 0.16863480581882531 0 -0.36045198533109812 0.16595613495424691 0 -0.35886674500735349 0.15681254586861951 0 -0.37521285940810861 0.18211434066638041 0 -0.36303358087775039 0.1758738054537331 0 -0.36468399497056447 0.18816689416062421 0 -0.37521285940810861 0.18211434066638041 0 -0.36940079741169912 0.16863480581882531 0 -0.37521285940810861 0.18211434066638041 0 -0.36940079741169912 0.16863480581882531 0 -0.36303358087775039 0.1758738054537331 0 -0.37521285940810861 0.18211434066638041 0 -0.36303358087775039 0.1758738054537331 0 -0.36940079741169912 0.16863480581882531 0 -0.36303358087775039 0.1758738054537331 0 -0.36207307424430191 0.1707096377479369 0 -0.36303358087775039 0.1758738054537331 0 -0.3563488685336369 0.17244862861211049 0 -0.36303358087775039 0.1758738054537331 0 -0.3563488685336369 0.17244862861211049 0 -0.36303358087775039 0.1758738054537331 0 -0.36468399497056447 0.18816689416062421 0 -0.35159089723275549 0.1888831922535735 0 -0.36303358087775039 0.1758738054537331 0 -0.3563488685336369 0.17244862861211049 0 -0.35159089723275549 0.1888831922535735 0 -0.35090683605716078 0.1727566177488136 0 -0.3462742667478344 0.18347258500627781 0 -0.35159089723275549 0.1888831922535735 0 -0.3563488685336369 0.17244862861211049 0 -0.35090683605716078 0.1727566177488136 0 -0.35159089723275549 0.1888831922535735 0 -0.35090683605716078 0.1727566177488136 0 -0.35159089723275549 0.1888831922535735 0 -0.36303358087775039 0.1758738054537331 0 -0.35159089723275549 0.1888831922535735 0 -0.35090683605716078 0.1727566177488136 0 -0.3462742667478344 0.18347258500627781 0 -0.33735878061649971 0.17614752064458089 0 -0.35090683605716078 0.1727566177488136 0 -0.35022277488156878 0.15663004324405369 0 -0.34178355067170663 0.16506581601580361 0 -0.35090683605716078 0.1727566177488136 0 -0.35022277488156878 0.15663004324405369 0 -0.35090683605716078 0.1727566177488136 0 -0.35535944196216362 0.16492079408556881 0 -0.35022277488156878 0.15663004324405369 0 -0.36045198533109812 0.16595613495424691 0 -0.35886674500735349 0.15681254586861951 0 -0.35535944196216362 0.16492079408556881 0 -0.35886674500735349 0.15681254586861951 0 -0.35022277488156878 0.15663004324405369 0 -0.35886674500735349 0.15681254586861951 0 -0.35535944196216362 0.16492079408556881 0 -0.35022277488156878 0.15663004324405369 0 -0.3563488685336369 0.17244862861211049 0 -0.35090683605716078 0.1727566177488136 0 -0.35535944196216362 0.16492079408556881 0 -0.36045198533109812 0.16595613495424691 0 -0.3563488685336369 0.17244862861211049 0 -0.35535944196216362 0.16492079408556881 0 -0.35022277488156878 0.15663004324405369 0 -0.32947700814807512 0.1561920319110193 0 -0.35022277488156878 0.15663004324405369 0 -0.34178355067170663 0.16506581601580361 0 -0.32947700814807512 0.1561920319110193 0 -0.34178355067170663 0.16506581601580361 0 -0.33735878061649971 0.17614752064458089 0 -0.32947700814807512 0.1561920319110193 0 -0.33735878061649971 0.17614752064458089 0 -0.32947700814807512 0.1561920319110193 0 -0.33735878061649971 0.17614752064458089 0 -0.31962485915832772 0.17075919113522439 0 -0.32947700814807512 0.1561920319110193 0 -0.35090683605716078 0.1727566177488136 0 -0.34178355067170663 0.16506581601580361 0 -0.33735878061649971 0.17614752064458089 0 -0.33735878061649971 0.17614752064458089 0 -0.3181451103870484 0.187522853298456 0 -0.33064859824622861 0.19560218497408571 0 -0.3462742667478344 0.18347258500627781 0 -0.33735878061649971 0.17614752064458089 0 -0.34524055308492452 0.19610300937814229 0 -0.33735878061649971 0.17614752064458089 0 -0.34524055308492452 0.19610300937814229 0 -0.33735878061649971 0.17614752064458089 0 -0.3181451103870484 0.187522853298456 0 -0.31962485915832772 0.17075919113522439 0 -0.3181451103870484 0.187522853298456 0 -0.31962485915832772 0.17075919113522439 0 -0.30399098830610211 0.17817063702591401 0 -0.31962485915832772 0.17075919113522439 0 -0.32947700814807512 0.1561920319110193 0 -0.3091524083339135 0.15576291279615059 0 -0.32002149507353561 0.13225206340963899 0 -0.32947700814807512 0.1561920319110193 0 -0.3091524083339135 0.15576291279615059 0 -0.32002149507353561 0.13225206340963899 0 -0.32947700814807512 0.1561920319110193 0 -0.32947700814807512 0.1561920319110193 0 -0.3091524083339135 0.15576291279615059 0 -0.32002149507353561 0.13225206340963899 0 -0.33713317186269892 0.12811771566020949 0 -0.33692117457573678 0.14205888185722981 0 -0.34936906004984508 0.1365039253897396 0 -0.33713317186269892 0.12811771566020949 0 -0.33692117457573678 0.14205888185722981 0 -0.35022277488156878 0.15663004324405369 0 -0.32947700814807512 0.1561920319110193 0 -0.33692117457573678 0.14205888185722981 0 -0.32002149507353561 0.13225206340963899 0 -0.32947700814807512 0.1561920319110193 0 -0.33692117457573678 0.14205888185722981 0 -0.34811501629049041 0.2400077106365042 0 -0.34100729123518558 0.2479862968857878 0 -0.35424623130922589 0.25148204210355629 0 -0.35360229816990307 0.2363014762157917 0 -0.35800404160218302 0.24520060722922529 0 -0.35945222975769098 0.23791166604246081 0 -0.35360229816990307 0.2363014762157917 0 -0.35945222975769098 0.23791166604246081 0 -0.35827744205992168 0.23097724316103169 0 -0.35360229816990307 0.2363014762157917 0 -0.35424623130922589 0.25148204210355629 0 -0.34811501629049041 0.2400077106365042 0 -0.35360229816990307 0.2363014762157917 0 -0.35424623130922589 0.25148204210355629 0 -0.35360229816990307 0.2363014762157917 0 -0.35800404160218302 0.24520060722922529 0 -0.35424623130922589 0.25148204210355629 0 -0.35800404160218302 0.24520060722922529 0 -0.35424623130922589 0.25148204210355629 0 -0.36161226349133518 0.25054371540632331 0 -0.36399014653455641 0.24319426409251799 0 -0.37189546908600152 0.24710649406950619 0 -0.36161226349133518 0.25054371540632331 0 -0.35800404160218302 0.24520060722922529 0 -0.36399014653455641 0.24319426409251799 0 -0.36161226349133518 0.25054371540632331 0 -0.37661380802373873 0.23842031180005979 0 -0.36399014653455641 0.24319426409251799 0 -0.37189546908600152 0.24710649406950619 0 -0.37661380802373873 0.23842031180005979 0 -0.36399014653455641 0.24319426409251799 0 -0.36439633059403342 0.2338709647272528 0 -0.36399014653455641 0.24319426409251799 0 -0.35945222975769098 0.23791166604246081 0 -0.36439633059403342 0.2338709647272528 0 -0.35800404160218302 0.24520060722922529 0 -0.36399014653455641 0.24319426409251799 0 -0.35945222975769098 0.23791166604246081 0 -0.36439633059403342 0.2338709647272528 0 -0.36900114926381172 0.22519655969803809 0 -0.36097798674739789 0.22568119849162571 0 -0.36439633059403342 0.2338709647272528 0 -0.36097798674739789 0.22568119849162571 0 -0.35827744205992168 0.23097724316103169 0 -0.35945222975769098 0.23791166604246081 0 -0.36439633059403342 0.2338709647272528 0 -0.35827744205992168 0.23097724316103169 0 -0.37661380802373873 0.23842031180005979 0 -0.36439633059403342 0.2338709647272528 0 -0.36900114926381172 0.22519655969803809 0 -0.36900114926381172 0.22519655969803809 0 -0.36126575696078211 0.21722653975729339 0 -0.36815978254056358 0.2153259998961069 0 -0.36900114926381172 0.22519655969803809 0 -0.36097798674739789 0.22568119849162571 0 -0.36126575696078211 0.21722653975729339 0 -0.36097798674739789 0.22568119849162571 0 -0.35295836503058281 0.22112091032802689 0 -0.36126575696078211 0.21722653975729339 0 -0.34811501629049041 0.2400077106365042 0 -0.35360229816990307 0.2363014762157917 0 -0.35295836503058281 0.22112091032802689 0 -0.36097798674739789 0.22568119849162571 0 -0.35295836503058281 0.22112091032802689 0 -0.35827744205992168 0.23097724316103169 0 -0.34811501629049041 0.2400077106365042 0 -0.35295836503058281 0.22112091032802689 0 -0.33193065390600779 0.23097836018250731 0 -0.35295836503058281 0.22112091032802689 0 -0.36126575696078211 0.21722653975729339 0 -0.35360229816990307 0.2363014762157917 0 -0.35295836503058281 0.22112091032802689 0 -0.35360229816990307 0.2363014762157917 0 -0.35295836503058281 0.22112091032802689 0 -0.35827744205992168 0.23097724316103169 0 -0.35295836503058281 0.22112091032802689 0 -0.35269806176192181 0.21498432458744601 0 -0.34005109608426859 0.22094405460469571 0 -0.35865216419900559 0.2097232461333691 0 -0.35269806176192181 0.21498432458744601 0 -0.35159089723275549 0.1888831922535735 0 -0.35269806176192181 0.21498432458744601 0 -0.34524055308492452 0.19610300937814229 0 -0.34268769642644259 0.21058063367583921 0 -0.35269806176192181 0.21498432458744601 0 -0.34524055308492452 0.19610300937814229 0 -0.35269806176192181 0.21498432458744601 0 -0.34268769642644259 0.21058063367583921 0 -0.34005109608426859 0.22094405460469571 0 -0.35295836503058281 0.22112091032802689 0 -0.35269806176192181 0.21498432458744601 0 -0.36126575696078211 0.21722653975729339 0 -0.35865216419900559 0.2097232461333691 0 -0.35269806176192181 0.21498432458744601 0 -0.36126575696078211 0.21722653975729339 0 -0.35295836503058281 0.22112091032802689 0 -0.35269806176192181 0.21498432458744601 0 -0.35865216419900559 0.2097232461333691 0 -0.36126575696078211 0.21722653975729339 0 -0.36646357453252709 0.20812733809618161 0 -0.36126575696078211 0.21722653975729339 0 -0.36815978254056358 0.2153259998961069 0 -0.36646357453252709 0.20812733809618161 0 -0.37590864940513352 0.21075356203291459 0 -0.36815978254056358 0.2153259998961069 0 -0.36646357453252709 0.20812733809618161 0 -0.37590864940513352 0.21075356203291459 0 -0.36900114926381172 0.22519655969803809 0 -0.36815978254056358 0.2153259998961069 0 -0.37590864940513352 0.21075356203291459 0 -0.36646357453252709 0.20812733809618161 0 -0.37095721161068029 0.19719176923319681 0 -0.35865216419900559 0.2097232461333691 0 -0.36646357453252709 0.20812733809618161 0 -0.36245461606767321 0.1984070038455292 0 -0.36646357453252709 0.20812733809618161 0 -0.36245461606767321 0.1984070038455292 0 -0.37095721161068029 0.19719176923319681 0 -0.37521285940810861 0.18211434066638041 0 -0.37095721161068029 0.19719176923319681 0 -0.36468399497056447 0.18816689416062421 0 -0.36245461606767321 0.1984070038455292 0 -0.36468399497056447 0.18816689416062421 0 -0.35159089723275549 0.1888831922535735 0 -0.36245461606767321 0.1984070038455292 0 -0.37095721161068029 0.19719176923319681 0 -0.36468399497056447 0.18816689416062421 0 -0.35865216419900559 0.2097232461333691 0 -0.36245461606767321 0.1984070038455292 0 -0.35159089723275549 0.1888831922535735 0 -0.35269806176192181 0.21498432458744601 0 -0.35159089723275549 0.1888831922535735 0 -0.35269806176192181 0.21498432458744601 0 -0.35159089723275549 0.1888831922535735 0 -0.34524055308492452 0.19610300937814229 0 -0.3462742667478344 0.18347258500627781 0 -0.35159089723275549 0.1888831922535735 0 -0.34524055308492452 0.19610300937814229 0 -0.35159089723275549 0.1888831922535735 0 -0.34524055308492452 0.19610300937814229 0 -0.33735878061649971 0.17614752064458089 0 -0.34524055308492452 0.19610300937814229 0 -0.33064859824622861 0.19560218497408571 0 -0.34524055308492452 0.19610300937814229 0 -0.33064859824622861 0.19560218497408571 0 -0.33276107477465933 0.2102911461330714 0 -0.3181451103870484 0.187522853298456 0 -0.33064859824622861 0.19560218497408571 0 -0.31651884423546811 0.20392247041802261 0 -0.3181451103870484 0.187522853298456 0 -0.31651884423546811 0.20392247041802261 0 -0.30319141061825261 0.1936121727856133 0 -0.33064859824622861 0.19560218497408571 0 -0.31651884423546811 0.20392247041802261 0 -0.33276107477465933 0.2102911461330714 0 -0.31651884423546811 0.20392247041802261 0 -0.33276107477465933 0.2102911461330714 0 -0.32028159646438942 0.2244792828879964 0 -0.33276107477465933 0.2102911461330714 0 -0.32028159646438942 0.2244792828879964 0 -0.33276107477465933 0.2102911461330714 0 -0.34005109608426859 0.22094405460469571 0 -0.32028159646438942 0.2244792828879964 0 -0.34524055308492452 0.19610300937814229 0 -0.33276107477465933 0.2102911461330714 0 -0.34524055308492452 0.19610300937814229 0 -0.33276107477465933 0.2102911461330714 0 -0.34268769642644259 0.21058063367583921 0 -0.33276107477465933 0.2102911461330714 0 -0.34268769642644259 0.21058063367583921 0 -0.34005109608426859 0.22094405460469571 0 -0.35295836503058281 0.22112091032802689 0 -0.34005109608426859 0.22094405460469571 0 -0.33193065390600779 0.23097836018250731 0 -0.34005109608426859 0.22094405460469571 0 -0.33193065390600779 0.23097836018250731 0 -0.32028159646438942 0.2244792828879964 0 -0.35295836503058281 0.22112091032802689 0 -0.33193065390600779 0.23097836018250731 0 -0.33193065390600779 0.23097836018250731 0 -0.31469186555211698 0.23157784399510159 0 -0.32028159646438942 0.2244792828879964 0 -0.33193065390600779 0.23097836018250731 0 -0.32028159646438942 0.2244792828879964 0 -0.32590405962885999 0.23988872612192449 0 -0.30600627897915322 0.24313128659167671 0 -0.32047046373798599 0.2502031592616149 0 -0.33193065390600779 0.23097836018250731 0 -0.32590405962885999 0.23988872612192449 0 -0.30600627897915322 0.24313128659167671 0 -0.33193065390600779 0.23097836018250731 0 -0.30600627897915322 0.24313128659167671 0 -0.33193065390600779 0.23097836018250731 0 -0.31469186555211698 0.23157784399510159 0 -0.30600627897915322 0.24313128659167671 0 -0.32590405962885999 0.23988872612192449 0 -0.32995983150266661 0.2491006168402228 0 -0.32047046373798599 0.2502031592616149 0 -0.34811501629049041 0.2400077106365042 0 -0.33193065390600779 0.23097836018250731 0 -0.34811501629049041 0.2400077106365042 0 -0.33193065390600779 0.23097836018250731 0 -0.33601133230185309 0.23986401650612449 0 -0.32590405962885999 0.23988872612192449 0 -0.33601133230185309 0.23986401650612449 0 -0.34100729123518558 0.2479862968857878 0 -0.32590405962885999 0.23988872612192449 0 -0.32995983150266661 0.2491006168402228 0 -0.34100729123518558 0.2479862968857878 0 -0.32590405962885999 0.23988872612192449 0 -0.34100729123518558 0.2479862968857878 0 -0.33193065390600779 0.23097836018250731 0 -0.32590405962885999 0.23988872612192449 0 -0.33601133230185309 0.23986401650612449 0 -0.34811501629049041 0.2400077106365042 0 -0.33601133230185309 0.23986401650612449 0 -0.34100729123518558 0.2479862968857878 0 -0.29122835622127508 0.24014316225426671 0 -0.27480113641271919 0.24745000839391201 0 -0.28008190405229821 0.25528421300084542 0 -0.30600627897915322 0.24313128659167671 0 -0.28008190405229821 0.25528421300084542 0 -0.29122835622127508 0.24014316225426671 0 -0.28279689476843312 0.22837286286544189 0 -0.27480113641271919 0.24745000839391201 0 -0.29122835622127508 0.24014316225426671 0 -0.30600627897915322 0.24313128659167671 0 -0.28008190405229821 0.25528421300084542 0 -0.29122835622127508 0.24014316225426671 0 -0.27480113641271919 0.24745000839391201 0 -0.29122835622127508 0.24014316225426671 0 -0.30600627897915322 0.24313128659167671 0 -0.30176101379148978 0.2263444103457421 0 -0.31469186555211698 0.23157784399510159 0 -0.30600627897915322 0.24313128659167671 0 -0.30176101379148978 0.2263444103457421 0 -0.32028159646438942 0.2244792828879964 0 -0.30176101379148978 0.2263444103457421 0 -0.29502960845379611 0.21039105105092359 0 -0.31469186555211698 0.23157784399510159 0 -0.32028159646438942 0.2244792828879964 0 -0.30176101379148978 0.2263444103457421 0 -0.29122835622127508 0.24014316225426671 0 -0.30176101379148978 0.2263444103457421 0 -0.28279689476843312 0.22837286286544189 0 -0.30176101379148978 0.2263444103457421 0 -0.28279689476843312 0.22837286286544189 0 -0.29502960845379611 0.21039105105092359 0 -0.29502960845379611 0.21039105105092359 0 -0.26977762044320291 0.1963028192138509 0 -0.28279689476843312 0.22837286286544189 0 -0.29502960845379611 0.21039105105092359 0 -0.27079117104308542 0.2157136142144423 0 -0.31651884423546811 0.20392247041802261 0 -0.32028159646438942 0.2244792828879964 0 -0.29502960845379611 0.21039105105092359 0 -0.32028159646438942 0.2244792828879964 0 -0.29502960845379611 0.21039105105092359 0 -0.31651884423546811 0.20392247041802261 0 -0.29502960845379611 0.21039105105092359 0 -0.30319141061825261 0.1936121727856133 0 -0.29502960845379611 0.21039105105092359 0 -0.26977762044320291 0.1963028192138509 0 -0.28550226382720639 0.1864582247946692 0 -0.29502960845379611 0.21039105105092359 0 -0.30319141061825261 0.1936121727856133 0 -0.28550226382720639 0.1864582247946692 0 -0.26977762044320291 0.1963028192138509 0 -0.28550226382720639 0.1864582247946692 0 -0.26544507544794732 0.18149510010624201 0 -0.26977762044320291 0.1963028192138509 0 -0.25153902896373131 0.21293985347282809 0 -0.2519707574243587 0.18424723025062709 0 -0.25153902896373131 0.21293985347282809 0 -0.2519707574243587 0.18424723025062709 0 -0.26977762044320291 0.1963028192138509 0 -0.25153902896373131 0.21293985347282809 0 -0.27079117104308542 0.2157136142144423 0 -0.25153902896373131 0.21293985347282809 0 -0.25142811322019359 0.22031130087314299 0 -0.29502960845379611 0.21039105105092359 0 -0.26977762044320291 0.1963028192138509 0 -0.27079117104308542 0.2157136142144423 0 -0.28279689476843312 0.22837286286544189 0 -0.27079117104308542 0.2157136142144423 0 -0.26317008268822811 0.23019493093336821 0 -0.25142811322019359 0.22031130087314299 0 -0.25115398850404869 0.2385295975885435 0 -0.25153902896373131 0.21293985347282809 0 -0.25754307823334438 0.22362703709826251 0 -0.26317008268822811 0.23019493093336821 0 -0.25754307823334438 0.22362703709826251 0 -0.25142811322019359 0.22031130087314299 0 -0.25115398850404869 0.2385295975885435 0 -0.25153902896373131 0.21293985347282809 0 -0.26317008268822811 0.23019493093336821 0 -0.25153902896373131 0.21293985347282809 0 -0.27079117104308542 0.2157136142144423 0 -0.26317008268822811 0.23019493093336821 0 -0.25754307823334438 0.22362703709826251 0 -0.25142811322019359 0.22031130087314299 0 -0.25153902896373131 0.21293985347282809 0 -0.25754307823334438 0.22362703709826251 0 -0.25142811322019359 0.22031130087314299 0 -0.25754307823334438 0.22362703709826251 0 -0.26317008268822811 0.23019493093336821 0 -0.25115398850404869 0.2385295975885435 0 -0.26119289255077732 0.24321224665890809 0 -0.27480113641271919 0.24745000839391201 0 -0.2526957767415019 0.25728249763198752 0 -0.26317008268822811 0.23019493093336821 0 -0.25115398850404869 0.2385295975885435 0 -0.26119289255077732 0.24321224665890809 0 -0.25115398850404869 0.2385295975885435 0 -0.26119289255077732 0.24321224665890809 0 -0.2526957767415019 0.25728249763198752 0 -0.25115398850404869 0.2385295975885435 0 -0.25087986378790578 0.25674789430394418 0 -0.26317008268822811 0.23019493093336821 0 -0.27480113641271919 0.24745000839391201 0 -0.28279689476843312 0.22837286286544189 0 -0.26317008268822811 0.23019493093336821 0 -0.27480113641271919 0.24745000839391201 0 -0.26317008268822811 0.23019493093336821 0 -0.26119289255077732 0.24321224665890809 0 -0.27480113641271919 0.24745000839391201 0 -0.28882780851975193 0.15533379368127831 0 -0.29794308360040278 0.13168936068279191 0 -0.27071730257997911 0.13199363759356911 0 -0.32002149507353561 0.13225206340963899 0 -0.29794308360040278 0.13168936068279191 0 -0.3091524083339135 0.15576291279615059 0 -0.28882780851975193 0.15533379368127831 0 -0.29794308360040278 0.13168936068279191 0 -0.3091524083339135 0.15576291279615059 0 -0.28882780851975193 0.15533379368127831 0 -0.3091524083339135 0.15576291279615059 0 -0.31962485915832772 0.17075919113522439 0 -0.3091524083339135 0.15576291279615059 0 -0.30399098830610211 0.17817063702591401 0 -0.3091524083339135 0.15576291279615059 0 -0.30399098830610211 0.17817063702591401 0 -0.29047195905341111 0.16779548246038781 0 -0.30319141061825261 0.1936121727856133 0 -0.30399098830610211 0.17817063702591401 0 -0.28550226382720639 0.1864582247946692 0 -0.3181451103870484 0.187522853298456 0 -0.30319141061825261 0.1936121727856133 0 -0.30399098830610211 0.17817063702591401 0 -0.30399098830610211 0.17817063702591401 0 -0.28550226382720639 0.1864582247946692 0 -0.29047195905341111 0.16779548246038781 0 -0.28550226382720639 0.1864582247946692 0 -0.29047195905341111 0.16779548246038781 0 -0.27441734209299401 0.1723670198049968 0 -0.28882780851975193 0.15533379368127831 0 -0.3091524083339135 0.15576291279615059 0 -0.29047195905341111 0.16779548246038781 0 -0.28882780851975193 0.15533379368127831 0 -0.29047195905341111 0.16779548246038781 0 -0.28668102045036431 0.16034850302916789 0 -0.29047195905341111 0.16779548246038781 0 -0.28668102045036431 0.16034850302916789 0 -0.27848056748033329 0.1627815253557453 0 -0.28882780851975193 0.15533379368127831 0 -0.28668102045036431 0.16034850302916789 0 -0.27848056748033329 0.1627815253557453 0 -0.26750297584778071 0.1643053748758099 0 -0.27441734209299401 0.1723670198049968 0 -0.25845045610245959 0.1699951684954159 0 -0.29047195905341111 0.16779548246038781 0 -0.27848056748033329 0.1627815253557453 0 -0.27441734209299401 0.1723670198049968 0 -0.27848056748033329 0.1627815253557453 0 -0.26750297584778071 0.1643053748758099 0 -0.262095046409418 0.15476937719487049 0 -0.28882780851975193 0.15533379368127831 0 -0.27848056748033329 0.1627815253557453 0 -0.262095046409418 0.15476937719487049 0 -0.27848056748033329 0.1627815253557453 0 -0.26750297584778071 0.1643053748758099 0 -0.27441734209299401 0.1723670198049968 0 -0.27441734209299401 0.1723670198049968 0 -0.26544507544794732 0.18149510010624201 0 -0.25845045610245959 0.1699951684954159 0 -0.28550226382720639 0.1864582247946692 0 -0.27441734209299401 0.1723670198049968 0 -0.26544507544794732 0.18149510010624201 0 -0.26977762044320291 0.1963028192138509 0 -0.26544507544794732 0.18149510010624201 0 -0.2519707574243587 0.18424723025062709 0 -0.26544507544794732 0.18149510010624201 0 -0.2519707574243587 0.18424723025062709 0 -0.25845045610245959 0.1699951684954159 0 -0.2519707574243587 0.18424723025062709 0 -0.25845045610245959 0.1699951684954159 0 -0.25240248588498698 0.15555460702842641 0 -0.2519707574243587 0.18424723025062709 0 -0.25240248588498698 0.15555460702842641 0 -0.26011274106116128 0.16115613189863071 0 -0.25240248588498698 0.15555460702842641 0 -0.262095046409418 0.15476937719487049 0 -0.26750297584778071 0.1643053748758099 0 -0.26011274106116128 0.16115613189863071 0 -0.262095046409418 0.15476937719487049 0 -0.26750297584778071 0.1643053748758099 0 -0.26011274106116128 0.16115613189863071 0 -0.25845045610245959 0.1699951684954159 0 -0.26011274106116128 0.16115613189863071 0 -0.25845045610245959 0.1699951684954159 0 -0.25240248588498698 0.15555460702842641 0 -0.25240248588498698 0.15555460702842641 0 -0.25283421434561532 0.1268619838062256 0 -0.25240248588498698 0.15555460702842641 0 -0.26177728296005742 0.14284772753414271 0 -0.25283421434561532 0.1268619838062256 0 -0.26177728296005742 0.14284772753414271 0 -0.262095046409418 0.15476937719487049 0 -0.27085436011730191 0.14623613400096491 0 -0.25240248588498698 0.15555460702842641 0 -0.26177728296005742 0.14284772753414271 0 -0.262095046409418 0.15476937719487049 0 -0.28882780851975193 0.15533379368127831 0 -0.27071730257997911 0.13199363759356911 0 -0.28882780851975193 0.15533379368127831 0 -0.262095046409418 0.15476937719487049 0 -0.28882780851975193 0.15533379368127831 0 -0.27085436011730191 0.14623613400096491 0 -0.27071730257997911 0.13199363759356911 0 -0.28882780851975193 0.15533379368127831 0 -0.262095046409418 0.15476937719487049 0 -0.27085436011730191 0.14623613400096491 0 -0.26177728296005742 0.14284772753414271 0 -0.27085436011730191 0.14623613400096491 0 -0.27071730257997911 0.13199363759356911 0 -0.26177728296005742 0.14284772753414271 0 -0.27071730257997911 0.13199363759356911 0 -0.25283421434561532 0.1268619838062256 0 -0.27071730257997911 0.13199363759356911 0 -0.25283421434561532 0.1268619838062256 0 -0.25260679664020508 0.108653481505861 0 -0.27071730257997911 0.13199363759356911 0 -0.25260679664020508 0.108653481505861 0 -0.27071730257997911 0.13199363759356911 0 -0.25260679664020508 0.108653481505861 0 -0.27083843989273021 0.10360891258907801 0 -0.25260679664020508 0.108653481505861 0 -0.27083843989273021 0.10360891258907801 0 -0.26148576369579651 0.086926222179072615 0 -0.25260679664020508 0.108653481505861 0 -0.26148576369579651 0.086926222179072615 0 -0.24825070137420599 0.08822620104569498 0 -0.27083843989273021 0.10360891258907801 0 -0.28837350509624188 0.10648166170785579 0 -0.28100883145142858 0.083989559959031374 0 -0.27071730257997911 0.13199363759356911 0 -0.27083843989273021 0.10360891258907801 0 -0.28837350509624188 0.10648166170785579 0 -0.29794308360040278 0.13168936068279191 0 -0.27071730257997911 0.13199363759356911 0 -0.28837350509624188 0.10648166170785579 0 -0.31056598199899382 0.1083120949082596 0 -0.30111046892445198 0.084372126406880341 0 -0.31947526535574561 0.09370477242134187 0 -0.31056598199899382 0.1083120949082596 0 -0.30111046892445198 0.084372126406880341 0 -0.28837350509624188 0.10648166170785579 0 -0.31056598199899382 0.1083120949082596 0 -0.30111046892445198 0.084372126406880341 0 -0.32002149507353561 0.13225206340963899 0 -0.29794308360040278 0.13168936068279191 0 -0.31056598199899382 0.1083120949082596 0 -0.29794308360040278 0.13168936068279191 0 -0.28837350509624188 0.10648166170785579 0 -0.31056598199899382 0.1083120949082596 0 -0.30786169804075147 0.069354624227088199 0 -0.30111046892445198 0.084372126406880341 0 -0.29165495584990958 0.060432157905501258 0 -0.30786169804075147 0.069354624227088199 0 -0.30111046892445198 0.084372126406880341 0 -0.31965440598829481 0.078129974809533556 0 -0.30786169804075147 0.069354624227088199 0 -0.29165495584990958 0.060432157905501258 0 -0.30809996351753621 0.057983772174615568 0 -0.30786169804075147 0.069354624227088199 0 -0.30809996351753621 0.057983772174615568 0 -0.31878869592356479 0.065855089838910169 0 -0.28837350509624188 0.10648166170785579 0 -0.30111046892445198 0.084372126406880341 0 -0.28100883145142858 0.083989559959031374 0 -0.30111046892445198 0.084372126406880341 0 -0.29165495584990958 0.060432157905501258 0 -0.30111046892445198 0.084372126406880341 0 -0.28100883145142858 0.083989559959031374 0 -0.29165495584990958 0.060432157905501258 0 -0.28100883145142858 0.083989559959031374 0 -0.26391889960040238 0.064561591331428803 0 -0.29165495584990958 0.060432157905501258 0 -0.28100883145142858 0.083989559959031374 0 -0.26391889960040238 0.064561591331428803 0 -0.27083843989273021 0.10360891258907801 0 -0.28100883145142858 0.083989559959031374 0 -0.26148576369579651 0.086926222179072615 0 -0.28100883145142858 0.083989559959031374 0 -0.26148576369579651 0.086926222179072615 0 -0.26391889960040238 0.064561591331428803 0 -0.26148576369579651 0.086926222179072615 0 -0.25138779661809041 0.077660573920342188 0 -0.24825070137420599 0.08822620104569498 0 -0.26391889960040238 0.064561591331428803 0 -0.25138779661809041 0.077660573920342188 0 -0.243513844780578 0.067599561642452954 0 -0.26391889960040238 0.064561591331428803 0 -0.243513844780578 0.067599561642452954 0 -0.26148576369579651 0.086926222179072615 0 -0.26391889960040238 0.064561591331428803 0 -0.25138779661809041 0.077660573920342188 0 -0.26391889960040238 0.064561591331428803 0 -0.2443720025925735 0.06529512410861317 0 -0.243513844780578 0.067599561642452954 0 -0.26391889960040238 0.064561591331428803 0 -0.25305719961821771 0.052213925563313057 0 -0.2443720025925735 0.06529512410861317 0 -0.26391889960040238 0.064561591331428803 0 -0.25305719961821771 0.052213925563313057 0 -0.27439017230815499 0.048226076158711322 0 -0.26391889960040238 0.064561591331428803 0 -0.25305719961821771 0.052213925563313057 0 -0.25305719961821771 0.052213925563313057 0 -0.26661292332330522 0.031796989403095208 0 -0.23866201042514501 0.035849361534072498 0 -0.25305719961821771 0.052213925563313057 0 -0.26661292332330522 0.031796989403095208 0 -0.25305719961821771 0.052213925563313057 0 -0.26661292332330522 0.031796989403095208 0 -0.27439017230815499 0.048226076158711322 0 -0.26661292332330522 0.031796989403095208 0 -0.27439017230815499 0.048226076158711322 0 -0.28405009312871171 0.031586396751559782 0 -0.26391889960040238 0.064561591331428803 0 -0.29165495584990958 0.060432157905501258 0 -0.26391889960040238 0.064561591331428803 0 -0.27439017230815499 0.048226076158711322 0 -0.29165495584990958 0.060432157905501258 0 -0.26129007469328452 -0.01175620120180206 0 -0.26365804434625278 0.010739703857289029 0 -0.24960084376701569 0.0020560893945085678 0 -0.26365804434625278 0.010739703857289029 0 -0.25079421002476948 0.02110945866695265 0 -0.24960084376701569 0.0020560893945085678 0 -0.26661292332330522 0.031796989403095208 0 -0.26365804434625278 0.010739703857289029 0 -0.25079421002476948 0.02110945866695265 0 -0.26661292332330522 0.031796989403095208 0 -0.25079421002476948 0.02110945866695265 0 -0.23866201042514501 0.035849361534072498 0 -0.26661292332330522 0.031796989403095208 0 -0.28016864702839289 0.01138005324287753 0 -0.26661292332330522 0.031796989403095208 0 -0.28016864702839289 0.01138005324287753 0 -0.28405009312871171 0.031586396751559782 0 -0.26661292332330522 0.031796989403095208 0 -0.26365804434625278 0.010739703857289029 0 -0.28016864702839289 0.01138005324287753 0 -0.27499301778672641 -0.0036671053792906058 0 -0.26365804434625278 0.010739703857289029 0 -0.28016864702839289 0.01138005324287753 0 -0.29372437073348062 -0.0090368829173401739 0 -0.28016864702839289 0.01138005324287753 0 -0.30222657664053859 0.011676498958688591 0 -0.29372437073348062 -0.0090368829173401739 0 -0.28016864702839289 0.01138005324287753 0 -0.30222657664053859 0.011676498958688591 0 -0.28405009312871171 0.031586396751559782 0 -0.30136481319622521 0.033659970736517081 0 -0.28016864702839289 0.01138005324287753 0 -0.30222657664053859 0.011676498958688591 0 -0.28405009312871171 0.031586396751559782 0 -0.30222657664053859 0.011676498958688591 0 -0.30136481319622521 0.033659970736517081 0 -0.31874309094751457 0.024377692297750459 0 -0.27439017230815499 0.048226076158711322 0 -0.29165495584990958 0.060432157905501258 0 -0.28704696232838361 0.048765395997368982 0 -0.29165495584990958 0.060432157905501258 0 -0.28704696232838361 0.048765395997368982 0 -0.2999065103685411 0.049428465351160911 0 -0.29165495584990958 0.060432157905501258 0 -0.28704696232838361 0.048765395997368982 0 -0.28704696232838361 0.048765395997368982 0 -0.30136481319622521 0.033659970736517081 0 -0.2999065103685411 0.049428465351160911 0 -0.27439017230815499 0.048226076158711322 0 -0.28704696232838361 0.048765395997368982 0 -0.28405009312871171 0.031586396751559782 0 -0.28704696232838361 0.048765395997368982 0 -0.28405009312871171 0.031586396751559782 0 -0.30136481319622521 0.033659970736517081 0 -0.30136481319622521 0.033659970736517081 0 -0.311365856950651 0.046301029941801478 0 -0.2999065103685411 0.049428465351160911 0 -0.29165495584990958 0.060432157905501258 0 -0.2999065103685411 0.049428465351160911 0 -0.30809996351753621 0.057983772174615568 0 -0.311365856950651 0.046301029941801478 0 -0.2999065103685411 0.049428465351160911 0 -0.30809996351753621 0.057983772174615568 0 -0.29165495584990958 0.060432157905501258 0 -0.30809996351753621 0.057983772174615568 0 -0.30809996351753621 0.057983772174615568 0 -0.32454497118516262 0.055535386443729733 0 -0.32334637081392409 0.046375216376424173 0 -0.30809996351753621 0.057983772174615568 0 -0.32454497118516262 0.055535386443729733 0 -0.31878869592356479 0.065855089838910169 0 -0.30809996351753621 0.057983772174615568 0 -0.32454497118516262 0.055535386443729733 0 -0.32454497118516262 0.055535386443729733 0 -0.32334637081392409 0.046375216376424173 0 -0.32494635397484678 0.043533482274954967 0 -0.311365856950651 0.046301029941801478 0 -0.30809996351753621 0.057983772174615568 0 -0.32334637081392409 0.046375216376424173 0 -0.30136481319622521 0.033659970736517081 0 -0.32494635397484678 0.043533482274954967 0 -0.311365856950651 0.046301029941801478 0 -0.32334637081392409 0.046375216376424173 0 -0.32494635397484678 0.043533482274954967 0 -0.30136481319622521 0.033659970736517081 0 -0.32494635397484678 0.043533482274954967 0 -0.31874309094751457 0.024377692297750459 0 -0.30136481319622521 0.033659970736517081 0 -0.311365856950651 0.046301029941801478 0 -0.32494635397484678 0.043533482274954967 0 -0.32334637081392409 0.046375216376424173 0 -0.32494635397484678 0.043533482274954967 0 -0.32494635397484678 0.043533482274954967 0 -0.33765811737240659 0.02095608745046694 0 -0.34928920235976868 0.032606936511131668 0 -0.32494635397484678 0.043533482274954967 0 -0.33765811737240659 0.02095608745046694 0 -0.32494635397484678 0.043533482274954967 0 -0.35088079851744031 0.054392146678550413 0 -0.34928920235976868 0.032606936511131668 0 -0.32454497118516262 0.055535386443729733 0 -0.32494635397484678 0.043533482274954967 0 -0.35088079851744031 0.054392146678550413 0 -0.32494635397484678 0.043533482274954967 0 -0.35088079851744031 0.054392146678550413 0 -0.32454497118516262 0.055535386443729733 0 -0.35088079851744031 0.054392146678550413 0 -0.33836371064776438 0.069956278474292047 0 -0.32714351527857533 0.00054238644801803419 0 -0.31874309094751457 0.024377692297750459 0 -0.33765811737240659 0.02095608745046694 0 -0.31105552914382723 -0.010423022317807191 0 -0.30222657664053859 0.011676498958688591 0 -0.32714351527857533 0.00054238644801803419 0 -0.30222657664053859 0.011676498958688591 0 -0.32714351527857533 0.00054238644801803419 0 -0.31874309094751457 0.024377692297750459 0 -0.32494635397484678 0.043533482274954967 0 -0.31874309094751457 0.024377692297750459 0 -0.33765811737240659 0.02095608745046694 0 -0.35036988076996728 -0.001621307374020602 0 -0.32714351527857533 0.00054238644801803419 0 -0.33765811737240659 0.02095608745046694 0 -0.35036988076996728 -0.001621307374020602 0 -0.33765811737240659 0.02095608745046694 0 -0.35310226398090661 0.01694554148424595 0 -0.35036988076996728 -0.001621307374020602 0 -0.33765811737240659 0.02095608745046694 0 -0.35036988076996728 -0.001621307374020602 0 -0.35310226398090661 0.01694554148424595 0 -0.3706940928529856 0.017688088116135699 0 -0.35310226398090661 0.01694554148424595 0 -0.3706940928529856 0.017688088116135699 0 -0.34928920235976868 0.032606936511131668 0 -0.33765811737240659 0.02095608745046694 0 -0.35310226398090661 0.01694554148424595 0 -0.34928920235976868 0.032606936511131668 0 -0.3706940928529856 0.017688088116135699 0 -0.34928920235976868 0.032606936511131668 0 -0.36935345872157233 0.042470052639596932 0 -0.37386683033107732 -0.0057703736779719239 0 -0.35036988076996728 -0.001621307374020602 0 -0.3706940928529856 0.017688088116135699 0 -0.34928920235976868 0.032606936511131668 0 -0.36935345872157233 0.042470052639596932 0 -0.35088079851744031 0.054392146678550413 0 -0.34928920235976868 0.032606936511131668 0 -0.36935345872157233 0.042470052639596932 0 -0.38347171402920532 0.035392599189949039 0 -0.3706940928529856 0.017688088116135699 0 -0.36935345872157233 0.042470052639596932 0 -0.37681524306003711 0.065250811082137608 0 -0.35088079851744031 0.054392146678550413 0 -0.36935345872157233 0.042470052639596932 0 -0.37681524306003711 0.065250811082137608 0 -0.35088079851744031 0.054392146678550413 0 -0.37681524306003711 0.065250811082137608 0 -0.35732853538923343 0.072215490624652517 0 -0.37429617338574228 0.086844948952546519 0 -0.37681524306003711 0.065250811082137608 0 -0.35088079851744031 0.054392146678550413 0 -0.35732853538923343 0.072215490624652517 0 -0.35088079851744031 0.054392146678550413 0 -0.35732853538923343 0.072215490624652517 0 -0.33836371064776438 0.069956278474292047 0 -0.35732853538923343 0.072215490624652517 0 -0.35631511111815778 0.090177128485904826 0 -0.33836371064776438 0.069956278474292047 0 -0.35631511111815778 0.090177128485904826 0 -0.33713210363753571 0.093796137118684564 0 -0.33836371064776438 0.069956278474292047 0 -0.35732853538923343 0.072215490624652517 0 -0.35631511111815778 0.090177128485904826 0 -0.37429617338574228 0.086844948952546519 0 -0.35631511111815778 0.090177128485904826 0 -0.37429617338574228 0.086844948952546519 0 -0.36875202228408638 0.1025718974637901 0 -0.37913303111269347 0.1011472026539591 0 -0.37429617338574228 0.086844948952546519 0 -0.36875202228408638 0.1025718974637901 0 -0.36875202228408638 0.1025718974637901 0 -0.36537835329425011 0.11658336638688931 0 -0.35557554319791368 0.1047562931465936 0 -0.35631511111815778 0.090177128485904826 0 -0.36875202228408638 0.1025718974637901 0 -0.35557554319791368 0.1047562931465936 0 -0.38060826231021638 0.1138275894597852 0 -0.3757865004079588 0.1288508230644082 0 -0.36537835329425011 0.11658336638688931 0 -0.38060826231021638 0.1138275894597852 0 -0.36875202228408638 0.1025718974637901 0 -0.36537835329425011 0.11658336638688931 0 -0.36365945666973548 0.13075123516802761 0 -0.36537835329425011 0.11658336638688931 0 -0.34788833489559018 0.1187423600187314 0 -0.36537835329425011 0.11658336638688931 0 -0.34788833489559018 0.1187423600187314 0 -0.35557554319791368 0.1047562931465936 0 -0.35631511111815778 0.090177128485904826 0 -0.35557554319791368 0.1047562931465936 0 -0.33713210363753571 0.093796137118684564 0 -0.34788833489559018 0.1187423600187314 0 -0.35557554319791368 0.1047562931465936 0 -0.33713210363753571 0.093796137118684564 0 -0.33713210363753571 0.093796137118684564 0 -0.33004502997043911 0.11169837990762441 0 -0.31947526535574561 0.09370477242134187 0 -0.34788833489559018 0.1187423600187314 0 -0.33713210363753571 0.093796137118684564 0 -0.34788833489559018 0.1187423600187314 0 -0.33713210363753571 0.093796137118684564 0 -0.33004502997043911 0.11169837990762441 0 -0.32002149507353561 0.13225206340963899 0 -0.33713317186269892 0.12811771566020949 0 -0.33004502997043911 0.11169837990762441 0 -0.33713317186269892 0.12811771566020949 0 -0.34788833489559018 0.1187423600187314 0 -0.33004502997043911 0.11169837990762441 0 -0.32002149507353561 0.13225206340963899 0 -0.31056598199899382 0.1083120949082596 0 -0.33004502997043911 0.11169837990762441 0 -0.32002149507353561 0.13225206340963899 0 -0.31056598199899382 0.1083120949082596 0 -0.31056598199899382 0.1083120949082596 0 -0.33004502997043911 0.11169837990762441 0 -0.31947526535574561 0.09370477242134187 0 -0.33713210363753571 0.093796137118684564 0 -0.31947526535574561 0.09370477242134187 0 -0.31965440598829481 0.078129974809533556 0 -0.30111046892445198 0.084372126406880341 0 -0.31947526535574561 0.09370477242134187 0 -0.31965440598829481 0.078129974809533556 0 -0.32454497118516262 0.055535386443729733 0 -0.31878869592356479 0.065855089838910169 0 -0.33836371064776438 0.069956278474292047 0 -0.30786169804075147 0.069354624227088199 0 -0.31965440598829481 0.078129974809533556 0 -0.31878869592356479 0.065855089838910169 0 -0.31965440598829481 0.078129974809533556 0 -0.31878869592356479 0.065855089838910169 0 -0.33836371064776438 0.069956278474292047 0 -0.33713210363753571 0.093796137118684564 0 -0.31965440598829481 0.078129974809533556 0 -0.33836371064776438 0.069956278474292047 0 -0.3963104206874723 0.47180649213986348 0 -0.37933533950595127 0.48722672784229137 0 -0.40676012542119461 0.48658851362344269 0 -0.3963104206874723 0.47180649213986348 0 -0.41373715292601893 0.46953029572473082 0 -0.40676012542119461 0.48658851362344269 0 -0.39267878341897972 0.5 0 -0.37933533950595127 0.48722672784229137 0 -0.40676012542119461 0.48658851362344269 0 -0.39267878341897972 0.5 0 -0.37933533950595127 0.48722672784229137 0 -0.36322779277758172 0.5 0 -0.3963104206874723 0.47180649213986348 0 -0.37933533950595127 0.48722672784229137 0 -0.37990903276478899 0.46812587243661352 0 -0.37990903276478899 0.46812587243661352 0 -0.37871401168823571 0.45682544008698073 0 -0.39481534703813931 0.45429544358709911 0 -0.37990903276478899 0.46812587243661352 0 -0.37871401168823571 0.45682544008698073 0 -0.37015070789911669 0.4605010226726215 0 -0.3963104206874723 0.47180649213986348 0 -0.37990903276478899 0.46812587243661352 0 -0.39481534703813931 0.45429544358709911 0 -0.37871401168823571 0.45682544008698073 0 -0.37976485939756338 0.44734204849793252 0 -0.39481534703813931 0.45429544358709911 0 -0.38276879612955012 0.44459618850815191 0 -0.37378601693697477 0.44541067362674269 0 -0.37164114564722589 0.43950505823018959 0 -0.38276879612955012 0.44459618850815191 0 -0.37072224522095798 0.43489693342920849 0 -0.38276879612955012 0.44459618850815191 0 -0.37072224522095798 0.43489693342920849 0 -0.37164114564722589 0.43950505823018959 0 -0.38276879612955012 0.44459618850815191 0 -0.37976485939756338 0.44734204849793252 0 -0.37378601693697477 0.44541067362674269 0 -0.37871401168823571 0.45682544008698073 0 -0.37976485939756338 0.44734204849793252 0 -0.37344320806865833 0.45221978757831571 0 -0.37976485939756338 0.44734204849793252 0 -0.37344320806865833 0.45221978757831571 0 -0.37378601693697477 0.44541067362674269 0 -0.38276879612955012 0.44459618850815191 0 -0.37976485939756338 0.44734204849793252 0 -0.39481534703813931 0.45429544358709911 0 -0.38276879612955012 0.44459618850815191 0 -0.39481534703813931 0.45429544358709911 0 -0.37976485939756338 0.44734204849793252 0 -0.39481534703813931 0.45429544358709911 0 -0.38276879612955012 0.44459618850815191 0 -0.39481534703813931 0.45429544358709911 0 -0.39665563574450918 0.43691211666370983 0 -0.39481534703813931 0.45429544358709911 0 -0.40961805647789978 0.44834864738476748 0 -0.39665563574450918 0.43691211666370983 0 -0.40961805647789978 0.44834864738476748 0 -0.4121967680595458 0.43619843559028659 0 -0.39665563574450918 0.43691211666370983 0 -0.39481534703813931 0.45429544358709911 0 -0.41373715292601893 0.46953029572473082 0 -0.3963104206874723 0.47180649213986348 0 -0.39481534703813931 0.45429544358709911 0 -0.41373715292601893 0.46953029572473082 0 -0.39481534703813931 0.45429544358709911 0 -0.4195470015964286 0.46572158269032737 0 -0.40961805647789978 0.44834864738476748 0 -0.4195470015964286 0.46572158269032737 0 -0.40961805647789978 0.44834864738476748 0 -0.42484240950340268 0.44735481812155747 0 -0.39481534703813931 0.45429544358709911 0 -0.4195470015964286 0.46572158269032737 0 -0.41373715292601893 0.46953029572473082 0 -0.39481534703813931 0.45429544358709911 0 -0.4195470015964286 0.46572158269032737 0 -0.40961805647789978 0.44834864738476748 0 -0.42484240950340268 0.44735481812155747 0 -0.4121967680595458 0.43619843559028659 0 -0.42484240950340268 0.44735481812155747 0 -0.43972064688853513 0.45527719930778648 0 -0.44200400683861057 0.43386701199941902 0 -0.4195470015964286 0.46572158269032737 0 -0.44427865615471862 0.47714772179355419 0 -0.43972064688853513 0.45527719930778648 0 -0.4195470015964286 0.46572158269032737 0 -0.42484240950340268 0.44735481812155747 0 -0.43972064688853513 0.45527719930778648 0 -0.4195470015964286 0.46572158269032737 0 -0.43265895881389782 0.48476514786236369 0 -0.44427865615471862 0.47714772179355419 0 -0.4195470015964286 0.46572158269032737 0 -0.41373715292601893 0.46953029572473082 0 -0.43265895881389782 0.48476514786236369 0 -0.41373715292601893 0.46953029572473082 0 -0.43265895881389782 0.48476514786236369 0 -0.4195470015964286 0.46572158269032737 0 -0.44427865615471862 0.47714772179355419 0 -0.41373715292601893 0.46953029572473082 0 -0.40676012542119461 0.48658851362344269 0 -0.43265895881389782 0.48476514786236369 0 -0.40676012542119461 0.48658851362344269 0 -0.43265895881389782 0.48476514786236369 0 -0.42212977406037749 0.5 0 -0.39267878341897972 0.5 0 -0.40676012542119461 0.48658851362344269 0 -0.42212977406037749 0.5 0 -0.43265895881389782 0.48476514786236369 0 -0.42212977406037749 0.5 0 -0.45158076470177549 0.49999999999999789 0 -0.5 0.5 0 -0.48841616572907798 0.45481804345328919 0 -0.5 0.43584747649322442 0 -0.43265895881389782 0.48476514786236369 0 -0.45158076470177549 0.49999999999999789 0 -0.44427865615471862 0.47714772179355419 0 -0.43265895881389782 0.48476514786236369 0 -0.45158076470177549 0.49999999999999789 0 -0.44427865615471862 0.47714772179355419 0 -0.46901031071300853 0.48857386089678112 0 -0.44427865615471862 0.47714772179355419 0 -0.46901031071300853 0.48857386089678112 0 -0.47220127589856248 0.47033132595217703 0 -0.45158076470177549 0.49999999999999789 0 -0.44427865615471862 0.47714772179355419 0 -0.46901031071300853 0.48857386089678112 0 -0.45158076470177549 0.49999999999999789 0 -0.47266136498653782 0.5 0 -0.46901031071300853 0.48857386089678112 0 -0.5 0.5 0 -0.49374196527129988 0.50000000000000444 0 -0.48841616572907798 0.45481804345328919 0 -0.46901031071300853 0.48857386089678112 0 -0.49374196527129988 0.50000000000000444 0 -0.47220127589856248 0.47033132595217703 0 -0.49374196527129988 0.50000000000000444 0 -0.48841616572907798 0.45481804345328919 0 -0.47266136498653782 0.5 0 -0.46901031071300853 0.48857386089678112 0 -0.49374196527129988 0.50000000000000444 0 -0.46901031071300853 0.48857386089678112 0 -0.47220127589856248 0.47033132595217703 0 -0.49374196527129988 0.50000000000000444 0 -0.48841616572907798 0.45481804345328919 0 -0.48003563205058508 0.43065993814503772 0 -0.5 0.43584747649322442 0 -0.47220127589856248 0.47033132595217703 0 -0.48841616572907798 0.45481804345328919 0 -0.46150383537392992 0.44953071829044761 0 -0.48841616572907798 0.45481804345328919 0 -0.46150383537392992 0.44953071829044761 0 -0.48003563205058508 0.43065993814503772 0 -0.48841616572907798 0.45481804345328919 0 -0.48003563205058508 0.43065993814503772 0 -0.44427865615471862 0.47714772179355419 0 -0.47220127589856248 0.47033132595217703 0 -0.46150383537392992 0.44953071829044761 0 -0.44427865615471862 0.47714772179355419 0 -0.46150383537392992 0.44953071829044761 0 -0.43972064688853513 0.45527719930778648 0 -0.46150383537392992 0.44953071829044761 0 -0.43972064688853513 0.45527719930778648 0 -0.44200400683861057 0.43386701199941902 0 -0.44200400683861057 0.43386701199941902 0 -0.46007705351007389 0.42405096957156641 0 -0.44121999526765771 0.40391707275941019 0 -0.46007705351007389 0.42405096957156641 0 -0.4716550983720923 0.40650183283678631 0 -0.44121999526765771 0.40391707275941019 0 -0.46150383537392992 0.44953071829044761 0 -0.46007705351007389 0.42405096957156641 0 -0.48003563205058508 0.43065993814503772 0 -0.46150383537392992 0.44953071829044761 0 -0.44200400683861057 0.43386701199941902 0 -0.46007705351007389 0.42405096957156641 0 -0.48003563205058508 0.43065993814503772 0 -0.4716550983720923 0.40650183283678631 0 -0.5 0.43584747649322442 0 -0.4716550983720923 0.40650183283678631 0 -0.5 0.43584747649322442 0 -0.5 0.38719684198889309 0 -0.46007705351007389 0.42405096957156641 0 -0.48003563205058508 0.43065993814503772 0 -0.4716550983720923 0.40650183283678631 0 -0.48003563205058508 0.43065993814503772 0 -0.4716550983720923 0.40650183283678631 0 -0.4716550983720923 0.40650183283678631 0 -0.5 0.38719684198889309 0 -0.46327456469359929 0.38234372752853468 0 -0.4716550983720923 0.40650183283678631 0 -0.46327456469359929 0.38234372752853468 0 -0.44121999526765771 0.40391707275941019 0 -0.4716550983720923 0.40650183283678631 0 -0.46327456469359929 0.38234372752853468 0 -0.46327456469359929 0.38234372752853468 0 -0.43857778953731391 0.38250988396188079 0 -0.44132878030208827 0.36392992676665031 0 -0.46327456469359929 0.38234372752853468 0 -0.44121999526765771 0.40391707275941019 0 -0.43857778953731391 0.38250988396188079 0 -0.43857778953731391 0.38250988396188079 0 -0.41854925254646241 0.38669387309712028 0 -0.42501138835674429 0.36146322985547369 0 -0.41854925254646241 0.38669387309712028 0 -0.40030158480427352 0.38476489135855713 0 -0.40712134522622873 0.3664241412867234 0 -0.41854925254646241 0.38669387309712028 0 -0.41817175533232598 0.4079259384384033 0 -0.40056783339182522 0.40266451620416432 0 -0.41854925254646241 0.38669387309712028 0 -0.40030158480427352 0.38476489135855713 0 -0.40056783339182522 0.40266451620416432 0 -0.44121999526765771 0.40391707275941019 0 -0.41854925254646241 0.38669387309712028 0 -0.41817175533232598 0.4079259384384033 0 -0.44121999526765771 0.40391707275941019 0 -0.43857778953731391 0.38250988396188079 0 -0.41854925254646241 0.38669387309712028 0 -0.44121999526765771 0.40391707275941019 0 -0.42540328677813921 0.4232192094747711 0 -0.41817175533232598 0.4079259384384033 0 -0.44200400683861057 0.43386701199941902 0 -0.44121999526765771 0.40391707275941019 0 -0.42540328677813921 0.4232192094747711 0 -0.42484240950340268 0.44735481812155747 0 -0.44200400683861057 0.43386701199941902 0 -0.42540328677813921 0.4232192094747711 0 -0.42540328677813921 0.4232192094747711 0 -0.4121967680595458 0.43619843559028659 0 -0.40740092168416792 0.42105793323157059 0 -0.42484240950340268 0.44735481812155747 0 -0.42540328677813921 0.4232192094747711 0 -0.4121967680595458 0.43619843559028659 0 -0.42540328677813921 0.4232192094747711 0 -0.40740092168416792 0.42105793323157059 0 -0.41817175533232598 0.4079259384384033 0 -0.40740092168416792 0.42105793323157059 0 -0.41817175533232598 0.4079259384384033 0 -0.40056783339182522 0.40266451620416432 0 -0.40740092168416792 0.42105793323157059 0 -0.39141025079866187 0.4194273830180888 0 -0.40056783339182522 0.40266451620416432 0 -0.39141025079866187 0.4194273830180888 0 -0.38496208336561749 0.40509956457582869 0 -0.40056783339182522 0.40266451620416432 0 -0.4121967680595458 0.43619843559028659 0 -0.40740092168416792 0.42105793323157059 0 -0.39665563574450918 0.43691211666370983 0 -0.39141025079866187 0.4194273830180888 0 -0.39665563574450918 0.43691211666370983 0 -0.38418451639569928 0.43033582443007279 0 -0.40740092168416792 0.42105793323157059 0 -0.39141025079866187 0.4194273830180888 0 -0.39665563574450918 0.43691211666370983 0 -0.38418451639569928 0.43033582443007279 0 -0.37936565408481532 0.41584650053120742 0 -0.37072224522095798 0.43489693342920849 0 -0.38276879612955012 0.44459618850815191 0 -0.39665563574450918 0.43691211666370983 0 -0.38418451639569928 0.43033582443007279 0 -0.38276879612955012 0.44459618850815191 0 -0.38418451639569928 0.43033582443007279 0 -0.37072224522095798 0.43489693342920849 0 -0.39141025079866187 0.4194273830180888 0 -0.37936565408481532 0.41584650053120742 0 -0.38496208336561749 0.40509956457582869 0 -0.39141025079866187 0.4194273830180888 0 -0.38418451639569928 0.43033582443007279 0 -0.37936565408481532 0.41584650053120742 0 -0.37936565408481532 0.41584650053120742 0 -0.38496208336561749 0.40509956457582869 0 -0.37364309642708898 0.40193696225851211 0 -0.38496208336561749 0.40509956457582869 0 -0.38534816161653163 0.39135014867069701 0 -0.37364309642708898 0.40193696225851211 0 -0.38496208336561749 0.40509956457582869 0 -0.38534816161653163 0.39135014867069701 0 -0.40056783339182522 0.40266451620416432 0 -0.38534816161653163 0.39135014867069701 0 -0.37099329502380768 0.39015446039340368 0 -0.37364309642708898 0.40193696225851211 0 -0.38534816161653163 0.39135014867069701 0 -0.3755985784824929 0.37579787132911568 0 -0.37099329502380768 0.39015446039340368 0 -0.38534816161653163 0.39135014867069701 0 -0.3755985784824929 0.37579787132911568 0 -0.39075065718988611 0.37401881401568438 0 -0.40030158480427352 0.38476489135855713 0 -0.39075065718988611 0.37401881401568438 0 -0.40712134522622873 0.3664241412867234 0 -0.38534816161653163 0.39135014867069701 0 -0.40030158480427352 0.38476489135855713 0 -0.39075065718988611 0.37401881401568438 0 -0.38534816161653163 0.39135014867069701 0 -0.40030158480427352 0.38476489135855713 0 -0.40056783339182522 0.40266451620416432 0 -0.40141919085682531 0.34751834522186331 0 -0.39359584612899728 0.36039362630622668 0 -0.40712134522622873 0.3664241412867234 0 -0.40141919085682531 0.34751834522186331 0 -0.39359584612899728 0.36039362630622668 0 -0.38438716020639291 0.3494828291239867 0 -0.39075065718988611 0.37401881401568438 0 -0.39359584612899728 0.36039362630622668 0 -0.40712134522622873 0.3664241412867234 0 -0.39075065718988611 0.37401881401568438 0 -0.39359584612899728 0.36039362630622668 0 -0.38077597659593188 0.366240408402697 0 -0.3755985784824929 0.37579787132911568 0 -0.39075065718988611 0.37401881401568438 0 -0.38077597659593188 0.366240408402697 0 -0.39359584612899728 0.36039362630622668 0 -0.38077597659593188 0.366240408402697 0 -0.38438716020639291 0.3494828291239867 0 -0.38077597659593188 0.366240408402697 0 -0.38438716020639291 0.3494828291239867 0 -0.36515844105624451 0.34618746438223252 0 -0.38764186009375212 0.33175849883606862 0 -0.36515844105624451 0.34618746438223252 0 -0.38438716020639291 0.3494828291239867 0 -0.38764186009375212 0.33175849883606862 0 -0.36515844105624451 0.34618746438223252 0 -0.38764186009375212 0.33175849883606862 0 -0.3776534193888279 0.31828686882629842 0 -0.37050849986341639 0.33054468298611428 0 -0.38764186009375212 0.33175849883606862 0 -0.3776534193888279 0.31828686882629842 0 -0.38999683108418282 0.31235023039345911 0 -0.38764186009375212 0.33175849883606862 0 -0.4101252791312594 0.31732953328990449 0 -0.38764186009375212 0.33175849883606862 0 -0.4101252791312594 0.31732953328990449 0 -0.38999683108418282 0.31235023039345911 0 -0.40141919085682531 0.34751834522186331 0 -0.38764186009375212 0.33175849883606862 0 -0.4094135462771728 0.33597165862935141 0 -0.40141919085682531 0.34751834522186331 0 -0.38438716020639291 0.3494828291239867 0 -0.38764186009375212 0.33175849883606862 0 -0.38764186009375212 0.33175849883606862 0 -0.4094135462771728 0.33597165862935141 0 -0.4101252791312594 0.31732953328990449 0 -0.4101252791312594 0.31732953328990449 0 -0.42572702971667531 0.34062973002827651 0 -0.42652183908130231 0.33512092130638488 0 -0.4094135462771728 0.33597165862935141 0 -0.4101252791312594 0.31732953328990449 0 -0.42572702971667531 0.34062973002827651 0 -0.4101252791312594 0.31732953328990449 0 -0.42572702971667531 0.34062973002827651 0 -0.4094135462771728 0.33597165862935141 0 -0.42572702971667531 0.34062973002827651 0 -0.41508852792846029 0.34971296787771161 0 -0.4101252791312594 0.31732953328990449 0 -0.42475404390387989 0.32001430385926299 0 -0.43027559599629328 0.30439786007308511 0 -0.4101252791312594 0.31732953328990449 0 -0.42475404390387989 0.32001430385926299 0 -0.42652183908130231 0.33512092130638488 0 -0.42475404390387989 0.32001430385926299 0 -0.43488065317417401 0.32018489005987932 0 -0.43027559599629328 0.30439786007308511 0 -0.42475404390387989 0.32001430385926299 0 -0.43488065317417401 0.32018489005987932 0 -0.42652183908130231 0.33512092130638488 0 -0.43488065317417401 0.32018489005987932 0 -0.42652183908130231 0.33512092130638488 0 -0.45101455938753487 0.33085446624827353 0 -0.42572702971667531 0.34062973002827651 0 -0.42652183908130231 0.33512092130638488 0 -0.44187468073406783 0.34382300181689318 0 -0.42572702971667531 0.34062973002827651 0 -0.42501138835674429 0.36146322985547369 0 -0.44132878030208827 0.36392992676665031 0 -0.42572702971667531 0.34062973002827651 0 -0.41508852792846029 0.34971296787771161 0 -0.42501138835674429 0.36146322985547369 0 -0.42572702971667531 0.34062973002827651 0 -0.44132878030208827 0.36392992676665031 0 -0.42572702971667531 0.34062973002827651 0 -0.44132878030208827 0.36392992676665031 0 -0.44187468073406783 0.34382300181689318 0 -0.40141919085682531 0.34751834522186331 0 -0.41508852792846029 0.34971296787771161 0 -0.40712134522622873 0.3664241412867234 0 -0.41508852792846029 0.34971296787771161 0 -0.40712134522622873 0.3664241412867234 0 -0.42501138835674429 0.36146322985547369 0 -0.40141919085682531 0.34751834522186331 0 -0.4094135462771728 0.33597165862935141 0 -0.41508852792846029 0.34971296787771161 0 -0.41854925254646241 0.38669387309712028 0 -0.40712134522622873 0.3664241412867234 0 -0.42501138835674429 0.36146322985547369 0 -0.43857778953731391 0.38250988396188079 0 -0.42501138835674429 0.36146322985547369 0 -0.44132878030208827 0.36392992676665031 0 -0.46327456469359929 0.38234372752853468 0 -0.44132878030208827 0.36392992676665031 0 -0.45916500237348662 0.35037299353781842 0 -0.46327456469359929 0.38234372752853468 0 -0.45916500237348662 0.35037299353781842 0 -0.48199014942986212 0.35469882767639732 0 -0.5 0.38719684198889309 0 -0.48199014942986212 0.35469882767639732 0 -0.50000000000000011 0.32232155613205082 0 -0.44132878030208827 0.36392992676665031 0 -0.44187468073406783 0.34382300181689318 0 -0.45916500237348662 0.35037299353781842 0 -0.5 0.38719684198889309 0 -0.46327456469359929 0.38234372752853468 0 -0.48199014942986212 0.35469882767639732 0 -0.45916500237348662 0.35037299353781842 0 -0.48199014942986212 0.35469882767639732 0 -0.47550727969376749 0.32658801119016212 0 -0.50000000000000011 0.32232155613205082 0 -0.47550727969376749 0.32658801119016212 0 -0.4772343114757836 0.29419514961640131 0 -0.48199014942986212 0.35469882767639732 0 -0.50000000000000011 0.32232155613205082 0 -0.47550727969376749 0.32658801119016212 0 -0.50000000000000011 0.32232155613205082 0 -0.47550727969376749 0.32658801119016212 0 -0.47550727969376749 0.32658801119016212 0 -0.45101455938753487 0.33085446624827353 0 -0.45809974609258841 0.30411185106359429 0 -0.45916500237348662 0.35037299353781842 0 -0.47550727969376749 0.32658801119016212 0 -0.45101455938753487 0.33085446624827353 0 -0.47550727969376749 0.32658801119016212 0 -0.45101455938753487 0.33085446624827353 0 -0.42652183908130231 0.33512092130638488 0 -0.45101455938753487 0.33085446624827353 0 -0.42652183908130231 0.33512092130638488 0 -0.44187468073406783 0.34382300181689318 0 -0.45101455938753487 0.33085446624827353 0 -0.44187468073406783 0.34382300181689318 0 -0.45916500237348662 0.35037299353781842 0 -0.45101455938753487 0.33085446624827353 0 -0.45101455938753487 0.33085446624827353 0 -0.44299280547403691 0.30986335546338761 0 -0.45809974609258841 0.30411185106359429 0 -0.43488065317417401 0.32018489005987932 0 -0.45101455938753487 0.33085446624827353 0 -0.44299280547403691 0.30986335546338761 0 -0.44299280547403691 0.30986335546338761 0 -0.44069347271959353 0.28976770987210537 0 -0.43027559599629328 0.30439786007308511 0 -0.44299280547403691 0.30986335546338761 0 -0.44069347271959353 0.28976770987210537 0 -0.45809974609258841 0.30411185106359429 0 -0.44069347271959353 0.28976770987210537 0 -0.45809974609258841 0.30411185106359429 0 -0.46054715982822431 0.27866134943703891 0 -0.45809974609258841 0.30411185106359429 0 -0.4772343114757836 0.29419514961640131 0 -0.46054715982822431 0.27866134943703891 0 -0.47550727969376749 0.32658801119016212 0 -0.45809974609258841 0.30411185106359429 0 -0.4772343114757836 0.29419514961640131 0 -0.4772343114757836 0.29419514961640131 0 -0.5 0.29605042793572878 0 -0.5 0.26977929973940662 0 -0.50000000000000011 0.32232155613205082 0 -0.4772343114757836 0.29419514961640131 0 -0.5 0.29605042793572878 0 -0.5 0.2435081715430846 0 -0.5 0.26977929973940662 0 -0.47850763920777439 0.26540613831084742 0 -0.4772343114757836 0.29419514961640131 0 -0.5 0.26977929973940662 0 -0.47850763920777439 0.26540613831084742 0 -0.4772343114757836 0.29419514961640131 0 -0.47850763920777439 0.26540613831084742 0 -0.46054715982822431 0.27866134943703891 0 -0.4697666247372328 0.246778541961896 0 -0.5 0.2435081715430846 0 -0.47850763920777439 0.26540613831084742 0 -0.4697666247372328 0.246778541961896 0 -0.47850763920777439 0.26540613831084742 0 -0.46070258907804629 0.26034453476876251 0 -0.47850763920777439 0.26540613831084742 0 -0.46070258907804629 0.26034453476876251 0 -0.46054715982822431 0.27866134943703891 0 -0.46070258907804629 0.26034453476876251 0 -0.46054715982822431 0.27866134943703891 0 -0.44203123618809359 0.26563477874830937 0 -0.44069347271959353 0.28976770987210537 0 -0.46054715982822431 0.27866134943703891 0 -0.44203123618809359 0.26563477874830937 0 -0.45227703132625979 0.24254031856665259 0 -0.46070258907804629 0.26034453476876251 0 -0.44203123618809359 0.26563477874830937 0 -0.45227703132625979 0.24254031856665259 0 -0.43492665015400073 0.24765803541183851 0 -0.44203123618809359 0.26563477874830937 0 -0.43492665015400073 0.24765803541183851 0 -0.41834394520908569 0.26410872700775978 0 -0.43492665015400073 0.24765803541183851 0 -0.44203123618809359 0.26563477874830937 0 -0.41834394520908569 0.26410872700775978 0 -0.41169286489136492 0.2420245503970109 0 -0.43492665015400073 0.24765803541183851 0 -0.41834394520908569 0.26410872700775978 0 -0.41169286489136492 0.2420245503970109 0 -0.41834394520908569 0.26410872700775978 0 -0.39748669628250699 0.25861498906765301 0 -0.41834394520908569 0.26410872700775978 0 -0.42782469240482851 0.27668183232996513 0 -0.40176124026416932 0.28055941860367939 0 -0.41834394520908569 0.26410872700775978 0 -0.40176124026416932 0.28055941860367939 0 -0.44069347271959353 0.28976770987210537 0 -0.44203123618809359 0.26563477874830937 0 -0.42782469240482851 0.27668183232996513 0 -0.44203123618809359 0.26563477874830937 0 -0.41834394520908569 0.26410872700775978 0 -0.42782469240482851 0.27668183232996513 0 -0.44069347271959353 0.28976770987210537 0 -0.43027559599629328 0.30439786007308511 0 -0.41980296564647263 0.29023245757927141 0 -0.44069347271959353 0.28976770987210537 0 -0.42782469240482851 0.27668183232996513 0 -0.41980296564647263 0.29023245757927141 0 -0.43488065317417401 0.32018489005987932 0 -0.44299280547403691 0.30986335546338761 0 -0.43027559599629328 0.30439786007308511 0 -0.4101252791312594 0.31732953328990449 0 -0.41980296564647263 0.29023245757927141 0 -0.40691512024385312 0.29260846357746451 0 -0.4101252791312594 0.31732953328990449 0 -0.43027559599629328 0.30439786007308511 0 -0.4101252791312594 0.31732953328990449 0 -0.43027559599629328 0.30439786007308511 0 -0.41980296564647263 0.29023245757927141 0 -0.41980296564647263 0.29023245757927141 0 -0.40691512024385312 0.29260846357746451 0 -0.40176124026416932 0.28055941860367939 0 -0.41980296564647263 0.29023245757927141 0 -0.40176124026416932 0.28055941860367939 0 -0.42782469240482851 0.27668183232996513 0 -0.41980296564647263 0.29023245757927141 0 -0.40176124026416932 0.28055941860367939 0 -0.40691512024385312 0.29260846357746451 0 -0.39381510993370522 0.29297135956710552 0 -0.40176124026416932 0.28055941860367939 0 -0.38074848687336921 0.30140489144791838 0 -0.40176124026416932 0.28055941860367939 0 -0.38458196104345699 0.28823100624759351 0 -0.38674508340967972 0.28116157805821579 0 -0.40176124026416932 0.28055941860367939 0 -0.39381510993370522 0.29297135956710552 0 -0.38074848687336921 0.30140489144791838 0 -0.40176124026416932 0.28055941860367939 0 -0.4101252791312594 0.31732953328990449 0 -0.39381510993370522 0.29297135956710552 0 -0.38999683108418282 0.31235023039345911 0 -0.4101252791312594 0.31732953328990449 0 -0.39381510993370522 0.29297135956710552 0 -0.4101252791312594 0.31732953328990449 0 -0.40691512024385312 0.29260846357746451 0 -0.39381510993370522 0.29297135956710552 0 -0.39381510993370522 0.29297135956710552 0 -0.38999683108418282 0.31235023039345911 0 -0.38074848687336921 0.30140489144791838 0 -0.3776534193888279 0.31828686882629842 0 -0.38999683108418282 0.31235023039345911 0 -0.38074848687336921 0.30140489144791838 0 -0.38074848687336921 0.30140489144791838 0 -0.38458196104345699 0.28823100624759351 0 -0.40176124026416932 0.28055941860367939 0 -0.38074848687336921 0.30140489144791838 0 -0.38458196104345699 0.28823100624759351 0 -0.37333762570022822 0.28578201313007079 0 -0.38458196104345699 0.28823100624759351 0 -0.38674508340967972 0.28116157805821579 0 -0.37333762570022822 0.28578201313007079 0 -0.3789358815528403 0.26832164312666501 0 -0.38674508340967972 0.28116157805821579 0 -0.40176124026416932 0.28055941860367939 0 -0.3789358815528403 0.26832164312666501 0 -0.38674508340967972 0.28116157805821579 0 -0.37333762570022822 0.28578201313007079 0 -0.3789358815528403 0.26832164312666501 0 -0.40176124026416932 0.28055941860367939 0 -0.3789358815528403 0.26832164312666501 0 -0.3808842698206959 0.25160229322625349 0 -0.39748669628250699 0.25861498906765301 0 -0.3789358815528403 0.26832164312666501 0 -0.3808842698206959 0.25160229322625349 0 -0.36720527405187098 0.25503297084541782 0 -0.39252296743933662 0.24234687501346749 0 -0.3808842698206959 0.25160229322625349 0 -0.39748669628250699 0.25861498906765301 0 -0.41834394520908569 0.26410872700775978 0 -0.39748669628250699 0.25861498906765301 0 -0.40176124026416932 0.28055941860367939 0 -0.3789358815528403 0.26832164312666501 0 -0.39748669628250699 0.25861498906765301 0 -0.40176124026416932 0.28055941860367939 0 -0.35358357991886169 0.2746022109346844 0 -0.35057556211364471 0.26587085300820162 0 -0.36157526963521047 0.27028486829581311 0 -0.35358357991886169 0.2746022109346844 0 -0.36361387767196579 0.28088852306980278 0 -0.353239095675425 0.28658574331738268 0 -0.35358357991886169 0.2746022109346844 0 -0.33938925907243778 0.28346298304764472 0 -0.34229072162927499 0.27047418496890252 0 -0.35358357991886169 0.2746022109346844 0 -0.35057556211364471 0.26587085300820162 0 -0.34229072162927499 0.27047418496890252 0 -0.35057556211364471 0.26587085300820162 0 -0.35611052284151062 0.25608386764965202 0 -0.33245751140863478 0.25832428509156391 0 -0.35611052284151062 0.25608386764965202 0 -0.33245751140863478 0.25832428509156391 0 -0.34100729123518558 0.2479862968857878 0 -0.35424623130922589 0.25148204210355629 0 -0.35611052284151062 0.25608386764965202 0 -0.34100729123518558 0.2479862968857878 0 -0.35611052284151062 0.25608386764965202 0 -0.35424623130922589 0.25148204210355629 0 -0.35611052284151062 0.25608386764965202 0 -0.36161226349133518 0.25054371540632331 0 -0.35057556211364471 0.26587085300820162 0 -0.35611052284151062 0.25608386764965202 0 -0.36157526963521047 0.27028486829581311 0 -0.3789358815528403 0.26832164312666501 0 -0.35611052284151062 0.25608386764965202 0 -0.36157526963521047 0.27028486829581311 0 -0.3789358815528403 0.26832164312666501 0 -0.35611052284151062 0.25608386764965202 0 -0.36720527405187098 0.25503297084541782 0 -0.3789358815528403 0.26832164312666501 0 -0.35611052284151062 0.25608386764965202 0 -0.35611052284151062 0.25608386764965202 0 -0.36161226349133518 0.25054371540632331 0 -0.36720527405187098 0.25503297084541782 0 -0.37189546908600152 0.24710649406950619 0 -0.36161226349133518 0.25054371540632331 0 -0.36720527405187098 0.25503297084541782 0 -0.35611052284151062 0.25608386764965202 0 -0.36720527405187098 0.25503297084541782 0 -0.37189546908600152 0.24710649406950619 0 -0.3808842698206959 0.25160229322625349 0 -0.36720527405187098 0.25503297084541782 0 -0.3789358815528403 0.26832164312666501 0 -0.36157526963521047 0.27028486829581311 0 -0.36361387767196579 0.28088852306980278 0 -0.3789358815528403 0.26832164312666501 0 -0.36361387767196579 0.28088852306980278 0 -0.37333762570022822 0.28578201313007079 0 -0.35358357991886169 0.2746022109346844 0 -0.36157526963521047 0.27028486829581311 0 -0.36361387767196579 0.28088852306980278 0 -0.38074848687336921 0.30140489144791838 0 -0.37333762570022822 0.28578201313007079 0 -0.36371088161998399 0.29257441393952582 0 -0.36361387767196579 0.28088852306980278 0 -0.37333762570022822 0.28578201313007079 0 -0.36371088161998399 0.29257441393952582 0 -0.36361387767196579 0.28088852306980278 0 -0.36371088161998399 0.29257441393952582 0 -0.353239095675425 0.28658574331738268 0 -0.38074848687336921 0.30140489144791838 0 -0.36244164012213881 0.30147756949009769 0 -0.35908300639477397 0.31062493190261697 0 -0.38074848687336921 0.30140489144791838 0 -0.36371088161998399 0.29257441393952582 0 -0.36244164012213881 0.30147756949009769 0 -0.38074848687336921 0.30140489144791838 0 -0.35908300639477397 0.31062493190261697 0 -0.3597357334825676 0.3222503642921557 0 -0.38074848687336921 0.30140489144791838 0 -0.3597357334825676 0.3222503642921557 0 -0.35908300639477397 0.31062493190261697 0 -0.3498507314449848 0.30013187745057213 0 -0.34878950318113078 0.31653944924074529 0 -0.3498507314449848 0.30013187745057213 0 -0.33775488379461249 0.31100124704768872 0 -0.34878950318113078 0.31653944924074529 0 -0.36371088161998399 0.29257441393952582 0 -0.36244164012213881 0.30147756949009769 0 -0.3498507314449848 0.30013187745057213 0 -0.36244164012213881 0.30147756949009769 0 -0.35908300639477397 0.31062493190261697 0 -0.3498507314449848 0.30013187745057213 0 -0.3498507314449848 0.30013187745057213 0 -0.353239095675425 0.28658574331738268 0 -0.33938925907243778 0.28346298304764472 0 -0.36371088161998399 0.29257441393952582 0 -0.3498507314449848 0.30013187745057213 0 -0.353239095675425 0.28658574331738268 0 -0.35358357991886169 0.2746022109346844 0 -0.353239095675425 0.28658574331738268 0 -0.33938925907243778 0.28346298304764472 0 -0.3498507314449848 0.30013187745057213 0 -0.33938925907243778 0.28346298304764472 0 -0.33776199486895753 0.29700106148158101 0 -0.33938925907243778 0.28346298304764472 0 -0.32405310516379482 0.29340813838041818 0 -0.32543772467701843 0.27758264407496569 0 -0.33938925907243778 0.28346298304764472 0 -0.33776199486895753 0.29700106148158101 0 -0.32405310516379482 0.29340813838041818 0 -0.33775488379461249 0.31100124704768872 0 -0.33776199486895753 0.29700106148158101 0 -0.32405310516379482 0.29340813838041818 0 -0.33775488379461249 0.31100124704768872 0 -0.32405310516379482 0.29340813838041818 0 -0.3498507314449848 0.30013187745057213 0 -0.33775488379461249 0.31100124704768872 0 -0.33776199486895753 0.29700106148158101 0 -0.30645845521945009 0.2944147547653102 0 -0.32048694059830729 0.31522650644318623 0 -0.33775488379461249 0.31100124704768872 0 -0.32405310516379482 0.29340813838041818 0 -0.32048694059830729 0.31522650644318623 0 -0.32405310516379482 0.29340813838041818 0 -0.30645845521945009 0.2944147547653102 0 -0.32048694059830729 0.31522650644318623 0 -0.32405310516379482 0.29340813838041818 0 -0.31741275079474252 0.2838471535456164 0 -0.30645845521945009 0.2944147547653102 0 -0.32405310516379482 0.29340813838041818 0 -0.31741275079474252 0.2838471535456164 0 -0.32543772467701843 0.27758264407496569 0 -0.3179490163397809 0.27303161846134061 0 -0.31392179065804682 0.26007999185160391 0 -0.30868615514695902 0.27614304648782001 0 -0.31741275079474252 0.2838471535456164 0 -0.3179490163397809 0.27303161846134061 0 -0.32543772467701843 0.27758264407496569 0 -0.31741275079474252 0.2838471535456164 0 -0.3179490163397809 0.27303161846134061 0 -0.30868615514695902 0.27614304648782001 0 -0.3179490163397809 0.27303161846134061 0 -0.32424117514177309 0.26702504947258271 0 -0.31392179065804682 0.26007999185160391 0 -0.32424117514177309 0.26702504947258271 0 -0.32543772467701843 0.27758264407496569 0 -0.33276327838582792 0.27137382933113191 0 -0.3179490163397809 0.27303161846134061 0 -0.32424117514177309 0.26702504947258271 0 -0.32543772467701843 0.27758264407496569 0 -0.33938925907243778 0.28346298304764472 0 -0.32543772467701843 0.27758264407496569 0 -0.33276327838582792 0.27137382933113191 0 -0.33276327838582792 0.27137382933113191 0 -0.34229072162927499 0.27047418496890252 0 -0.33245751140863478 0.25832428509156391 0 -0.33938925907243778 0.28346298304764472 0 -0.33276327838582792 0.27137382933113191 0 -0.34229072162927499 0.27047418496890252 0 -0.35057556211364471 0.26587085300820162 0 -0.34229072162927499 0.27047418496890252 0 -0.33245751140863478 0.25832428509156391 0 -0.34100729123518558 0.2479862968857878 0 -0.35611052284151062 0.25608386764965202 0 -0.33245751140863478 0.25832428509156391 0 -0.32424117514177309 0.26702504947258271 0 -0.33276327838582792 0.27137382933113191 0 -0.33245751140863478 0.25832428509156391 0 -0.32995983150266661 0.2491006168402228 0 -0.34100729123518558 0.2479862968857878 0 -0.33245751140863478 0.25832428509156391 0 -0.33245751140863478 0.25832428509156391 0 -0.32047046373798599 0.2502031592616149 0 -0.31392179065804682 0.26007999185160391 0 -0.32995983150266661 0.2491006168402228 0 -0.33245751140863478 0.25832428509156391 0 -0.32047046373798599 0.2502031592616149 0 -0.32424117514177309 0.26702504947258271 0 -0.33245751140863478 0.25832428509156391 0 -0.31392179065804682 0.26007999185160391 0 -0.33245751140863478 0.25832428509156391 0 -0.31392179065804682 0.26007999185160391 0 -0.32047046373798599 0.2502031592616149 0 -0.31392179065804682 0.26007999185160391 0 -0.30880449997575898 0.26056470253347458 0 -0.31392179065804682 0.26007999185160391 0 -0.30880449997575898 0.26056470253347458 0 -0.292429969840594 0.27360300308743352 0 -0.30600627897915322 0.24313128659167671 0 -0.32047046373798599 0.2502031592616149 0 -0.30880449997575898 0.26056470253347458 0 -0.30880449997575898 0.26056470253347458 0 -0.28515148854288302 0.26280511997538508 0 -0.30600627897915322 0.24313128659167671 0 -0.30880449997575898 0.26056470253347458 0 -0.28515148854288302 0.26280511997538508 0 -0.31392179065804682 0.26007999185160391 0 -0.30880449997575898 0.26056470253347458 0 -0.31392179065804682 0.26007999185160391 0 -0.30868615514695902 0.27614304648782001 0 -0.292429969840594 0.27360300308743352 0 -0.31392179065804682 0.26007999185160391 0 -0.292429969840594 0.27360300308743352 0 -0.30880449997575898 0.26056470253347458 0 -0.292429969840594 0.27360300308743352 0 -0.28515148854288302 0.26280511997538508 0 -0.292429969840594 0.27360300308743352 0 -0.28515148854288302 0.26280511997538508 0 -0.27579643056189268 0.26369123272809669 0 -0.292429969840594 0.27360300308743352 0 -0.28515148854288302 0.26280511997538508 0 -0.30600627897915322 0.24313128659167671 0 -0.28515148854288302 0.26280511997538508 0 -0.28008190405229821 0.25528421300084542 0 -0.28515148854288302 0.26280511997538508 0 -0.28008190405229821 0.25528421300084542 0 -0.27480113641271919 0.24745000839391201 0 -0.28008190405229821 0.25528421300084542 0 -0.27480113641271919 0.24745000839391201 0 -0.28008190405229821 0.25528421300084542 0 -0.26888491437513529 0.25524577252106961 0 -0.28008190405229821 0.25528421300084542 0 -0.26888491437513529 0.25524577252106961 0 -0.2679608402940209 0.26096637105753168 0 -0.2679608402940209 0.26096637105753168 0 -0.27579643056189268 0.26369123272809669 0 -0.27414233473857341 0.26876112726177642 0 -0.28008190405229821 0.25528421300084542 0 -0.2679608402940209 0.26096637105753168 0 -0.28515148854288302 0.26280511997538508 0 -0.27579643056189268 0.26369123272809669 0 -0.28008190405229821 0.25528421300084542 0 -0.2679608402940209 0.26096637105753168 0 -0.27579643056189268 0.26369123272809669 0 -0.28515148854288302 0.26280511997538508 0 -0.28008190405229821 0.25528421300084542 0 -0.27579643056189268 0.26369123272809669 0 -0.292429969840594 0.27360300308743352 0 -0.26945858862880367 0.28751427080601472 0 -0.292429969840594 0.27360300308743352 0 -0.27579643056189268 0.26369123272809669 0 -0.27414233473857341 0.26876112726177642 0 -0.292429969840594 0.27360300308743352 0 -0.26809210667985411 0.27567140986995531 0 -0.26945858862880367 0.28751427080601472 0 -0.292429969840594 0.27360300308743352 0 -0.27414233473857341 0.26876112726177642 0 -0.26809210667985411 0.27567140986995531 0 -0.27414233473857341 0.26876112726177642 0 -0.26809210667985411 0.27567140986995531 0 -0.2651422729171759 0.26868367973889268 0 -0.2679608402940209 0.26096637105753168 0 -0.27414233473857341 0.26876112726177642 0 -0.2651422729171759 0.26868367973889268 0 -0.26809210667985411 0.27567140986995531 0 -0.2651422729171759 0.26868367973889268 0 -0.25651199891513032 0.27291039641710119 0 -0.2651422729171759 0.26868367973889268 0 -0.25651199891513032 0.27291039641710119 0 -0.2591733696187517 0.26541039577412368 0 -0.26809210667985411 0.27567140986995531 0 -0.25651199891513032 0.27291039641710119 0 -0.25442206028344461 0.2837326948675355 0 -0.25651199891513032 0.27291039641710119 0 -0.25442206028344461 0.2837326948675355 0 -0.24276335887523151 0.27777865327294649 0 -0.25651199891513032 0.27291039641710119 0 -0.25072234302956592 0.26721670556117622 0 -0.2591733696187517 0.26541039577412368 0 -0.25651199891513032 0.27291039641710119 0 -0.25072234302956592 0.26721670556117622 0 -0.24276335887523151 0.27777865327294649 0 -0.27480113641271919 0.24745000839391201 0 -0.26888491437513529 0.25524577252106961 0 -0.2526957767415019 0.25728249763198752 0 -0.25072234302956592 0.26721670556117622 0 -0.25087986378790578 0.25674789430394418 0 -0.2526957767415019 0.25728249763198752 0 -0.25072234302956592 0.26721670556117622 0 -0.2526957767415019 0.25728249763198752 0 -0.2591733696187517 0.26541039577412368 0 -0.25072234302956592 0.26721670556117622 0 -0.25087986378790578 0.25674789430394418 0 -0.27480113641271919 0.24745000839391201 0 -0.2526957767415019 0.25728249763198752 0 -0.25115398850404869 0.2385295975885435 0 -0.25087986378790578 0.25674789430394418 0 -0.2526957767415019 0.25728249763198752 0 -0.26888491437513529 0.25524577252106961 0 -0.2679608402940209 0.26096637105753168 0 -0.2526957767415019 0.25728249763198752 0 -0.25087986378790578 0.25674789430394418 0 -0.2526957767415019 0.25728249763198752 0 -0.2679608402940209 0.26096637105753168 0 -0.2651422729171759 0.26868367973889268 0 -0.2591733696187517 0.26541039577412368 0 -0.2679608402940209 0.26096637105753168 0 -0.2526957767415019 0.25728249763198752 0 -0.2679608402940209 0.26096637105753168 0 -0.2526957767415019 0.25728249763198752 0 -0.2591733696187517 0.26541039577412368 0 -0.27492728626202412 0.30527173024187532 0 -0.26524168696868161 0.32324691437506969 0 -0.2464872074170133 0.30142553852459603 0 -0.26945858862880367 0.28751427080601472 0 -0.27492728626202412 0.30527173024187532 0 -0.2464872074170133 0.30142553852459603 0 -0.25442206028344461 0.2837326948675355 0 -0.26945858862880367 0.28751427080601472 0 -0.2464872074170133 0.30142553852459603 0 -0.26945858862880367 0.28751427080601472 0 -0.2464872074170133 0.30142553852459603 0 -0.26809210667985411 0.27567140986995531 0 -0.25442206028344461 0.2837326948675355 0 -0.26945858862880367 0.28751427080601472 0 -0.26945858862880367 0.28751427080601472 0 -0.27492728626202412 0.30527173024187532 0 -0.28829891122441098 0.29416465467179292 0 -0.27492728626202412 0.30527173024187532 0 -0.28829891122441098 0.29416465467179292 0 -0.28707580088896689 0.31641181231034449 0 -0.28829891122441098 0.29416465467179292 0 -0.30398315341818638 0.31124099926727322 0 -0.28707580088896689 0.31641181231034449 0 -0.292429969840594 0.27360300308743352 0 -0.28829891122441098 0.29416465467179292 0 -0.30645845521945009 0.2944147547653102 0 -0.292429969840594 0.27360300308743352 0 -0.26945858862880367 0.28751427080601472 0 -0.28829891122441098 0.29416465467179292 0 -0.30868615514695902 0.27614304648782001 0 -0.292429969840594 0.27360300308743352 0 -0.30645845521945009 0.2944147547653102 0 -0.31741275079474252 0.2838471535456164 0 -0.30868615514695902 0.27614304648782001 0 -0.30645845521945009 0.2944147547653102 0 -0.292429969840594 0.27360300308743352 0 -0.30645845521945009 0.2944147547653102 0 -0.28829891122441098 0.29416465467179292 0 -0.30645845521945009 0.2944147547653102 0 -0.30398315341818638 0.31124099926727322 0 -0.30645845521945009 0.2944147547653102 0 -0.30398315341818638 0.31124099926727322 0 -0.32048694059830729 0.31522650644318623 0 -0.30398315341818638 0.31124099926727322 0 -0.30654785769390291 0.32739671227590023 0 -0.32048694059830729 0.31522650644318623 0 -0.30398315341818638 0.31124099926727322 0 -0.30654785769390291 0.32739671227590023 0 -0.28707580088896689 0.31641181231034449 0 -0.30654785769390291 0.32739671227590023 0 -0.30490191782032611 0.34652374993192903 0 -0.32547824218805749 0.32771264854652982 0 -0.30654785769390291 0.32739671227590023 0 -0.2843969738117052 0.33861995186167188 0 -0.30490191782032611 0.34652374993192903 0 -0.30654785769390291 0.32739671227590023 0 -0.2843969738117052 0.33861995186167188 0 -0.28707580088896689 0.31641181231034449 0 -0.27492728626202412 0.30527173024187532 0 -0.28707580088896689 0.31641181231034449 0 -0.26524168696868161 0.32324691437506969 0 -0.2843969738117052 0.33861995186167188 0 -0.28707580088896689 0.31641181231034449 0 -0.26524168696868161 0.32324691437506969 0 -0.2843969738117052 0.33861995186167188 0 -0.26524168696868161 0.32324691437506969 0 -0.26139407846422352 0.3468715903468983 0 -0.26524168696868161 0.32324691437506969 0 -0.26139407846422352 0.3468715903468983 0 -0.23846256347585101 0.32840832937646591 0 -0.26524168696868161 0.32324691437506969 0 -0.23846256347585101 0.32840832937646591 0 -0.2464872074170133 0.30142553852459603 0 -0.26296197704498619 0.36420681253325943 0 -0.25615429711168258 0.36863696063373019 0 -0.25585680628613311 0.35531502858459979 0 -0.2647156005673143 0.37214377149211852 0 -0.25615429711168258 0.36863696063373019 0 -0.26104067519949731 0.37736947976940138 0 -0.26296197704498619 0.36420681253325943 0 -0.2647156005673143 0.37214377149211852 0 -0.25615429711168258 0.36863696063373019 0 -0.25615429711168258 0.36863696063373019 0 -0.25289352212915839 0.38146390075980963 0 -0.24607872666084529 0.37255635989223079 0 -0.25615429711168258 0.36863696063373019 0 -0.25585680628613311 0.35531502858459979 0 -0.2474112648444885 0.36340222027400892 0 -0.25585680628613311 0.35531502858459979 0 -0.26139407846422352 0.3468715903468983 0 -0.24388941846378159 0.35251212586360942 0 -0.25585680628613311 0.35531502858459979 0 -0.26445420611580328 0.35061554696267672 0 -0.26139407846422352 0.3468715903468983 0 -0.26296197704498619 0.36420681253325943 0 -0.25585680628613311 0.35531502858459979 0 -0.26445420611580328 0.35061554696267672 0 -0.26445420611580328 0.35061554696267672 0 -0.26139407846422352 0.3468715903468983 0 -0.28432559345259628 0.36533485131733018 0 -0.26139407846422352 0.3468715903468983 0 -0.28432559345259628 0.36533485131733018 0 -0.2843969738117052 0.33861995186167188 0 -0.26139407846422352 0.3468715903468983 0 -0.28432559345259628 0.36533485131733018 0 -0.26445420611580328 0.35061554696267672 0 -0.27358869144210168 0.37515064488059469 0 -0.26296197704498619 0.36420681253325943 0 -0.26445420611580328 0.35061554696267672 0 -0.27358869144210168 0.37515064488059469 0 -0.26445420611580328 0.35061554696267672 0 -0.28432559345259628 0.36533485131733018 0 -0.27358869144210168 0.37515064488059469 0 -0.26296197704498619 0.36420681253325943 0 -0.2647156005673143 0.37214377149211852 0 -0.27358869144210168 0.37515064488059469 0 -0.28432559345259628 0.36533485131733018 0 -0.28460827988692228 0.37642418503989622 0 -0.27358869144210168 0.37515064488059469 0 -0.28432559345259628 0.36533485131733018 0 -0.27358869144210168 0.37515064488059469 0 -0.28432559345259628 0.36533485131733018 0 -0.30694480677800168 0.38354666326192688 0 -0.2843969738117052 0.33861995186167188 0 -0.28432559345259628 0.36533485131733018 0 -0.30490191782032611 0.34652374993192903 0 -0.28432559345259628 0.36533485131733018 0 -0.30490191782032611 0.34652374993192903 0 -0.28432559345259628 0.36533485131733018 0 -0.30490191782032611 0.34652374993192903 0 -0.30966730532964021 0.36440478285434419 0 -0.28432559345259628 0.36533485131733018 0 -0.30966730532964021 0.36440478285434419 0 -0.30694480677800168 0.38354666326192688 0 -0.30966730532964021 0.36440478285434419 0 -0.32774435906701249 0.37019833653043249 0 -0.32513348895634608 0.35035906564370539 0 -0.30966730532964021 0.36440478285434419 0 -0.32774435906701249 0.37019833653043249 0 -0.30694480677800168 0.38354666326192688 0 -0.32774435906701249 0.37019833653043249 0 -0.34419641093227732 0.3706995331621617 0 -0.34854391135602258 0.3568500097989375 0 -0.32774435906701249 0.37019833653043249 0 -0.34854391135602258 0.3568500097989375 0 -0.32774435906701249 0.37019833653043249 0 -0.32513348895634608 0.35035906564370539 0 -0.34854391135602258 0.3568500097989375 0 -0.33451542597716438 0.33603825812106219 0 -0.34617791789969371 0.34187181845706588 0 -0.34854391135602258 0.3568500097989375 0 -0.32513348895634608 0.35035906564370539 0 -0.33451542597716438 0.33603825812106219 0 -0.34854391135602258 0.3568500097989375 0 -0.33451542597716438 0.33603825812106219 0 -0.34854391135602258 0.3568500097989375 0 -0.30490191782032611 0.34652374993192903 0 -0.30966730532964021 0.36440478285434419 0 -0.32513348895634608 0.35035906564370539 0 -0.30490191782032611 0.34652374993192903 0 -0.32547824218805749 0.32771264854652982 0 -0.30490191782032611 0.34652374993192903 0 -0.32513348895634608 0.35035906564370539 0 -0.32547824218805749 0.32771264854652982 0 -0.32048694059830729 0.31522650644318623 0 -0.33451542597716438 0.33603825812106219 0 -0.32048694059830729 0.31522650644318623 0 -0.32547824218805749 0.32771264854652982 0 -0.33451542597716438 0.33603825812106219 0 -0.30654785769390291 0.32739671227590023 0 -0.32048694059830729 0.31522650644318623 0 -0.32547824218805749 0.32771264854652982 0 -0.33775488379461249 0.31100124704768872 0 -0.33787842824590653 0.3237453090814153 0 -0.34956945429146852 0.32881938932840632 0 -0.32048694059830729 0.31522650644318623 0 -0.33787842824590653 0.3237453090814153 0 -0.33451542597716438 0.33603825812106219 0 -0.33775488379461249 0.31100124704768872 0 -0.32048694059830729 0.31522650644318623 0 -0.33787842824590653 0.3237453090814153 0 -0.32513348895634608 0.35035906564370539 0 -0.32547824218805749 0.32771264854652982 0 -0.33451542597716438 0.33603825812106219 0 -0.33787842824590653 0.3237453090814153 0 -0.33451542597716438 0.33603825812106219 0 -0.3420353066035583 0.33261869374698738 0 -0.33787842824590653 0.3237453090814153 0 -0.3420353066035583 0.33261869374698738 0 -0.34956945429146852 0.32881938932840632 0 -0.33451542597716438 0.33603825812106219 0 -0.3420353066035583 0.33261869374698738 0 -0.34617791789969371 0.34187181845706588 0 -0.34956945429146852 0.32881938932840632 0 -0.35145666242543022 0.32859435571495932 0 -0.35440849878261499 0.3530863504649347 0 -0.35145666242543022 0.32859435571495932 0 -0.36515844105624451 0.34618746438223252 0 -0.34617791789969371 0.34187181845706588 0 -0.34956945429146852 0.32881938932840632 0 -0.35440849878261499 0.3530863504649347 0 -0.35145666242543022 0.32859435571495932 0 -0.36515844105624451 0.34618746438223252 0 -0.35440849878261499 0.3530863504649347 0 -0.34956945429146852 0.32881938932840632 0 -0.35440849878261499 0.3530863504649347 0 -0.3420353066035583 0.33261869374698738 0 -0.34617791789969371 0.34187181845706588 0 -0.34956945429146852 0.32881938932840632 0 -0.35145666242543022 0.32859435571495932 0 -0.35615232041368949 0.32614811403653271 0 -0.36235304529568968 0.33424021859381647 0 -0.33775488379461249 0.31100124704768872 0 -0.35145666242543022 0.32859435571495932 0 -0.34878950318113078 0.31653944924074529 0 -0.33775488379461249 0.31100124704768872 0 -0.35145666242543022 0.32859435571495932 0 -0.33775488379461249 0.31100124704768872 0 -0.34956945429146852 0.32881938932840632 0 -0.35145666242543022 0.32859435571495932 0 -0.35145666242543022 0.32859435571495932 0 -0.34878950318113078 0.31653944924074529 0 -0.35370144104691131 0.32153946410907791 0 -0.35145666242543022 0.32859435571495932 0 -0.35615232041368949 0.32614811403653271 0 -0.35370144104691131 0.32153946410907791 0 -0.35615232041368949 0.32614811403653271 0 -0.35370144104691131 0.32153946410907791 0 -0.3597357334825676 0.3222503642921557 0 -0.35908300639477397 0.31062493190261697 0 -0.35370144104691131 0.32153946410907791 0 -0.3597357334825676 0.3222503642921557 0 -0.35908300639477397 0.31062493190261697 0 -0.34878950318113078 0.31653944924074529 0 -0.35370144104691131 0.32153946410907791 0 -0.3776534193888279 0.31828686882629842 0 -0.3597357334825676 0.3222503642921557 0 -0.37050849986341639 0.33054468298611428 0 -0.3776534193888279 0.31828686882629842 0 -0.38074848687336921 0.30140489144791838 0 -0.3597357334825676 0.3222503642921557 0 -0.35615232041368949 0.32614811403653271 0 -0.3597357334825676 0.3222503642921557 0 -0.36235304529568968 0.33424021859381647 0 -0.36235304529568968 0.33424021859381647 0 -0.37050849986341639 0.33054468298611428 0 -0.36515844105624451 0.34618746438223252 0 -0.38764186009375212 0.33175849883606862 0 -0.37050849986341639 0.33054468298611428 0 -0.36515844105624451 0.34618746438223252 0 -0.35145666242543022 0.32859435571495932 0 -0.36235304529568968 0.33424021859381647 0 -0.36515844105624451 0.34618746438223252 0 -0.3597357334825676 0.3222503642921557 0 -0.36235304529568968 0.33424021859381647 0 -0.37050849986341639 0.33054468298611428 0 -0.38077597659593188 0.366240408402697 0 -0.36515844105624451 0.34618746438223252 0 -0.36670577824171779 0.36106282429627651 0 -0.38077597659593188 0.366240408402697 0 -0.36515844105624451 0.34618746438223252 0 -0.36515844105624451 0.34618746438223252 0 -0.35440849878261499 0.3530863504649347 0 -0.36515844105624451 0.34618746438223252 0 -0.36670577824171779 0.36106282429627651 0 -0.35440849878261499 0.3530863504649347 0 -0.36670577824171779 0.36106282429627651 0 -0.35793808199708921 0.37078659249632262 0 -0.35440849878261499 0.3530863504649347 0 -0.3755985784824929 0.37579787132911568 0 -0.36670577824171779 0.36106282429627651 0 -0.35793808199708921 0.37078659249632262 0 -0.3755985784824929 0.37579787132911568 0 -0.38077597659593188 0.366240408402697 0 -0.36670577824171779 0.36106282429627651 0 -0.35793808199708921 0.37078659249632262 0 -0.35440849878261499 0.3530863504649347 0 -0.35793808199708921 0.37078659249632262 0 -0.34854391135602258 0.3568500097989375 0 -0.35440849878261499 0.3530863504649347 0 -0.35793808199708921 0.37078659249632262 0 -0.34854391135602258 0.3568500097989375 0 -0.35793808199708921 0.37078659249632262 0 -0.34419641093227732 0.3706995331621617 0 -0.34854391135602258 0.3568500097989375 0 -0.34854391135602258 0.3568500097989375 0 -0.35440849878261499 0.3530863504649347 0 -0.34617791789969371 0.34187181845706588 0 -0.34854391135602258 0.3568500097989375 0 -0.35440849878261499 0.3530863504649347 0 -0.34782678405348078 0.40098973435460239 0 -0.36219946973837741 0.39215670614061832 0 -0.36646085747966572 0.41352681978491379 0 -0.34782678405348078 0.40098973435460239 0 -0.36219946973837741 0.39215670614061832 0 -0.34255929130898521 0.38496319382295419 0 -0.35793808199708921 0.37078659249632262 0 -0.36219946973837741 0.39215670614061832 0 -0.34255929130898521 0.38496319382295419 0 -0.35793808199708921 0.37078659249632262 0 -0.34419641093227732 0.3706995331621617 0 -0.34255929130898521 0.38496319382295419 0 -0.35793808199708921 0.37078659249632262 0 -0.37099329502380768 0.39015446039340368 0 -0.36219946973837741 0.39215670614061832 0 -0.35793808199708921 0.37078659249632262 0 -0.37099329502380768 0.39015446039340368 0 -0.3755985784824929 0.37579787132911568 0 -0.35793808199708921 0.37078659249632262 0 -0.37099329502380768 0.39015446039340368 0 -0.35793808199708921 0.37078659249632262 0 -0.36219946973837741 0.39215670614061832 0 -0.36219946973837741 0.39215670614061832 0 -0.36646085747966572 0.41352681978491379 0 -0.36219946973837741 0.39215670614061832 0 -0.37364309642708898 0.40193696225851211 0 -0.36646085747966572 0.41352681978491379 0 -0.37099329502380768 0.39015446039340368 0 -0.36219946973837741 0.39215670614061832 0 -0.37364309642708898 0.40193696225851211 0 -0.37936565408481532 0.41584650053120742 0 -0.37364309642708898 0.40193696225851211 0 -0.36646085747966572 0.41352681978491379 0 -0.37936565408481532 0.41584650053120742 0 -0.36646085747966572 0.41352681978491379 0 -0.37072224522095798 0.43489693342920849 0 -0.37072224522095798 0.43489693342920849 0 -0.34946309907330803 0.41778017670677892 0 -0.36646085747966572 0.41352681978491379 0 -0.37072224522095798 0.43489693342920849 0 -0.36646085747966572 0.41352681978491379 0 -0.37072224522095798 0.43489693342920849 0 -0.34946309907330803 0.41778017670677892 0 -0.37072224522095798 0.43489693342920849 0 -0.37164114564722589 0.43950505823018959 0 -0.35145440997051791 0.43728563466036707 0 -0.34946309907330803 0.41778017670677892 0 -0.33403334625613679 0.42373634277696248 0 -0.37072224522095798 0.43489693342920849 0 -0.35145440997051791 0.43728563466036707 0 -0.34946309907330803 0.41778017670677892 0 -0.34782678405348078 0.40098973435460239 0 -0.36646085747966572 0.41352681978491379 0 -0.34946309907330803 0.41778017670677892 0 -0.34946309907330803 0.41778017670677892 0 -0.33403334625613679 0.42373634277696248 0 -0.32820395292565568 0.40066341998435168 0 -0.34782678405348078 0.40098973435460239 0 -0.34946309907330803 0.41778017670677892 0 -0.32820395292565568 0.40066341998435168 0 -0.34946309907330803 0.41778017670677892 0 -0.32820395292565568 0.40066341998435168 0 -0.33403334625613679 0.42373634277696248 0 -0.31964378236115232 0.42998280595358063 0 -0.33506809943550198 0.44028546021875942 0 -0.35145440997051791 0.43728563466036707 0 -0.33403334625613679 0.42373634277696248 0 -0.33506809943550198 0.44028546021875942 0 -0.33403334625613679 0.42373634277696248 0 -0.31964378236115232 0.42998280595358063 0 -0.32036673377068492 0.41642055913793752 0 -0.31964378236115232 0.42998280595358063 0 -0.32036673377068492 0.41642055913793752 0 -0.30871397076874102 0.42103250421748978 0 -0.32036673377068492 0.41642055913793752 0 -0.32820395292565568 0.40066341998435168 0 -0.30998625587686579 0.40779085146619642 0 -0.33403334625613679 0.42373634277696248 0 -0.32036673377068492 0.41642055913793752 0 -0.32820395292565568 0.40066341998435168 0 -0.32036673377068492 0.41642055913793752 0 -0.30871397076874102 0.42103250421748978 0 -0.30998625587686579 0.40779085146619642 0 -0.32820395292565568 0.40066341998435168 0 -0.30694480677800168 0.38354666326192688 0 -0.32820395292565568 0.40066341998435168 0 -0.30694480677800168 0.38354666326192688 0 -0.30608915915933088 0.39722578724017438 0 -0.32820395292565568 0.40066341998435168 0 -0.30608915915933088 0.39722578724017438 0 -0.30998625587686579 0.40779085146619642 0 -0.34782678405348078 0.40098973435460239 0 -0.32820395292565568 0.40066341998435168 0 -0.34255929130898521 0.38496319382295419 0 -0.32774435906701249 0.37019833653043249 0 -0.34419641093227732 0.3706995331621617 0 -0.34255929130898521 0.38496319382295419 0 -0.32774435906701249 0.37019833653043249 0 -0.32820395292565568 0.40066341998435168 0 -0.34255929130898521 0.38496319382295419 0 -0.32774435906701249 0.37019833653043249 0 -0.32820395292565568 0.40066341998435168 0 -0.30694480677800168 0.38354666326192688 0 -0.32774435906701249 0.37019833653043249 0 -0.30694480677800168 0.38354666326192688 0 -0.30694480677800168 0.38354666326192688 0 -0.29050150651510459 0.39409932042509022 0 -0.30694480677800168 0.38354666326192688 0 -0.30608915915933088 0.39722578724017438 0 -0.29050150651510459 0.39409932042509022 0 -0.30608915915933088 0.39722578724017438 0 -0.29764276246340271 0.40471390008320302 0 -0.29050150651510459 0.39409932042509022 0 -0.30608915915933088 0.39722578724017438 0 -0.29764276246340271 0.40471390008320302 0 -0.30998625587686579 0.40779085146619642 0 -0.29050150651510459 0.39409932042509022 0 -0.28254449750804778 0.39920581284165108 0 -0.29366450533654997 0.42153529095887948 0 -0.29050150651510459 0.39409932042509022 0 -0.28254449750804778 0.39920581284165108 0 -0.28960554850922549 0.38632774704288891 0 -0.29050150651510459 0.39409932042509022 0 -0.28254449750804778 0.39920581284165108 0 -0.28432559345259628 0.36533485131733018 0 -0.30694480677800168 0.38354666326192688 0 -0.28460827988692228 0.37642418503989622 0 -0.30694480677800168 0.38354666326192688 0 -0.29050150651510459 0.39409932042509022 0 -0.28960554850922549 0.38632774704288891 0 -0.28254449750804778 0.39920581284165108 0 -0.28960554850922549 0.38632774704288891 0 -0.27358869144210168 0.37515064488059469 0 -0.30694480677800168 0.38354666326192688 0 -0.28960554850922549 0.38632774704288891 0 -0.28460827988692228 0.37642418503989622 0 -0.28960554850922549 0.38632774704288891 0 -0.28460827988692228 0.37642418503989622 0 -0.27358869144210168 0.37515064488059469 0 -0.29050150651510459 0.39409932042509022 0 -0.28960554850922549 0.38632774704288891 0 -0.28254449750804778 0.39920581284165108 0 -0.27358869144210168 0.37515064488059469 0 -0.28254449750804778 0.39920581284165108 0 -0.27358869144210168 0.37515064488059469 0 -0.27080432087897233 0.38804367828142478 0 -0.2647156005673143 0.37214377149211852 0 -0.27358869144210168 0.37515064488059469 0 -0.26905999210271991 0.37929083148023418 0 -0.27358869144210168 0.37515064488059469 0 -0.26905999210271991 0.37929083148023418 0 -0.27080432087897233 0.38804367828142478 0 -0.27358869144210168 0.37515064488059469 0 -0.26905999210271991 0.37929083148023418 0 -0.26905999210271991 0.37929083148023418 0 -0.27080432087897233 0.38804367828142478 0 -0.26237996408661152 0.3853119344811145 0 -0.27080432087897233 0.38804367828142478 0 -0.26455128446569259 0.39558375919094618 0 -0.26237996408661152 0.3853119344811145 0 -0.28254449750804778 0.39920581284165108 0 -0.27080432087897233 0.38804367828142478 0 -0.27249833439072829 0.39763609219355323 0 -0.28254449750804778 0.39920581284165108 0 -0.27022957162352451 0.40710904326202962 0 -0.28254449750804778 0.39920581284165108 0 -0.27249833439072829 0.39763609219355323 0 -0.27022957162352451 0.40710904326202962 0 -0.27249833439072829 0.39763609219355323 0 -0.26455128446569259 0.39558375919094618 0 -0.27022957162352451 0.40710904326202962 0 -0.27080432087897233 0.38804367828142478 0 -0.27249833439072829 0.39763609219355323 0 -0.26455128446569259 0.39558375919094618 0 -0.26455128446569259 0.39558375919094618 0 -0.25570137623854589 0.39116782499720421 0 -0.26237996408661152 0.3853119344811145 0 -0.26455128446569259 0.39558375919094618 0 -0.25436400799410419 0.40431224891114392 0 -0.25570137623854589 0.39116782499720421 0 -0.26455128446569259 0.39558375919094618 0 -0.25436400799410419 0.40431224891114392 0 -0.27022957162352451 0.40710904326202962 0 -0.25436400799410419 0.40431224891114392 0 -0.25570137623854589 0.39116782499720421 0 -0.2459783912314211 0.39337372541214283 0 -0.25570137623854589 0.39116782499720421 0 -0.25289352212915839 0.38146390075980963 0 -0.2459783912314211 0.39337372541214283 0 -0.25570137623854589 0.39116782499720421 0 -0.25289352212915839 0.38146390075980963 0 -0.26237996408661152 0.3853119344811145 0 -0.25615429711168258 0.36863696063373019 0 -0.25289352212915839 0.38146390075980963 0 -0.26104067519949731 0.37736947976940138 0 -0.26905999210271991 0.37929083148023418 0 -0.26104067519949731 0.37736947976940138 0 -0.26237996408661152 0.3853119344811145 0 -0.2647156005673143 0.37214377149211852 0 -0.26905999210271991 0.37929083148023418 0 -0.26104067519949731 0.37736947976940138 0 -0.25289352212915839 0.38146390075980963 0 -0.26104067519949731 0.37736947976940138 0 -0.26237996408661152 0.3853119344811145 0 -0.26107361888621949 0.43128794427999267 0 -0.24854104391270471 0.41962470789505241 0 -0.24727883585019819 0.43734184407656129 0 -0.26107361888621949 0.43128794427999267 0 -0.26355077835852808 0.4174112163347381 0 -0.24854104391270471 0.41962470789505241 0 -0.25436400799410419 0.40431224891114392 0 -0.26355077835852808 0.4174112163347381 0 -0.27022957162352451 0.40710904326202962 0 -0.25436400799410419 0.40431224891114392 0 -0.26355077835852808 0.4174112163347381 0 -0.24854104391270471 0.41962470789505241 0 -0.26355077835852808 0.4174112163347381 0 -0.27373500722198152 0.41759813447425831 0 -0.27298221671628747 0.42623882659893098 0 -0.26355077835852808 0.4174112163347381 0 -0.27022957162352451 0.40710904326202962 0 -0.27373500722198152 0.41759813447425831 0 -0.28254449750804778 0.39920581284165108 0 -0.27022957162352451 0.40710904326202962 0 -0.28013166070318768 0.4141272085816935 0 -0.27022957162352451 0.40710904326202962 0 -0.27373500722198152 0.41759813447425831 0 -0.28013166070318768 0.4141272085816935 0 -0.27373500722198152 0.41759813447425831 0 -0.28013166070318768 0.4141272085816935 0 -0.28178080870837952 0.42310437759389857 0 -0.27298221671628747 0.42623882659893098 0 -0.28098914923009233 0.43014364374613301 0 -0.28178080870837952 0.42310437759389857 0 -0.27373500722198152 0.41759813447425831 0 -0.27298221671628747 0.42623882659893098 0 -0.28178080870837952 0.42310437759389857 0 -0.26107361888621949 0.43128794427999267 0 -0.26355077835852808 0.4174112163347381 0 -0.27298221671628747 0.42623882659893098 0 -0.26107361888621949 0.43128794427999267 0 -0.27298221671628747 0.42623882659893098 0 -0.27286236580827911 0.4392681897926195 0 -0.28098914923009233 0.43014364374613301 0 -0.28558094308081239 0.43820360254313812 0 -0.27286236580827911 0.4392681897926195 0 -0.27298221671628747 0.42623882659893098 0 -0.28098914923009233 0.43014364374613301 0 -0.27286236580827911 0.4392681897926195 0 -0.29173941183670288 0.42390322220207749 0 -0.29366450533654997 0.42153529095887948 0 -0.29682750415799902 0.44897126149266842 0 -0.29366450533654997 0.42153529095887948 0 -0.29682750415799902 0.44897126149266842 0 -0.29173941183670288 0.42390322220207749 0 -0.29682750415799902 0.44897126149266842 0 -0.28558094308081239 0.43820360254313812 0 -0.28098914923009233 0.43014364374613301 0 -0.29173941183670288 0.42390322220207749 0 -0.28558094308081239 0.43820360254313812 0 -0.28098914923009233 0.43014364374613301 0 -0.28178080870837952 0.42310437759389857 0 -0.29173941183670288 0.42390322220207749 0 -0.28254449750804778 0.39920581284165108 0 -0.28013166070318768 0.4141272085816935 0 -0.29173941183670288 0.42390322220207749 0 -0.29050150651510459 0.39409932042509022 0 -0.29366450533654997 0.42153529095887948 0 -0.28254449750804778 0.39920581284165108 0 -0.29173941183670288 0.42390322220207749 0 -0.29764276246340271 0.40471390008320302 0 -0.29366450533654997 0.42153529095887948 0 -0.29883358220712708 0.41550436914647743 0 -0.28254449750804778 0.39920581284165108 0 -0.29173941183670288 0.42390322220207749 0 -0.29366450533654997 0.42153529095887948 0 -0.29764276246340271 0.40471390008320302 0 -0.29050150651510459 0.39409932042509022 0 -0.29366450533654997 0.42153529095887948 0 -0.28013166070318768 0.4141272085816935 0 -0.28178080870837952 0.42310437759389857 0 -0.29173941183670288 0.42390322220207749 0 -0.29764276246340271 0.40471390008320302 0 -0.30283182427430949 0.41430483419071717 0 -0.29883358220712708 0.41550436914647743 0 -0.29764276246340271 0.40471390008320302 0 -0.30283182427430949 0.41430483419071717 0 -0.30998625587686579 0.40779085146619642 0 -0.30283182427430949 0.41430483419071717 0 -0.29883358220712708 0.41550436914647743 0 -0.30119523675424631 0.4214634513531097 0 -0.29366450533654997 0.42153529095887948 0 -0.29883358220712708 0.41550436914647743 0 -0.30119523675424631 0.4214634513531097 0 -0.30283182427430949 0.41430483419071717 0 -0.30119523675424631 0.4214634513531097 0 -0.30871397076874102 0.42103250421748978 0 -0.30283182427430949 0.41430483419071717 0 -0.30871397076874102 0.42103250421748978 0 -0.30998625587686579 0.40779085146619642 0 -0.31964378236115232 0.42998280595358063 0 -0.30871397076874102 0.42103250421748978 0 -0.30324426424688328 0.43373749351201779 0 -0.29366450533654997 0.42153529095887948 0 -0.30324426424688328 0.43373749351201779 0 -0.29682750415799902 0.44897126149266842 0 -0.29366450533654997 0.42153529095887948 0 -0.30119523675424631 0.4214634513531097 0 -0.30324426424688328 0.43373749351201779 0 -0.30119523675424631 0.4214634513531097 0 -0.30871397076874102 0.42103250421748978 0 -0.30324426424688328 0.43373749351201779 0 -0.30324426424688328 0.43373749351201779 0 -0.29682750415799902 0.44897126149266842 0 -0.3188763822421733 0.45067952885904772 0 -0.30910481895866532 0.46421427362097839 0 -0.29682750415799902 0.44897126149266842 0 -0.3188763822421733 0.45067952885904772 0 -0.29682750415799902 0.44897126149266842 0 -0.29999050297944801 0.47640723202645707 0 -0.30910481895866532 0.46421427362097839 0 -0.29682750415799902 0.44897126149266842 0 -0.29999050297944801 0.47640723202645707 0 -0.29682750415799902 0.44897126149266842 0 -0.27699652009337672 0.4564162269929708 0 -0.28762086667187359 0.47021143938726812 0 -0.29682750415799902 0.44897126149266842 0 -0.28762086667187359 0.47021143938726812 0 -0.29999050297944801 0.47640723202645707 0 -0.29682750415799902 0.44897126149266842 0 -0.28558094308081239 0.43820360254313812 0 -0.27699652009337672 0.4564162269929708 0 -0.28558094308081239 0.43820360254313812 0 -0.27286236580827911 0.4392681897926195 0 -0.27699652009337672 0.4564162269929708 0 -0.27286236580827911 0.4392681897926195 0 -0.27699652009337672 0.4564162269929708 0 -0.26122647267132021 0.44784288098205421 0 -0.27699652009337672 0.4564162269929708 0 -0.26147609420917173 0.46344535453163788 0 -0.27404815881938488 0.48109201654027223 0 -0.27699652009337672 0.4564162269929708 0 -0.26147609420917173 0.46344535453163788 0 -0.26122647267132021 0.44784288098205421 0 -0.26147609420917173 0.46344535453163788 0 -0.2478972671455244 0.47584603332476649 0 -0.24721205231625229 0.45602961481812587 0 -0.26147609420917173 0.46344535453163788 0 -0.26122647267132021 0.44784288098205421 0 -0.24721205231625229 0.45602961481812587 0 -0.26107361888621949 0.43128794427999267 0 -0.26122647267132021 0.44784288098205421 0 -0.24727883585019819 0.43734184407656129 0 -0.26122647267132021 0.44784288098205421 0 -0.24721205231625229 0.45602961481812587 0 -0.24727883585019819 0.43734184407656129 0 -0.26107361888621949 0.43128794427999267 0 -0.27286236580827911 0.4392681897926195 0 -0.26122647267132021 0.44784288098205421 0 -0.2605610192575718 0.48923451246625971 0 -0.27487482085338788 0.5 0 -0.24542383021198999 0.5 0 -0.2605610192575718 0.48923451246625971 0 -0.2478972671455244 0.47584603332476649 0 -0.24542383021198999 0.5 0 -0.27404815881938488 0.48109201654027223 0 -0.2478972671455244 0.47584603332476649 0 -0.26147609420917173 0.46344535453163788 0 -0.27404815881938488 0.48109201654027223 0 -0.2478972671455244 0.47584603332476649 0 -0.2605610192575718 0.48923451246625971 0 -0.27404815881938488 0.48109201654027223 0 -0.2478972671455244 0.47584603332476649 0 -0.27699652009337672 0.4564162269929708 0 -0.27404815881938488 0.48109201654027223 0 -0.28762086667187359 0.47021143938726812 0 -0.2605610192575718 0.48923451246625971 0 -0.27404815881938488 0.48109201654027223 0 -0.27487482085338788 0.5 0 -0.27404815881938488 0.48109201654027223 0 -0.27487482085338788 0.5 0 -0.2858531867696768 0.49004796026952913 0 -0.27487482085338788 0.5 0 -0.2858531867696768 0.49004796026952913 0 -0.30432581149478588 0.5 0 -0.27404815881938488 0.48109201654027223 0 -0.2858531867696768 0.49004796026952913 0 -0.30019905049324541 0.48633799975577791 0 -0.2858531867696768 0.49004796026952913 0 -0.30432581149478588 0.5 0 -0.30019905049324541 0.48633799975577791 0 -0.27404815881938488 0.48109201654027223 0 -0.28762086667187359 0.47021143938726812 0 -0.30019905049324541 0.48633799975577791 0 -0.28762086667187359 0.47021143938726812 0 -0.29999050297944801 0.47640723202645707 0 -0.30019905049324541 0.48633799975577791 0 -0.27404815881938488 0.48109201654027223 0 -0.30019905049324541 0.48633799975577791 0 -0.29999050297944801 0.47640723202645707 0 -0.30616369423860912 0.47997283575215538 0 -0.30019905049324541 0.48633799975577791 0 -0.29999050297944801 0.47640723202645707 0 -0.30616369423860912 0.47997283575215538 0 -0.31002987481414751 0.47445907367824341 0 -0.30616369423860912 0.47997283575215538 0 -0.30019905049324541 0.48633799975577791 0 -0.3144353486675957 0.48268703754814352 0 -0.30616369423860912 0.47997283575215538 0 -0.31002987481414751 0.47445907367824341 0 -0.3144353486675957 0.48268703754814352 0 -0.30910481895866532 0.46421427362097839 0 -0.29999050297944801 0.47640723202645707 0 -0.31002987481414751 0.47445907367824341 0 -0.30432581149478588 0.5 0 -0.30019905049324541 0.48633799975577791 0 -0.32634994216710589 0.49158398297128347 0 -0.30019905049324541 0.48633799975577791 0 -0.32634994216710589 0.49158398297128347 0 -0.30432581149478588 0.5 0 -0.32634994216710589 0.49158398297128347 0 -0.33377680213618388 0.5 0 -0.30019905049324541 0.48633799975577791 0 -0.32634994216710589 0.49158398297128347 0 -0.3144353486675957 0.48268703754814352 0 -0.32634994216710589 0.49158398297128347 0 -0.32396816518856503 0.48228657081810689 0 -0.3144353486675957 0.48268703754814352 0 -0.32634994216710589 0.49158398297128347 0 -0.33377680213618388 0.5 0 -0.34099394168778308 0.49045091956362741 0 -0.32634994216710589 0.49158398297128347 0 -0.34099394168778308 0.49045091956362741 0 -0.3330676988181252 0.47855265489839732 0 -0.3330676988181252 0.47855265489839732 0 -0.34582473644989392 0.46703921894786199 0 -0.34854747253991902 0.48211795994845619 0 -0.3330676988181252 0.47855265489839732 0 -0.33064222503293961 0.46431200326484001 0 -0.34582473644989392 0.46703921894786199 0 -0.34099394168778308 0.49045091956362741 0 -0.3330676988181252 0.47855265489839732 0 -0.34854747253991902 0.48211795994845619 0 -0.3330676988181252 0.47855265489839732 0 -0.31972576108535028 0.47129236851419842 0 -0.33064222503293961 0.46431200326484001 0 -0.3330676988181252 0.47855265489839732 0 -0.32396816518856503 0.48228657081810689 0 -0.31972576108535028 0.47129236851419842 0 -0.32634994216710589 0.49158398297128347 0 -0.3330676988181252 0.47855265489839732 0 -0.32396816518856503 0.48228657081810689 0 -0.32396816518856503 0.48228657081810689 0 -0.3144353486675957 0.48268703754814352 0 -0.31972576108535028 0.47129236851419842 0 -0.30910481895866532 0.46421427362097839 0 -0.31002987481414751 0.47445907367824341 0 -0.31972576108535028 0.47129236851419842 0 -0.31002987481414751 0.47445907367824341 0 -0.3144353486675957 0.48268703754814352 0 -0.31972576108535028 0.47129236851419842 0 -0.31972576108535028 0.47129236851419842 0 -0.3188763822421733 0.45067952885904772 0 -0.33064222503293961 0.46431200326484001 0 -0.30910481895866532 0.46421427362097839 0 -0.31972576108535028 0.47129236851419842 0 -0.3188763822421733 0.45067952885904772 0 -0.31964378236115232 0.42998280595358063 0 -0.30324426424688328 0.43373749351201779 0 -0.3188763822421733 0.45067952885904772 0 -0.31964378236115232 0.42998280595358063 0 -0.3188763822421733 0.45067952885904772 0 -0.33506809943550198 0.44028546021875942 0 -0.3188763822421733 0.45067952885904772 0 -0.33506809943550198 0.44028546021875942 0 -0.33571654656915523 0.45399624510469411 0 -0.33506809943550198 0.44028546021875942 0 -0.33571654656915523 0.45399624510469411 0 -0.34810264812480768 0.45259203841359108 0 -0.3188763822421733 0.45067952885904772 0 -0.33064222503293961 0.46431200326484001 0 -0.33571654656915523 0.45399624510469411 0 -0.33571654656915523 0.45399624510469411 0 -0.34582473644989392 0.46703921894786199 0 -0.34810264812480768 0.45259203841359108 0 -0.33064222503293961 0.46431200326484001 0 -0.33571654656915523 0.45399624510469411 0 -0.34582473644989392 0.46703921894786199 0 -0.34582473644989392 0.46703921894786199 0 -0.35879097492700451 0.45996424019837562 0 -0.3633047619024331 0.47480876337670469 0 -0.34582473644989392 0.46703921894786199 0 -0.35879097492700451 0.45996424019837562 0 -0.34810264812480768 0.45259203841359108 0 -0.35879097492700451 0.45996424019837562 0 -0.34810264812480768 0.45259203841359108 0 -0.3589555025833876 0.45153194667685831 0 -0.35145440997051791 0.43728563466036707 0 -0.33506809943550198 0.44028546021875942 0 -0.34810264812480768 0.45259203841359108 0 -0.35145440997051791 0.43728563466036707 0 -0.34810264812480768 0.45259203841359108 0 -0.3589555025833876 0.45153194667685831 0 -0.35145440997051791 0.43728563466036707 0 -0.3589555025833876 0.45153194667685831 0 -0.36374528312501431 0.4430647231370346 0 -0.37072224522095798 0.43489693342920849 0 -0.35145440997051791 0.43728563466036707 0 -0.36374528312501431 0.4430647231370346 0 -0.36374528312501431 0.4430647231370346 0 -0.36674225804357968 0.45106203235873937 0 -0.36862913830009858 0.44461720854489262 0 -0.3589555025833876 0.45153194667685831 0 -0.36374528312501431 0.4430647231370346 0 -0.36674225804357968 0.45106203235873937 0 -0.36674225804357968 0.45106203235873937 0 -0.37344320806865833 0.45221978757831571 0 -0.37378601693697477 0.44541067362674269 0 -0.36674225804357968 0.45106203235873937 0 -0.37378601693697477 0.44541067362674269 0 -0.36862913830009858 0.44461720854489262 0 -0.37072224522095798 0.43489693342920849 0 -0.36374528312501431 0.4430647231370346 0 -0.37164114564722589 0.43950505823018959 0 -0.36374528312501431 0.4430647231370346 0 -0.36862913830009858 0.44461720854489262 0 -0.37164114564722589 0.43950505823018959 0 -0.37378601693697477 0.44541067362674269 0 -0.36862913830009858 0.44461720854489262 0 -0.37164114564722589 0.43950505823018959 0 -0.37990903276478899 0.46812587243661352 0 -0.37015070789911669 0.4605010226726215 0 -0.3633047619024331 0.47480876337670469 0 -0.35879097492700451 0.45996424019837562 0 -0.37015070789911669 0.4605010226726215 0 -0.3633047619024331 0.47480876337670469 0 -0.35879097492700451 0.45996424019837562 0 -0.36674225804357968 0.45106203235873937 0 -0.37015070789911669 0.4605010226726215 0 -0.35879097492700451 0.45996424019837562 0 -0.3589555025833876 0.45153194667685831 0 -0.36674225804357968 0.45106203235873937 0 -0.37871401168823571 0.45682544008698073 0 -0.37344320806865833 0.45221978757831571 0 -0.37015070789911669 0.4605010226726215 0 -0.36674225804357968 0.45106203235873937 0 -0.37344320806865833 0.45221978757831571 0 -0.37015070789911669 0.4605010226726215 0 -0.37933533950595127 0.48722672784229137 0 -0.37990903276478899 0.46812587243661352 0 -0.3633047619024331 0.47480876337670469 0 -0.37933533950595127 0.48722672784229137 0 -0.3633047619024331 0.47480876337670469 0 -0.36322779277758172 0.5 0 -0.34099394168778308 0.49045091956362741 0 -0.36322779277758172 0.5 0 -0.34854747253991902 0.48211795994845619 0 -0.3633047619024331 0.47480876337670469 0 -0.36322779277758172 0.5 0 -0.34854747253991902 0.48211795994845619 0 -0.33377680213618388 0.5 0 -0.34099394168778308 0.49045091956362741 0 -0.36322779277758172 0.5 0 -0.34582473644989392 0.46703921894786199 0 -0.3633047619024331 0.47480876337670469 0 -0.34854747253991902 0.48211795994845619 0 -0.14500184137369951 0.47957240131308237 0 -0.1339801087900091 0.47376843835503102 0 -0.14863018693320329 0.46585811951033629 0 -0.14500184137369951 0.47957240131308237 0 -0.14863018693320329 0.46585811951033629 0 -0.15849162171699449 0.48079501686237691 0 -0.14500184137369951 0.47957240131308237 0 -0.14778363254397481 0.48580128165286413 0 -0.15849162171699449 0.48079501686237691 0 -0.15588760332791529 0.49368946278114539 0 -0.13175346375728969 0.48914824565485149 0 -0.15588760332791529 0.49368946278114539 0 -0.1276198676463991 0.5 0 -0.15707085828779671 0.5 0 -0.15588760332791529 0.49368946278114539 0 -0.14778363254397481 0.48580128165286413 0 -0.15849162171699449 0.48079501686237691 0 -0.15588760332791529 0.49368946278114539 0 -0.14778363254397481 0.48580128165286413 0 -0.13175346375728969 0.48914824565485149 0 -0.14500184137369951 0.47957240131308237 0 -0.14778363254397481 0.48580128165286413 0 -0.13175346375728969 0.48914824565485149 0 -0.15588760332791529 0.49368946278114539 0 -0.1276198676463991 0.5 0 -0.13175346375728969 0.48914824565485149 0 -0.13175346375728969 0.48914824565485149 0 -0.1339801087900091 0.47376843835503102 0 -0.1207793097759514 0.47637562759578478 0 -0.14500184137369951 0.47957240131308237 0 -0.13175346375728969 0.48914824565485149 0 -0.1339801087900091 0.47376843835503102 0 -0.1339801087900091 0.47376843835503102 0 -0.1235375556295443 0.4663256329931314 0 -0.1207793097759514 0.47637562759578478 0 -0.13602398984227779 0.4574625092625893 0 -0.1210539563454964 0.45007944702404551 0 -0.1235375556295443 0.4663256329931314 0 -0.1339801087900091 0.47376843835503102 0 -0.13602398984227779 0.4574625092625893 0 -0.14863018693320329 0.46585811951033629 0 -0.1339801087900091 0.47376843835503102 0 -0.13602398984227779 0.4574625092625893 0 -0.1235375556295443 0.4663256329931314 0 -0.13602398984227779 0.4574625092625893 0 -0.13556140962459221 0.44004108295519628 0 -0.1210539563454964 0.45007944702404551 0 -0.13602398984227779 0.4574625092625893 0 -0.13556140962459221 0.44004108295519628 0 -0.1543563717340711 0.44985151339775969 0 -0.13556140962459221 0.44004108295519628 0 -0.1543563717340711 0.44985151339775969 0 -0.15105516542398431 0.42953725198482912 0 -0.13602398984227779 0.4574625092625893 0 -0.1543563717340711 0.44985151339775969 0 -0.14863018693320329 0.46585811951033629 0 -0.1543563717340711 0.44985151339775969 0 -0.14863018693320329 0.46585811951033629 0 -0.16382559439963151 0.46722964806008449 0 -0.1543563717340711 0.44985151339775969 0 -0.16382559439963151 0.46722964806008449 0 -0.17512548971242739 0.45506437928133869 0 -0.1543563717340711 0.44985151339775969 0 -0.17512548971242739 0.45506437928133869 0 -0.17416066643033709 0.43526626572640248 0 -0.1543563717340711 0.44985151339775969 0 -0.17416066643033709 0.43526626572640248 0 -0.15105516542398431 0.42953725198482912 0 -0.17512548971242739 0.45506437928133869 0 -0.19527820029084891 0.45284935279354122 0 -0.17416066643033709 0.43526626572640248 0 -0.16382559439963151 0.46722964806008449 0 -0.17512548971242739 0.45506437928133869 0 -0.18400777143803029 0.46864087484301697 0 -0.17512548971242739 0.45506437928133869 0 -0.18400777143803029 0.46864087484301697 0 -0.19527820029084891 0.45284935279354122 0 -0.16382559439963151 0.46722964806008449 0 -0.18400777143803029 0.46864087484301697 0 -0.17243763321785499 0.48007312616103659 0 -0.18400777143803029 0.46864087484301697 0 -0.18587662494306101 0.48207424002743421 0 -0.17243763321785499 0.48007312616103659 0 -0.18587662494306101 0.48207424002743421 0 -0.17243763321785499 0.48007312616103659 0 -0.17832314087956089 0.48813350690210422 0 -0.16382559439963151 0.46722964806008449 0 -0.17243763321785499 0.48007312616103659 0 -0.15849162171699449 0.48079501686237691 0 -0.17243763321785499 0.48007312616103659 0 -0.15849162171699449 0.48079501686237691 0 -0.16879399513096691 0.48842547587632568 0 -0.14863018693320329 0.46585811951033629 0 -0.16382559439963151 0.46722964806008449 0 -0.15849162171699449 0.48079501686237691 0 -0.15588760332791529 0.49368946278114539 0 -0.18002174289854089 0.49823067990743941 0 -0.15588760332791529 0.49368946278114539 0 -0.15707085828779671 0.5 0 -0.18002174289854089 0.49823067990743941 0 -0.15588760332791529 0.49368946278114539 0 -0.16879399513096691 0.48842547587632568 0 -0.18002174289854089 0.49823067990743941 0 -0.15588760332791529 0.49368946278114539 0 -0.15849162171699449 0.48079501686237691 0 -0.16879399513096691 0.48842547587632568 0 -0.15707085828779671 0.5 0 -0.18652184892919429 0.5 0 -0.18002174289854089 0.49823067990743941 0 -0.16879399513096691 0.48842547587632568 0 -0.17832314087956089 0.48813350690210422 0 -0.18002174289854089 0.49823067990743941 0 -0.17243763321785499 0.48007312616103659 0 -0.16879399513096691 0.48842547587632568 0 -0.17832314087956089 0.48813350690210422 0 -0.18587662494306101 0.48207424002743421 0 -0.17832314087956089 0.48813350690210422 0 -0.1858090646879528 0.49149406508464177 0 -0.1858090646879528 0.49149406508464177 0 -0.18652184892919429 0.5 0 -0.18002174289854089 0.49823067990743941 0 -0.17832314087956089 0.48813350690210422 0 -0.1858090646879528 0.49149406508464177 0 -0.18002174289854089 0.49823067990743941 0 -0.1858090646879528 0.49149406508464177 0 -0.18652184892919429 0.5 0 -0.1983019657894069 0.4890318985862312 0 -0.18652184892919429 0.5 0 -0.1983019657894069 0.4890318985862312 0 -0.21597283957059199 0.5 0 -0.18587662494306101 0.48207424002743421 0 -0.1858090646879528 0.49149406508464177 0 -0.1983019657894069 0.4890318985862312 0 -0.18587662494306101 0.48207424002743421 0 -0.1983019657894069 0.4890318985862312 0 -0.1993919257382181 0.47173410334388921 0 -0.18400777143803029 0.46864087484301697 0 -0.18587662494306101 0.48207424002743421 0 -0.1993919257382181 0.47173410334388921 0 -0.1983019657894069 0.4890318985862312 0 -0.1993919257382181 0.47173410334388921 0 -0.22042343169006751 0.47836800891808579 0 -0.1983019657894069 0.4890318985862312 0 -0.21597283957059199 0.5 0 -0.22042343169006751 0.47836800891808579 0 -0.21597283957059199 0.5 0 -0.22042343169006751 0.47836800891808579 0 -0.24542383021198999 0.5 0 -0.22042343169006751 0.47836800891808579 0 -0.2478972671455244 0.47584603332476649 0 -0.23250957322122159 0.46211072907908091 0 -0.22042343169006751 0.47836800891808579 0 -0.2478972671455244 0.47584603332476649 0 -0.24542383021198999 0.5 0 -0.24721205231625229 0.45602961481812587 0 -0.23261532335618701 0.44418047075159661 0 -0.24727883585019819 0.43734184407656129 0 -0.24721205231625229 0.45602961481812587 0 -0.23250957322122159 0.46211072907908091 0 -0.23261532335618701 0.44418047075159661 0 -0.2478972671455244 0.47584603332476649 0 -0.24721205231625229 0.45602961481812587 0 -0.23250957322122159 0.46211072907908091 0 -0.22042343169006751 0.47836800891808579 0 -0.23250957322122159 0.46211072907908091 0 -0.21439979159807659 0.4561295175828296 0 -0.23250957322122159 0.46211072907908091 0 -0.23261532335618701 0.44418047075159661 0 -0.21439979159807659 0.4561295175828296 0 -0.23261532335618701 0.44418047075159661 0 -0.21439979159807659 0.4561295175828296 0 -0.2159684437725222 0.43670324529271509 0 -0.21439979159807659 0.4561295175828296 0 -0.19527820029084891 0.45284935279354122 0 -0.2159684437725222 0.43670324529271509 0 -0.1993919257382181 0.47173410334388921 0 -0.22042343169006751 0.47836800891808579 0 -0.21439979159807659 0.4561295175828296 0 -0.1993919257382181 0.47173410334388921 0 -0.21439979159807659 0.4561295175828296 0 -0.19527820029084891 0.45284935279354122 0 -0.18400777143803029 0.46864087484301697 0 -0.1993919257382181 0.47173410334388921 0 -0.19527820029084891 0.45284935279354122 0 -0.19527820029084891 0.45284935279354122 0 -0.19506658608518659 0.43301889444579528 0 -0.17416066643033709 0.43526626572640248 0 -0.19527820029084891 0.45284935279354122 0 -0.19506658608518659 0.43301889444579528 0 -0.2159684437725222 0.43670324529271509 0 -0.19506658608518659 0.43301889444579528 0 -0.20436471450745489 0.41893671198952448 0 -0.1854079437748489 0.41601402553056921 0 -0.20436471450745489 0.41893671198952448 0 -0.1973014019453225 0.40168082738200761 0 -0.1854079437748489 0.41601402553056921 0 -0.20436471450745489 0.41893671198952448 0 -0.22044741954907321 0.41807409052220618 0 -0.21354154182150439 0.40423127925063468 0 -0.20436471450745489 0.41893671198952448 0 -0.21354154182150439 0.40423127925063468 0 -0.1973014019453225 0.40168082738200761 0 -0.20436471450745489 0.41893671198952448 0 -0.2159684437725222 0.43670324529271509 0 -0.22044741954907321 0.41807409052220618 0 -0.19506658608518659 0.43301889444579528 0 -0.20436471450745489 0.41893671198952448 0 -0.2159684437725222 0.43670324529271509 0 -0.23261532335618701 0.44418047075159661 0 -0.2159684437725222 0.43670324529271509 0 -0.23325430677946149 0.42650450568007792 0 -0.2159684437725222 0.43670324529271509 0 -0.23325430677946149 0.42650450568007792 0 -0.22044741954907321 0.41807409052220618 0 -0.23325430677946149 0.42650450568007792 0 -0.22044741954907321 0.41807409052220618 0 -0.23406816143597661 0.40633547868119002 0 -0.22044741954907321 0.41807409052220618 0 -0.23406816143597661 0.40633547868119002 0 -0.21354154182150439 0.40423127925063468 0 -0.25436400799410419 0.40431224891114392 0 -0.23406816143597661 0.40633547868119002 0 -0.24854104391270471 0.41962470789505241 0 -0.23325430677946149 0.42650450568007792 0 -0.23406816143597661 0.40633547868119002 0 -0.24854104391270471 0.41962470789505241 0 -0.23325430677946149 0.42650450568007792 0 -0.24854104391270471 0.41962470789505241 0 -0.24727883585019819 0.43734184407656129 0 -0.23261532335618701 0.44418047075159661 0 -0.23325430677946149 0.42650450568007792 0 -0.24727883585019819 0.43734184407656129 0 -0.24066869885091591 0.38152798507970359 0 -0.23403233857894329 0.39025747515513742 0 -0.22947876036554329 0.38013989857096908 0 -0.24066869885091591 0.38152798507970359 0 -0.2459783912314211 0.39337372541214283 0 -0.23403233857894329 0.39025747515513742 0 -0.24066869885091591 0.38152798507970359 0 -0.22947876036554329 0.38013989857096908 0 -0.23507707570000011 0.3679906263958741 0 -0.25289352212915839 0.38146390075980963 0 -0.24066869885091591 0.38152798507970359 0 -0.24607872666084529 0.37255635989223079 0 -0.25289352212915839 0.38146390075980963 0 -0.24066869885091591 0.38152798507970359 0 -0.2459783912314211 0.39337372541214283 0 -0.25436400799410419 0.40431224891114392 0 -0.23406816143597661 0.40633547868119002 0 -0.2459783912314211 0.39337372541214283 0 -0.23406816143597661 0.40633547868119002 0 -0.2459783912314211 0.39337372541214283 0 -0.23403233857894329 0.39025747515513742 0 -0.23406816143597661 0.40633547868119002 0 -0.22048002009609219 0.3907611798379631 0 -0.23403233857894329 0.39025747515513742 0 -0.23406816143597661 0.40633547868119002 0 -0.22048002009609219 0.3907611798379631 0 -0.21354154182150439 0.40423127925063468 0 -0.22048002009609219 0.3907611798379631 0 -0.22947876036554329 0.38013989857096908 0 -0.21816034677223031 0.37186400999873009 0 -0.22048002009609219 0.3907611798379631 0 -0.23403233857894329 0.39025747515513742 0 -0.22947876036554329 0.38013989857096908 0 -0.1973014019453225 0.40168082738200761 0 -0.18232697691922389 0.38393696520838949 0 -0.1854079437748489 0.41601402553056921 0 -0.22048002009609219 0.3907611798379631 0 -0.2031992387550762 0.38423889804452238 0 -0.21816034677223031 0.37186400999873009 0 -0.22048002009609219 0.3907611798379631 0 -0.2031992387550762 0.38423889804452238 0 -0.21354154182150439 0.40423127925063468 0 -0.2031992387550762 0.38423889804452238 0 -0.21354154182150439 0.40423127925063468 0 -0.1973014019453225 0.40168082738200761 0 -0.2031992387550762 0.38423889804452238 0 -0.18232697691922389 0.38393696520838949 0 -0.193395000775309 0.35927299960760412 0 -0.2031992387550762 0.38423889804452238 0 -0.1973014019453225 0.40168082738200761 0 -0.18232697691922389 0.38393696520838949 0 -0.18232697691922389 0.38393696520838949 0 -0.1854079437748489 0.41601402553056921 0 -0.16538106774573991 0.41412536485907259 0 -0.18232697691922389 0.38393696520838949 0 -0.15370125064636939 0.37792896802226689 0 -0.15385989341448289 0.39683853197377539 0 -0.18232697691922389 0.38393696520838949 0 -0.16538106774573991 0.41412536485907259 0 -0.15385989341448289 0.39683853197377539 0 -0.1854079437748489 0.41601402553056921 0 -0.17416066643033709 0.43526626572640248 0 -0.16538106774573991 0.41412536485907259 0 -0.19506658608518659 0.43301889444579528 0 -0.1854079437748489 0.41601402553056921 0 -0.17416066643033709 0.43526626572640248 0 -0.17416066643033709 0.43526626572640248 0 -0.16538106774573991 0.41412536485907259 0 -0.15105516542398431 0.42953725198482912 0 -0.16538106774573991 0.41412536485907259 0 -0.13562271900123679 0.41450974575662641 0 -0.16538106774573991 0.41412536485907259 0 -0.15105516542398431 0.42953725198482912 0 -0.13562271900123679 0.41450974575662641 0 -0.16538106774573991 0.41412536485907259 0 -0.13562271900123679 0.41450974575662641 0 -0.15385989341448289 0.39683853197377539 0 -0.13556140962459221 0.44004108295519628 0 -0.15105516542398431 0.42953725198482912 0 -0.13562271900123679 0.41450974575662641 0 -0.13556140962459221 0.44004108295519628 0 -0.13562271900123679 0.41450974575662641 0 -0.1171136872491691 0.43493878815214759 0 -0.13562271900123679 0.41450974575662641 0 -0.1340432228732657 0.39160660414660009 0 -0.1196065179232934 0.39931417515004419 0 -0.1340432228732657 0.39160660414660009 0 -0.13478092132444111 0.37028542393035618 0 -0.1193748346214611 0.37931865153482169 0 -0.1340432228732657 0.39160660414660009 0 -0.15370125064636939 0.37792896802226689 0 -0.15385989341448289 0.39683853197377539 0 -0.1340432228732657 0.39160660414660009 0 -0.15370125064636939 0.37792896802226689 0 -0.13478092132444111 0.37028542393035618 0 -0.13562271900123679 0.41450974575662641 0 -0.1340432228732657 0.39160660414660009 0 -0.15385989341448289 0.39683853197377539 0 -0.1524031542694563 0.34534389736437537 0 -0.14895764551261259 0.36131785550736267 0 -0.13433632643026469 0.35135985965279848 0 -0.15370125064636939 0.37792896802226689 0 -0.14895764551261259 0.36131785550736267 0 -0.13478092132444111 0.37028542393035618 0 -0.13478092132444111 0.37028542393035618 0 -0.13433632643026469 0.35135985965279848 0 -0.11875348889851001 0.36127029296516272 0 -0.14895764551261259 0.36131785550736267 0 -0.13478092132444111 0.37028542393035618 0 -0.13433632643026469 0.35135985965279848 0 -0.13433632643026469 0.35135985965279848 0 -0.13515147851790321 0.33097529163643608 0 -0.11418077762639529 0.3422386269714992 0 -0.13690892879663319 0.30878461988928918 0 -0.11321448108480379 0.31932393730343023 0 -0.13515147851790321 0.33097529163643608 0 -0.13690892879663319 0.30878461988928918 0 -0.11321448108480379 0.31932393730343023 0 -0.13515147851790321 0.33097529163643608 0 -0.156503265388961 0.32179459991976339 0 -0.13690892879663319 0.30878461988928918 0 -0.1524031542694563 0.34534389736437537 0 -0.156503265388961 0.32179459991976339 0 -0.1524031542694563 0.34534389736437537 0 -0.13433632643026469 0.35135985965279848 0 -0.13515147851790321 0.33097529163643608 0 -0.1524031542694563 0.34534389736437537 0 -0.13515147851790321 0.33097529163643608 0 -0.156503265388961 0.32179459991976339 0 -0.1524031542694563 0.34534389736437537 0 -0.156503265388961 0.32179459991976339 0 -0.17720504940559109 0.33738682063000719 0 -0.156503265388961 0.32179459991976339 0 -0.17596575672275599 0.31456577167291971 0 -0.17720504940559109 0.33738682063000719 0 -0.17596575672275599 0.31456577167291971 0 -0.17720504940559109 0.33738682063000719 0 -0.18823716094616991 0.32371565231475002 0 -0.17596575672275599 0.31456577167291971 0 -0.18823716094616991 0.32371565231475002 0 -0.1886589381279862 0.31006162165081758 0 -0.17720504940559109 0.33738682063000719 0 -0.16799817958809371 0.36086458439000102 0 -0.193395000775309 0.35927299960760412 0 -0.1524031542694563 0.34534389736437537 0 -0.14895764551261259 0.36131785550736267 0 -0.16799817958809371 0.36086458439000102 0 -0.1524031542694563 0.34534389736437537 0 -0.17720504940559109 0.33738682063000719 0 -0.16799817958809371 0.36086458439000102 0 -0.18232697691922389 0.38393696520838949 0 -0.15370125064636939 0.37792896802226689 0 -0.16799817958809371 0.36086458439000102 0 -0.15370125064636939 0.37792896802226689 0 -0.14895764551261259 0.36131785550736267 0 -0.16799817958809371 0.36086458439000102 0 -0.18232697691922389 0.38393696520838949 0 -0.16799817958809371 0.36086458439000102 0 -0.193395000775309 0.35927299960760412 0 -0.18232697691922389 0.38393696520838949 0 -0.193395000775309 0.35927299960760412 0 -0.193395000775309 0.35927299960760412 0 -0.20446302463139401 0.33460903400681868 0 -0.193395000775309 0.35927299960760412 0 -0.22207119261389319 0.34883233995966689 0 -0.20446302463139401 0.33460903400681868 0 -0.2031992387550762 0.38423889804452238 0 -0.193395000775309 0.35927299960760412 0 -0.21816034677223031 0.37186400999873009 0 -0.193395000775309 0.35927299960760412 0 -0.21816034677223031 0.37186400999873009 0 -0.22207119261389319 0.34883233995966689 0 -0.21816034677223031 0.37186400999873009 0 -0.22207119261389319 0.34883233995966689 0 -0.23507707570000011 0.3679906263958741 0 -0.22947876036554329 0.38013989857096908 0 -0.21816034677223031 0.37186400999873009 0 -0.23507707570000011 0.3679906263958741 0 -0.22207119261389319 0.34883233995966689 0 -0.24388941846378159 0.35251212586360942 0 -0.23507707570000011 0.3679906263958741 0 -0.25585680628613311 0.35531502858459979 0 -0.24388941846378159 0.35251212586360942 0 -0.2474112648444885 0.36340222027400892 0 -0.25615429711168258 0.36863696063373019 0 -0.2474112648444885 0.36340222027400892 0 -0.24607872666084529 0.37255635989223079 0 -0.2474112648444885 0.36340222027400892 0 -0.24607872666084529 0.37255635989223079 0 -0.23507707570000011 0.3679906263958741 0 -0.24066869885091591 0.38152798507970359 0 -0.24607872666084529 0.37255635989223079 0 -0.23507707570000011 0.3679906263958741 0 -0.24388941846378159 0.35251212586360942 0 -0.2474112648444885 0.36340222027400892 0 -0.23507707570000011 0.3679906263958741 0 -0.26139407846422352 0.3468715903468983 0 -0.24388941846378159 0.35251212586360942 0 -0.23846256347585101 0.32840832937646591 0 -0.22207119261389319 0.34883233995966689 0 -0.24388941846378159 0.35251212586360942 0 -0.23846256347585101 0.32840832937646591 0 -0.26139407846422352 0.3468715903468983 0 -0.23846256347585101 0.32840832937646591 0 -0.22207119261389319 0.34883233995966689 0 -0.23846256347585101 0.32840832937646591 0 -0.22028028774174199 0.32947995161767157 0 -0.23846256347585101 0.32840832937646591 0 -0.21553104848747889 0.3099450684060332 0 -0.23846256347585101 0.32840832937646591 0 -0.22028028774174199 0.32947995161767157 0 -0.21553104848747889 0.3099450684060332 0 -0.23846256347585101 0.32840832937646591 0 -0.21553104848747889 0.3099450684060332 0 -0.2464872074170133 0.30142553852459603 0 -0.20446302463139401 0.33460903400681868 0 -0.19900286652560581 0.31700218825883791 0 -0.21553104848747889 0.3099450684060332 0 -0.22028028774174199 0.32947995161767157 0 -0.20446302463139401 0.33460903400681868 0 -0.21553104848747889 0.3099450684060332 0 -0.20446302463139401 0.33460903400681868 0 -0.21553104848747889 0.3099450684060332 0 -0.22207119261389319 0.34883233995966689 0 -0.22028028774174199 0.32947995161767157 0 -0.20446302463139401 0.33460903400681868 0 -0.17720504940559109 0.33738682063000719 0 -0.20446302463139401 0.33460903400681868 0 -0.18823716094616991 0.32371565231475002 0 -0.17720504940559109 0.33738682063000719 0 -0.193395000775309 0.35927299960760412 0 -0.20446302463139401 0.33460903400681868 0 -0.20446302463139401 0.33460903400681868 0 -0.19900286652560581 0.31700218825883791 0 -0.18823716094616991 0.32371565231475002 0 -0.19900286652560581 0.31700218825883791 0 -0.18823716094616991 0.32371565231475002 0 -0.1886589381279862 0.31006162165081758 0 -0.1886589381279862 0.31006162165081758 0 -0.19332899555190211 0.29920879487843938 0 -0.1981241604350002 0.3066795649157697 0 -0.19900286652560581 0.31700218825883791 0 -0.1886589381279862 0.31006162165081758 0 -0.1981241604350002 0.3066795649157697 0 -0.19332899555190211 0.29920879487843938 0 -0.20107779632910999 0.2983080628873519 0 -0.1981241604350002 0.3066795649157697 0 -0.20671799480685391 0.28895941902417238 0 -0.21322860532272681 0.2748375405719905 0 -0.1866245441707412 0.28667105736867038 0 -0.20107779632910999 0.2983080628873519 0 -0.20671799480685391 0.28895941902417238 0 -0.1866245441707412 0.28667105736867038 0 -0.19332899555190211 0.29920879487843938 0 -0.20107779632910999 0.2983080628873519 0 -0.1866245441707412 0.28667105736867038 0 -0.20107779632910999 0.2983080628873519 0 -0.1866245441707412 0.28667105736867038 0 -0.20107779632910999 0.2983080628873519 0 -0.20671799480685391 0.28895941902417238 0 -0.21314902166013339 0.29385126361284242 0 -0.20671799480685391 0.28895941902417238 0 -0.21314902166013339 0.29385126361284242 0 -0.21675834749793099 0.28466986207879091 0 -0.20671799480685391 0.28895941902417238 0 -0.21675834749793099 0.28466986207879091 0 -0.21322860532272681 0.2748375405719905 0 -0.21675834749793099 0.28466986207879091 0 -0.22565992117929329 0.28737390566786353 0 -0.21322860532272681 0.2748375405719905 0 -0.21314902166013339 0.29385126361284242 0 -0.21675834749793099 0.28466986207879091 0 -0.22565992117929329 0.28737390566786353 0 -0.21314902166013339 0.29385126361284242 0 -0.21553104848747889 0.3099450684060332 0 -0.22565992117929329 0.28737390566786353 0 -0.19900286652560581 0.31700218825883791 0 -0.1981241604350002 0.3066795649157697 0 -0.21553104848747889 0.3099450684060332 0 -0.20107779632910999 0.2983080628873519 0 -0.21314902166013339 0.29385126361284242 0 -0.21553104848747889 0.3099450684060332 0 -0.20107779632910999 0.2983080628873519 0 -0.1981241604350002 0.3066795649157697 0 -0.21553104848747889 0.3099450684060332 0 -0.20107779632910999 0.2983080628873519 0 -0.21553104848747889 0.3099450684060332 0 -0.21553104848747889 0.3099450684060332 0 -0.22565992117929329 0.28737390566786353 0 -0.2464872074170133 0.30142553852459603 0 -0.21553104848747889 0.3099450684060332 0 -0.22565992117929329 0.28737390566786353 0 -0.25442206028344461 0.2837326948675355 0 -0.2464872074170133 0.30142553852459603 0 -0.24276335887523151 0.27777865327294649 0 -0.22565992117929329 0.28737390566786353 0 -0.2464872074170133 0.30142553852459603 0 -0.24276335887523151 0.27777865327294649 0 -0.25087986378790578 0.25674789430394418 0 -0.22619871048427209 0.2494817824178984 0 -0.25087986378790578 0.25674789430394418 0 -0.23651596571347339 0.26318231442870949 0 -0.22619871048427209 0.2494817824178984 0 -0.25087986378790578 0.25674789430394418 0 -0.23651596571347339 0.26318231442870949 0 -0.23578879387110629 0.26480274292969319 0 -0.23651596571347339 0.26318231442870949 0 -0.23578879387110629 0.26480274292969319 0 -0.25087986378790578 0.25674789430394418 0 -0.23578879387110629 0.26480274292969319 0 -0.25072234302956592 0.26721670556117622 0 -0.25087986378790578 0.25674789430394418 0 -0.23578879387110629 0.26480274292969319 0 -0.25072234302956592 0.26721670556117622 0 -0.23578879387110629 0.26480274292969319 0 -0.24276335887523151 0.27777865327294649 0 -0.22565992117929329 0.28737390566786353 0 -0.23578879387110629 0.26480274292969319 0 -0.24276335887523151 0.27777865327294649 0 -0.22565992117929329 0.28737390566786353 0 -0.23578879387110629 0.26480274292969319 0 -0.23578879387110629 0.26480274292969319 0 -0.21322860532272681 0.2748375405719905 0 -0.23578879387110629 0.26480274292969319 0 -0.22677366722039011 0.25978380506331189 0 -0.21322860532272681 0.2748375405719905 0 -0.22565992117929329 0.28737390566786353 0 -0.23578879387110629 0.26480274292969319 0 -0.21322860532272681 0.2748375405719905 0 -0.22677366722039011 0.25978380506331189 0 -0.20737308125168041 0.2585266055519258 0 -0.22619871048427209 0.2494817824178984 0 -0.23651596571347339 0.26318231442870949 0 -0.23578879387110629 0.26480274292969319 0 -0.22677366722039011 0.25978380506331189 0 -0.23651596571347339 0.26318231442870949 0 -0.22677366722039011 0.25978380506331189 0 -0.22619871048427209 0.2494817824178984 0 -0.20737308125168041 0.2585266055519258 0 -0.22619871048427209 0.2494817824178984 0 -0.20151755718063619 0.24221567053186019 0 -0.22677366722039011 0.25978380506331189 0 -0.20737308125168041 0.2585266055519258 0 -0.21322860532272681 0.2748375405719905 0 -0.20737308125168041 0.2585266055519258 0 -0.20151755718063619 0.24221567053186019 0 -0.20737308125168041 0.2585266055519258 0 -0.21322860532272681 0.2748375405719905 0 -0.1973406778800694 0.26946936411618139 0 -0.20737308125168041 0.2585266055519258 0 -0.21322860532272681 0.2748375405719905 0 -0.21675834749793099 0.28466986207879091 0 -0.21322860532272681 0.2748375405719905 0 -0.21322860532272681 0.2748375405719905 0 -0.1973406778800694 0.26946936411618139 0 -0.1866245441707412 0.28667105736867038 0 -0.1973406778800694 0.26946936411618139 0 -0.1840269630753685 0.27477959386035078 0 -0.1866245441707412 0.28667105736867038 0 -0.21322860532272681 0.2748375405719905 0 -0.1866245441707412 0.28667105736867038 0 -0.1973406778800694 0.26946936411618139 0 -0.188980752047476 0.26596507219962351 0 -0.1840269630753685 0.27477959386035078 0 -0.20737308125168041 0.2585266055519258 0 -0.19229582140134549 0.25569309089097891 0 -0.20151755718063619 0.24221567053186019 0 -0.20737308125168041 0.2585266055519258 0 -0.1973406778800694 0.26946936411618139 0 -0.19229582140134549 0.25569309089097891 0 -0.1973406778800694 0.26946936411618139 0 -0.188980752047476 0.26596507219962351 0 -0.19229582140134549 0.25569309089097891 0 -0.19229582140134549 0.25569309089097891 0 -0.17843028292236829 0.26486067086699722 0 -0.17821722820922309 0.2500189837915241 0 -0.188980752047476 0.26596507219962351 0 -0.19229582140134549 0.25569309089097891 0 -0.17843028292236829 0.26486067086699722 0 -0.17843028292236829 0.26486067086699722 0 -0.16702091110509501 0.26138570850995507 0 -0.17821722820922309 0.2500189837915241 0 -0.16702091110509501 0.26138570850995507 0 -0.17821722820922309 0.2500189837915241 0 -0.16702091110509501 0.26138570850995507 0 -0.15666859752567 0.26085958200037979 0 -0.15596038998051381 0.27261457043805531 0 -0.16702091110509501 0.26138570850995507 0 -0.15666859752567 0.26085958200037979 0 -0.16027387467470561 0.24701005636414519 0 -0.16702091110509501 0.26138570850995507 0 -0.1640620264512444 0.27838028567796003 0 -0.16702091110509501 0.26138570850995507 0 -0.1640620264512444 0.27838028567796003 0 -0.1720560228764712 0.27494124314811819 0 -0.16702091110509501 0.26138570850995507 0 -0.1640620264512444 0.27838028567796003 0 -0.15596038998051381 0.27261457043805531 0 -0.1640620264512444 0.27838028567796003 0 -0.15596038998051381 0.27261457043805531 0 -0.15715377349574791 0.28104703741803788 0 -0.1640620264512444 0.27838028567796003 0 -0.15596038998051381 0.27261457043805531 0 -0.16702091110509501 0.26138570850995507 0 -0.15596038998051381 0.27261457043805531 0 -0.1640620264512444 0.27838028567796003 0 -0.1720560228764712 0.27494124314811819 0 -0.17990899270031091 0.28965814233552117 0 -0.1720560228764712 0.27494124314811819 0 -0.1866245441707412 0.28667105736867038 0 -0.17843028292236829 0.26486067086699722 0 -0.16702091110509501 0.26138570850995507 0 -0.1720560228764712 0.27494124314811819 0 -0.17843028292236829 0.26486067086699722 0 -0.1720560228764712 0.27494124314811819 0 -0.1840269630753685 0.27477959386035078 0 -0.188980752047476 0.26596507219962351 0 -0.17843028292236829 0.26486067086699722 0 -0.1840269630753685 0.27477959386035078 0 -0.1720560228764712 0.27494124314811819 0 -0.1840269630753685 0.27477959386035078 0 -0.1866245441707412 0.28667105736867038 0 -0.17990899270031091 0.28965814233552117 0 -0.1796932119222843 0.30234792660256998 0 -0.16060337650846401 0.29824530247515102 0 -0.1640620264512444 0.27838028567796003 0 -0.17990899270031091 0.28965814233552117 0 -0.1866245441707412 0.28667105736867038 0 -0.17990899270031091 0.28965814233552117 0 -0.19332899555190211 0.29920879487843938 0 -0.17990899270031091 0.28965814233552117 0 -0.19332899555190211 0.29920879487843938 0 -0.1866245441707412 0.28667105736867038 0 -0.17990899270031091 0.28965814233552117 0 -0.1720560228764712 0.27494124314811819 0 -0.1866245441707412 0.28667105736867038 0 -0.17990899270031091 0.28965814233552117 0 -0.17596575672275599 0.31456577167291971 0 -0.1796932119222843 0.30234792660256998 0 -0.16060337650846401 0.29824530247515102 0 -0.17596575672275599 0.31456577167291971 0 -0.1886589381279862 0.31006162165081758 0 -0.1796932119222843 0.30234792660256998 0 -0.19332899555190211 0.29920879487843938 0 -0.17990899270031091 0.28965814233552117 0 -0.1796932119222843 0.30234792660256998 0 -0.1886589381279862 0.31006162165081758 0 -0.19332899555190211 0.29920879487843938 0 -0.1796932119222843 0.30234792660256998 0 -0.156503265388961 0.32179459991976339 0 -0.17596575672275599 0.31456577167291971 0 -0.16060337650846401 0.29824530247515102 0 -0.156503265388961 0.32179459991976339 0 -0.16060337650846401 0.29824530247515102 0 -0.1640620264512444 0.27838028567796003 0 -0.17990899270031091 0.28965814233552117 0 -0.16060337650846401 0.29824530247515102 0 -0.15715377349574791 0.28104703741803788 0 -0.1640620264512444 0.27838028567796003 0 -0.16060337650846401 0.29824530247515102 0 -0.15715377349574791 0.28104703741803788 0 -0.16060337650846401 0.29824530247515102 0 -0.15242145705357019 0.28616209016181599 0 -0.17990899270031091 0.28965814233552117 0 -0.16060337650846401 0.29824530247515102 0 -0.1640620264512444 0.27838028567796003 0 -0.16060337650846401 0.29824530247515102 0 -0.16060337650846401 0.29824530247515102 0 -0.138928935362505 0.28990524329028738 0 -0.13884305858562809 0.29574925009047948 0 -0.16060337650846401 0.29824530247515102 0 -0.15242145705357019 0.28616209016181599 0 -0.138928935362505 0.28990524329028738 0 -0.15242145705357019 0.28616209016181599 0 -0.138928935362505 0.28990524329028738 0 -0.15596038998051381 0.27261457043805531 0 -0.14003579087064899 0.28799910676483381 0 -0.138928935362505 0.28990524329028738 0 -0.15596038998051381 0.27261457043805531 0 -0.16060337650846401 0.29824530247515102 0 -0.13690892879663319 0.30878461988928918 0 -0.13884305858562809 0.29574925009047948 0 -0.16060337650846401 0.29824530247515102 0 -0.13690892879663319 0.30878461988928918 0 -0.156503265388961 0.32179459991976339 0 -0.16060337650846401 0.29824530247515102 0 -0.13690892879663319 0.30878461988928918 0 -0.13690892879663319 0.30878461988928918 0 -0.12962216543482641 0.29660202756288839 0 -0.1182800420187211 0.29993304649521407 0 -0.13690892879663319 0.30878461988928918 0 -0.13884305858562809 0.29574925009047948 0 -0.12962216543482641 0.29660202756288839 0 -0.1386713864036217 0.28407485887292272 0 -0.14003579087064899 0.28799910676483381 0 -0.139029293451889 0.27973057393214312 0 -0.13578823928587089 0.28675970177612631 0 -0.13166890806152051 0.29041092689196091 0 -0.13163628255196039 0.28593664885887909 0 -0.13578823928587089 0.28675970177612631 0 -0.13794532540965701 0.28812420394336802 0 -0.13625444018949551 0.29027901900058339 0 -0.13578823928587089 0.28675970177612631 0 -0.13478632417432651 0.28197607046270018 0 -0.13163628255196039 0.28593664885887909 0 -0.13578823928587089 0.28675970177612631 0 -0.13478632417432651 0.28197607046270018 0 -0.1386713864036217 0.28407485887292272 0 -0.13478632417432651 0.28197607046270018 0 -0.1386713864036217 0.28407485887292272 0 -0.139029293451889 0.27973057393214312 0 -0.13578823928587089 0.28675970177612631 0 -0.1386713864036217 0.28407485887292272 0 -0.13794532540965701 0.28812420394336802 0 -0.1386713864036217 0.28407485887292272 0 -0.13794532540965701 0.28812420394336802 0 -0.14003579087064899 0.28799910676483381 0 -0.13794532540965701 0.28812420394336802 0 -0.14003579087064899 0.28799910676483381 0 -0.138928935362505 0.28990524329028738 0 -0.138928935362505 0.28990524329028738 0 -0.13884305858562809 0.29574925009047948 0 -0.13625444018949551 0.29027901900058339 0 -0.13884305858562809 0.29574925009047948 0 -0.13166890806152051 0.29041092689196091 0 -0.12962216543482641 0.29660202756288839 0 -0.13794532540965701 0.28812420394336802 0 -0.138928935362505 0.28990524329028738 0 -0.13625444018949551 0.29027901900058339 0 -0.13578823928587089 0.28675970177612631 0 -0.13625444018949551 0.29027901900058339 0 -0.13166890806152051 0.29041092689196091 0 -0.13884305858562809 0.29574925009047948 0 -0.13625444018949551 0.29027901900058339 0 -0.13166890806152051 0.29041092689196091 0 -0.13166890806152051 0.29041092689196091 0 -0.12962216543482641 0.29660202756288839 0 -0.12560003172313819 0.28864120573170632 0 -0.12560003172313819 0.28864120573170632 0 -0.13163628255196039 0.28593664885887909 0 -0.12926418581584259 0.28185935136525869 0 -0.13166890806152051 0.29041092689196091 0 -0.12560003172313819 0.28864120573170632 0 -0.13163628255196039 0.28593664885887909 0 -0.13478632417432651 0.28197607046270018 0 -0.13163628255196039 0.28593664885887909 0 -0.12926418581584259 0.28185935136525869 0 -0.12560003172313819 0.28864120573170632 0 -0.12926418581584259 0.28185935136525869 0 -0.1243397726513243 0.28091101446345451 0 -0.12926418581584259 0.28185935136525869 0 -0.12719742120368241 0.27622431691070187 0 -0.1243397726513243 0.28091101446345451 0 -0.12719742120368241 0.27622431691070187 0 -0.13174189245744311 0.27814938264496819 0 -0.13284349567031331 0.27252111830606401 0 -0.13478632417432651 0.28197607046270018 0 -0.12926418581584259 0.28185935136525869 0 -0.13174189245744311 0.27814938264496819 0 -0.12926418581584259 0.28185935136525869 0 -0.12719742120368241 0.27622431691070187 0 -0.13174189245744311 0.27814938264496819 0 -0.13478632417432651 0.28197607046270018 0 -0.13174189245744311 0.27814938264496819 0 -0.13558541857598461 0.27741590317648612 0 -0.13478632417432651 0.28197607046270018 0 -0.13558541857598461 0.27741590317648612 0 -0.139029293451889 0.27973057393214312 0 -0.13174189245744311 0.27814938264496819 0 -0.13558541857598461 0.27741590317648612 0 -0.13284349567031331 0.27252111830606401 0 -0.13558541857598461 0.27741590317648612 0 -0.1385477977785719 0.27261831641501488 0 -0.13284349567031331 0.27252111830606401 0 -0.13558541857598461 0.27741590317648612 0 -0.139029293451889 0.27973057393214312 0 -0.1385477977785719 0.27261831641501488 0 -0.13775429940086881 0.26895631644055651 0 -0.13424190121253951 0.26559818879236691 0 -0.14538400294204959 0.26508764224878162 0 -0.13775429940086881 0.26895631644055651 0 -0.1385477977785719 0.27261831641501488 0 -0.14538400294204959 0.26508764224878162 0 -0.13775429940086881 0.26895631644055651 0 -0.1385477977785719 0.27261831641501488 0 -0.13284349567031331 0.27252111830606401 0 -0.13775429940086881 0.26895631644055651 0 -0.13284349567031331 0.27252111830606401 0 -0.13424190121253951 0.26559818879236691 0 -0.13284349567031331 0.27252111830606401 0 -0.13424190121253951 0.26559818879236691 0 -0.12475280842514901 0.26909334592718781 0 -0.12719742120368241 0.27622431691070187 0 -0.13284349567031331 0.27252111830606401 0 -0.12475280842514901 0.26909334592718781 0 -0.12833242077256249 0.252952493068201 0 -0.13424190121253951 0.26559818879236691 0 -0.14538400294204959 0.26508764224878162 0 -0.12833242077256249 0.252952493068201 0 -0.14538400294204959 0.26508764224878162 0 -0.12833242077256249 0.252952493068201 0 -0.13424190121253951 0.26559818879236691 0 -0.12475280842514901 0.26909334592718781 0 -0.12833242077256249 0.252952493068201 0 -0.14538400294204959 0.26508764224878162 0 -0.1480904457365449 0.25349338098482838 0 -0.14538400294204959 0.26508764224878162 0 -0.1480904457365449 0.25349338098482838 0 -0.15199736613149101 0.26979419370491498 0 -0.14538400294204959 0.26508764224878162 0 -0.1480904457365449 0.25349338098482838 0 -0.15666859752567 0.26085958200037979 0 -0.1480904457365449 0.25349338098482838 0 -0.15199736613149101 0.26979419370491498 0 -0.1480904457365449 0.25349338098482838 0 -0.15199736613149101 0.26979419370491498 0 -0.15666859752567 0.26085958200037979 0 -0.1480904457365449 0.25349338098482838 0 -0.16027387467470561 0.24701005636414519 0 -0.14003579087064899 0.28799910676483381 0 -0.15596038998051381 0.27261457043805531 0 -0.15259873248914799 0.27230326974982361 0 -0.15666859752567 0.26085958200037979 0 -0.15199736613149101 0.26979419370491498 0 -0.15596038998051381 0.27261457043805531 0 -0.138928935362505 0.28990524329028738 0 -0.15596038998051381 0.27261457043805531 0 -0.14003579087064899 0.28799910676483381 0 -0.139029293451889 0.27973057393214312 0 -0.14538400294204959 0.26508764224878162 0 -0.14003579087064899 0.28799910676483381 0 -0.14538400294204959 0.26508764224878162 0 -0.15259873248914799 0.27230326974982361 0 -0.14003579087064899 0.28799910676483381 0 -0.14538400294204959 0.26508764224878162 0 -0.14538400294204959 0.26508764224878162 0 -0.15199736613149101 0.26979419370491498 0 -0.15259873248914799 0.27230326974982361 0 -0.14538400294204959 0.26508764224878162 0 -0.15199736613149101 0.26979419370491498 0 -0.15199736613149101 0.26979419370491498 0 -0.15259873248914799 0.27230326974982361 0 -0.15199736613149101 0.26979419370491498 0 -0.15596038998051381 0.27261457043805531 0 -0.15199736613149101 0.26979419370491498 0 -0.15596038998051381 0.27261457043805531 0 -0.15259873248914799 0.27230326974982361 0 -0.15715377349574791 0.28104703741803788 0 -0.15242145705357019 0.28616209016181599 0 -0.15596038998051381 0.27261457043805531 0 -0.139029293451889 0.27973057393214312 0 -0.1385477977785719 0.27261831641501488 0 -0.14538400294204959 0.26508764224878162 0 -0.1022221549633595 0.27157025854754779 0 -0.11025254227464321 0.2621337945841819 0 -0.1102612172904676 0.27491480971774113 0 -0.1022221549633595 0.27157025854754779 0 -0.0948533928506399 0.28087161967480712 0 -0.1102612172904676 0.27491480971774113 0 -0.1022221549633595 0.27157025854754779 0 -0.0948533928506399 0.28087161967480712 0 -0.09190218028501386 0.27287364738798747 0 -0.1022221549633595 0.27157025854754779 0 -0.085374697852045295 0.25727374079415088 0 -0.1022221549633595 0.27157025854754779 0 -0.1009787446750107 0.25848412922261088 0 -0.085374697852045295 0.25727374079415088 0 -0.1009787446750107 0.25848412922261088 0 -0.085374697852045295 0.25727374079415088 0 -0.099382531469479285 0.24470324452999001 0 -0.1009787446750107 0.25848412922261088 0 -0.10946817367181549 0.25274728236480859 0 -0.099382531469479285 0.24470324452999001 0 -0.1009787446750107 0.25848412922261088 0 -0.11025254227464321 0.2621337945841819 0 -0.10946817367181549 0.25274728236480859 0 -0.1022221549633595 0.27157025854754779 0 -0.1009787446750107 0.25848412922261088 0 -0.11025254227464321 0.2621337945841819 0 -0.12833242077256249 0.252952493068201 0 -0.12475280842514901 0.26909334592718781 0 -0.1102612172904676 0.27491480971774113 0 -0.12833242077256249 0.252952493068201 0 -0.1102612172904676 0.27491480971774113 0 -0.12833242077256249 0.252952493068201 0 -0.11025254227464321 0.2621337945841819 0 -0.10946817367181549 0.25274728236480859 0 -0.12833242077256249 0.252952493068201 0 -0.11025254227464321 0.2621337945841819 0 -0.1102612172904676 0.27491480971774113 0 -0.1102612172904676 0.27491480971774113 0 -0.1210335621323117 0.27663322274836261 0 -0.1189775975069739 0.28250705555914712 0 -0.12475280842514901 0.26909334592718781 0 -0.1102612172904676 0.27491480971774113 0 -0.1210335621323117 0.27663322274836261 0 -0.12719742120368241 0.27622431691070187 0 -0.12475280842514901 0.26909334592718781 0 -0.1210335621323117 0.27663322274836261 0 -0.12719742120368241 0.27622431691070187 0 -0.1210335621323117 0.27663322274836261 0 -0.1243397726513243 0.28091101446345451 0 -0.1210335621323117 0.27663322274836261 0 -0.1243397726513243 0.28091101446345451 0 -0.1189775975069739 0.28250705555914712 0 -0.12560003172313819 0.28864120573170632 0 -0.1189775975069739 0.28250705555914712 0 -0.11409873850938899 0.28753430881510239 0 -0.1102612172904676 0.27491480971774113 0 -0.11409873850938899 0.28753430881510239 0 -0.10677488796111061 0.29326713814598288 0 -0.12560003172313819 0.28864120573170632 0 -0.1243397726513243 0.28091101446345451 0 -0.1189775975069739 0.28250705555914712 0 -0.12962216543482641 0.29660202756288839 0 -0.12560003172313819 0.28864120573170632 0 -0.1182800420187211 0.29993304649521407 0 -0.12560003172313819 0.28864120573170632 0 -0.11409873850938899 0.28753430881510239 0 -0.1182800420187211 0.29993304649521407 0 -0.11409873850938899 0.28753430881510239 0 -0.1182800420187211 0.29993304649521407 0 -0.10677488796111061 0.29326713814598288 0 -0.1102612172904676 0.27491480971774113 0 -0.1189775975069739 0.28250705555914712 0 -0.11409873850938899 0.28753430881510239 0 -0.13690892879663319 0.30878461988928918 0 -0.1182800420187211 0.29993304649521407 0 -0.11321448108480379 0.31932393730343023 0 -0.1182800420187211 0.29993304649521407 0 -0.104886146059017 0.30587099623934411 0 -0.11321448108480379 0.31932393730343023 0 -0.1182800420187211 0.29993304649521407 0 -0.104886146059017 0.30587099623934411 0 -0.10677488796111061 0.29326713814598288 0 -0.104886146059017 0.30587099623934411 0 -0.092190013808372717 0.29687712636728142 0 -0.093140913504989792 0.31607545514970647 0 -0.104886146059017 0.30587099623934411 0 -0.10677488796111061 0.29326713814598288 0 -0.092190013808372717 0.29687712636728142 0 -0.0948533928506399 0.28087161967480712 0 -0.1102612172904676 0.27491480971774113 0 -0.092190013808372717 0.29687712636728142 0 -0.1102612172904676 0.27491480971774113 0 -0.092190013808372717 0.29687712636728142 0 -0.1102612172904676 0.27491480971774113 0 -0.10677488796111061 0.29326713814598288 0 -0.092190013808372717 0.29687712636728142 0 -0.0948533928506399 0.28087161967480712 0 -0.085970207784822533 0.28717271717716508 0 -0.083765600224156384 0.27889561964879572 0 -0.0948533928506399 0.28087161967480712 0 -0.085970207784822533 0.28717271717716508 0 -0.092190013808372717 0.29687712636728142 0 -0.085970207784822533 0.28717271717716508 0 -0.092190013808372717 0.29687712636728142 0 -0.079625774724197435 0.29312908714272351 0 -0.085970207784822533 0.28717271717716508 0 -0.07553938588377046 0.28384324325587978 0 -0.083765600224156384 0.27889561964879572 0 -0.085970207784822533 0.28717271717716508 0 -0.079625774724197435 0.29312908714272351 0 -0.07553938588377046 0.28384324325587978 0 -0.092190013808372717 0.29687712636728142 0 -0.074118810326277901 0.31883944301682149 0 -0.092190013808372717 0.29687712636728142 0 -0.081235188375612138 0.30614130023242458 0 -0.074118810326277901 0.31883944301682149 0 -0.092190013808372717 0.29687712636728142 0 -0.074118810326277901 0.31883944301682149 0 -0.093140913504989792 0.31607545514970647 0 -0.092190013808372717 0.29687712636728142 0 -0.079625774724197435 0.29312908714272351 0 -0.081235188375612138 0.30614130023242458 0 -0.081235188375612138 0.30614130023242458 0 -0.073168845355920928 0.30821155495798358 0 -0.066572969845086205 0.29189127189761871 0 -0.073168845355920928 0.30821155495798358 0 -0.066096604460002539 0.30381436801061501 0 -0.066572969845086205 0.29189127189761871 0 -0.081235188375612138 0.30614130023242458 0 -0.073168845355920928 0.30821155495798358 0 -0.074118810326277901 0.31883944301682149 0 -0.079625774724197435 0.29312908714272351 0 -0.081235188375612138 0.30614130023242458 0 -0.066572969845086205 0.29189127189761871 0 -0.081235188375612138 0.30614130023242458 0 -0.066572969845086205 0.29189127189761871 0 -0.066096604460002539 0.30381436801061501 0 -0.066572969845086205 0.29189127189761871 0 -0.061221682593323237 0.29921692369943792 0 -0.066096604460002539 0.30381436801061501 0 -0.066572969845086205 0.29189127189761871 0 -0.066096604460002539 0.30381436801061501 0 -0.065047648744271935 0.31248075799774561 0 -0.058263766070062978 0.30896228401909648 0 -0.073168845355920928 0.30821155495798358 0 -0.066096604460002539 0.30381436801061501 0 -0.065047648744271935 0.31248075799774561 0 -0.079625774724197435 0.29312908714272351 0 -0.07553938588377046 0.28384324325587978 0 -0.066572969845086205 0.29189127189761871 0 -0.07553938588377046 0.28384324325587978 0 -0.067550105292907753 0.26743424746918643 0 -0.083765600224156384 0.27889561964879572 0 -0.066572969845086205 0.29189127189761871 0 -0.067550105292907753 0.26743424746918643 0 -0.07553938588377046 0.28384324325587978 0 -0.066572969845086205 0.29189127189761871 0 -0.067550105292907753 0.26743424746918643 0 -0.067550105292907753 0.26743424746918643 0 -0.083765600224156384 0.27889561964879572 0 -0.085374697852045295 0.25727374079415088 0 -0.1022221549633595 0.27157025854754779 0 -0.09190218028501386 0.27287364738798747 0 -0.085374697852045295 0.25727374079415088 0 -0.083765600224156384 0.27889561964879572 0 -0.09190218028501386 0.27287364738798747 0 -0.085374697852045295 0.25727374079415088 0 -0.0948533928506399 0.28087161967480712 0 -0.083765600224156384 0.27889561964879572 0 -0.09190218028501386 0.27287364738798747 0 -0.085374697852045295 0.25727374079415088 0 -0.068527240740731007 0.24297722304075431 0 -0.067550105292907753 0.26743424746918643 0 -0.068527240740731007 0.24297722304075431 0 -0.067550105292907753 0.26743424746918643 0 -0.085374697852045295 0.25727374079415088 0 -0.068527240740731007 0.24297722304075431 0 -0.067550105292907753 0.26743424746918643 0 -0.044327189178686478 0.25476468049421103 0 -0.068527240740731007 0.24297722304075431 0 -0.04964301392621645 0.27543725772174832 0 -0.044327189178686478 0.25476468049421103 0 -0.066572969845086205 0.29189127189761871 0 -0.067550105292907753 0.26743424746918643 0 -0.04964301392621645 0.27543725772174832 0 -0.067550105292907753 0.26743424746918643 0 -0.04964301392621645 0.27543725772174832 0 -0.044327189178686478 0.25476468049421103 0 -0.04964301392621645 0.27543725772174832 0 -0.036046855827918133 0.27321120111252251 0 -0.041644191132442193 0.28277586727805742 0 -0.04964301392621645 0.27543725772174832 0 -0.034088453436826982 0.26031997330481099 0 -0.04964301392621645 0.27543725772174832 0 -0.036046855827918133 0.27321120111252251 0 -0.034088453436826982 0.26031997330481099 0 -0.036046855827918133 0.27321120111252251 0 -0.034088453436826982 0.26031997330481099 0 -0.024263941670138189 0.26950428240037161 0 -0.036046855827918133 0.27321120111252251 0 -0.0309618284244422 0.27937834606186951 0 -0.041644191132442193 0.28277586727805742 0 -0.04964301392621645 0.27543725772174832 0 -0.044327189178686478 0.25476468049421103 0 -0.034088453436826982 0.26031997330481099 0 -0.044327189178686478 0.25476468049421103 0 -0.034088453436826982 0.26031997330481099 0 -0.033265069700240638 0.24658948150263671 0 -0.034088453436826982 0.26031997330481099 0 -0.01915517585356951 0.2601414749888612 0 -0.018533892947438371 0.24520268888787281 0 -0.034088453436826982 0.26031997330481099 0 -0.033265069700240638 0.24658948150263671 0 -0.018533892947438371 0.24520268888787281 0 -0.034088453436826982 0.26031997330481099 0 -0.018533892947438371 0.24520268888787281 0 -0.034088453436826982 0.26031997330481099 0 -0.01915517585356951 0.2601414749888612 0 -0.024263941670138189 0.26950428240037161 0 -0.036046855827918133 0.27321120111252251 0 -0.024263941670138189 0.26950428240037161 0 -0.0309618284244422 0.27937834606186951 0 -0.024263941670138189 0.26950428240037161 0 -0.0309618284244422 0.27937834606186951 0 -0.020167434042389319 0.27955093173457862 0 -0.020167434042389319 0.27955093173457862 0 -0.015781408299130401 0.2713767431504322 0 -0.0117694169295436 0.28051066964197607 0 -0.024263941670138189 0.26950428240037161 0 -0.020167434042389319 0.27955093173457862 0 -0.015781408299130401 0.2713767431504322 0 -0.01915517585356951 0.2601414749888612 0 -0.024263941670138189 0.26950428240037161 0 -0.015781408299130401 0.2713767431504322 0 -0.015781408299130401 0.2713767431504322 0 -0.0074026472319425086 0.27362897429777261 0 -0.01030983536091132 0.26460222699089792 0 -0.015781408299130401 0.2713767431504322 0 -0.0117694169295436 0.28051066964197607 0 -0.0074026472319425086 0.27362897429777261 0 -0.0117694169295436 0.28051066964197607 0 -0.0074026472319425086 0.27362897429777261 0 -0.005272493492842977 0.28203212578046721 0 -0.0074026472319425086 0.27362897429777261 0 -0.0010589938020261389 0.27626584534435938 0 -0.005272493492842977 0.28203212578046721 0 -0.0074026472319425086 0.27362897429777261 0 -0.0010589938020261389 0.27626584534435938 0 -0.001815615808124528 0.26650856277061302 0 -0.0074026472319425086 0.27362897429777261 0 -0.001815615808124528 0.26650856277061302 0 -0.01030983536091132 0.26460222699089792 0 -0.001815615808124528 0.26650856277061302 0 -0.0064195805784558694 0.25571646301748818 0 -0.01030983536091132 0.26460222699089792 0 -0.001815615808124528 0.26650856277061302 0 -0.0064195805784558694 0.25571646301748818 0 0.0057197087398602716 0.25638837365480188 0 -0.01915517585356951 0.2601414749888612 0 -0.0064195805784558694 0.25571646301748818 0 -0.018533892947438371 0.24520268888787281 0 -0.01915517585356951 0.2601414749888612 0 -0.0064195805784558694 0.25571646301748818 0 -0.01030983536091132 0.26460222699089792 0 -0.01915517585356951 0.2601414749888612 0 -0.015781408299130401 0.2713767431504322 0 -0.01030983536091132 0.26460222699089792 0 -4.501939692783466e-05 0.29213092697448362 0 -0.0093308457135628173 0.31723321705050672 0 -0.00090435185522157874 0.29742975324218318 0 -0.0093308457135628173 0.31723321705050672 0 -0.00090435185522157874 0.29742975324218318 0 -4.501939692783466e-05 0.29213092697448362 0 -0.0093308457135628173 0.31723321705050672 0 -0.00090435185522157874 0.29742975324218318 0 -0.0093308457135628173 0.31723321705050672 0 0.0032755366433567402 0.31052339785774491 0 -0.01097401283892918 0.30235672840639682 0 -4.501939692783466e-05 0.29213092697448362 0 -0.0093308457135628173 0.31723321705050672 0 -0.01097401283892918 0.30235672840639682 0 -0.01014673300777501 0.29331154174685298 0 -0.017351074642216861 0.29618937019386782 0 -0.01097401283892918 0.30235672840639682 0 -0.020511920457932459 0.30650150330352482 0 -0.0093308457135628173 0.31723321705050672 0 -4.501939692783466e-05 0.29213092697448362 0 -0.0077871059267697121 0.28770929472373602 0 -0.01014673300777501 0.29331154174685298 0 -0.01097401283892918 0.30235672840639682 0 -4.501939692783466e-05 0.29213092697448362 0 -0.01014673300777501 0.29331154174685298 0 -0.0010589938020261389 0.27626584534435938 0 -4.501939692783466e-05 0.29213092697448362 0 -0.005272493492842977 0.28203212578046721 0 -4.501939692783466e-05 0.29213092697448362 0 -0.0077871059267697121 0.28770929472373602 0 -0.005272493492842977 0.28203212578046721 0 -0.020167434042389319 0.27955093173457862 0 -0.0117694169295436 0.28051066964197607 0 -0.01457645223403148 0.28817138843578072 0 -0.0117694169295436 0.28051066964197607 0 -0.0077871059267697121 0.28770929472373602 0 -0.005272493492842977 0.28203212578046721 0 -0.0117694169295436 0.28051066964197607 0 -0.0077871059267697121 0.28770929472373602 0 -0.01457645223403148 0.28817138843578072 0 -0.01457645223403148 0.28817138843578072 0 -0.01014673300777501 0.29331154174685298 0 -0.017351074642216861 0.29618937019386782 0 -0.0077871059267697121 0.28770929472373602 0 -0.01457645223403148 0.28817138843578072 0 -0.01014673300777501 0.29331154174685298 0 -0.017351074642216861 0.29618937019386782 0 -0.024561723210947451 0.28897421762046971 0 -0.02669768243711023 0.29690250867299839 0 -0.01457645223403148 0.28817138843578072 0 -0.017351074642216861 0.29618937019386782 0 -0.024561723210947451 0.28897421762046971 0 -0.020167434042389319 0.27955093173457862 0 -0.01457645223403148 0.28817138843578072 0 -0.024561723210947451 0.28897421762046971 0 -0.0309618284244422 0.27937834606186951 0 -0.024561723210947451 0.28897421762046971 0 -0.037615867485494607 0.29365276062372347 0 -0.0309618284244422 0.27937834606186951 0 -0.020167434042389319 0.27955093173457862 0 -0.024561723210947451 0.28897421762046971 0 -0.024561723210947451 0.28897421762046971 0 -0.02669768243711023 0.29690250867299839 0 -0.037615867485494607 0.29365276062372347 0 -0.02669768243711023 0.29690250867299839 0 -0.020511920457932459 0.30650150330352482 0 -0.032039372509475618 0.30413176351130727 0 -0.017351074642216861 0.29618937019386782 0 -0.02669768243711023 0.29690250867299839 0 -0.020511920457932459 0.30650150330352482 0 -0.01097401283892918 0.30235672840639682 0 -0.017351074642216861 0.29618937019386782 0 -0.020511920457932459 0.30650150330352482 0 -0.020511920457932459 0.30650150330352482 0 -0.02751972472131381 0.31161090479981501 0 -0.020086201914928312 0.31807096160142551 0 -0.020511920457932459 0.30650150330352482 0 -0.02751972472131381 0.31161090479981501 0 -0.032039372509475618 0.30413176351130727 0 -0.032039372509475618 0.30413176351130727 0 -0.041601448727098318 0.30509422923555318 0 -0.036459297991276923 0.31297100162527608 0 -0.02751972472131381 0.31161090479981501 0 -0.032039372509475618 0.30413176351130727 0 -0.036459297991276923 0.31297100162527608 0 -0.032039372509475618 0.30413176351130727 0 -0.041601448727098318 0.30509422923555318 0 -0.037615867485494607 0.29365276062372347 0 -0.02669768243711023 0.29690250867299839 0 -0.032039372509475618 0.30413176351130727 0 -0.037615867485494607 0.29365276062372347 0 -0.041601448727098318 0.30509422923555318 0 -0.037615867485494607 0.29365276062372347 0 -0.050097574730593251 0.302188488592462 0 -0.041601448727098318 0.30509422923555318 0 -0.050097574730593251 0.302188488592462 0 -0.047868055560717847 0.31478725444085248 0 -0.041601448727098318 0.30509422923555318 0 -0.047868055560717847 0.31478725444085248 0 -0.036459297991276923 0.31297100162527608 0 -0.037615867485494607 0.29365276062372347 0 -0.041644191132442193 0.28277586727805742 0 -0.053953389998140477 0.29219977087042209 0 -0.0309618284244422 0.27937834606186951 0 -0.037615867485494607 0.29365276062372347 0 -0.041644191132442193 0.28277586727805742 0 -0.066572969845086205 0.29189127189761871 0 -0.04964301392621645 0.27543725772174832 0 -0.04964301392621645 0.27543725772174832 0 -0.053953389998140477 0.29219977087042209 0 -0.037615867485494607 0.29365276062372347 0 -0.053953389998140477 0.29219977087042209 0 -0.050097574730593251 0.302188488592462 0 -0.04964301392621645 0.27543725772174832 0 -0.041644191132442193 0.28277586727805742 0 -0.053953389998140477 0.29219977087042209 0 -0.066572969845086205 0.29189127189761871 0 -0.04964301392621645 0.27543725772174832 0 -0.053953389998140477 0.29219977087042209 0 -0.066572969845086205 0.29189127189761871 0 -0.053953389998140477 0.29219977087042209 0 -0.061221682593323237 0.29921692369943792 0 -0.053953389998140477 0.29219977087042209 0 -0.061221682593323237 0.29921692369943792 0 -0.058263766070062978 0.30896228401909648 0 -0.053953389998140477 0.29219977087042209 0 -0.058263766070062978 0.30896228401909648 0 -0.053953389998140477 0.29219977087042209 0 -0.050097574730593251 0.302188488592462 0 -0.058263766070062978 0.30896228401909648 0 -0.050097574730593251 0.302188488592462 0 -0.058263766070062978 0.30896228401909648 0 -0.047868055560717847 0.31478725444085248 0 -0.066096604460002539 0.30381436801061501 0 -0.061221682593323237 0.29921692369943792 0 -0.058263766070062978 0.30896228401909648 0 -0.065047648744271935 0.31248075799774561 0 -0.055881847445631579 0.31629535315500218 0 -0.061722078161686039 0.32133897426926311 0 -0.065047648744271935 0.31248075799774561 0 -0.058263766070062978 0.30896228401909648 0 -0.055881847445631579 0.31629535315500218 0 -0.055881847445631579 0.31629535315500218 0 -0.061722078161686039 0.32133897426926311 0 -0.05409980297350582 0.32466931970999102 0 -0.05409980297350582 0.32466931970999102 0 -0.049568026895778487 0.33385983394629482 0 -0.046101122883906047 0.32564532480574881 0 -0.05409980297350582 0.32466931970999102 0 -0.047868055560717847 0.31478725444085248 0 -0.046101122883906047 0.32564532480574881 0 -0.058263766070062978 0.30896228401909648 0 -0.055881847445631579 0.31629535315500218 0 -0.047868055560717847 0.31478725444085248 0 -0.055881847445631579 0.31629535315500218 0 -0.05409980297350582 0.32466931970999102 0 -0.047868055560717847 0.31478725444085248 0 -0.05409980297350582 0.32466931970999102 0 -0.056047606844183029 0.34080175966636173 0 -0.049568026895778487 0.33385983394629482 0 -0.061722078161686039 0.32133897426926311 0 -0.05409980297350582 0.32466931970999102 0 -0.056047606844183029 0.34080175966636173 0 -0.056047606844183029 0.34080175966636173 0 -0.049568026895778487 0.33385983394629482 0 -0.043821607339640307 0.34614412260920652 0 -0.042671360252322002 0.33357333929136818 0 -0.037770931061080787 0.34073206010130352 0 -0.043821607339640307 0.34614412260920652 0 -0.049568026895778487 0.33385983394629482 0 -0.042671360252322002 0.33357333929136818 0 -0.043821607339640307 0.34614412260920652 0 -0.049568026895778487 0.33385983394629482 0 -0.042671360252322002 0.33357333929136818 0 -0.046101122883906047 0.32564532480574881 0 -0.042671360252322002 0.33357333929136818 0 -0.03233332036463827 0.32891804027125882 0 -0.038424639961939989 0.32249165002533842 0 -0.042671360252322002 0.33357333929136818 0 -0.03233332036463827 0.32891804027125882 0 -0.031319267981626348 0.33641107444308671 0 -0.042671360252322002 0.33357333929136818 0 -0.037770931061080787 0.34073206010130352 0 -0.031319267981626348 0.33641107444308671 0 -0.037770931061080787 0.34073206010130352 0 -0.031319267981626348 0.33641107444308671 0 -0.033271488670734518 0.3467997040615528 0 -0.047868055560717847 0.31478725444085248 0 -0.038424639961939989 0.32249165002533842 0 -0.036459297991276923 0.31297100162527608 0 -0.042671360252322002 0.33357333929136818 0 -0.046101122883906047 0.32564532480574881 0 -0.038424639961939989 0.32249165002533842 0 -0.047868055560717847 0.31478725444085248 0 -0.046101122883906047 0.32564532480574881 0 -0.038424639961939989 0.32249165002533842 0 -0.03233332036463827 0.32891804027125882 0 -0.038424639961939989 0.32249165002533842 0 -0.030070960669895761 0.31973516562072352 0 -0.02751972472131381 0.31161090479981501 0 -0.036459297991276923 0.31297100162527608 0 -0.030070960669895761 0.31973516562072352 0 -0.038424639961939989 0.32249165002533842 0 -0.036459297991276923 0.31297100162527608 0 -0.030070960669895761 0.31973516562072352 0 -0.02751972472131381 0.31161090479981501 0 -0.030070960669895761 0.31973516562072352 0 -0.020086201914928312 0.31807096160142551 0 -0.020511920457932459 0.30650150330352482 0 -0.020086201914928312 0.31807096160142551 0 -0.0093308457135628173 0.31723321705050672 0 -0.020086201914928312 0.31807096160142551 0 -0.024572013463304909 0.3267829854664604 0 -0.0153967339640542 0.33363107775136819 0 -0.030070960669895761 0.31973516562072352 0 -0.020086201914928312 0.31807096160142551 0 -0.024572013463304909 0.3267829854664604 0 -0.03233332036463827 0.32891804027125882 0 -0.030070960669895761 0.31973516562072352 0 -0.024572013463304909 0.3267829854664604 0 -0.019124866377017231 0.34370930429587832 0 -0.0153967339640542 0.33363107775136819 0 -0.023037701698988149 0.34944628585427417 0 -0.03233332036463827 0.32891804027125882 0 -0.024572013463304909 0.3267829854664604 0 -0.024839566207270208 0.33600561036544618 0 -0.0153967339640542 0.33363107775136819 0 -0.023037701698988149 0.34944628585427417 0 -0.024839566207270208 0.33600561036544618 0 -0.0153967339640542 0.33363107775136819 0 -0.023037701698988149 0.34944628585427417 0 -0.03233332036463827 0.32891804027125882 0 -0.031319267981626348 0.33641107444308671 0 -0.024839566207270208 0.33600561036544618 0 -0.031319267981626348 0.33641107444308671 0 -0.028080644199212971 0.3440450754131183 0 -0.033271488670734518 0.3467997040615528 0 -0.024839566207270208 0.33600561036544618 0 -0.023037701698988149 0.34944628585427417 0 -0.028080644199212971 0.3440450754131183 0 -0.031319267981626348 0.33641107444308671 0 -0.024839566207270208 0.33600561036544618 0 -0.028080644199212971 0.3440450754131183 0 -0.019124866377017231 0.34370930429587832 0 -0.0153967339640542 0.33363107775136819 0 -0.024572013463304909 0.3267829854664604 0 -0.024839566207270208 0.33600561036544618 0 -0.0153967339640542 0.33363107775136819 0 -0.0062323808828551224 0.33461536958361737 0 -0.01012069909096797 0.35061718579443291 0 0.0053448791358674261 0.3398377684093693 0 -0.019124866377017231 0.34370930429587832 0 -0.0062323808828551224 0.33461536958361737 0 -0.01012069909096797 0.35061718579443291 0 -0.0153967339640542 0.33363107775136819 0 -0.0062323808828551224 0.33461536958361737 0 -0.0093308457135628173 0.31723321705050672 0 -0.019124866377017231 0.34370930429587832 0 -0.0153967339640542 0.33363107775136819 0 -0.0062323808828551224 0.33461536958361737 0 -0.0062323808828551224 0.33461536958361737 0 -0.0093308457135628173 0.31723321705050672 0 0.0046366698239865469 0.32328774136327859 0 -0.0153967339640542 0.33363107775136819 0 -0.0093308457135628173 0.31723321705050672 0 -0.020086201914928312 0.31807096160142551 0 -0.0153967339640542 0.33363107775136819 0 -0.0093308457135628173 0.31723321705050672 0 -0.0093308457135628173 0.31723321705050672 0 0.0046366698239865469 0.32328774136327859 0 0.0032755366433567402 0.31052339785774491 0 -0.01015141446243099 0.37225082740078858 0 -0.0013866461761331409 0.35786357627480991 0 0.0016991597321124371 0.37954553274575858 0 -0.0013866461761331409 0.35786357627480991 0 -0.01688082976073484 0.36058331700264201 0 -0.025981249380106639 0.37268945321959879 0 -0.01015141446243099 0.37225082740078858 0 -0.0013866461761331409 0.35786357627480991 0 -0.025981249380106639 0.37268945321959879 0 -0.0013866461761331409 0.35786357627480991 0 -0.025981249380106639 0.37268945321959879 0 -0.0013866461761331409 0.35786357627480991 0 -0.01012069909096797 0.35061718579443291 0 0.0053448791358674261 0.3398377684093693 0 -0.0013866461761331409 0.35786357627480991 0 -0.01012069909096797 0.35061718579443291 0 -0.01688082976073484 0.36058331700264201 0 -0.01012069909096797 0.35061718579443291 0 -0.018761320567298331 0.35627379965855061 0 -0.01688082976073484 0.36058331700264201 0 -0.019124866377017231 0.34370930429587832 0 -0.018761320567298331 0.35627379965855061 0 -0.028918887040473278 0.37018539154124919 0 -0.019124866377017231 0.34370930429587832 0 -0.023037701698988149 0.34944628585427417 0 -0.028918887040473278 0.37018539154124919 0 -0.023037701698988149 0.34944628585427417 0 -0.03112162930027746 0.35642878076038331 0 -0.028918887040473278 0.37018539154124919 0 -0.019124866377017231 0.34370930429587832 0 -0.028918887040473278 0.37018539154124919 0 -0.019124866377017231 0.34370930429587832 0 -0.01012069909096797 0.35061718579443291 0 -0.018761320567298331 0.35627379965855061 0 -0.028958704941059388 0.34998962709534109 0 -0.03112162930027746 0.35642878076038331 0 -0.033271488670734518 0.3467997040615528 0 -0.023037701698988149 0.34944628585427417 0 -0.028958704941059388 0.34998962709534109 0 -0.028080644199212971 0.3440450754131183 0 -0.028958704941059388 0.34998962709534109 0 -0.028080644199212971 0.3440450754131183 0 -0.033271488670734518 0.3467997040615528 0 -0.023037701698988149 0.34944628585427417 0 -0.028958704941059388 0.34998962709534109 0 -0.03112162930027746 0.35642878076038331 0 -0.01015141446243099 0.37225082740078858 0 -0.025981249380106639 0.37268945321959879 0 -0.016635104969755551 0.37773279851226532 0 -0.018761320567298331 0.35627379965855061 0 -0.01688082976073484 0.36058331700264201 0 -0.028918887040473278 0.37018539154124919 0 -0.01688082976073484 0.36058331700264201 0 -0.025981249380106639 0.37268945321959879 0 -0.028918887040473278 0.37018539154124919 0 -0.028918887040473278 0.37018539154124919 0 -0.029983520936423341 0.37247799575402468 0 -0.028918887040473278 0.37018539154124919 0 -0.037976403362088178 0.3627640763159018 0 -0.043821607339640307 0.34614412260920652 0 -0.028918887040473278 0.37018539154124919 0 -0.029983520936423341 0.37247799575402468 0 -0.037976403362088178 0.3627640763159018 0 -0.029983520936423341 0.37247799575402468 0 -0.037976403362088178 0.3627640763159018 0 -0.029983520936423341 0.37247799575402468 0 -0.037976403362088178 0.3627640763159018 0 -0.034356909958003279 0.37864986700008813 0 -0.037976403362088178 0.3627640763159018 0 -0.042295846865674232 0.37177077488316529 0 -0.034356909958003279 0.37864986700008813 0 -0.037976403362088178 0.3627640763159018 0 -0.042295846865674232 0.37177077488316529 0 -0.051034344312188583 0.36475607933121901 0 -0.028918887040473278 0.37018539154124919 0 -0.043821607339640307 0.34614412260920652 0 -0.03112162930027746 0.35642878076038331 0 -0.028918887040473278 0.37018539154124919 0 -0.043821607339640307 0.34614412260920652 0 -0.056047606844183029 0.34080175966636173 0 -0.037976403362088178 0.3627640763159018 0 -0.043821607339640307 0.34614412260920652 0 -0.03112162930027746 0.35642878076038331 0 -0.033271488670734518 0.3467997040615528 0 -0.043821607339640307 0.34614412260920652 0 -0.037770931061080787 0.34073206010130352 0 -0.033271488670734518 0.3467997040615528 0 -0.043821607339640307 0.34614412260920652 0 -0.056047606844183029 0.34080175966636173 0 -0.037976403362088178 0.3627640763159018 0 -0.05494571745986454 0.35515977992729147 0 -0.056047606844183029 0.34080175966636173 0 -0.037976403362088178 0.3627640763159018 0 -0.05494571745986454 0.35515977992729147 0 -0.064025717328277137 0.35930088879272909 0 -0.065644515452585789 0.34817609553024581 0 -0.056047606844183029 0.34080175966636173 0 -0.05494571745986454 0.35515977992729147 0 -0.065644515452585789 0.34817609553024581 0 -0.037976403362088178 0.3627640763159018 0 -0.05494571745986454 0.35515977992729147 0 -0.051034344312188583 0.36475607933121901 0 -0.042295846865674232 0.37177077488316529 0 -0.04923138047971444 0.37294893489168313 0 -0.051034344312188583 0.36475607933121901 0 -0.04923138047971444 0.37294893489168313 0 -0.051034344312188583 0.36475607933121901 0 -0.059485772569637017 0.3705675222427845 0 -0.04923138047971444 0.37294893489168313 0 -0.059485772569637017 0.3705675222427845 0 -0.054557527940428667 0.38083585122769781 0 -0.05494571745986454 0.35515977992729147 0 -0.051034344312188583 0.36475607933121901 0 -0.064025717328277137 0.35930088879272909 0 -0.051034344312188583 0.36475607933121901 0 -0.059485772569637017 0.3705675222427845 0 -0.064025717328277137 0.35930088879272909 0 -0.068071478548525133 0.36868395153571271 0 -0.076653929993371062 0.37286978770400009 0 -0.064836848753324045 0.37878433425419622 0 -0.059485772569637017 0.3705675222427845 0 -0.068071478548525133 0.36868395153571271 0 -0.064836848753324045 0.37878433425419622 0 -0.072494028555561099 0.36128890774603151 0 -0.076653929993371062 0.37286978770400009 0 -0.080235211667710402 0.35162270788668748 0 -0.059485772569637017 0.3705675222427845 0 -0.068071478548525133 0.36868395153571271 0 -0.064025717328277137 0.35930088879272909 0 -0.068071478548525133 0.36868395153571271 0 -0.072494028555561099 0.36128890774603151 0 -0.064025717328277137 0.35930088879272909 0 -0.068071478548525133 0.36868395153571271 0 -0.072494028555561099 0.36128890774603151 0 -0.076653929993371062 0.37286978770400009 0 -0.09010156061686099 0.36325159007459018 0 -0.087516557329584188 0.37383258852793411 0 -0.080513225213100267 0.35765783985533639 0 -0.087516557329584188 0.37383258852793411 0 -0.080513225213100267 0.35765783985533639 0 -0.078309623362665046 0.38646817370353292 0 -0.076653929993371062 0.37286978770400009 0 -0.080513225213100267 0.35765783985533639 0 -0.078309623362665046 0.38646817370353292 0 -0.076653929993371062 0.37286978770400009 0 -0.080235211667710402 0.35162270788668748 0 -0.080513225213100267 0.35765783985533639 0 -0.078309623362665046 0.38646817370353292 0 -0.076653929993371062 0.37286978770400009 0 -0.080513225213100267 0.35765783985533639 0 -0.080235211667710402 0.35162270788668748 0 -0.09010156061686099 0.36325159007459018 0 -0.087516557329584188 0.37383258852793411 0 -0.096387334234153854 0.37498233386360869 0 -0.09010156061686099 0.36325159007459018 0 -0.086710704270879124 0.35486570113421362 0 -0.094166157631306341 0.35470042683994041 0 -0.088537366225417607 0.34709594101451341 0 -0.086710704270879124 0.35486570113421362 0 -0.094166157631306341 0.35470042683994041 0 -0.09010156061686099 0.36325159007459018 0 -0.086710704270879124 0.35486570113421362 0 -0.080513225213100267 0.35765783985533639 0 -0.086710704270879124 0.35486570113421362 0 -0.080513225213100267 0.35765783985533639 0 -0.080235211667710402 0.35162270788668748 0 -0.088537366225417607 0.34709594101451341 0 -0.086710704270879124 0.35486570113421362 0 -0.080235211667710402 0.35162270788668748 0 -0.080235211667710402 0.35162270788668748 0 -0.074321277380400744 0.34449801441377742 0 -0.082992509829041994 0.33994281591829523 0 -0.088537366225417607 0.34709594101451341 0 -0.080235211667710402 0.35162270788668748 0 -0.082992509829041994 0.33994281591829523 0 -0.074321277380400744 0.34449801441377742 0 -0.071344150076907017 0.35297732287389422 0 -0.065644515452585789 0.34817609553024581 0 -0.080235211667710402 0.35162270788668748 0 -0.074321277380400744 0.34449801441377742 0 -0.071344150076907017 0.35297732287389422 0 -0.072494028555561099 0.36128890774603151 0 -0.080235211667710402 0.35162270788668748 0 -0.071344150076907017 0.35297732287389422 0 -0.071344150076907017 0.35297732287389422 0 -0.064025717328277137 0.35930088879272909 0 -0.065644515452585789 0.34817609553024581 0 -0.072494028555561099 0.36128890774603151 0 -0.071344150076907017 0.35297732287389422 0 -0.064025717328277137 0.35930088879272909 0 -0.056047606844183029 0.34080175966636173 0 -0.069237353511010985 0.33732071294642918 0 -0.074118810326277901 0.31883944301682149 0 -0.056047606844183029 0.34080175966636173 0 -0.065644515452585789 0.34817609553024581 0 -0.069237353511010985 0.33732071294642918 0 -0.056047606844183029 0.34080175966636173 0 -0.074118810326277901 0.31883944301682149 0 -0.074321277380400744 0.34449801441377742 0 -0.065644515452585789 0.34817609553024581 0 -0.069237353511010985 0.33732071294642918 0 -0.069237353511010985 0.33732071294642918 0 -0.076054557551607518 0.33428825210493968 0 -0.074118810326277901 0.31883944301682149 0 -0.074321277380400744 0.34449801441377742 0 -0.076054557551607518 0.33428825210493968 0 -0.082992509829041994 0.33994281591829523 0 -0.074321277380400744 0.34449801441377742 0 -0.069237353511010985 0.33732071294642918 0 -0.076054557551607518 0.33428825210493968 0 -0.061722078161686039 0.32133897426926311 0 -0.056047606844183029 0.34080175966636173 0 -0.074118810326277901 0.31883944301682149 0 -0.065047648744271935 0.31248075799774561 0 -0.061722078161686039 0.32133897426926311 0 -0.074118810326277901 0.31883944301682149 0 -0.073168845355920928 0.30821155495798358 0 -0.065047648744271935 0.31248075799774561 0 -0.074118810326277901 0.31883944301682149 0 -0.093140913504989792 0.31607545514970647 0 -0.084530265690492531 0.3285677523784557 0 -0.096344537240545425 0.3336927957025152 0 -0.074118810326277901 0.31883944301682149 0 -0.093140913504989792 0.31607545514970647 0 -0.084530265690492531 0.3285677523784557 0 -0.076054557551607518 0.33428825210493968 0 -0.074118810326277901 0.31883944301682149 0 -0.084530265690492531 0.3285677523784557 0 -0.076054557551607518 0.33428825210493968 0 -0.082992509829041994 0.33994281591829523 0 -0.084530265690492531 0.3285677523784557 0 -0.082992509829041994 0.33994281591829523 0 -0.084530265690492531 0.3285677523784557 0 -0.096344537240545425 0.3336927957025152 0 -0.088537366225417607 0.34709594101451341 0 -0.082992509829041994 0.33994281591829523 0 -0.096344537240545425 0.3336927957025152 0 -0.096344537240545425 0.3336927957025152 0 -0.11418077762639529 0.3422386269714992 0 -0.099042112561174594 0.34601496470443538 0 -0.096344537240545425 0.3336927957025152 0 -0.11321448108480379 0.31932393730343023 0 -0.11418077762639529 0.3422386269714992 0 -0.088537366225417607 0.34709594101451341 0 -0.096344537240545425 0.3336927957025152 0 -0.099042112561174594 0.34601496470443538 0 -0.104886146059017 0.30587099623934411 0 -0.093140913504989792 0.31607545514970647 0 -0.11321448108480379 0.31932393730343023 0 -0.093140913504989792 0.31607545514970647 0 -0.096344537240545425 0.3336927957025152 0 -0.11321448108480379 0.31932393730343023 0 -0.13515147851790321 0.33097529163643608 0 -0.11321448108480379 0.31932393730343023 0 -0.11418077762639529 0.3422386269714992 0 -0.13433632643026469 0.35135985965279848 0 -0.11418077762639529 0.3422386269714992 0 -0.11875348889851001 0.36127029296516272 0 -0.11418077762639529 0.3422386269714992 0 -0.11875348889851001 0.36127029296516272 0 -0.1053726926719369 0.3544478877073497 0 -0.13478092132444111 0.37028542393035618 0 -0.11875348889851001 0.36127029296516272 0 -0.1193748346214611 0.37931865153482169 0 -0.11875348889851001 0.36127029296516272 0 -0.1074854360577784 0.37084542042970109 0 -0.1193748346214611 0.37931865153482169 0 -0.11875348889851001 0.36127029296516272 0 -0.1074854360577784 0.37084542042970109 0 -0.1053726926719369 0.3544478877073497 0 -0.1074854360577784 0.37084542042970109 0 -0.098915132781671355 0.36322933654747569 0 -0.1053726926719369 0.3544478877073497 0 -0.1074854360577784 0.37084542042970109 0 -0.096387334234153854 0.37498233386360869 0 -0.098915132781671355 0.36322933654747569 0 -0.09010156061686099 0.36325159007459018 0 -0.096387334234153854 0.37498233386360869 0 -0.098915132781671355 0.36322933654747569 0 -0.09010156061686099 0.36325159007459018 0 -0.098915132781671355 0.36322933654747569 0 -0.094166157631306341 0.35470042683994041 0 -0.098915132781671355 0.36322933654747569 0 -0.094166157631306341 0.35470042683994041 0 -0.1053726926719369 0.3544478877073497 0 -0.094166157631306341 0.35470042683994041 0 -0.099042112561174594 0.34601496470443538 0 -0.1053726926719369 0.3544478877073497 0 -0.088537366225417607 0.34709594101451341 0 -0.094166157631306341 0.35470042683994041 0 -0.099042112561174594 0.34601496470443538 0 -0.11418077762639529 0.3422386269714992 0 -0.099042112561174594 0.34601496470443538 0 -0.1053726926719369 0.3544478877073497 0 -0.10475084535841921 0.38991987109338599 0 -0.10586437025673349 0.41489412665418007 0 -0.09307808244169824 0.40012044659644119 0 -0.10475084535841921 0.38991987109338599 0 -0.09307808244169824 0.40012044659644119 0 -0.090860400224397189 0.38651051536125158 0 -0.096387334234153854 0.37498233386360869 0 -0.10475084535841921 0.38991987109338599 0 -0.090860400224397189 0.38651051536125158 0 -0.1074854360577784 0.37084542042970109 0 -0.096387334234153854 0.37498233386360869 0 -0.10475084535841921 0.38991987109338599 0 -0.1340432228732657 0.39160660414660009 0 -0.1193748346214611 0.37931865153482169 0 -0.1196065179232934 0.39931417515004419 0 -0.10475084535841921 0.38991987109338599 0 -0.1193748346214611 0.37931865153482169 0 -0.1196065179232934 0.39931417515004419 0 -0.1074854360577784 0.37084542042970109 0 -0.10475084535841921 0.38991987109338599 0 -0.1193748346214611 0.37931865153482169 0 -0.10475084535841921 0.38991987109338599 0 -0.1196065179232934 0.39931417515004419 0 -0.10586437025673349 0.41489412665418007 0 -0.13562271900123679 0.41450974575662641 0 -0.1171136872491691 0.43493878815214759 0 -0.10586437025673349 0.41489412665418007 0 -0.13562271900123679 0.41450974575662641 0 -0.10586437025673349 0.41489412665418007 0 -0.13562271900123679 0.41450974575662641 0 -0.1196065179232934 0.39931417515004419 0 -0.10586437025673349 0.41489412665418007 0 -0.1171136872491691 0.43493878815214759 0 -0.10586437025673349 0.41489412665418007 0 -0.1000437163130679 0.43848417810030171 0 -0.10586437025673349 0.41489412665418007 0 -0.091149667397137174 0.42781952175314752 0 -0.1000437163130679 0.43848417810030171 0 -0.10586437025673349 0.41489412665418007 0 -0.076106021512230213 0.41527850755172963 0 -0.09307808244169824 0.40012044659644119 0 -0.10586437025673349 0.41489412665418007 0 -0.076106021512230213 0.41527850755172963 0 -0.10586437025673349 0.41489412665418007 0 -0.091149667397137174 0.42781952175314752 0 -0.076106021512230213 0.41527850755172963 0 -0.086505026239451097 0.43728231981613208 0 -0.091149667397137174 0.42781952175314752 0 -0.1000437163130679 0.43848417810030171 0 -0.086505026239451097 0.43728231981613208 0 -0.091149667397137174 0.42781952175314752 0 -0.082033612582056742 0.42957677915957532 0 -0.091149667397137174 0.42781952175314752 0 -0.082033612582056742 0.42957677915957532 0 -0.076106021512230213 0.41527850755172963 0 -0.086505026239451097 0.43728231981613208 0 -0.082033612582056742 0.42957677915957532 0 -0.074373735179408484 0.43792676751729182 0 -0.066111259444932319 0.4354174963177414 0 -0.069491366644692493 0.41536394733862531 0 -0.082033612582056742 0.42957677915957532 0 -0.076106021512230213 0.41527850755172963 0 -0.074373735179408484 0.43792676751729182 0 -0.066111259444932319 0.4354174963177414 0 -0.076106021512230213 0.41527850755172963 0 -0.074373735179408484 0.43792676751729182 0 -0.066111259444932319 0.4354174963177414 0 -0.069491366644692493 0.41536394733862531 0 -0.058463373450948097 0.42381677415014302 0 -0.076106021512230213 0.41527850755172963 0 -0.074373735179408484 0.43792676751729182 0 -0.066111259444932319 0.4354174963177414 0 -0.076106021512230213 0.41527850755172963 0 -0.069491366644692493 0.41536394733862531 0 -0.076106021512230213 0.41527850755172963 0 -0.069491366644692493 0.41536394733862531 0 -0.073072648319031722 0.3941168675213127 0 -0.076106021512230213 0.41527850755172963 0 -0.069491366644692493 0.41536394733862531 0 -0.069491366644692493 0.41536394733862531 0 -0.073072648319031722 0.3941168675213127 0 -0.076106021512230213 0.41527850755172963 0 -0.078309623362665046 0.38646817370353292 0 -0.069491366644692493 0.41536394733862531 0 -0.073072648319031722 0.3941168675213127 0 -0.058188462088832132 0.40253343712763212 0 -0.076106021512230213 0.41527850755172963 0 -0.073072648319031722 0.3941168675213127 0 -0.078309623362665046 0.38646817370353292 0 -0.073072648319031722 0.3941168675213127 0 -0.058188462088832132 0.40253343712763212 0 -0.06165734836048279 0.39076371672510057 0 -0.076106021512230213 0.41527850755172963 0 -0.084588531885247661 0.39709441080323882 0 -0.078309623362665046 0.38646817370353292 0 -0.076106021512230213 0.41527850755172963 0 -0.084588531885247661 0.39709441080323882 0 -0.09307808244169824 0.40012044659644119 0 -0.084588531885247661 0.39709441080323882 0 -0.09307808244169824 0.40012044659644119 0 -0.090860400224397189 0.38651051536125158 0 -0.087516557329584188 0.37383258852793411 0 -0.096387334234153854 0.37498233386360869 0 -0.090860400224397189 0.38651051536125158 0 -0.084588531885247661 0.39709441080323882 0 -0.090860400224397189 0.38651051536125158 0 -0.078309623362665046 0.38646817370353292 0 -0.087516557329584188 0.37383258852793411 0 -0.090860400224397189 0.38651051536125158 0 -0.078309623362665046 0.38646817370353292 0 -0.076653929993371062 0.37286978770400009 0 -0.073072648319031722 0.3941168675213127 0 -0.069055193856552399 0.38413367655115238 0 -0.076653929993371062 0.37286978770400009 0 -0.073072648319031722 0.3941168675213127 0 -0.076653929993371062 0.37286978770400009 0 -0.073072648319031722 0.3941168675213127 0 -0.078309623362665046 0.38646817370353292 0 -0.073072648319031722 0.3941168675213127 0 -0.069055193856552399 0.38413367655115238 0 -0.06165734836048279 0.39076371672510057 0 -0.069055193856552399 0.38413367655115238 0 -0.064836848753324045 0.37878433425419622 0 -0.06165734836048279 0.39076371672510057 0 -0.076653929993371062 0.37286978770400009 0 -0.069055193856552399 0.38413367655115238 0 -0.064836848753324045 0.37878433425419622 0 -0.059485772569637017 0.3705675222427845 0 -0.064836848753324045 0.37878433425419622 0 -0.054557527940428667 0.38083585122769781 0 -0.064836848753324045 0.37878433425419622 0 -0.054557527940428667 0.38083585122769781 0 -0.06165734836048279 0.39076371672510057 0 -0.054557527940428667 0.38083585122769781 0 -0.06165734836048279 0.39076371672510057 0 -0.04891245101086867 0.39189197039406398 0 -0.054557527940428667 0.38083585122769781 0 -0.04891245101086867 0.39189197039406398 0 -0.044078893414308491 0.38133728730783922 0 -0.04923138047971444 0.37294893489168313 0 -0.054557527940428667 0.38083585122769781 0 -0.044078893414308491 0.38133728730783922 0 -0.058188462088832132 0.40253343712763212 0 -0.06165734836048279 0.39076371672510057 0 -0.04891245101086867 0.39189197039406398 0 -0.058188462088832132 0.40253343712763212 0 -0.04891245101086867 0.39189197039406398 0 -0.044350218289820893 0.40128569416870907 0 -0.04891245101086867 0.39189197039406398 0 -0.044350218289820893 0.40128569416870907 0 -0.035119244231161667 0.3919263254503374 0 -0.044350218289820893 0.40128569416870907 0 -0.035119244231161667 0.3919263254503374 0 -0.034235622300795389 0.40504648476626981 0 -0.042295846865674232 0.37177077488316529 0 -0.044078893414308491 0.38133728730783922 0 -0.034356909958003279 0.37864986700008813 0 -0.042295846865674232 0.37177077488316529 0 -0.04923138047971444 0.37294893489168313 0 -0.044078893414308491 0.38133728730783922 0 -0.04891245101086867 0.39189197039406398 0 -0.035119244231161667 0.3919263254503374 0 -0.044078893414308491 0.38133728730783922 0 -0.035119244231161667 0.3919263254503374 0 -0.044078893414308491 0.38133728730783922 0 -0.034356909958003279 0.37864986700008813 0 -0.029983520936423341 0.37247799575402468 0 -0.034356909958003279 0.37864986700008813 0 -0.019905199879993309 0.38472639296544192 0 -0.028918887040473278 0.37018539154124919 0 -0.029983520936423341 0.37247799575402468 0 -0.019905199879993309 0.38472639296544192 0 -0.028918887040473278 0.37018539154124919 0 -0.019905199879993309 0.38472639296544192 0 -0.025981249380106639 0.37268945321959879 0 -0.028918887040473278 0.37018539154124919 0 -0.019905199879993309 0.38472639296544192 0 -0.029983520936423341 0.37247799575402468 0 -0.019905199879993309 0.38472639296544192 0 -0.025981249380106639 0.37268945321959879 0 -0.016635104969755551 0.37773279851226532 0 -0.019905199879993309 0.38472639296544192 0 -0.035119244231161667 0.3919263254503374 0 -0.034356909958003279 0.37864986700008813 0 -0.019905199879993309 0.38472639296544192 0 -0.035119244231161667 0.3919263254503374 0 -0.019905199879993309 0.38472639296544192 0 -0.02338866201071246 0.40167223394549068 0 -0.019905199879993309 0.38472639296544192 0 -0.02338866201071246 0.40167223394549068 0 -0.016015075473542709 0.40029117329644509 0 -0.035119244231161667 0.3919263254503374 0 -0.034235622300795389 0.40504648476626981 0 -0.02338866201071246 0.40167223394549068 0 -0.02338866201071246 0.40167223394549068 0 -0.016015075473542709 0.40029117329644509 0 -0.01421804420639159 0.40849229722075342 0 -0.019905199879993309 0.38472639296544192 0 -0.0051115870550579026 0.40270538421380281 0 -0.019905199879993309 0.38472639296544192 0 -0.00654839579707347 0.40627376905409451 0 -0.019905199879993309 0.38472639296544192 0 -0.0051115870550579026 0.40270538421380281 0 -0.0058383104565521487 0.38842434075647703 0 -0.019905199879993309 0.38472639296544192 0 -0.016015075473542709 0.40029117329644509 0 -0.00654839579707347 0.40627376905409451 0 -0.019905199879993309 0.38472639296544192 0 -0.0051115870550579026 0.40270538421380281 0 -0.00654839579707347 0.40627376905409451 0 -0.016015075473542709 0.40029117329644509 0 -0.00654839579707347 0.40627376905409451 0 -0.01421804420639159 0.40849229722075342 0 -0.0051115870550579026 0.40270538421380281 0 -0.0058383104565521487 0.38842434075647703 0 0.0046286310766693031 0.39387987339415009 0 -0.0058383104565521487 0.38842434075647703 0 -0.010262283192800301 0.38074413332959922 0 0.0016991597321124371 0.37954553274575858 0 -0.01015141446243099 0.37225082740078858 0 -0.010262283192800301 0.38074413332959922 0 0.0016991597321124371 0.37954553274575858 0 -0.016635104969755551 0.37773279851226532 0 -0.019905199879993309 0.38472639296544192 0 -0.010262283192800301 0.38074413332959922 0 -0.01015141446243099 0.37225082740078858 0 -0.016635104969755551 0.37773279851226532 0 -0.010262283192800301 0.38074413332959922 0 -0.019905199879993309 0.38472639296544192 0 -0.0058383104565521487 0.38842434075647703 0 -0.010262283192800301 0.38074413332959922 0 -0.01507772493403029 0.42541439585725538 0 -0.013955642727995821 0.43605305908892272 0 -0.0049645001103141243 0.42800246128872799 0 -0.013955642727995821 0.43605305908892272 0 -0.0049645001103141243 0.42800246128872799 0 -0.00085659373153767517 0.43893874695334101 0 -0.01507772493403029 0.42541439585725538 0 -0.0049645001103141243 0.42800246128872799 0 -0.0026794566568588561 0.41622693950761008 0 -0.0049645001103141243 0.42800246128872799 0 -0.0026794566568588561 0.41622693950761008 0 0.0068084082858462366 0.42782114514274722 0 -0.0051115870550579026 0.40270538421380281 0 -0.00654839579707347 0.40627376905409451 0 0.0096820257698774989 0.42068437546216347 0 -0.00654839579707347 0.40627376905409451 0 -0.0026794566568588561 0.41622693950761008 0 0.0068084082858462366 0.42782114514274722 0 -0.0026794566568588561 0.41622693950761008 0 -0.024950093319470099 0.41593927545128212 0 -0.0026794566568588561 0.41622693950761008 0 -0.01421804420639159 0.40849229722075342 0 -0.024950093319470099 0.41593927545128212 0 -0.01507772493403029 0.42541439585725538 0 -0.0026794566568588561 0.41622693950761008 0 -0.024950093319470099 0.41593927545128212 0 -0.00654839579707347 0.40627376905409451 0 -0.0026794566568588561 0.41622693950761008 0 -0.01421804420639159 0.40849229722075342 0 -0.02338866201071246 0.40167223394549068 0 -0.01421804420639159 0.40849229722075342 0 -0.024950093319470099 0.41593927545128212 0 -0.034235622300795389 0.40504648476626981 0 -0.02338866201071246 0.40167223394549068 0 -0.024950093319470099 0.41593927545128212 0 -0.01507772493403029 0.42541439585725538 0 -0.024950093319470099 0.41593927545128212 0 -0.028838931855512558 0.43085024394973398 0 -0.01507772493403029 0.42541439585725538 0 -0.013955642727995821 0.43605305908892272 0 -0.028838931855512558 0.43085024394973398 0 -0.028838931855512558 0.43085024394973398 0 -0.047220729982081287 0.4156516113949541 0 -0.042209801009313402 0.44088508856626107 0 -0.024950093319470099 0.41593927545128212 0 -0.047220729982081287 0.4156516113949541 0 -0.024950093319470099 0.41593927545128212 0 -0.028838931855512558 0.43085024394973398 0 -0.047220729982081287 0.4156516113949541 0 -0.034235622300795389 0.40504648476626981 0 -0.024950093319470099 0.41593927545128212 0 -0.047220729982081287 0.4156516113949541 0 -0.044350218289820893 0.40128569416870907 0 -0.034235622300795389 0.40504648476626981 0 -0.047220729982081287 0.4156516113949541 0 -0.069491366644692493 0.41536394733862531 0 -0.047220729982081287 0.4156516113949541 0 -0.069491366644692493 0.41536394733862531 0 -0.058188462088832132 0.40253343712763212 0 -0.047220729982081287 0.4156516113949541 0 -0.069491366644692493 0.41536394733862531 0 -0.047220729982081287 0.4156516113949541 0 -0.058463373450948097 0.42381677415014302 0 -0.058188462088832132 0.40253343712763212 0 -0.044350218289820893 0.40128569416870907 0 -0.047220729982081287 0.4156516113949541 0 -0.047220729982081287 0.4156516113949541 0 -0.053994218696215873 0.43192493401550991 0 -0.042209801009313402 0.44088508856626107 0 -0.047220729982081287 0.4156516113949541 0 -0.053994218696215873 0.43192493401550991 0 -0.058463373450948097 0.42381677415014302 0 -0.066111259444932319 0.4354174963177414 0 -0.053994218696215873 0.43192493401550991 0 -0.055965929593804253 0.44385369964844962 0 -0.066111259444932319 0.4354174963177414 0 -0.053994218696215873 0.43192493401550991 0 -0.058463373450948097 0.42381677415014302 0 -0.066111259444932319 0.4354174963177414 0 -0.055965929593804253 0.44385369964844962 0 -0.062731152245172284 0.45547104529685728 0 -0.055965929593804253 0.44385369964844962 0 -0.050072281959076287 0.45227278029205281 0 -0.062731152245172284 0.45547104529685728 0 -0.055965929593804253 0.44385369964844962 0 -0.050072281959076287 0.45227278029205281 0 -0.042209801009313402 0.44088508856626107 0 -0.053994218696215873 0.43192493401550991 0 -0.055965929593804253 0.44385369964844962 0 -0.042209801009313402 0.44088508856626107 0 -0.059351045045412332 0.47552459427597321 0 -0.062731152245172284 0.45547104529685728 0 -0.051210073020453488 0.46384076045341921 0 -0.059351045045412332 0.47552459427597321 0 -0.062731152245172284 0.45547104529685728 0 -0.050072281959076287 0.45227278029205281 0 -0.051210073020453488 0.46384076045341921 0 -0.062731152245172284 0.45547104529685728 0 -0.038244453926638028 0.45731330749527688 0 -0.019407426997949132 0.46800857565709741 0 -0.039379236021681037 0.47176658496653351 0 -0.051210073020453488 0.46384076045341921 0 -0.038244453926638028 0.45731330749527688 0 -0.039379236021681037 0.47176658496653351 0 -0.050072281959076287 0.45227278029205281 0 -0.051210073020453488 0.46384076045341921 0 -0.038244453926638028 0.45731330749527688 0 -0.038244453926638028 0.45731330749527688 0 -0.042209801009313402 0.44088508856626107 0 -0.025381470488679839 0.44690805033303632 0 -0.050072281959076287 0.45227278029205281 0 -0.038244453926638028 0.45731330749527688 0 -0.042209801009313402 0.44088508856626107 0 -0.028838931855512558 0.43085024394973398 0 -0.042209801009313402 0.44088508856626107 0 -0.025381470488679839 0.44690805033303632 0 -0.013955642727995821 0.43605305908892272 0 -0.028838931855512558 0.43085024394973398 0 -0.025381470488679839 0.44690805033303632 0 -0.013955642727995821 0.43605305908892272 0 -0.025381470488679839 0.44690805033303632 0 -0.0099760964133002589 0.44888424519994929 0 -0.038244453926638028 0.45731330749527688 0 -0.025381470488679839 0.44690805033303632 0 -0.019407426997949132 0.46800857565709741 0 -0.025381470488679839 0.44690805033303632 0 -0.019407426997949132 0.46800857565709741 0 -0.0099760964133002589 0.44888424519994929 0 -0.019407426997949132 0.46800857565709741 0 -0.0062179193122818468 0.46262535980993602 0 -0.0099760964133002589 0.44888424519994929 0 -0.0062179193122818468 0.46262535980993602 0 -0.0099760964133002589 0.44888424519994929 0 0.0043144051270178176 0.45472756546099208 0 -0.00085659373153767517 0.43893874695334101 0 -0.0099760964133002589 0.44888424519994929 0 0.0043144051270178176 0.45472756546099208 0 -0.013955642727995821 0.43605305908892272 0 -0.00085659373153767517 0.43893874695334101 0 -0.0099760964133002589 0.44888424519994929 0 -0.0098159050808084292 0.5 0 -0.026393167945906709 0.48583184462959861 0 0.002158897103366377 0.47666983883055269 0 -0.019407426997949132 0.46800857565709741 0 -0.0062179193122818468 0.46262535980993602 0 0.002158897103366377 0.47666983883055269 0 -0.019407426997949132 0.46800857565709741 0 -0.026393167945906709 0.48583184462959861 0 0.002158897103366377 0.47666983883055269 0 -0.019407426997949132 0.46800857565709741 0 -0.026393167945906709 0.48583184462959861 0 -0.039379236021681037 0.47176658496653351 0 -0.019407426997949132 0.46800857565709741 0 -0.039379236021681037 0.47176658496653351 0 -0.0098159050808084292 0.5 0 -0.026393167945906709 0.48583184462959861 0 -0.039266895722206097 0.5 0 -0.026393167945906709 0.48583184462959861 0 -0.039266895722206097 0.5 0 -0.044432924828494549 0.48360045523529888 0 -0.026393167945906709 0.48583184462959861 0 -0.044432924828494549 0.48360045523529888 0 -0.039379236021681037 0.47176658496653351 0 -0.051210073020453488 0.46384076045341921 0 -0.039379236021681037 0.47176658496653351 0 -0.059351045045412332 0.47552459427597321 0 -0.039379236021681037 0.47176658496653351 0 -0.059351045045412332 0.47552459427597321 0 -0.044432924828494549 0.48360045523529888 0 -0.039379236021681037 0.47176658496653351 0 -0.059351045045412332 0.47552459427597321 0 -0.044432924828494549 0.48360045523529888 0 -0.059351045045412332 0.47552459427597321 0 -0.057774279407266552 0.48487925230438927 0 -0.059351045045412332 0.47552459427597321 0 -0.057774279407266552 0.48487925230438927 0 -0.039266895722206097 0.5 0 -0.044432924828494549 0.48360045523529888 0 -0.057774279407266552 0.48487925230438927 0 -0.039266895722206097 0.5 0 -0.057774279407266552 0.48487925230438927 0 -0.068717886363603764 0.5 0 -0.057774279407266552 0.48487925230438927 0 -0.068717886363603764 0.5 0 -0.07139197772522568 0.48654405317995369 0 -0.068717886363603764 0.5 0 -0.07139197772522568 0.48654405317995369 0 -0.098168877005001431 0.5 0 -0.07139197772522568 0.48654405317995369 0 -0.083485184616038557 0.48006581140226368 0 -0.098168877005001431 0.5 0 -0.083485184616038557 0.48006581140226368 0 -0.08979005424190642 0.46304604339360572 0 -0.1070060965162494 0.46802879244735263 0 -0.059351045045412332 0.47552459427597321 0 -0.07139197772522568 0.48654405317995369 0 -0.083485184616038557 0.48006581140226368 0 -0.059351045045412332 0.47552459427597321 0 -0.083485184616038557 0.48006581140226368 0 -0.059351045045412332 0.47552459427597321 0 -0.083485184616038557 0.48006581140226368 0 -0.072641448846587145 0.460575027482854 0 -0.059351045045412332 0.47552459427597321 0 -0.057774279407266552 0.48487925230438927 0 -0.07139197772522568 0.48654405317995369 0 -0.059351045045412332 0.47552459427597321 0 -0.072641448846587145 0.460575027482854 0 -0.062731152245172284 0.45547104529685728 0 -0.066111259444932319 0.4354174963177414 0 -0.062731152245172284 0.45547104529685728 0 -0.074373735179408484 0.43792676751729182 0 -0.072641448846587145 0.460575027482854 0 -0.074373735179408484 0.43792676751729182 0 -0.08695534114225098 0.45027946888079862 0 -0.072641448846587145 0.460575027482854 0 -0.062731152245172284 0.45547104529685728 0 -0.074373735179408484 0.43792676751729182 0 -0.072641448846587145 0.460575027482854 0 -0.074373735179408484 0.43792676751729182 0 -0.066111259444932319 0.4354174963177414 0 -0.062731152245172284 0.45547104529685728 0 -0.086505026239451097 0.43728231981613208 0 -0.074373735179408484 0.43792676751729182 0 -0.08695534114225098 0.45027946888079862 0 -0.086505026239451097 0.43728231981613208 0 -0.08695534114225098 0.45027946888079862 0 -0.1000437163130679 0.43848417810030171 0 -0.083485184616038557 0.48006581140226368 0 -0.072641448846587145 0.460575027482854 0 -0.08979005424190642 0.46304604339360572 0 -0.072641448846587145 0.460575027482854 0 -0.08695534114225098 0.45027946888079862 0 -0.08979005424190642 0.46304604339360572 0 -0.08979005424190642 0.46304604339360572 0 -0.1070060965162494 0.46802879244735263 0 -0.1045359519538876 0.45162414842253629 0 -0.08695534114225098 0.45027946888079862 0 -0.08979005424190642 0.46304604339360572 0 -0.1045359519538876 0.45162414842253629 0 -0.08695534114225098 0.45027946888079862 0 -0.1045359519538876 0.45162414842253629 0 -0.1000437163130679 0.43848417810030171 0 -0.1171136872491691 0.43493878815214759 0 -0.1045359519538876 0.45162414842253629 0 -0.1000437163130679 0.43848417810030171 0 -0.1171136872491691 0.43493878815214759 0 -0.1045359519538876 0.45162414842253629 0 -0.1210539563454964 0.45007944702404551 0 -0.13556140962459221 0.44004108295519628 0 -0.1171136872491691 0.43493878815214759 0 -0.1210539563454964 0.45007944702404551 0 -0.1070060965162494 0.46802879244735263 0 -0.1210539563454964 0.45007944702404551 0 -0.1235375556295443 0.4663256329931314 0 -0.1070060965162494 0.46802879244735263 0 -0.1045359519538876 0.45162414842253629 0 -0.1210539563454964 0.45007944702404551 0 -0.1070060965162494 0.46802879244735263 0 -0.1207793097759514 0.47637562759578478 0 -0.1076193241866641 0.48460702852855758 0 -0.13175346375728969 0.48914824565485149 0 -0.1207793097759514 0.47637562759578478 0 -0.1076193241866641 0.48460702852855758 0 -0.1070060965162494 0.46802879244735263 0 -0.1235375556295443 0.4663256329931314 0 -0.1207793097759514 0.47637562759578478 0 -0.1276198676463991 0.5 0 -0.098168877005001431 0.5 0 -0.1076193241866641 0.48460702852855758 0 -0.1276198676463991 0.5 0 -0.13175346375728969 0.48914824565485149 0 -0.1076193241866641 0.48460702852855758 0 -0.13175346375728969 0.48914824565485149 0 -0.1076193241866641 0.48460702852855758 0 -0.083485184616038557 0.48006581140226368 0 -0.098168877005001431 0.5 0 -0.1076193241866641 0.48460702852855758 0 -0.083485184616038557 0.48006581140226368 0 -0.1076193241866641 0.48460702852855758 0 -0.083485184616038557 0.48006581140226368 0 -0.1070060965162494 0.46802879244735263 0 -0.1076193241866641 0.48460702852855758 0 -0.16291591837663261 0.09072456451739927 0 -0.16337967940438439 0.080238656699262501 0 -0.17846052024954409 0.085815934380399805 0 -0.16291591837663261 0.09072456451739927 0 -0.16337967940438439 0.080238656699262501 0 -0.15003080809215569 0.08409523066823836 0 -0.1570456579919487 0.066331894536380748 0 -0.17476264976523301 0.071018410928231634 0 -0.17035575221229959 0.058470148226551028 0 -0.17476264976523301 0.071018410928231634 0 -0.15072850053835651 0.069539143002043391 0 -0.16337967940438439 0.080238656699262501 0 -0.17476264976523301 0.071018410928231634 0 -0.15072850053835651 0.069539143002043391 0 -0.1570456579919487 0.066331894536380748 0 -0.17476264976523301 0.071018410928231634 0 -0.15072850053835651 0.069539143002043391 0 -0.17476264976523301 0.071018410928231634 0 -0.17846052024954409 0.085815934380399805 0 -0.19175150680220571 0.075306105309989546 0 -0.17476264976523301 0.071018410928231634 0 -0.19879679899210961 0.072497678854419934 0 -0.17476264976523301 0.071018410928231634 0 -0.17035575221229959 0.058470148226551028 0 -0.18736245529492149 0.062290225335229092 0 -0.17476264976523301 0.071018410928231634 0 -0.18736245529492149 0.062290225335229092 0 -0.19879679899210961 0.072497678854419934 0 -0.16337967940438439 0.080238656699262501 0 -0.17476264976523301 0.071018410928231634 0 -0.17846052024954409 0.085815934380399805 0 -0.17846052024954409 0.085815934380399805 0 -0.1873528755410932 0.098516536583886469 0 -0.19357428176136859 0.086703775342432024 0 -0.17846052024954409 0.085815934380399805 0 -0.1873528755410932 0.098516536583886469 0 -0.1704656894384021 0.10778789052988021 0 -0.1873528755410932 0.098516536583886469 0 -0.1704656894384021 0.10778789052988021 0 -0.19031642460930229 0.117392510386436 0 -0.1704656894384021 0.10778789052988021 0 -0.19031642460930229 0.117392510386436 0 -0.16822649156373681 0.13343210287057619 0 -0.1704656894384021 0.10778789052988021 0 -0.14976048667201519 0.1224066337179356 0 -0.16822649156373681 0.13343210287057619 0 -0.1704656894384021 0.10778789052988021 0 -0.1549179814870052 0.10402155530601551 0 -0.14976048667201519 0.1224066337179356 0 -0.16291591837663261 0.09072456451739927 0 -0.1704656894384021 0.10778789052988021 0 -0.1549179814870052 0.10402155530601551 0 -0.16291591837663261 0.09072456451739927 0 -0.17846052024954409 0.085815934380399805 0 -0.1704656894384021 0.10778789052988021 0 -0.1549179814870052 0.10402155530601551 0 -0.14037461147854871 0.097017337523242916 0 -0.15003080809215569 0.08409523066823836 0 -0.1549179814870052 0.10402155530601551 0 -0.13129448178029141 0.1113811645652984 0 -0.14037461147854871 0.097017337523242916 0 -0.1549179814870052 0.10402155530601551 0 -0.14976048667201519 0.1224066337179356 0 -0.13129448178029141 0.1113811645652984 0 -0.14976048667201519 0.1224066337179356 0 -0.13129448178029141 0.1113811645652984 0 -0.14976048667201519 0.1224066337179356 0 -0.13129448178029141 0.1113811645652984 0 -0.1357926887496792 0.12519306973963851 0 -0.13129448178029141 0.1113811645652984 0 -0.1357926887496792 0.12519306973963851 0 -0.1234209741501253 0.123579871801461 0 -0.13129448178029141 0.1113811645652984 0 -0.14037461147854871 0.097017337523242916 0 -0.12605659733652211 0.098383887347947896 0 -0.14037461147854871 0.097017337523242916 0 -0.12605659733652211 0.098383887347947896 0 -0.13018217052453371 0.089911949302351371 0 -0.13018217052453371 0.089911949302351371 0 -0.13728814913483661 0.076362868187552752 0 -0.117379344710743 0.086470655259734588 0 -0.13728814913483661 0.076362868187552752 0 -0.117379344710743 0.086470655259734588 0 -0.14037461147854871 0.097017337523242916 0 -0.13018217052453371 0.089911949302351371 0 -0.13728814913483661 0.076362868187552752 0 -0.13728814913483661 0.076362868187552752 0 -0.13086536968558871 0.073375436390601317 0 -0.117379344710743 0.086470655259734588 0 -0.14037461147854871 0.097017337523242916 0 -0.13728814913483661 0.076362868187552752 0 -0.16291591837663261 0.09072456451739927 0 -0.1549179814870052 0.10402155530601551 0 -0.15003080809215569 0.08409523066823836 0 -0.14037461147854871 0.097017337523242916 0 -0.15003080809215569 0.08409523066823836 0 -0.13728814913483661 0.076362868187552752 0 -0.1570456579919487 0.066331894536380748 0 -0.15072850053835651 0.069539143002043391 0 -0.15113200072984781 0.060526302131311299 0 -0.15072850053835651 0.069539143002043391 0 -0.15113200072984781 0.060526302131311299 0 -0.14361674179495401 0.061073776766224393 0 -0.1570456579919487 0.066331894536380748 0 -0.15072850053835651 0.069539143002043391 0 -0.16337967940438439 0.080238656699262501 0 -0.15003080809215569 0.08409523066823836 0 -0.15072850053835651 0.069539143002043391 0 -0.15003080809215569 0.08409523066823836 0 -0.15072850053835651 0.069539143002043391 0 -0.13728814913483661 0.076362868187552752 0 -0.15072850053835651 0.069539143002043391 0 -0.1361342290707146 0.068640886213986563 0 -0.13728814913483661 0.076362868187552752 0 -0.15072850053835651 0.069539143002043391 0 -0.13728814913483661 0.076362868187552752 0 -0.15072850053835651 0.069539143002043391 0 -0.1361342290707146 0.068640886213986563 0 -0.14361674179495401 0.061073776766224393 0 -0.15072850053835651 0.069539143002043391 0 -0.1361342290707146 0.068640886213986563 0 -0.1361342290707146 0.068640886213986563 0 -0.13728814913483661 0.076362868187552752 0 -0.1361342290707146 0.068640886213986563 0 -0.13728814913483661 0.076362868187552752 0 -0.13086536968558871 0.073375436390601317 0 -0.1361342290707146 0.068640886213986563 0 -0.13086536968558871 0.073375436390601317 0 -0.1240288775116101 0.07416428352189007 0 -0.1361342290707146 0.068640886213986563 0 -0.13248998063129111 0.044253737024540447 0 -0.14361674179495401 0.061073776766224393 0 -0.1361342290707146 0.068640886213986563 0 -0.13248998063129111 0.044253737024540447 0 -0.1234520288619631 0.056789454041839237 0 -0.1361342290707146 0.068640886213986563 0 -0.13248998063129111 0.044253737024540447 0 -0.13248998063129111 0.044253737024540447 0 -0.12884573219186721 0.01986658783509444 0 -0.13248998063129111 0.044253737024540447 0 -0.12884573219186721 0.01986658783509444 0 -0.12097966538823469 0.03382201584410828 0 -0.13248998063129111 0.044253737024540447 0 -0.15243519549292231 0.033058690161477902 0 -0.12884573219186721 0.01986658783509444 0 -0.15243519549292231 0.033058690161477902 0 -0.14669883199084771 0.052758155964914032 0 -0.15757027133313189 0.052928540386993912 0 -0.13248998063129111 0.044253737024540447 0 -0.15243519549292231 0.033058690161477902 0 -0.14669883199084771 0.052758155964914032 0 -0.13248998063129111 0.044253737024540447 0 -0.14361674179495401 0.061073776766224393 0 -0.14669883199084771 0.052758155964914032 0 -0.15113200072984781 0.060526302131311299 0 -0.14669883199084771 0.052758155964914032 0 -0.15757027133313189 0.052928540386993912 0 -0.1570456579919487 0.066331894536380748 0 -0.15113200072984781 0.060526302131311299 0 -0.15757027133313189 0.052928540386993912 0 -0.15113200072984781 0.060526302131311299 0 -0.14361674179495401 0.061073776766224393 0 -0.14669883199084771 0.052758155964914032 0 -0.1270076602408961 0.0054890085451015942 0 -0.12884573219186721 0.01986658783509444 0 -0.14417465242012609 0.01060061176279063 0 -0.14422967234624631 -0.01310578201341526 0 -0.1270076602408961 0.0054890085451015942 0 -0.14417465242012609 0.01060061176279063 0 -0.15243519549292231 0.033058690161477902 0 -0.12884573219186721 0.01986658783509444 0 -0.14417465242012609 0.01060061176279063 0 -0.15243519549292231 0.033058690161477902 0 -0.14417465242012609 0.01060061176279063 0 -0.161915684297986 0.0081328403297782435 0 -0.14422967234624631 -0.01310578201341526 0 -0.14417465242012609 0.01060061176279063 0 -0.161915684297986 0.0081328403297782435 0 -0.16333232793836591 -0.0057482787726198551 0 -0.161915684297986 0.0081328403297782435 0 -0.17752245030844591 0.0069133390987278784 0 -0.16333232793836591 -0.0057482787726198551 0 -0.17752245030844591 0.0069133390987278784 0 -0.16333232793836591 -0.0057482787726198551 0 -0.17383021784488911 -0.00087598240050870343 0 -0.17752245030844591 0.0069133390987278784 0 -0.161915684297986 0.0081328403297782435 0 -0.1796016962497255 0.029371462672971849 0 -0.15243519549292231 0.033058690161477902 0 -0.161915684297986 0.0081328403297782435 0 -0.1796016962497255 0.029371462672971849 0 -0.1796016962497255 0.029371462672971849 0 -0.17752245030844591 0.0069133390987278784 0 -0.1878364961859606 0.021177344258382639 0 -0.1796016962497255 0.029371462672971849 0 -0.1910787450263538 0.034607330933971933 0 -0.1878364961859606 0.021177344258382639 0 -0.17383021784488911 -0.00087598240050870343 0 -0.1878364961859606 0.021177344258382639 0 -0.17383021784488911 -0.00087598240050870343 0 -0.17752245030844591 0.0069133390987278784 0 -0.1878364961859606 0.021177344258382639 0 -0.17383021784488911 -0.00087598240050870343 0 -0.19104630947942389 0.01047380165000469 0 -0.1878364961859606 0.021177344258382639 0 -0.161915684297986 0.0081328403297782435 0 -0.1796016962497255 0.029371462672971849 0 -0.17752245030844591 0.0069133390987278784 0 -0.17035575221229959 0.058470148226551028 0 -0.15757027133313189 0.052928540386993912 0 -0.1678490263996463 0.044630170896506033 0 -0.1570456579919487 0.066331894536380748 0 -0.17035575221229959 0.058470148226551028 0 -0.15757027133313189 0.052928540386993912 0 -0.15243519549292231 0.033058690161477902 0 -0.1796016962497255 0.029371462672971849 0 -0.1678490263996463 0.044630170896506033 0 -0.15243519549292231 0.033058690161477902 0 -0.15757027133313189 0.052928540386993912 0 -0.1678490263996463 0.044630170896506033 0 -0.1796016962497255 0.029371462672971849 0 -0.18049132767161161 0.04907441842948472 0 -0.1972877082014651 0.050610085016165568 0 -0.1796016962497255 0.029371462672971849 0 -0.1678490263996463 0.044630170896506033 0 -0.18049132767161161 0.04907441842948472 0 -0.17035575221229959 0.058470148226551028 0 -0.18049132767161161 0.04907441842948472 0 -0.18736245529492149 0.062290225335229092 0 -0.17035575221229959 0.058470148226551028 0 -0.1678490263996463 0.044630170896506033 0 -0.18049132767161161 0.04907441842948472 0 -0.18736245529492149 0.062290225335229092 0 -0.1972877082014651 0.050610085016165568 0 -0.19879679899210961 0.072497678854419934 0 -0.18049132767161161 0.04907441842948472 0 -0.18736245529492149 0.062290225335229092 0 -0.1972877082014651 0.050610085016165568 0 -0.1972877082014651 0.050610085016165568 0 -0.20184277452703209 0.043230670917273888 0 -0.20620530067410839 0.05009960582179529 0 -0.2016831788684835 0.033603599416646562 0 -0.20001254092635881 0.040348910432808187 0 -0.1878364961859606 0.021177344258382639 0 -0.1910787450263538 0.034607330933971933 0 -0.20001254092635881 0.040348910432808187 0 -0.1878364961859606 0.021177344258382639 0 -0.1972877082014651 0.050610085016165568 0 -0.1910787450263538 0.034607330933971933 0 -0.20001254092635881 0.040348910432808187 0 -0.1796016962497255 0.029371462672971849 0 -0.1972877082014651 0.050610085016165568 0 -0.1910787450263538 0.034607330933971933 0 -0.1796016962497255 0.029371462672971849 0 -0.1972877082014651 0.050610085016165568 0 -0.2016831788684835 0.033603599416646562 0 -0.20001254092635881 0.040348910432808187 0 -0.20184277452703209 0.043230670917273888 0 -0.1972877082014651 0.050610085016165568 0 -0.20001254092635881 0.040348910432808187 0 -0.20184277452703209 0.043230670917273888 0 -0.20001254092635881 0.040348910432808187 0 -0.20184277452703209 0.043230670917273888 0 -0.2016831788684835 0.033603599416646562 0 -0.20184277452703209 0.043230670917273888 0 -0.2123200482575435 0.056733397183288112 0 -0.2016831788684835 0.033603599416646562 0 -0.21849186022854031 0.037197087861506488 0 -0.2123200482575435 0.056733397183288112 0 -0.20184277452703209 0.043230670917273888 0 -0.20620530067410839 0.05009960582179529 0 -0.2016831788684835 0.033603599416646562 0 -0.2123200482575435 0.056733397183288112 0 -0.1972877082014651 0.050610085016165568 0 -0.2123200482575435 0.056733397183288112 0 -0.21497372015320571 0.071848707359358471 0 -0.1972877082014651 0.050610085016165568 0 -0.21497372015320571 0.071848707359358471 0 -0.20184277452703209 0.043230670917273888 0 -0.2123200482575435 0.056733397183288112 0 -0.1972877082014651 0.050610085016165568 0 -0.2123200482575435 0.056733397183288112 0 -0.20620530067410839 0.05009960582179529 0 -0.20184277452703209 0.043230670917273888 0 -0.2123200482575435 0.056733397183288112 0 -0.20620530067410839 0.05009960582179529 0 -0.19104630947942389 0.01047380165000469 0 -0.20488257029654081 0.018121545491211699 0 -0.20987163203899811 0.0031202334755927319 0 -0.19771232677283049 -0.0035869177676293379 0 -0.19104630947942389 0.01047380165000469 0 -0.20987163203899811 0.0031202334755927319 0 -0.2016831788684835 0.033603599416646562 0 -0.19104630947942389 0.01047380165000469 0 -0.2016831788684835 0.033603599416646562 0 -0.19104630947942389 0.01047380165000469 0 -0.1878364961859606 0.021177344258382639 0 -0.20001254092635881 0.040348910432808187 0 -0.1878364961859606 0.021177344258382639 0 -0.2016831788684835 0.033603599416646562 0 -0.19104630947942389 0.01047380165000469 0 -0.20488257029654081 0.018121545491211699 0 -0.2016831788684835 0.033603599416646562 0 -0.21849186022854031 0.037197087861506488 0 -0.20488257029654081 0.018121545491211699 0 -0.21849186022854031 0.037197087861506488 0 -0.20488257029654081 0.018121545491211699 0 -0.22426682123207159 0.019484797504832611 0 -0.20488257029654081 0.018121545491211699 0 -0.20987163203899811 0.0031202334755927319 0 -0.22426682123207159 0.019484797504832611 0 -0.20987163203899811 0.0031202334755927319 0 -0.22426682123207159 0.019484797504832611 0 -0.22661941181265161 -0.002192526522613961 0 -0.20987163203899811 0.0031202334755927319 0 -0.22426682123207159 0.019484797504832611 0 -0.22661941181265161 -0.002192526522613961 0 -0.22426682123207159 0.019484797504832611 0 -0.2380175016831092 0.0123456433636914 0 -0.22426682123207159 0.019484797504832611 0 -0.2380175016831092 0.0123456433636914 0 -0.23866201042514501 0.035849361534072498 0 -0.22426682123207159 0.019484797504832611 0 -0.23866201042514501 0.035849361534072498 0 -0.21849186022854031 0.037197087861506488 0 -0.22426682123207159 0.019484797504832611 0 -0.23866201042514501 0.035849361534072498 0 -0.25079421002476948 0.02110945866695265 0 -0.2380175016831092 0.0123456433636914 0 -0.23866201042514501 0.035849361534072498 0 -0.25079421002476948 0.02110945866695265 0 -0.2380175016831092 0.0123456433636914 0 -0.24960084376701569 0.0020560893945085678 0 -0.22661941181265161 -0.002192526522613961 0 -0.2380175016831092 0.0123456433636914 0 -0.24960084376701569 0.0020560893945085678 0 -0.22824038651476419 0.05335240730260643 0 -0.23621911950869531 0.062217690453898543 0 -0.22310878996075351 0.070637531953475802 0 -0.21849186022854031 0.037197087861506488 0 -0.2123200482575435 0.056733397183288112 0 -0.22824038651476419 0.05335240730260643 0 -0.2123200482575435 0.056733397183288112 0 -0.22824038651476419 0.05335240730260643 0 -0.22310878996075351 0.070637531953475802 0 -0.21849186022854031 0.037197087861506488 0 -0.22824038651476419 0.05335240730260643 0 -0.23866201042514501 0.035849361534072498 0 -0.25305719961821771 0.052213925563313057 0 -0.23866201042514501 0.035849361534072498 0 -0.22824038651476419 0.05335240730260643 0 -0.23866201042514501 0.035849361534072498 0 -0.24011014373187911 0.053785701792500737 0 -0.25305719961821771 0.052213925563313057 0 -0.23866201042514501 0.035849361534072498 0 -0.24011014373187911 0.053785701792500737 0 -0.24011014373187911 0.053785701792500737 0 -0.23621911950869531 0.062217690453898543 0 -0.2443720025925735 0.06529512410861317 0 -0.22824038651476419 0.05335240730260643 0 -0.24011014373187911 0.053785701792500737 0 -0.23621911950869531 0.062217690453898543 0 -0.25305719961821771 0.052213925563313057 0 -0.24011014373187911 0.053785701792500737 0 -0.2443720025925735 0.06529512410861317 0 -0.25305719961821771 0.052213925563313057 0 -0.2443720025925735 0.06529512410861317 0 -0.243513844780578 0.067599561642452954 0 -0.23971439066569139 0.081524441277506354 0 -0.22310878996075351 0.070637531953475802 0 -0.25138779661809041 0.077660573920342188 0 -0.243513844780578 0.067599561642452954 0 -0.23971439066569139 0.081524441277506354 0 -0.23621911950869531 0.062217690453898543 0 -0.2443720025925735 0.06529512410861317 0 -0.243513844780578 0.067599561642452954 0 -0.25138779661809041 0.077660573920342188 0 -0.24825070137420599 0.08822620104569498 0 -0.23971439066569139 0.081524441277506354 0 -0.24825070137420599 0.08822620104569498 0 -0.23971439066569139 0.081524441277506354 0 -0.23449629070043099 0.085313325418152952 0 -0.23971439066569139 0.081524441277506354 0 -0.23449629070043099 0.085313325418152952 0 -0.23449629070043099 0.085313325418152952 0 -0.21240635765486671 0.1013529179022945 0 -0.23449629070043099 0.085313325418152952 0 -0.2246038731091422 0.083444488034001257 0 -0.21240635765486671 0.1013529179022945 0 -0.23971439066569139 0.081524441277506354 0 -0.23449629070043099 0.085313325418152952 0 -0.22310878996075351 0.070637531953475802 0 -0.23449629070043099 0.085313325418152952 0 -0.2246038731091422 0.083444488034001257 0 -0.22310878996075351 0.070637531953475802 0 -0.23621911950869531 0.062217690453898543 0 -0.243513844780578 0.067599561642452954 0 -0.22310878996075351 0.070637531953475802 0 -0.243513844780578 0.067599561642452954 0 -0.22310878996075351 0.070637531953475802 0 -0.23449629070043099 0.085313325418152952 0 -0.22310878996075351 0.070637531953475802 0 -0.2246038731091422 0.083444488034001257 0 -0.22310878996075351 0.070637531953475802 0 -0.21899584936740971 0.071249879801787222 0 -0.2246038731091422 0.083444488034001257 0 -0.21899584936740971 0.071249879801787222 0 -0.21840413418618079 0.075968192765451997 0 -0.2246038731091422 0.083444488034001257 0 -0.21899584936740971 0.071249879801787222 0 -0.22310878996075351 0.070637531953475802 0 -0.21899584936740971 0.071249879801787222 0 -0.21497372015320571 0.071848707359358471 0 -0.19175150680220571 0.075306105309989546 0 -0.2123200482575435 0.056733397183288112 0 -0.22310878996075351 0.070637531953475802 0 -0.2123200482575435 0.056733397183288112 0 -0.21899584936740971 0.071249879801787222 0 -0.21497372015320571 0.071848707359358471 0 -0.2123200482575435 0.056733397183288112 0 -0.22310878996075351 0.070637531953475802 0 -0.21899584936740971 0.071249879801787222 0 -0.21497372015320571 0.071848707359358471 0 -0.20274122729919231 0.079789711305644676 0 -0.19175150680220571 0.075306105309989546 0 -0.2123200482575435 0.056733397183288112 0 -0.21899584936740971 0.071249879801787222 0 -0.1972877082014651 0.050610085016165568 0 -0.21497372015320571 0.071848707359358471 0 -0.19879679899210961 0.072497678854419934 0 -0.21497372015320571 0.071848707359358471 0 -0.20947709227975311 0.079926416133435041 0 -0.20274122729919231 0.079789711305644676 0 -0.21497372015320571 0.071848707359358471 0 -0.21840413418618079 0.075968192765451997 0 -0.20947709227975311 0.079926416133435041 0 -0.21899584936740971 0.071249879801787222 0 -0.21497372015320571 0.071848707359358471 0 -0.21899584936740971 0.071249879801787222 0 -0.21497372015320571 0.071848707359358471 0 -0.21840413418618079 0.075968192765451997 0 -0.21497372015320571 0.071848707359358471 0 -0.21840413418618079 0.075968192765451997 0 -0.2246038731091422 0.083444488034001257 0 -0.21207508340843381 0.086642395812071699 0 -0.21240635765486671 0.1013529179022945 0 -0.2246038731091422 0.083444488034001257 0 -0.21840413418618079 0.075968192765451997 0 -0.21207508340843381 0.086642395812071699 0 -0.21840413418618079 0.075968192765451997 0 -0.21207508340843381 0.086642395812071699 0 -0.20947709227975311 0.079926416133435041 0 -0.21207508340843381 0.086642395812071699 0 -0.20392953549942849 0.085163552383008989 0 -0.1999424264124155 0.095961948068354924 0 -0.21207508340843381 0.086642395812071699 0 -0.20947709227975311 0.079926416133435041 0 -0.20392953549942849 0.085163552383008989 0 -0.20947709227975311 0.079926416133435041 0 -0.20392953549942849 0.085163552383008989 0 -0.20274122729919231 0.079789711305644676 0 -0.20392953549942849 0.085163552383008989 0 -0.20274122729919231 0.079789711305644676 0 -0.19357428176136859 0.086703775342432024 0 -0.20274122729919231 0.079789711305644676 0 -0.19357428176136859 0.086703775342432024 0 -0.19175150680220571 0.075306105309989546 0 -0.20392953549942849 0.085163552383008989 0 -0.19357428176136859 0.086703775342432024 0 -0.1999424264124155 0.095961948068354924 0 -0.1873528755410932 0.098516536583886469 0 -0.19357428176136859 0.086703775342432024 0 -0.1999424264124155 0.095961948068354924 0 -0.17846052024954409 0.085815934380399805 0 -0.19357428176136859 0.086703775342432024 0 -0.19175150680220571 0.075306105309989546 0 -0.21497372015320571 0.071848707359358471 0 -0.19879679899210961 0.072497678854419934 0 -0.19175150680220571 0.075306105309989546 0 -0.17476264976523301 0.071018410928231634 0 -0.19879679899210961 0.072497678854419934 0 -0.19175150680220571 0.075306105309989546 0 -0.19031642460930229 0.117392510386436 0 -0.19733843187670891 0.12871387769867759 0 -0.20988795176242289 0.1256141521184749 0 -0.1873528755410932 0.098516536583886469 0 -0.19031642460930229 0.117392510386436 0 -0.1999424264124155 0.095961948068354924 0 -0.19031642460930229 0.117392510386436 0 -0.1999424264124155 0.095961948068354924 0 -0.21240635765486671 0.1013529179022945 0 -0.19031642460930229 0.117392510386436 0 -0.21240635765486671 0.1013529179022945 0 -0.21207508340843381 0.086642395812071699 0 -0.1999424264124155 0.095961948068354924 0 -0.21240635765486671 0.1013529179022945 0 -0.21240635765486671 0.1013529179022945 0 -0.23265503599376611 0.11313427291354911 0 -0.20988795176242289 0.1256141521184749 0 -0.19031642460930229 0.117392510386436 0 -0.21240635765486671 0.1013529179022945 0 -0.20988795176242289 0.1256141521184749 0 -0.23265503599376611 0.11313427291354911 0 -0.2324670395148723 0.13065909379496099 0 -0.20988795176242289 0.1256141521184749 0 -0.23449629070043099 0.085313325418152952 0 -0.21240635765486671 0.1013529179022945 0 -0.23265503599376611 0.11313427291354911 0 -0.25260679664020508 0.108653481505861 0 -0.24825070137420599 0.08822620104569498 0 -0.23449629070043099 0.085313325418152952 0 -0.25260679664020508 0.108653481505861 0 -0.23449629070043099 0.085313325418152952 0 -0.23265503599376611 0.11313427291354911 0 -0.25260679664020508 0.108653481505861 0 -0.23449629070043099 0.085313325418152952 0 -0.25283421434561532 0.1268619838062256 0 -0.25260679664020508 0.108653481505861 0 -0.23265503599376611 0.11313427291354911 0 -0.25283421434561532 0.1268619838062256 0 -0.23265503599376611 0.11313427291354911 0 -0.2324670395148723 0.13065909379496099 0 -0.25283421434561532 0.1268619838062256 0 -0.2324670395148723 0.13065909379496099 0 -0.24100269607741179 0.14240694245720351 0 -0.2324670395148723 0.13065909379496099 0 -0.22595529939514519 0.14527811767935159 0 -0.20988795176242289 0.1256141521184749 0 -0.2324670395148723 0.13065909379496099 0 -0.22595529939514519 0.14527811767935159 0 -0.24100269607741179 0.14240694245720351 0 -0.22595529939514519 0.14527811767935159 0 -0.231173454867457 0.16202761462623419 0 -0.2161659760239108 0.1571711028809758 0 -0.22595529939514519 0.14527811767935159 0 -0.23955977618318039 0.15372156563469869 0 -0.231173454867457 0.16202761462623419 0 -0.25240248588498698 0.15555460702842641 0 -0.25283421434561532 0.1268619838062256 0 -0.24100269607741179 0.14240694245720351 0 -0.22595529939514519 0.14527811767935159 0 -0.23955977618318039 0.15372156563469869 0 -0.24100269607741179 0.14240694245720351 0 -0.25240248588498698 0.15555460702842641 0 -0.23955977618318039 0.15372156563469869 0 -0.24100269607741179 0.14240694245720351 0 -0.24235471514056489 0.16675301891298269 0 -0.23610400162376599 0.17860541561789761 0 -0.231173454867457 0.16202761462623419 0 -0.2519707574243587 0.18424723025062709 0 -0.25240248588498698 0.15555460702842641 0 -0.24235471514056489 0.16675301891298269 0 -0.25240248588498698 0.15555460702842641 0 -0.23955977618318039 0.15372156563469869 0 -0.24235471514056489 0.16675301891298269 0 -0.23955977618318039 0.15372156563469869 0 -0.24235471514056489 0.16675301891298269 0 -0.231173454867457 0.16202761462623419 0 -0.2519707574243587 0.18424723025062709 0 -0.24235471514056489 0.16675301891298269 0 -0.23610400162376599 0.17860541561789761 0 -0.2519707574243587 0.18424723025062709 0 -0.23610400162376599 0.17860541561789761 0 -0.23963364661427169 0.19527779984438889 0 -0.23610400162376599 0.17860541561789761 0 -0.2211179472188729 0.1818129210740452 0 -0.23963364661427169 0.19527779984438889 0 -0.23610400162376599 0.17860541561789761 0 -0.2211179472188729 0.1818129210740452 0 -0.22189042035864859 0.16893882617463721 0 -0.23610400162376599 0.17860541561789761 0 -0.231173454867457 0.16202761462623419 0 -0.22189042035864859 0.16893882617463721 0 -0.231173454867457 0.16202761462623419 0 -0.22189042035864859 0.16893882617463721 0 -0.2161659760239108 0.1571711028809758 0 -0.22189042035864859 0.16893882617463721 0 -0.2161659760239108 0.1571711028809758 0 -0.20489072205923611 0.16507707667403329 0 -0.2161659760239108 0.1571711028809758 0 -0.20489072205923611 0.16507707667403329 0 -0.2072829483320919 0.1545002447345129 0 -0.20489072205923611 0.16507707667403329 0 -0.19914235509069861 0.1501350058169679 0 -0.2072829483320919 0.1545002447345129 0 -0.2211179472188729 0.1818129210740452 0 -0.20489072205923611 0.16507707667403329 0 -0.20504160676702721 0.18158451549648541 0 -0.2211179472188729 0.1818129210740452 0 -0.22189042035864859 0.16893882617463721 0 -0.20489072205923611 0.16507707667403329 0 -0.2211179472188729 0.1818129210740452 0 -0.20489072205923611 0.16507707667403329 0 -0.20504160676702721 0.18158451549648541 0 -0.19115173822744411 0.17181833587142931 0 -0.19454295315371051 0.18946628614312361 0 -0.19115173822744411 0.17181833587142931 0 -0.19454295315371051 0.18946628614312361 0 -0.19115173822744411 0.17181833587142931 0 -0.19454295315371051 0.18946628614312361 0 -0.17968951108412001 0.1814122587150144 0 -0.20489072205923611 0.16507707667403329 0 -0.20504160676702721 0.18158451549648541 0 -0.19115173822744411 0.17181833587142931 0 -0.19115173822744411 0.17181833587142931 0 -0.19360844840922831 0.16045416448983871 0 -0.18776052330117871 0.15417038559973481 0 -0.19115173822744411 0.17181833587142931 0 -0.18776052330117871 0.15417038559973481 0 -0.20489072205923611 0.16507707667403329 0 -0.1886634968995993 0.1483412322740213 0 -0.20489072205923611 0.16507707667403329 0 -0.19360844840922831 0.16045416448983871 0 -0.1886634968995993 0.1483412322740213 0 -0.20489072205923611 0.16507707667403329 0 -0.19115173822744411 0.17181833587142931 0 -0.19360844840922831 0.16045416448983871 0 -0.19360844840922831 0.16045416448983871 0 -0.18776052330117871 0.15417038559973481 0 -0.1886634968995993 0.1483412322740213 0 -0.20489072205923611 0.16507707667403329 0 -0.19914235509069861 0.1501350058169679 0 -0.1886634968995993 0.1483412322740213 0 -0.19914235509069861 0.1501350058169679 0 -0.19723391393107531 0.14016167174830929 0 -0.20893274015452229 0.14561779356607471 0 -0.1886634968995993 0.1483412322740213 0 -0.19723391393107531 0.14016167174830929 0 -0.18699030830802491 0.1379467647833901 0 -0.19914235509069861 0.1501350058169679 0 -0.1886634968995993 0.1483412322740213 0 -0.19723391393107531 0.14016167174830929 0 -0.18962755066146281 0.1316787672372205 0 -0.19723391393107531 0.14016167174830929 0 -0.18699030830802491 0.1379467647833901 0 -0.18962755066146281 0.1316787672372205 0 -0.19733843187670891 0.12871387769867759 0 -0.19723391393107531 0.14016167174830929 0 -0.19031642460930229 0.117392510386436 0 -0.18962755066146281 0.1316787672372205 0 -0.19733843187670891 0.12871387769867759 0 -0.19733843187670891 0.12871387769867759 0 -0.19723391393107531 0.14016167174830929 0 -0.20988795176242289 0.1256141521184749 0 -0.19723391393107531 0.14016167174830929 0 -0.20988795176242289 0.1256141521184749 0 -0.20893274015452229 0.14561779356607471 0 -0.22595529939514519 0.14527811767935159 0 -0.20988795176242289 0.1256141521184749 0 -0.20893274015452229 0.14561779356607471 0 -0.22595529939514519 0.14527811767935159 0 -0.2161659760239108 0.1571711028809758 0 -0.20893274015452229 0.14561779356607471 0 -0.19914235509069861 0.1501350058169679 0 -0.2072829483320919 0.1545002447345129 0 -0.20893274015452229 0.14561779356607471 0 -0.2161659760239108 0.1571711028809758 0 -0.2072829483320919 0.1545002447345129 0 -0.20893274015452229 0.14561779356607471 0 -0.22619871048427209 0.2494817824178984 0 -0.22789496513657831 0.23577570879183099 0 -0.2127637768604009 0.2383622165187792 0 -0.22619871048427209 0.2494817824178984 0 -0.22789496513657831 0.23577570879183099 0 -0.23919820965916641 0.24251427591582181 0 -0.25087986378790578 0.25674789430394418 0 -0.22619871048427209 0.2494817824178984 0 -0.23919820965916641 0.24251427591582181 0 -0.25115398850404869 0.2385295975885435 0 -0.25087986378790578 0.25674789430394418 0 -0.23919820965916641 0.24251427591582181 0 -0.25115398850404869 0.2385295975885435 0 -0.23919820965916641 0.24251427591582181 0 -0.2398635203830283 0.23203639647689159 0 -0.22789496513657831 0.23577570879183099 0 -0.23919820965916641 0.24251427591582181 0 -0.2398635203830283 0.23203639647689159 0 -0.25142811322019359 0.22031130087314299 0 -0.2398635203830283 0.23203639647689159 0 -0.23109295602321339 0.2232556622098272 0 -0.25142811322019359 0.22031130087314299 0 -0.25115398850404869 0.2385295975885435 0 -0.2398635203830283 0.23203639647689159 0 -0.22789496513657831 0.23577570879183099 0 -0.2398635203830283 0.23203639647689159 0 -0.23109295602321339 0.2232556622098272 0 -0.22789496513657831 0.23577570879183099 0 -0.2201894495562873 0.22854053071464159 0 -0.2127637768604009 0.2383622165187792 0 -0.22789496513657831 0.23577570879183099 0 -0.23109295602321339 0.2232556622098272 0 -0.2201894495562873 0.22854053071464159 0 -0.23109295602321339 0.2232556622098272 0 -0.2201894495562873 0.22854053071464159 0 -0.21900262371711149 0.21821147767884799 0 -0.23246639319803289 0.2100296292964694 0 -0.21350467317587191 0.1997479577197962 0 -0.21900262371711149 0.21821147767884799 0 -0.23246639319803289 0.2100296292964694 0 -0.21350467317587191 0.1997479577197962 0 -0.23246639319803289 0.2100296292964694 0 -0.22958005343520599 0.20094359512141219 0 -0.21350467317587191 0.1997479577197962 0 -0.23246639319803289 0.2100296292964694 0 -0.23562076162652479 0.2043867231980134 0 -0.22958005343520599 0.20094359512141219 0 -0.23109295602321339 0.2232556622098272 0 -0.21900262371711149 0.21821147767884799 0 -0.23246639319803289 0.2100296292964694 0 -0.25153902896373131 0.21293985347282809 0 -0.23963364661427169 0.19527779984438889 0 -0.25153902896373131 0.21293985347282809 0 -0.241504189914752 0.20702032248625979 0 -0.23963364661427169 0.19527779984438889 0 -0.25142811322019359 0.22031130087314299 0 -0.23109295602321339 0.2232556622098272 0 -0.23246639319803289 0.2100296292964694 0 -0.25142811322019359 0.22031130087314299 0 -0.23246639319803289 0.2100296292964694 0 -0.25142811322019359 0.22031130087314299 0 -0.23246639319803289 0.2100296292964694 0 -0.241504189914752 0.20702032248625979 0 -0.25153902896373131 0.21293985347282809 0 -0.25142811322019359 0.22031130087314299 0 -0.241504189914752 0.20702032248625979 0 -0.23246639319803289 0.2100296292964694 0 -0.241504189914752 0.20702032248625979 0 -0.23562076162652479 0.2043867231980134 0 -0.241504189914752 0.20702032248625979 0 -0.23562076162652479 0.2043867231980134 0 -0.2373451723785098 0.1985487654740572 0 -0.241504189914752 0.20702032248625979 0 -0.2373451723785098 0.1985487654740572 0 -0.23963364661427169 0.19527779984438889 0 -0.25153902896373131 0.21293985347282809 0 -0.2519707574243587 0.18424723025062709 0 -0.23963364661427169 0.19527779984438889 0 -0.2211179472188729 0.1818129210740452 0 -0.22532550134464449 0.19493584234366701 0 -0.21350467317587191 0.1997479577197962 0 -0.22958005343520599 0.20094359512141219 0 -0.22532550134464449 0.19493584234366701 0 -0.21350467317587191 0.1997479577197962 0 -0.2211179472188729 0.1818129210740452 0 -0.2373451723785098 0.1985487654740572 0 -0.22532550134464449 0.19493584234366701 0 -0.2211179472188729 0.1818129210740452 0 -0.2373451723785098 0.1985487654740572 0 -0.2211179472188729 0.1818129210740452 0 -0.2373451723785098 0.1985487654740572 0 -0.23963364661427169 0.19527779984438889 0 -0.2373451723785098 0.1985487654740572 0 -0.22958005343520599 0.20094359512141219 0 -0.22532550134464449 0.19493584234366701 0 -0.23562076162652479 0.2043867231980134 0 -0.2373451723785098 0.1985487654740572 0 -0.22958005343520599 0.20094359512141219 0 -0.20504160676702721 0.18158451549648541 0 -0.21350467317587191 0.1997479577197962 0 -0.19454295315371051 0.18946628614312361 0 -0.21350467317587191 0.1997479577197962 0 -0.19454295315371051 0.18946628614312361 0 -0.2211179472188729 0.1818129210740452 0 -0.20504160676702721 0.18158451549648541 0 -0.21350467317587191 0.1997479577197962 0 -0.19454295315371051 0.18946628614312361 0 -0.19807688060182141 0.20785691523154221 0 -0.19454295315371051 0.18946628614312361 0 -0.19807688060182141 0.20785691523154221 0 -0.18851822126012349 0.2060051928818995 0 -0.19454295315371051 0.18946628614312361 0 -0.18851822126012349 0.2060051928818995 0 -0.17968951108412001 0.1814122587150144 0 -0.21350467317587191 0.1997479577197962 0 -0.19454295315371051 0.18946628614312361 0 -0.19807688060182141 0.20785691523154221 0 -0.18851822126012349 0.2060051928818995 0 -0.19734693143613241 0.23059812704878269 0 -0.19807688060182141 0.20785691523154221 0 -0.20794506803525009 0.21549550560431591 0 -0.20163730674671429 0.22624245235320731 0 -0.19807688060182141 0.20785691523154221 0 -0.20163730674671429 0.22624245235320731 0 -0.19807688060182141 0.20785691523154221 0 -0.18851822126012349 0.2060051928818995 0 -0.20163730674671429 0.22624245235320731 0 -0.21900262371711149 0.21821147767884799 0 -0.21350467317587191 0.1997479577197962 0 -0.20794506803525009 0.21549550560431591 0 -0.21350467317587191 0.1997479577197962 0 -0.19807688060182141 0.20785691523154221 0 -0.20794506803525009 0.21549550560431591 0 -0.21900262371711149 0.21821147767884799 0 -0.20794506803525009 0.21549550560431591 0 -0.2106026478591124 0.22761087875741459 0 -0.2201894495562873 0.22854053071464159 0 -0.21900262371711149 0.21821147767884799 0 -0.2106026478591124 0.22761087875741459 0 -0.2201894495562873 0.22854053071464159 0 -0.2106026478591124 0.22761087875741459 0 -0.2127637768604009 0.2383622165187792 0 -0.2106026478591124 0.22761087875741459 0 -0.20163730674671429 0.22624245235320731 0 -0.20336257449096051 0.2353637718994688 0 -0.2106026478591124 0.22761087875741459 0 -0.20336257449096051 0.2353637718994688 0 -0.2127637768604009 0.2383622165187792 0 -0.20794506803525009 0.21549550560431591 0 -0.2106026478591124 0.22761087875741459 0 -0.20163730674671429 0.22624245235320731 0 -0.18851822126012349 0.2060051928818995 0 -0.20163730674671429 0.22624245235320731 0 -0.19734693143613241 0.23059812704878269 0 -0.18851822126012349 0.2060051928818995 0 -0.1885758086857148 0.2237798710586836 0 -0.19734693143613241 0.23059812704878269 0 -0.1885758086857148 0.2237798710586836 0 -0.19521300902135211 0.23276452769943781 0 -0.19734693143613241 0.23059812704878269 0 -0.20163730674671429 0.22624245235320731 0 -0.20336257449096051 0.2353637718994688 0 -0.20163730674671429 0.22624245235320731 0 -0.19850114182968071 0.23381325356866969 0 -0.20336257449096051 0.2353637718994688 0 -0.19521300902135211 0.23276452769943781 0 -0.19850114182968071 0.23381325356866969 0 -0.19521300902135211 0.23276452769943781 0 -0.19734693143613241 0.23059812704878269 0 -0.19850114182968071 0.23381325356866969 0 -0.19521300902135211 0.23276452769943781 0 -0.19734693143613241 0.23059812704878269 0 -0.19734693143613241 0.23059812704878269 0 -0.19850114182968071 0.23381325356866969 0 -0.20163730674671429 0.22624245235320731 0 -0.19734693143613241 0.23059812704878269 0 -0.19850114182968071 0.23381325356866969 0 -0.20163730674671429 0.22624245235320731 0 -0.19734693143613241 0.23059812704878269 0 -0.19850114182968071 0.23381325356866969 0 -0.20336257449096051 0.2353637718994688 0 -0.19850114182968071 0.23381325356866969 0 -0.20151755718063619 0.24221567053186019 0 -0.18941354531335161 0.23865225907309329 0 -0.20151755718063619 0.24221567053186019 0 -0.18941354531335161 0.23865225907309329 0 -0.19850114182968071 0.23381325356866969 0 -0.20151755718063619 0.24221567053186019 0 -0.2037327567297374 0.23729020767055839 0 -0.19229582140134549 0.25569309089097891 0 -0.20151755718063619 0.24221567053186019 0 -0.18941354531335161 0.23865225907309329 0 -0.19850114182968071 0.23381325356866969 0 -0.20151755718063619 0.24221567053186019 0 -0.19850114182968071 0.23381325356866969 0 -0.20336257449096051 0.2353637718994688 0 -0.2037327567297374 0.23729020767055839 0 -0.19521300902135211 0.23276452769943781 0 -0.18941354531335161 0.23865225907309329 0 -0.19521300902135211 0.23276452769943781 0 -0.19850114182968071 0.23381325356866969 0 -0.18941354531335161 0.23865225907309329 0 -0.22619871048427209 0.2494817824178984 0 -0.20151755718063619 0.24221567053186019 0 -0.2127637768604009 0.2383622165187792 0 -0.22619871048427209 0.2494817824178984 0 -0.20151755718063619 0.24221567053186019 0 -0.20336257449096051 0.2353637718994688 0 -0.2037327567297374 0.23729020767055839 0 -0.2127637768604009 0.2383622165187792 0 -0.20151755718063619 0.24221567053186019 0 -0.2037327567297374 0.23729020767055839 0 -0.2127637768604009 0.2383622165187792 0 -0.20336257449096051 0.2353637718994688 0 -0.2127637768604009 0.2383622165187792 0 -0.20336257449096051 0.2353637718994688 0 -0.2037327567297374 0.23729020767055839 0 -0.16027387467470561 0.24701005636414519 0 -0.1718778084837603 0.2334897521091612 0 -0.15398921356777029 0.22822336400546159 0 -0.16702091110509501 0.26138570850995507 0 -0.16027387467470561 0.24701005636414519 0 -0.1718778084837603 0.2334897521091612 0 -0.16702091110509501 0.26138570850995507 0 -0.1718778084837603 0.2334897521091612 0 -0.18941354531335161 0.23865225907309329 0 -0.17821722820922309 0.2500189837915241 0 -0.1718778084837603 0.2334897521091612 0 -0.19229582140134549 0.25569309089097891 0 -0.18941354531335161 0.23865225907309329 0 -0.17821722820922309 0.2500189837915241 0 -0.18941354531335161 0.23865225907309329 0 -0.1718778084837603 0.2334897521091612 0 -0.16702091110509501 0.26138570850995507 0 -0.17821722820922309 0.2500189837915241 0 -0.1718778084837603 0.2334897521091612 0 -0.18941354531335161 0.23865225907309329 0 -0.17821722820922309 0.2500189837915241 0 -0.19521300902135211 0.23276452769943781 0 -0.173225073025253 0.22575163660461281 0 -0.19521300902135211 0.23276452769943781 0 -0.18941354531335161 0.23865225907309329 0 -0.173225073025253 0.22575163660461281 0 -0.1885758086857148 0.2237798710586836 0 -0.19521300902135211 0.23276452769943781 0 -0.173225073025253 0.22575163660461281 0 -0.18941354531335161 0.23865225907309329 0 -0.1718778084837603 0.2334897521091612 0 -0.173225073025253 0.22575163660461281 0 -0.1718778084837603 0.2334897521091612 0 -0.173225073025253 0.22575163660461281 0 -0.1718778084837603 0.2334897521091612 0 -0.15398921356777029 0.22822336400546159 0 -0.173225073025253 0.22575163660461281 0 -0.1553936322049794 0.2200644291942174 0 -0.15398921356777029 0.22822336400546159 0 -0.1718778084837603 0.2334897521091612 0 -0.173225073025253 0.22575163660461281 0 -0.15398921356777029 0.22822336400546159 0 -0.173225073025253 0.22575163660461281 0 -0.1553936322049794 0.2200644291942174 0 -0.173225073025253 0.22575163660461281 0 -0.16765685511579109 0.21462351801415641 0 -0.1553936322049794 0.2200644291942174 0 -0.16993616699201919 0.20239057840744601 0 -0.16039016168190001 0.20080203260945681 0 -0.1553936322049794 0.2200644291942174 0 -0.16993616699201919 0.20239057840744601 0 -0.1553936322049794 0.2200644291942174 0 -0.16039016168190001 0.20080203260945681 0 -0.1553936322049794 0.2200644291942174 0 -0.16765685511579109 0.21462351801415641 0 -0.16993616699201919 0.20239057840744601 0 -0.1553936322049794 0.2200644291942174 0 -0.18851822126012349 0.2060051928818995 0 -0.1885758086857148 0.2237798710586836 0 -0.173225073025253 0.22575163660461281 0 -0.173225073025253 0.22575163660461281 0 -0.16765685511579109 0.21462351801415641 0 -0.17814688037363041 0.19748286489727099 0 -0.18851822126012349 0.2060051928818995 0 -0.173225073025253 0.22575163660461281 0 -0.17814688037363041 0.19748286489727099 0 -0.173225073025253 0.22575163660461281 0 -0.17814688037363041 0.19748286489727099 0 -0.16765685511579109 0.21462351801415641 0 -0.17814688037363041 0.19748286489727099 0 -0.16993616699201919 0.20239057840744601 0 -0.17814688037363041 0.19748286489727099 0 -0.1659414729446036 0.18971522731621759 0 -0.17968951108412001 0.1814122587150144 0 -0.18851822126012349 0.2060051928818995 0 -0.17968951108412001 0.1814122587150144 0 -0.18851822126012349 0.2060051928818995 0 -0.17814688037363041 0.19748286489727099 0 -0.17968951108412001 0.1814122587150144 0 -0.1659414729446036 0.18971522731621759 0 -0.16039016168190001 0.20080203260945681 0 -0.149992399716178 0.18682666357827099 0 -0.17814688037363041 0.19748286489727099 0 -0.1659414729446036 0.18971522731621759 0 -0.16993616699201919 0.20239057840744601 0 -0.1659414729446036 0.18971522731621759 0 -0.16993616699201919 0.20239057840744601 0 -0.16039016168190001 0.20080203260945681 0 -0.1478418888973064 0.19965630950198859 0 -0.13284069856261191 0.18986698280368169 0 -0.149992399716178 0.18682666357827099 0 -0.16039016168190001 0.20080203260945681 0 -0.1478418888973064 0.19965630950198859 0 -0.149992399716178 0.18682666357827099 0 -0.1478418888973064 0.19965630950198859 0 -0.13284069856261191 0.18986698280368169 0 -0.13881066169593251 0.21477541224286689 0 -0.13284069856261191 0.18986698280368169 0 -0.13881066169593251 0.21477541224286689 0 -0.13284069856261191 0.18986698280368169 0 -0.1263117160296999 0.2042517149607273 0 -0.13881066169593251 0.21477541224286689 0 -0.1263117160296999 0.2042517149607273 0 -0.13881066169593251 0.21477541224286689 0 -0.1178282951894513 0.21757761841948969 0 -0.16039016168190001 0.20080203260945681 0 -0.15220289560476999 0.2104580579158854 0 -0.1553936322049794 0.2200644291942174 0 -0.13881066169593251 0.21477541224286689 0 -0.1553936322049794 0.2200644291942174 0 -0.13881066169593251 0.21477541224286689 0 -0.15220289560476999 0.2104580579158854 0 -0.1553936322049794 0.2200644291942174 0 -0.1478418888973064 0.19965630950198859 0 -0.13881066169593251 0.21477541224286689 0 -0.15220289560476999 0.2104580579158854 0 -0.16039016168190001 0.20080203260945681 0 -0.1478418888973064 0.19965630950198859 0 -0.15220289560476999 0.2104580579158854 0 -0.13881066169593251 0.21477541224286689 0 -0.1553936322049794 0.2200644291942174 0 -0.14112619712697971 0.22443650220443601 0 -0.1553936322049794 0.2200644291942174 0 -0.15398921356777029 0.22822336400546159 0 -0.1553936322049794 0.2200644291942174 0 -0.14971549833744721 0.22696518564359569 0 -0.14112619712697971 0.22443650220443601 0 -0.1553936322049794 0.2200644291942174 0 -0.15398921356777029 0.22822336400546159 0 -0.14971549833744721 0.22696518564359569 0 -0.1553936322049794 0.2200644291942174 0 -0.14971549833744721 0.22696518564359569 0 -0.15398921356777029 0.22822336400546159 0 -0.14971549833744721 0.22696518564359569 0 -0.1435330965808187 0.2344787895476384 0 -0.15398921356777029 0.22822336400546159 0 -0.14971549833744721 0.22696518564359569 0 -0.14112619712697971 0.22443650220443601 0 -0.1435330965808187 0.2344787895476384 0 -0.14971549833744721 0.22696518564359569 0 -0.14112619712697971 0.22443650220443601 0 -0.1435330965808187 0.2344787895476384 0 -0.14971549833744721 0.22696518564359569 0 -0.1435330965808187 0.2344787895476384 0 -0.14971549833744721 0.22696518564359569 0 -0.14112619712697971 0.22443650220443601 0 -0.13881066169593251 0.21477541224286689 0 -0.14112619712697971 0.22443650220443601 0 -0.1178282951894513 0.21757761841948969 0 -0.14112619712697971 0.22443650220443601 0 -0.1268196666794357 0.23317502235961329 0 -0.1435330965808187 0.2344787895476384 0 -0.14112619712697971 0.22443650220443601 0 -0.1268196666794357 0.23317502235961329 0 -0.1178282951894513 0.21757761841948969 0 -0.13881066169593251 0.21477541224286689 0 -0.14112619712697971 0.22443650220443601 0 -0.14112619712697971 0.22443650220443601 0 -0.1178282951894513 0.21757761841948969 0 -0.12833242077256249 0.252952493068201 0 -0.1480904457365449 0.25349338098482838 0 -0.1435330965808187 0.2344787895476384 0 -0.12833242077256249 0.252952493068201 0 -0.1268196666794357 0.23317502235961329 0 -0.1435330965808187 0.2344787895476384 0 -0.12833242077256249 0.252952493068201 0 -0.1435330965808187 0.2344787895476384 0 -0.1480904457365449 0.25349338098482838 0 -0.15398921356777029 0.22822336400546159 0 -0.1435330965808187 0.2344787895476384 0 -0.1480904457365449 0.25349338098482838 0 -0.1435330965808187 0.2344787895476384 0 -0.1480904457365449 0.25349338098482838 0 -0.16027387467470561 0.24701005636414519 0 -0.15398921356777029 0.22822336400546159 0 -0.1480904457365449 0.25349338098482838 0 -0.15398921356777029 0.22822336400546159 0 -0.16578571832940411 0.1426823589822295 0 -0.17328445896899461 0.14474790900949089 0 -0.17273761470675991 0.1620473088486227 0 -0.16578571832940411 0.1426823589822295 0 -0.16095556816685361 0.15534667148465611 0 -0.17273761470675991 0.1620473088486227 0 -0.16578571832940411 0.1426823589822295 0 -0.17273761470675991 0.1620473088486227 0 -0.16578571832940411 0.1426823589822295 0 -0.16095556816685361 0.15534667148465611 0 -0.15176220805957991 0.1453868877676322 0 -0.16578571832940411 0.1426823589822295 0 -0.16822649156373681 0.13343210287057619 0 -0.15176220805957991 0.1453868877676322 0 -0.16822649156373681 0.13343210287057619 0 -0.15176220805957991 0.1453868877676322 0 -0.14976048667201519 0.1224066337179356 0 -0.16822649156373681 0.13343210287057619 0 -0.16578571832940411 0.1426823589822295 0 -0.16822649156373681 0.13343210287057619 0 -0.17328445896899461 0.14474790900949089 0 -0.19031642460930229 0.117392510386436 0 -0.16822649156373681 0.13343210287057619 0 -0.19031642460930229 0.117392510386436 0 -0.16822649156373681 0.13343210287057619 0 -0.1724362717399624 0.1316053878740093 0 -0.1886634968995993 0.1483412322740213 0 -0.1724362717399624 0.1316053878740093 0 -0.16822649156373681 0.13343210287057619 0 -0.17961868711401149 0.14023402355438219 0 -0.17328445896899461 0.14474790900949089 0 -0.19031642460930229 0.117392510386436 0 -0.18962755066146281 0.1316787672372205 0 -0.1724362717399624 0.1316053878740093 0 -0.1886634968995993 0.1483412322740213 0 -0.1724362717399624 0.1316053878740093 0 -0.18699030830802491 0.1379467647833901 0 -0.16822649156373681 0.13343210287057619 0 -0.17961868711401149 0.14023402355438219 0 -0.1724362717399624 0.1316053878740093 0 -0.16822649156373681 0.13343210287057619 0 -0.17961868711401149 0.14023402355438219 0 -0.1886634968995993 0.1483412322740213 0 -0.17961868711401149 0.14023402355438219 0 -0.1724362717399624 0.1316053878740093 0 -0.18962755066146281 0.1316787672372205 0 -0.1724362717399624 0.1316053878740093 0 -0.18699030830802491 0.1379467647833901 0 -0.1886634968995993 0.1483412322740213 0 -0.17961868711401149 0.14023402355438219 0 -0.17964142240867231 0.15031086434495769 0 -0.17328445896899461 0.14474790900949089 0 -0.17964142240867231 0.15031086434495769 0 -0.17273761470675991 0.1620473088486227 0 -0.17961868711401149 0.14023402355438219 0 -0.17328445896899461 0.14474790900949089 0 -0.17964142240867231 0.15031086434495769 0 -0.18776052330117871 0.15417038559973481 0 -0.1886634968995993 0.1483412322740213 0 -0.17964142240867231 0.15031086434495769 0 -0.18776052330117871 0.15417038559973481 0 -0.17964142240867231 0.15031086434495769 0 -0.18088962755702939 0.1576707547554323 0 -0.19115173822744411 0.17181833587142931 0 -0.18776052330117871 0.15417038559973481 0 -0.18341894981150689 0.16415446022841401 0 -0.18341894981150689 0.16415446022841401 0 -0.17273761470675991 0.1620473088486227 0 -0.17968951108412001 0.1814122587150144 0 -0.18776052330117871 0.15417038559973481 0 -0.18088962755702939 0.1576707547554323 0 -0.18341894981150689 0.16415446022841401 0 -0.17273761470675991 0.1620473088486227 0 -0.17968951108412001 0.1814122587150144 0 -0.17964142240867231 0.15031086434495769 0 -0.18088962755702939 0.1576707547554323 0 -0.17273761470675991 0.1620473088486227 0 -0.18088962755702939 0.1576707547554323 0 -0.18341894981150689 0.16415446022841401 0 -0.17273761470675991 0.1620473088486227 0 -0.19115173822744411 0.17181833587142931 0 -0.18341894981150689 0.16415446022841401 0 -0.17968951108412001 0.1814122587150144 0 -0.19454295315371051 0.18946628614312361 0 -0.17968951108412001 0.1814122587150144 0 -0.1659414729446036 0.18971522731621759 0 -0.15749371781977209 0.16937696568985 0 -0.149992399716178 0.18682666357827099 0 -0.17968951108412001 0.1814122587150144 0 -0.15749371781977209 0.16937696568985 0 -0.1659414729446036 0.18971522731621759 0 -0.17968951108412001 0.1814122587150144 0 -0.15749371781977209 0.16937696568985 0 -0.17273761470675991 0.1620473088486227 0 -0.17968951108412001 0.1814122587150144 0 -0.15749371781977209 0.16937696568985 0 -0.16095556816685361 0.15534667148465611 0 -0.17273761470675991 0.1620473088486227 0 -0.15749371781977209 0.16937696568985 0 -0.15749371781977209 0.16937696568985 0 -0.13529792455542289 0.15734167266468799 0 -0.16095556816685361 0.15534667148465611 0 -0.15749371781977209 0.16937696568985 0 -0.13529792455542289 0.15734167266468799 0 -0.15749371781977209 0.16937696568985 0 -0.1414032339715903 0.17256677540364071 0 -0.13529792455542289 0.15734167266468799 0 -0.13284069856261191 0.18986698280368169 0 -0.149992399716178 0.18682666357827099 0 -0.1414032339715903 0.17256677540364071 0 -0.15749371781977209 0.16937696568985 0 -0.149992399716178 0.18682666357827099 0 -0.1414032339715903 0.17256677540364071 0 -0.13284069856261191 0.18986698280368169 0 -0.1414032339715903 0.17256677540364071 0 -0.12687073542929311 0.16495855336449611 0 -0.13284069856261191 0.18986698280368169 0 -0.12687073542929311 0.16495855336449611 0 -0.13529792455542289 0.15734167266468799 0 -0.12687073542929311 0.16495855336449611 0 -0.1139427801417465 0.17284773205965301 0 -0.1414032339715903 0.17256677540364071 0 -0.13529792455542289 0.15734167266468799 0 -0.12687073542929311 0.16495855336449611 0 -0.13529792455542289 0.15734167266468799 0 -0.1350676331758939 0.14239803272918369 0 -0.1246017505341515 0.145168212325712 0 -0.1350676331758939 0.14239803272918369 0 -0.1246207508181562 0.13812068819029191 0 -0.1246017505341515 0.145168212325712 0 -0.13529792455542289 0.15734167266468799 0 -0.1350676331758939 0.14239803272918369 0 -0.15176220805957991 0.1453868877676322 0 -0.16095556816685361 0.15534667148465611 0 -0.13529792455542289 0.15734167266468799 0 -0.15176220805957991 0.1453868877676322 0 -0.13529792455542289 0.15734167266468799 0 -0.15176220805957991 0.1453868877676322 0 -0.1350676331758939 0.14239803272918369 0 -0.15176220805957991 0.1453868877676322 0 -0.1445088133338705 0.13450345499379501 0 -0.16822649156373681 0.13343210287057619 0 -0.15176220805957991 0.1453868877676322 0 -0.1445088133338705 0.13450345499379501 0 -0.14976048667201519 0.1224066337179356 0 -0.16822649156373681 0.13343210287057619 0 -0.1445088133338705 0.13450345499379501 0 -0.14976048667201519 0.1224066337179356 0 -0.1445088133338705 0.13450345499379501 0 -0.1357926887496792 0.12519306973963851 0 -0.1445088133338705 0.13450345499379501 0 -0.1357926887496792 0.12519306973963851 0 -0.1307214012637273 0.13323082456127819 0 -0.1350676331758939 0.14239803272918369 0 -0.1445088133338705 0.13450345499379501 0 -0.1307214012637273 0.13323082456127819 0 -0.1307214012637273 0.13323082456127819 0 -0.1246207508181562 0.13812068819029191 0 -0.1197120296650608 0.13355431571302681 0 -0.1350676331758939 0.14239803272918369 0 -0.1307214012637273 0.13323082456127819 0 -0.1246207508181562 0.13812068819029191 0 -0.1357926887496792 0.12519306973963851 0 -0.1307214012637273 0.13323082456127819 0 -0.1234209741501253 0.123579871801461 0 -0.1307214012637273 0.13323082456127819 0 -0.1197120296650608 0.13355431571302681 0 -0.1234209741501253 0.123579871801461 0 -0.1197120296650608 0.13355431571302681 0 -0.1126556527405233 0.12871284881070069 0 -0.1234209741501253 0.123579871801461 0 -0.1246207508181562 0.13812068819029191 0 -0.1197120296650608 0.13355431571302681 0 -0.11817742616274 0.13947646441915021 0 -0.1133744705337453 0.13577163915940871 0 -0.1060402747983247 0.13258963729908729 0 -0.1105234149679698 0.143908114382337 0 -0.11817742616274 0.13947646441915021 0 -0.1133744705337453 0.13577163915940871 0 -0.1105234149679698 0.143908114382337 0 -0.1197120296650608 0.13355431571302681 0 -0.11817742616274 0.13947646441915021 0 -0.1133744705337453 0.13577163915940871 0 -0.1197120296650608 0.13355431571302681 0 -0.1133744705337453 0.13577163915940871 0 -0.1126556527405233 0.12871284881070069 0 -0.1133744705337453 0.13577163915940871 0 -0.1126556527405233 0.12871284881070069 0 -0.1060402747983247 0.13258963729908729 0 -0.10716860221959749 0.14370725316545771 0 -0.085748905380516993 0.13047455609998551 0 -0.091689491084771896 0.14481088499665631 0 -0.1060402747983247 0.13258963729908729 0 -0.085748905380516993 0.13047455609998551 0 -0.1017340578322285 0.122134937427861 0 -0.1105234149679698 0.143908114382337 0 -0.085748905380516993 0.13047455609998551 0 -0.10716860221959749 0.14370725316545771 0 -0.1105234149679698 0.143908114382337 0 -0.085748905380516993 0.13047455609998551 0 -0.1126556527405233 0.12871284881070069 0 -0.1060402747983247 0.13258963729908729 0 -0.1017340578322285 0.122134937427861 0 -0.1060402747983247 0.13258963729908729 0 -0.1105234149679698 0.143908114382337 0 -0.085748905380516993 0.13047455609998551 0 -0.10716860221959749 0.14370725316545771 0 -0.088508326882423327 0.15999973218993629 0 -0.091689491084771896 0.14481088499665631 0 -0.10716860221959749 0.14370725316545771 0 -0.11020507659510489 0.15349000645079799 0 -0.088508326882423327 0.15999973218993629 0 -0.10716860221959749 0.14370725316545771 0 -0.088508326882423327 0.15999973218993629 0 -0.10716860221959749 0.14370725316545771 0 -0.11020507659510489 0.15349000645079799 0 -0.1105234149679698 0.143908114382337 0 -0.13529792455542289 0.15734167266468799 0 -0.1105234149679698 0.143908114382337 0 -0.13529792455542289 0.15734167266468799 0 -0.11020507659510489 0.15349000645079799 0 -0.1105234149679698 0.143908114382337 0 -0.13529792455542289 0.15734167266468799 0 -0.1105234149679698 0.143908114382337 0 -0.1246017505341515 0.145168212325712 0 -0.11817742616274 0.13947646441915021 0 -0.1105234149679698 0.143908114382337 0 -0.1246017505341515 0.145168212325712 0 -0.1246207508181562 0.13812068819029191 0 -0.11817742616274 0.13947646441915021 0 -0.1246017505341515 0.145168212325712 0 -0.13529792455542289 0.15734167266468799 0 -0.11020507659510489 0.15349000645079799 0 -0.109527114350112 0.16249325985157179 0 -0.13529792455542289 0.15734167266468799 0 -0.1139427801417465 0.17284773205965301 0 -0.13529792455542289 0.15734167266468799 0 -0.109527114350112 0.16249325985157179 0 -0.1139427801417465 0.17284773205965301 0 -0.13284069856261191 0.18986698280368169 0 -0.1139427801417465 0.17284773205965301 0 -0.1130069198172507 0.19726942905545211 0 -0.13284069856261191 0.18986698280368169 0 -0.12687073542929311 0.16495855336449611 0 -0.1139427801417465 0.17284773205965301 0 -0.1139427801417465 0.17284773205965301 0 -0.101467825284001 0.17133275801606451 0 -0.092587635728070827 0.1883537914546192 0 -0.1139427801417465 0.17284773205965301 0 -0.1130069198172507 0.19726942905545211 0 -0.092587635728070827 0.1883537914546192 0 -0.1139427801417465 0.17284773205965301 0 -0.092587635728070827 0.1883537914546192 0 -0.11020507659510489 0.15349000645079799 0 -0.109527114350112 0.16249325985157179 0 -0.088508326882423327 0.15999973218993629 0 -0.109527114350112 0.16249325985157179 0 -0.101467825284001 0.17133275801606451 0 -0.088508326882423327 0.15999973218993629 0 -0.109527114350112 0.16249325985157179 0 -0.1139427801417465 0.17284773205965301 0 -0.101467825284001 0.17133275801606451 0 -0.101467825284001 0.17133275801606451 0 -0.088508326882423327 0.15999973218993629 0 -0.083750817809620584 0.17276348477594791 0 -0.088508326882423327 0.15999973218993629 0 -0.083750817809620584 0.17276348477594791 0 -0.069848051545249187 0.1762922112144148 0 -0.088508326882423327 0.15999973218993629 0 -0.069848051545249187 0.1762922112144148 0 -0.101467825284001 0.17133275801606451 0 -0.078849178388706115 0.1852532393040722 0 -0.101467825284001 0.17133275801606451 0 -0.078849178388706115 0.1852532393040722 0 -0.092587635728070827 0.1883537914546192 0 -0.101467825284001 0.17133275801606451 0 -0.083750817809620584 0.17276348477594791 0 -0.078849178388706115 0.1852532393040722 0 -0.078849178388706115 0.1852532393040722 0 -0.069848051545249187 0.1762922112144148 0 -0.06377848669032303 0.18817288465585569 0 -0.083750817809620584 0.17276348477594791 0 -0.078849178388706115 0.1852532393040722 0 -0.069848051545249187 0.1762922112144148 0 -0.088508326882423327 0.15999973218993629 0 -0.069848051545249187 0.1762922112144148 0 -0.073303301373764507 0.16407732898479679 0 -0.066792883845325696 0.16177622056438939 0 -0.072335425274864237 0.1514718561692634 0 -0.052713674139319093 0.15721446630884989 0 -0.088508326882423327 0.15999973218993629 0 -0.073303301373764507 0.16407732898479679 0 -0.072335425274864237 0.1514718561692634 0 -0.073303301373764507 0.16407732898479679 0 -0.066792883845325696 0.16177622056438939 0 -0.072335425274864237 0.1514718561692634 0 -0.069848051545249187 0.1762922112144148 0 -0.073303301373764507 0.16407732898479679 0 -0.068094426605651945 0.17084064147021799 0 -0.068094426605651945 0.17084064147021799 0 -0.066792883845325696 0.16177622056438939 0 -0.059343527355541187 0.16522463537537249 0 -0.073303301373764507 0.16407732898479679 0 -0.068094426605651945 0.17084064147021799 0 -0.066792883845325696 0.16177622056438939 0 -0.072335425274864237 0.1514718561692634 0 -0.072028454931854599 0.1368261768274914 0 -0.056912429293975178 0.13714179573575361 0 -0.072028454931854599 0.1368261768274914 0 -0.085748905380516993 0.13047455609998551 0 -0.060974395793064282 0.11704099781763409 0 -0.072028454931854599 0.1368261768274914 0 -0.056912429293975178 0.13714179573575361 0 -0.060974395793064282 0.11704099781763409 0 -0.072028454931854599 0.1368261768274914 0 -0.085748905380516993 0.13047455609998551 0 -0.091689491084771896 0.14481088499665631 0 -0.072335425274864237 0.1514718561692634 0 -0.072028454931854599 0.1368261768274914 0 -0.091689491084771896 0.14481088499665631 0 -0.088508326882423327 0.15999973218993629 0 -0.072335425274864237 0.1514718561692634 0 -0.091689491084771896 0.14481088499665631 0 -0.099382531469479285 0.24470324452999001 0 -0.11228830242510079 0.24153432860216831 0 -0.10426367779170349 0.2270597158083246 0 -0.099382531469479285 0.24470324452999001 0 -0.10426367779170349 0.2270597158083246 0 -0.085548321179496734 0.23157260685311501 0 -0.10946817367181549 0.25274728236480859 0 -0.099382531469479285 0.24470324452999001 0 -0.11228830242510079 0.24153432860216831 0 -0.12833242077256249 0.252952493068201 0 -0.11228830242510079 0.24153432860216831 0 -0.12833242077256249 0.252952493068201 0 -0.1268196666794357 0.23317502235961329 0 -0.11228830242510079 0.24153432860216831 0 -0.12833242077256249 0.252952493068201 0 -0.10946817367181549 0.25274728236480859 0 -0.11228830242510079 0.24153432860216831 0 -0.1268196666794357 0.23317502235961329 0 -0.10426367779170349 0.2270597158083246 0 -0.1178282951894513 0.21757761841948969 0 -0.1268196666794357 0.23317502235961329 0 -0.11228830242510079 0.24153432860216831 0 -0.10426367779170349 0.2270597158083246 0 -0.10426367779170349 0.2270597158083246 0 -0.0945303932519235 0.2107187346345416 0 -0.085548321179496734 0.23157260685311501 0 -0.0945303932519235 0.2107187346345416 0 -0.1178282951894513 0.21757761841948969 0 -0.1130069198172507 0.19726942905545211 0 -0.0945303932519235 0.2107187346345416 0 -0.1178282951894513 0.21757761841948969 0 -0.10426367779170349 0.2270597158083246 0 -0.0945303932519235 0.2107187346345416 0 -0.1178282951894513 0.21757761841948969 0 -0.1263117160296999 0.2042517149607273 0 -0.1178282951894513 0.21757761841948969 0 -0.1130069198172507 0.19726942905545211 0 -0.13284069856261191 0.18986698280368169 0 -0.1263117160296999 0.2042517149607273 0 -0.1130069198172507 0.19726942905545211 0 -0.0945303932519235 0.2107187346345416 0 -0.1130069198172507 0.19726942905545211 0 -0.092587635728070827 0.1883537914546192 0 -0.0945303932519235 0.2107187346345416 0 -0.092587635728070827 0.1883537914546192 0 -0.071232491314397212 0.2038598508495881 0 -0.078849178388706115 0.1852532393040722 0 -0.092587635728070827 0.1883537914546192 0 -0.071232491314397212 0.2038598508495881 0 -0.092587635728070827 0.1883537914546192 0 -0.071232491314397212 0.2038598508495881 0 -0.078849178388706115 0.1852532393040722 0 -0.056230531493411173 0.1991737205920798 0 -0.078849178388706115 0.1852532393040722 0 -0.06377848669032303 0.18817288465585569 0 -0.056230531493411173 0.1991737205920798 0 -0.078849178388706115 0.1852532393040722 0 -0.070582202368024594 0.19154295481297051 0 -0.056230531493411173 0.1991737205920798 0 -0.078849178388706115 0.1852532393040722 0 -0.070582202368024594 0.19154295481297051 0 -0.071232491314397212 0.2038598508495881 0 -0.070582202368024594 0.19154295481297051 0 -0.067674138395800387 0.2028122745828585 0 -0.056230531493411173 0.1991737205920798 0 -0.070582202368024594 0.19154295481297051 0 -0.067674138395800387 0.2028122745828585 0 -0.071232491314397212 0.2038598508495881 0 -0.070582202368024594 0.19154295481297051 0 -0.071232491314397212 0.2038598508495881 0 -0.071232491314397212 0.2038598508495881 0 -0.069291606587026544 0.22384567457758309 0 -0.059695348422104923 0.2122370184055912 0 -0.071232491314397212 0.2038598508495881 0 -0.078145904221191817 0.2146183881136435 0 -0.069291606587026544 0.22384567457758309 0 -0.071232491314397212 0.2038598508495881 0 -0.069291606587026544 0.22384567457758309 0 -0.067674138395800387 0.2028122745828585 0 -0.071232491314397212 0.2038598508495881 0 -0.071232491314397212 0.2038598508495881 0 -0.059695348422104923 0.2122370184055912 0 -0.061405121329818617 0.2049829824105551 0 -0.071232491314397212 0.2038598508495881 0 -0.059695348422104923 0.2122370184055912 0 -0.067674138395800387 0.2028122745828585 0 -0.071232491314397212 0.2038598508495881 0 -0.061405121329818617 0.2049829824105551 0 -0.0945303932519235 0.2107187346345416 0 -0.071232491314397212 0.2038598508495881 0 -0.0945303932519235 0.2107187346345416 0 -0.071232491314397212 0.2038598508495881 0 -0.078145904221191817 0.2146183881136435 0 -0.0945303932519235 0.2107187346345416 0 -0.078145904221191817 0.2146183881136435 0 -0.085548321179496734 0.23157260685311501 0 -0.078145904221191817 0.2146183881136435 0 -0.085548321179496734 0.23157260685311501 0 -0.069291606587026544 0.22384567457758309 0 -0.069291606587026544 0.22384567457758309 0 -0.068527240740731007 0.24297722304075431 0 -0.069291606587026544 0.22384567457758309 0 -0.068527240740731007 0.24297722304075431 0 -0.051111390212177019 0.22819837453994571 0 -0.085548321179496734 0.23157260685311501 0 -0.069291606587026544 0.22384567457758309 0 -0.068527240740731007 0.24297722304075431 0 -0.085374697852045295 0.25727374079415088 0 -0.085548321179496734 0.23157260685311501 0 -0.068527240740731007 0.24297722304075431 0 -0.085374697852045295 0.25727374079415088 0 -0.099382531469479285 0.24470324452999001 0 -0.085548321179496734 0.23157260685311501 0 -0.044327189178686478 0.25476468049421103 0 -0.039011364431154973 0.2340921032666741 0 -0.044327189178686478 0.25476468049421103 0 -0.033265069700240638 0.24658948150263671 0 -0.039011364431154973 0.2340921032666741 0 -0.044327189178686478 0.25476468049421103 0 -0.050655538879475992 0.24062712206401571 0 -0.039011364431154973 0.2340921032666741 0 -0.033265069700240638 0.24658948150263671 0 -0.039011364431154973 0.2340921032666741 0 -0.025633525508839541 0.23158855814307941 0 -0.044327189178686478 0.25476468049421103 0 -0.068527240740731007 0.24297722304075431 0 -0.050655538879475992 0.24062712206401571 0 -0.068527240740731007 0.24297722304075431 0 -0.050655538879475992 0.24062712206401571 0 -0.051111390212177019 0.22819837453994571 0 -0.068527240740731007 0.24297722304075431 0 -0.051111390212177019 0.22819837453994571 0 -0.050655538879475992 0.24062712206401571 0 -0.051111390212177019 0.22819837453994571 0 -0.039011364431154973 0.2340921032666741 0 -0.069291606587026544 0.22384567457758309 0 -0.051111390212177019 0.22819837453994571 0 -0.059695348422104923 0.2122370184055912 0 -0.039011364431154973 0.2340921032666741 0 -0.03010754112114164 0.21525092451799749 0 -0.025633525508839541 0.23158855814307941 0 -0.051111390212177019 0.22819837453994571 0 -0.039011364431154973 0.2340921032666741 0 -0.033611884598115337 0.2130942018800864 0 -0.039011364431154973 0.2340921032666741 0 -0.033611884598115337 0.2130942018800864 0 -0.03010754112114164 0.21525092451799749 0 -0.039011364431154973 0.2340921032666741 0 -0.033611884598115337 0.2130942018800864 0 -0.051111390212177019 0.22819837453994571 0 -0.033611884598115337 0.2130942018800864 0 -0.051111390212177019 0.22819837453994571 0 -0.033611884598115337 0.2130942018800864 0 -0.04909255092021067 0.21411958505038881 0 -0.033611884598115337 0.2130942018800864 0 -0.056230531493411173 0.1991737205920798 0 -0.033611884598115337 0.2130942018800864 0 -0.045852631986365147 0.20899877552702409 0 -0.056230531493411173 0.1991737205920798 0 -0.033611884598115337 0.2130942018800864 0 -0.043389423292625483 0.20343244549360789 0 -0.056230531493411173 0.1991737205920798 0 -0.033611884598115337 0.2130942018800864 0 -0.03010754112114164 0.21525092451799749 0 -0.033611884598115337 0.2130942018800864 0 -0.032527500870901248 0.2088771692633726 0 -0.033611884598115337 0.2130942018800864 0 -0.030464898393038242 0.2106780487787703 0 -0.03010754112114164 0.21525092451799749 0 -0.033611884598115337 0.2130942018800864 0 -0.030464898393038242 0.2106780487787703 0 -0.032527500870901248 0.2088771692633726 0 -0.030464898393038242 0.2106780487787703 0 -0.033611884598115337 0.2130942018800864 0 -0.032527500870901248 0.2088771692633726 0 -0.030464898393038242 0.2106780487787703 0 -0.033611884598115337 0.2130942018800864 0 -0.032527500870901248 0.2088771692633726 0 -0.043389423292625483 0.20343244549360789 0 -0.032527500870901248 0.2088771692633726 0 -0.030547737348978331 0.20117811667172139 0 -0.033611884598115337 0.2130942018800864 0 -0.045852631986365147 0.20899877552702409 0 -0.04909255092021067 0.21411958505038881 0 -0.04909255092021067 0.21411958505038881 0 -0.059695348422104923 0.2122370184055912 0 -0.055107844296782761 0.20774423074024589 0 -0.051111390212177019 0.22819837453994571 0 -0.04909255092021067 0.21411958505038881 0 -0.059695348422104923 0.2122370184055912 0 -0.061405121329818617 0.2049829824105551 0 -0.055107844296782761 0.20774423074024589 0 -0.056230531493411173 0.1991737205920798 0 -0.059695348422104923 0.2122370184055912 0 -0.061405121329818617 0.2049829824105551 0 -0.055107844296782761 0.20774423074024589 0 -0.045852631986365147 0.20899877552702409 0 -0.04909255092021067 0.21411958505038881 0 -0.055107844296782761 0.20774423074024589 0 -0.045852631986365147 0.20899877552702409 0 -0.055107844296782761 0.20774423074024589 0 -0.056230531493411173 0.1991737205920798 0 -0.043389423292625483 0.20343244549360789 0 -0.056230531493411173 0.1991737205920798 0 -0.051187776208075027 0.19258469023889341 0 -0.067674138395800387 0.2028122745828585 0 -0.061405121329818617 0.2049829824105551 0 -0.056230531493411173 0.1991737205920798 0 -0.06377848669032303 0.18817288465585569 0 -0.056230531493411173 0.1991737205920798 0 -0.051187776208075027 0.19258469023889341 0 -0.051187776208075027 0.19258469023889341 0 -0.03964612276765199 0.19729796843744479 0 -0.044321476642653818 0.18655189757579249 0 -0.032527500870901248 0.2088771692633726 0 -0.043389423292625483 0.20343244549360789 0 -0.051187776208075027 0.19258469023889341 0 -0.030547737348978331 0.20117811667172139 0 -0.020548526679655819 0.20226315368136741 0 -0.044321476642653818 0.18655189757579249 0 -0.032527500870901248 0.2088771692633726 0 -0.051187776208075027 0.19258469023889341 0 -0.020548526679655819 0.20226315368136741 0 -0.044321476642653818 0.18655189757579249 0 -0.032527500870901248 0.2088771692633726 0 -0.051187776208075027 0.19258469023889341 0 -0.03964612276765199 0.19729796843744479 0 -0.032527500870901248 0.2088771692633726 0 -0.03964612276765199 0.19729796843744479 0 -0.030547737348978331 0.20117811667172139 0 -0.03964612276765199 0.19729796843744479 0 -0.030547737348978331 0.20117811667172139 0 -0.044321476642653818 0.18655189757579249 0 -0.024315232437064248 0.18770602052726501 0 -0.020548526679655819 0.20226315368136741 0 -0.044321476642653818 0.18655189757579249 0 -0.024315232437064248 0.18770602052726501 0 -0.020548526679655819 0.20226315368136741 0 -0.00080617046592665331 0.18551006481824811 0 -0.020548526679655819 0.20226315368136741 0 -0.0015602628643092611 0.2010491387064765 0 -0.00080617046592665331 0.18551006481824811 0 -0.020548526679655819 0.20226315368136741 0 -0.00080617046592665331 0.18551006481824811 0 -0.020548526679655819 0.20226315368136741 0 -0.015165059484511989 0.21437998450664261 0 0.00056179698415907697 0.21621471215728191 0 -0.020548526679655819 0.20226315368136741 0 -0.0015602628643092611 0.2010491387064765 0 0.00056179698415907697 0.21621471215728191 0 -0.020548526679655819 0.20226315368136741 0 0.00056179698415907697 0.21621471215728191 0 -0.015165059484511989 0.21437998450664261 0 -0.030464898393038242 0.2106780487787703 0 -0.010208609849512841 0.2283640234091508 0 -0.030464898393038242 0.2106780487787703 0 -0.03010754112114164 0.21525092451799749 0 -0.010208609849512841 0.2283640234091508 0 -0.020548526679655819 0.20226315368136741 0 -0.015165059484511989 0.21437998450664261 0 -0.030464898393038242 0.2106780487787703 0 -0.032527500870901248 0.2088771692633726 0 -0.030547737348978331 0.20117811667172139 0 -0.030464898393038242 0.2106780487787703 0 -0.030547737348978331 0.20117811667172139 0 -0.020548526679655819 0.20226315368136741 0 -0.030464898393038242 0.2106780487787703 0 -0.020548526679655819 0.20226315368136741 0 -0.030464898393038242 0.2106780487787703 0 -0.030464898393038242 0.2106780487787703 0 -0.010208609849512841 0.2283640234091508 0 -0.03010754112114164 0.21525092451799749 0 -0.025633525508839541 0.23158855814307941 0 -0.010208609849512841 0.2283640234091508 0 -0.010208609849512841 0.2283640234091508 0 0.0071314278210166913 0.23026998457289971 0 0.00056179698415907697 0.21621471215728191 0 -0.015165059484511989 0.21437998450664261 0 -0.010208609849512841 0.2283640234091508 0 0.00056179698415907697 0.21621471215728191 0 -0.010208609849512841 0.2283640234091508 0 0.01004767869401268 0.2460499980395312 0 -0.010208609849512841 0.2283640234091508 0 -0.0043330685824554648 0.2434028898310768 0 -0.018533892947438371 0.24520268888787281 0 -0.010208609849512841 0.2283640234091508 0 -0.0043330685824554648 0.2434028898310768 0 0.01004767869401268 0.2460499980395312 0 -0.0064195805784558694 0.25571646301748818 0 -0.0043330685824554648 0.2434028898310768 0 0.0012536845682404041 0.25038943113572448 0 -0.0064195805784558694 0.25571646301748818 0 -0.0043330685824554648 0.2434028898310768 0 -0.018533892947438371 0.24520268888787281 0 -0.025633525508839541 0.23158855814307941 0 -0.010208609849512841 0.2283640234091508 0 -0.018533892947438371 0.24520268888787281 0 -0.033265069700240638 0.24658948150263671 0 -0.025633525508839541 0.23158855814307941 0 -0.018533892947438371 0.24520268888787281 0 -0.052713674139319093 0.15721446630884989 0 -0.026538288433657641 0.1494711149202336 0 -0.043330406469540408 0.14090762155185829 0 -0.052713674139319093 0.15721446630884989 0 -0.026538288433657641 0.1494711149202336 0 -0.043330406469540408 0.14090762155185829 0 -0.03402210071942291 0.12691558099056749 0 -0.026538288433657641 0.1494711149202336 0 -0.043330406469540408 0.14090762155185829 0 -0.03402210071942291 0.12691558099056749 0 -0.048669579240668358 0.12651899353191401 0 -0.048669579240668358 0.12651899353191401 0 -0.056912429293975178 0.13714179573575361 0 -0.060974395793064282 0.11704099781763409 0 -0.043330406469540408 0.14090762155185829 0 -0.048669579240668358 0.12651899353191401 0 -0.056912429293975178 0.13714179573575361 0 -0.072335425274864237 0.1514718561692634 0 -0.056912429293975178 0.13714179573575361 0 -0.052713674139319093 0.15721446630884989 0 -0.043330406469540408 0.14090762155185829 0 -0.056912429293975178 0.13714179573575361 0 -0.052713674139319093 0.15721446630884989 0 -0.068094426605651945 0.17084064147021799 0 -0.059343527355541187 0.16522463537537249 0 -0.052063653983060398 0.1726645625156579 0 -0.052713674139319093 0.15721446630884989 0 -0.052063653983060398 0.1726645625156579 0 -0.036485223467600768 0.16995788846552351 0 -0.066792883845325696 0.16177622056438939 0 -0.059343527355541187 0.16522463537537249 0 -0.052713674139319093 0.15721446630884989 0 -0.059343527355541187 0.16522463537537249 0 -0.052713674139319093 0.15721446630884989 0 -0.052063653983060398 0.1726645625156579 0 -0.068094426605651945 0.17084064147021799 0 -0.052063653983060398 0.1726645625156579 0 -0.044321476642653818 0.18655189757579249 0 -0.068094426605651945 0.17084064147021799 0 -0.044321476642653818 0.18655189757579249 0 -0.069848051545249187 0.1762922112144148 0 -0.051187776208075027 0.19258469023889341 0 -0.069848051545249187 0.1762922112144148 0 -0.068094426605651945 0.17084064147021799 0 -0.044321476642653818 0.18655189757579249 0 -0.069848051545249187 0.1762922112144148 0 -0.051187776208075027 0.19258469023889341 0 -0.044321476642653818 0.18655189757579249 0 -0.069848051545249187 0.1762922112144148 0 -0.06377848669032303 0.18817288465585569 0 -0.051187776208075027 0.19258469023889341 0 -0.024315232437064248 0.18770602052726501 0 -0.044321476642653818 0.18655189757579249 0 -0.034234845184032907 0.18039278526497651 0 -0.044321476642653818 0.18655189757579249 0 -0.041776299819336983 0.17739178345548759 0 -0.034234845184032907 0.18039278526497651 0 -0.052063653983060398 0.1726645625156579 0 -0.044321476642653818 0.18655189757579249 0 -0.041776299819336983 0.17739178345548759 0 -0.052063653983060398 0.1726645625156579 0 -0.041776299819336983 0.17739178345548759 0 -0.036485223467600768 0.16995788846552351 0 -0.041776299819336983 0.17739178345548759 0 -0.034234845184032907 0.18039278526497651 0 -0.036485223467600768 0.16995788846552351 0 -0.052713674139319093 0.15721446630884989 0 -0.036485223467600768 0.16995788846552351 0 -0.026538288433657641 0.1494711149202336 0 -0.023536808986761089 0.1645663484568565 0 -0.0065513981512488537 0.1625384461529791 0 -0.026538288433657641 0.1494711149202336 0 -0.036485223467600768 0.16995788846552351 0 -0.023536808986761089 0.1645663484568565 0 -0.026538288433657641 0.1494711149202336 0 -0.023536808986761089 0.1645663484568565 0 -0.02131396633352502 0.17671135233233601 0 -0.0065513981512488537 0.1625384461529791 0 -0.036485223467600768 0.16995788846552351 0 -0.023536808986761089 0.1645663484568565 0 -0.02131396633352502 0.17671135233233601 0 -0.024315232437064248 0.18770602052726501 0 -0.034234845184032907 0.18039278526497651 0 -0.02131396633352502 0.17671135233233601 0 -0.034234845184032907 0.18039278526497651 0 -0.036485223467600768 0.16995788846552351 0 -0.02131396633352502 0.17671135233233601 0 -0.02131396633352502 0.17671135233233601 0 -0.00080617046592665331 0.18551006481824811 0 -0.0065513981512488537 0.1625384461529791 0 -0.024315232437064248 0.18770602052726501 0 -0.02131396633352502 0.17671135233233601 0 -0.00080617046592665331 0.18551006481824811 0 -0.0065513981512488537 0.1625384461529791 0 -0.00036290272799637669 0.1417277635316174 0 -0.026538288433657641 0.1494711149202336 0 -0.00036290272799637669 0.1417277635316174 0 -0.026538288433657641 0.1494711149202336 0 -0.03402210071942291 0.12691558099056749 0 -0.026538288433657641 0.1494711149202336 0 -0.01571508551452671 0.12532791281846131 0 -0.00036290272799637669 0.1417277635316174 0 -0.01571508551452671 0.12532791281846131 0 -9.545565130723651e-05 0.11508968561245959 0 -0.00036290272799637669 0.1417277635316174 0 -0.026538288433657641 0.1494711149202336 0 -0.01571508551452671 0.12532791281846131 0 -0.01571508551452671 0.12532791281846131 0 -9.545565130723651e-05 0.11508968561245959 0 -0.013373285204542191 0.107678814602365 0 -0.013373285204542191 0.107678814602365 0 -0.019623352293370821 0.094198957442108655 0 -0.001369140142595633 0.093026309473403332 0 -9.545565130723651e-05 0.11508968561245959 0 -0.013373285204542191 0.107678814602365 0 -0.001369140142595633 0.093026309473403332 0 -0.019623352293370821 0.094198957442108655 0 -0.033989978043761152 0.093765861506473452 0 -0.032425789964394013 0.1099889869462113 0 -0.013373285204542191 0.107678814602365 0 -0.019623352293370821 0.094198957442108655 0 -0.032425789964394013 0.1099889869462113 0 -0.03402210071942291 0.12691558099056749 0 -0.01571508551452671 0.12532791281846131 0 -0.032425789964394013 0.1099889869462113 0 -0.01571508551452671 0.12532791281846131 0 -0.013373285204542191 0.107678814602365 0 -0.032425789964394013 0.1099889869462113 0 -0.01481028442791074 0.069409371252489929 0 -0.0027143546311693642 0.070219084288717995 0 -0.0078308139493440121 0.060774731025119197 0 -0.01481028442791074 0.069409371252489929 0 -0.017676766441697331 0.059018118145828163 0 -0.0078308139493440121 0.060774731025119197 0 -0.0027143546311693642 0.070219084288717995 0 -0.0078308139493440121 0.060774731025119197 0 0.0040037955735182217 0.057029855989315897 0 -0.0027143546311693642 0.070219084288717995 0 -0.01365458971907384 0.081337511962930778 0 -0.0021053623162286439 0.081401419193926253 0 -0.01481028442791074 0.069409371252489929 0 -0.0027143546311693642 0.070219084288717995 0 -0.01365458971907384 0.081337511962930778 0 -0.019623352293370821 0.094198957442108655 0 -0.01365458971907384 0.081337511962930778 0 -0.001369140142595633 0.093026309473403332 0 -0.01365458971907384 0.081337511962930778 0 -0.0021053623162286439 0.081401419193926253 0 -0.001369140142595633 0.093026309473403332 0 -0.019623352293370821 0.094198957442108655 0 -0.01365458971907384 0.081337511962930778 0 -0.025828149556433321 0.083814636732945313 0 -0.019623352293370821 0.094198957442108655 0 -0.025828149556433321 0.083814636732945313 0 -0.033989978043761152 0.093765861506473452 0 -0.025828149556433321 0.083814636732945313 0 -0.02663291642327989 0.071369356908096523 0 -0.038279544030812657 0.082678350868152062 0 -0.01365458971907384 0.081337511962930778 0 -0.025828149556433321 0.083814636732945313 0 -0.02663291642327989 0.071369356908096523 0 -0.01481028442791074 0.069409371252489929 0 -0.01365458971907384 0.081337511962930778 0 -0.02663291642327989 0.071369356908096523 0 -0.02663291642327989 0.071369356908096523 0 -0.031659465535110773 0.057457550367877842 0 -0.017676766441697331 0.059018118145828163 0 -0.01481028442791074 0.069409371252489929 0 -0.02663291642327989 0.071369356908096523 0 -0.017676766441697331 0.059018118145828163 0 -0.02663291642327989 0.071369356908096523 0 -0.043372856185006241 0.070759379612528969 0 -0.038279544030812657 0.082678350868152062 0 -0.02663291642327989 0.071369356908096523 0 -0.043372856185006241 0.070759379612528969 0 -0.031659465535110773 0.057457550367877842 0 -0.043372856185006241 0.070759379612528969 0 -0.038279544030812657 0.082678350868152062 0 -0.051270384955859498 0.081932840837577445 0 -0.025828149556433321 0.083814636732945313 0 -0.038279544030812657 0.082678350868152062 0 -0.033989978043761152 0.093765861506473452 0 -0.038279544030812657 0.082678350868152062 0 -0.051270384955859498 0.081932840837577445 0 -0.048582979020535898 0.094428029611290709 0 -0.038279544030812657 0.082678350868152062 0 -0.033989978043761152 0.093765861506473452 0 -0.048582979020535898 0.094428029611290709 0 -0.051270384955859498 0.081932840837577445 0 -0.062309755148544518 0.069057856443548477 0 -0.064829584546039529 0.093535692987696109 0 -0.051270384955859498 0.081932840837577445 0 -0.048582979020535898 0.094428029611290709 0 -0.064829584546039529 0.093535692987696109 0 -0.043372856185006241 0.070759379612528969 0 -0.051270384955859498 0.081932840837577445 0 -0.062309755148544518 0.069057856443548477 0 -0.043372856185006241 0.070759379612528969 0 -0.062309755148544518 0.069057856443548477 0 -0.048524814106501959 0.053837743638689192 0 -0.03402210071942291 0.12691558099056749 0 -0.049425842632731219 0.11022563698913181 0 -0.03402210071942291 0.12691558099056749 0 -0.048669579240668358 0.12651899353191401 0 -0.049425842632731219 0.11022563698913181 0 -0.03402210071942291 0.12691558099056749 0 -0.032425789964394013 0.1099889869462113 0 -0.049425842632731219 0.11022563698913181 0 -0.041084840557403843 0.1022186968402936 0 -0.048582979020535898 0.094428029611290709 0 -0.049425842632731219 0.11022563698913181 0 -0.033989978043761152 0.093765861506473452 0 -0.032425789964394013 0.1099889869462113 0 -0.041084840557403843 0.1022186968402936 0 -0.032425789964394013 0.1099889869462113 0 -0.041084840557403843 0.1022186968402936 0 -0.049425842632731219 0.11022563698913181 0 -0.033989978043761152 0.093765861506473452 0 -0.041084840557403843 0.1022186968402936 0 -0.048582979020535898 0.094428029611290709 0 -0.048582979020535898 0.094428029611290709 0 -0.049425842632731219 0.11022563698913181 0 -0.064829584546039529 0.093535692987696109 0 -0.049425842632731219 0.11022563698913181 0 -0.063833165792666569 0.1065376868040359 0 -0.064829584546039529 0.093535692987696109 0 -0.049425842632731219 0.11022563698913181 0 -0.064829584546039529 0.093535692987696109 0 -0.060974395793064282 0.11704099781763409 0 -0.049425842632731219 0.11022563698913181 0 -0.063833165792666569 0.1065376868040359 0 -0.048669579240668358 0.12651899353191401 0 -0.060974395793064282 0.11704099781763409 0 -0.049425842632731219 0.11022563698913181 0 -0.060974395793064282 0.11704099781763409 0 -0.077561735862555242 0.10668622940409769 0 -0.063833165792666569 0.1065376868040359 0 -0.085748905380516993 0.13047455609998551 0 -0.060974395793064282 0.11704099781763409 0 -0.060974395793064282 0.11704099781763409 0 -0.087980165222925427 0.1164035866408622 0 -0.077561735862555242 0.10668622940409769 0 -0.085748905380516993 0.13047455609998551 0 -0.087980165222925427 0.1164035866408622 0 -0.1017340578322285 0.122134937427861 0 -0.085748905380516993 0.13047455609998551 0 -0.060974395793064282 0.11704099781763409 0 -0.087980165222925427 0.1164035866408622 0 -0.087980165222925427 0.1164035866408622 0 -0.077561735862555242 0.10668622940409769 0 -0.097470540286649116 0.096578442331916134 0 -0.077561735862555242 0.10668622940409769 0 -0.082678826881108961 0.092104525101713158 0 -0.097470540286649116 0.096578442331916134 0 -0.077561735862555242 0.10668622940409769 0 -0.097470540286649116 0.096578442331916134 0 -0.077561735862555242 0.10668622940409769 0 -0.064829584546039529 0.093535692987696109 0 -0.082678826881108961 0.092104525101713158 0 -0.077561735862555242 0.10668622940409769 0 -0.063833165792666569 0.1065376868040359 0 -0.064829584546039529 0.093535692987696109 0 -0.064829584546039529 0.093535692987696109 0 -0.080233326459347817 0.076845748986260454 0 -0.062309755148544518 0.069057856443548477 0 -0.064829584546039529 0.093535692987696109 0 -0.080233326459347817 0.076845748986260454 0 -0.064829584546039529 0.093535692987696109 0 -0.080233326459347817 0.076845748986260454 0 -0.082678826881108961 0.092104525101713158 0 -0.062309755148544518 0.069057856443548477 0 -0.080233326459347817 0.076845748986260454 0 -0.079771931984021133 0.054355563683354563 0 -0.080233326459347817 0.076845748986260454 0 -0.095637068372656064 0.060155804984824847 0 -0.080233326459347817 0.076845748986260454 0 -0.095637068372656064 0.060155804984824847 0 -0.079771931984021133 0.054355563683354563 0 -0.080233326459347817 0.076845748986260454 0 -0.098792047137850225 0.079988806423420697 0 -0.095637068372656064 0.060155804984824847 0 -0.080233326459347817 0.076845748986260454 0 -0.082678826881108961 0.092104525101713158 0 -0.098792047137850225 0.079988806423420697 0 -0.082678826881108961 0.092104525101713158 0 -0.098792047137850225 0.079988806423420697 0 -0.097470540286649116 0.096578442331916134 0 -0.098792047137850225 0.079988806423420697 0 -0.117379344710743 0.086470655259734588 0 -0.097470540286649116 0.096578442331916134 0 -0.117379344710743 0.086470655259734588 0 -0.097470540286649116 0.096578442331916134 0 -0.098792047137850225 0.079988806423420697 0 -0.1123866051516131 0.067179253515651571 0 -0.095637068372656064 0.060155804984824847 0 -0.1361342290707146 0.068640886213986563 0 -0.1123866051516131 0.067179253515651571 0 -0.1240288775116101 0.07416428352189007 0 -0.1361342290707146 0.068640886213986563 0 -0.1123866051516131 0.067179253515651571 0 -0.1234520288619631 0.056789454041839237 0 -0.1123866051516131 0.067179253515651571 0 -0.1240288775116101 0.07416428352189007 0 -0.117379344710743 0.086470655259734588 0 -0.098792047137850225 0.079988806423420697 0 -0.1123866051516131 0.067179253515651571 0 -0.117379344710743 0.086470655259734588 0 -0.1361342290707146 0.068640886213986563 0 -0.1123866051516131 0.067179253515651571 0 -0.13086536968558871 0.073375436390601317 0 -0.1240288775116101 0.07416428352189007 0 -0.117379344710743 0.086470655259734588 0 -0.12605659733652211 0.098383887347947896 0 -0.13018217052453371 0.089911949302351371 0 -0.117379344710743 0.086470655259734588 0 -0.13129448178029141 0.1113811645652984 0 -0.1128284768885677 0.10035569541266121 0 -0.11873080033281221 0.1131594122025715 0 -0.12605659733652211 0.098383887347947896 0 -0.117379344710743 0.086470655259734588 0 -0.1128284768885677 0.10035569541266121 0 -0.13129448178029141 0.1113811645652984 0 -0.1128284768885677 0.10035569541266121 0 -0.13129448178029141 0.1113811645652984 0 -0.12605659733652211 0.098383887347947896 0 -0.1128284768885677 0.10035569541266121 0 -0.1128284768885677 0.10035569541266121 0 -0.11873080033281221 0.1131594122025715 0 -0.1100789182510251 0.11342039025334801 0 -0.13129448178029141 0.1113811645652984 0 -0.11873080033281221 0.1131594122025715 0 -0.1234209741501253 0.123579871801461 0 -0.11873080033281221 0.1131594122025715 0 -0.1234209741501253 0.123579871801461 0 -0.113014036499193 0.12109383606837019 0 -0.1126556527405233 0.12871284881070069 0 -0.1234209741501253 0.123579871801461 0 -0.113014036499193 0.12109383606837019 0 -0.11873080033281221 0.1131594122025715 0 -0.113014036499193 0.12109383606837019 0 -0.1100789182510251 0.11342039025334801 0 -0.1100789182510251 0.11342039025334801 0 -0.1019431005189075 0.10984971087700619 0 -0.1017340578322285 0.122134937427861 0 -0.113014036499193 0.12109383606837019 0 -0.1100789182510251 0.11342039025334801 0 -0.1017340578322285 0.122134937427861 0 -0.1126556527405233 0.12871284881070069 0 -0.113014036499193 0.12109383606837019 0 -0.1017340578322285 0.122134937427861 0 -0.087980165222925427 0.1164035866408622 0 -0.1019431005189075 0.10984971087700619 0 -0.1017340578322285 0.122134937427861 0 -0.087980165222925427 0.1164035866408622 0 -0.1019431005189075 0.10984971087700619 0 -0.097470540286649116 0.096578442331916134 0 -0.117379344710743 0.086470655259734588 0 -0.1128284768885677 0.10035569541266121 0 -0.097470540286649116 0.096578442331916134 0 -0.1128284768885677 0.10035569541266121 0 -0.1100789182510251 0.11342039025334801 0 -0.1019431005189075 0.10984971087700619 0 -0.1128284768885677 0.10035569541266121 0 -0.1019431005189075 0.10984971087700619 0 -0.097470540286649116 0.096578442331916134 0 -0.097589560114274554 0.01275818687758217 0 -0.1097856481355473 0.024083799103619769 0 -0.090645867357890264 0.024421879267212249 0 -0.1097856481355473 0.024083799103619769 0 -0.092563636030198543 0.042678589662137938 0 -0.090645867357890264 0.024421879267212249 0 -0.109004284113599 0.0029875152561677238 0 -0.097589560114274554 0.01275818687758217 0 -0.09076148652287061 0.00039294385896961791 0 -0.109004284113599 0.0029875152561677238 0 -0.097589560114274554 0.01275818687758217 0 -0.1097856481355473 0.024083799103619769 0 -0.1198072775707657 -0.0035428438909860371 0 -0.1270076602408961 0.0054890085451015942 0 -0.109004284113599 0.0029875152561677238 0 -0.1270076602408961 0.0054890085451015942 0 -0.1097856481355473 0.024083799103619769 0 -0.1270076602408961 0.0054890085451015942 0 -0.109004284113599 0.0029875152561677238 0 -0.1097856481355473 0.024083799103619769 0 -0.1270076602408961 0.0054890085451015942 0 -0.12884573219186721 0.01986658783509444 0 -0.1097856481355473 0.024083799103619769 0 -0.12884573219186721 0.01986658783509444 0 -0.1097856481355473 0.024083799103619769 0 -0.12097966538823469 0.03382201584410828 0 -0.1097856481355473 0.024083799103619769 0 -0.12097966538823469 0.03382201584410828 0 -0.11279730059423319 0.047083939413178441 0 -0.13248998063129111 0.044253737024540447 0 -0.12097966538823469 0.03382201584410828 0 -0.11279730059423319 0.047083939413178441 0 -0.13248998063129111 0.044253737024540447 0 -0.11279730059423319 0.047083939413178441 0 -0.1234520288619631 0.056789454041839237 0 -0.1123866051516131 0.067179253515651571 0 -0.11279730059423319 0.047083939413178441 0 -0.1234520288619631 0.056789454041839237 0 -0.1123866051516131 0.067179253515651571 0 -0.11279730059423319 0.047083939413178441 0 -0.095637068372656064 0.060155804984824847 0 -0.11279730059423319 0.047083939413178441 0 -0.095637068372656064 0.060155804984824847 0 -0.092563636030198543 0.042678589662137938 0 -0.1097856481355473 0.024083799103619769 0 -0.092563636030198543 0.042678589662137938 0 -0.1097856481355473 0.024083799103619769 0 -0.11279730059423319 0.047083939413178441 0 -0.092563636030198543 0.042678589662137938 0 -0.092563636030198543 0.042678589662137938 0 -0.079771931984021133 0.054355563683354563 0 -0.075256511061819201 0.033146715666499398 0 -0.092563636030198543 0.042678589662137938 0 -0.075256511061819201 0.033146715666499398 0 -0.090645867357890264 0.024421879267212249 0 -0.095637068372656064 0.060155804984824847 0 -0.092563636030198543 0.042678589662137938 0 -0.079771931984021133 0.054355563683354563 0 -0.062309755148544518 0.069057856443548477 0 -0.079771931984021133 0.054355563683354563 0 -0.064398150410977587 0.05007736547261981 0 -0.064398150410977587 0.05007736547261981 0 -0.075256511061819201 0.033146715666499398 0 -0.053972768980153921 0.034130833509787482 0 -0.079771931984021133 0.054355563683354563 0 -0.064398150410977587 0.05007736547261981 0 -0.075256511061819201 0.033146715666499398 0 -0.075256511061819201 0.033146715666499398 0 -0.064298030373779277 0.01580995302798709 0 -0.080667001448385595 0.012446851468453181 0 -0.075256511061819201 0.033146715666499398 0 -0.064298030373779277 0.01580995302798709 0 -0.053972768980153921 0.034130833509787482 0 -0.097589560114274554 0.01275818687758217 0 -0.090645867357890264 0.024421879267212249 0 -0.080667001448385595 0.012446851468453181 0 -0.075256511061819201 0.033146715666499398 0 -0.090645867357890264 0.024421879267212249 0 -0.080667001448385595 0.012446851468453181 0 -0.072867677892725358 -0.0056960314549651548 0 -0.09076148652287061 0.00039294385896961791 0 -0.080667001448385595 0.012446851468453181 0 -0.097589560114274554 0.01275818687758217 0 -0.09076148652287061 0.00039294385896961791 0 -0.080667001448385595 0.012446851468453181 0 -0.072867677892725358 -0.0056960314549651548 0 -0.064298030373779277 0.01580995302798709 0 -0.080667001448385595 0.012446851468453181 0 -0.072867677892725358 -0.0056960314549651548 0 -0.064298030373779277 0.01580995302798709 0 -0.056754197590857008 0.0022484061051966271 0 -0.056754197590857008 0.0022484061051966271 0 -0.050077776808385571 0.01883949071433207 0 -0.039511076852245842 0.0034204325671171889 0 -0.064298030373779277 0.01580995302798709 0 -0.056754197590857008 0.0022484061051966271 0 -0.050077776808385571 0.01883949071433207 0 -0.064298030373779277 0.01580995302798709 0 -0.050077776808385571 0.01883949071433207 0 -0.053972768980153921 0.034130833509787482 0 -0.050077776808385571 0.01883949071433207 0 -0.036063631271118141 0.023080953117398599 0 -0.053972768980153921 0.034130833509787482 0 -0.050077776808385571 0.01883949071433207 0 -0.036063631271118141 0.023080953117398599 0 -0.039511076852245842 0.0034204325671171889 0 -0.036063631271118141 0.023080953117398599 0 -0.039511076852245842 0.0034204325671171889 0 -0.02922259017720269 0.011592874327646951 0 -0.039511076852245842 0.0034204325671171889 0 -0.027135101676566669 0.00097548958815388644 0 -0.02922259017720269 0.011592874327646951 0 -0.062309755148544518 0.069057856443548477 0 -0.064398150410977587 0.05007736547261981 0 -0.048524814106501959 0.053837743638689192 0 -0.064398150410977587 0.05007736547261981 0 -0.048524814106501959 0.053837743638689192 0 -0.053972768980153921 0.034130833509787482 0 -0.036063631271118141 0.023080953117398599 0 -0.053972768980153921 0.034130833509787482 0 -0.035435888379218752 0.041543476425772607 0 -0.048524814106501959 0.053837743638689192 0 -0.053972768980153921 0.034130833509787482 0 -0.035435888379218752 0.041543476425772607 0 -0.048524814106501959 0.053837743638689192 0 -0.035435888379218752 0.041543476425772607 0 -0.031659465535110773 0.057457550367877842 0 -0.043372856185006241 0.070759379612528969 0 -0.048524814106501959 0.053837743638689192 0 -0.031659465535110773 0.057457550367877842 0 -0.035435888379218752 0.041543476425772607 0 -0.031659465535110773 0.057457550367877842 0 -0.019942309010701469 0.04625465066973198 0 -0.031659465535110773 0.057457550367877842 0 -0.017676766441697331 0.059018118145828163 0 -0.019942309010701469 0.04625465066973198 0 -0.036063631271118141 0.023080953117398599 0 -0.035435888379218752 0.041543476425772607 0 -0.020702075672625789 0.03150682309497084 0 -0.035435888379218752 0.041543476425772607 0 -0.019942309010701469 0.04625465066973198 0 -0.020702075672625789 0.03150682309497084 0 -0.019942309010701469 0.04625465066973198 0 -0.020702075672625789 0.03150682309497084 0 -0.0072171044046684214 0.037505046313161143 0 -0.0072171044046684214 0.037505046313161143 0 -0.006962553630887762 0.050496889670781309 0 0.0022149064860116372 0.04407084923788545 0 -0.019942309010701469 0.04625465066973198 0 -0.0072171044046684214 0.037505046313161143 0 -0.006962553630887762 0.050496889670781309 0 -0.017676766441697331 0.059018118145828163 0 -0.019942309010701469 0.04625465066973198 0 -0.006962553630887762 0.050496889670781309 0 -0.006962553630887762 0.050496889670781309 0 0.0040037955735182217 0.057029855989315897 0 0.0022149064860116372 0.04407084923788545 0 -0.006962553630887762 0.050496889670781309 0 -0.0078308139493440121 0.060774731025119197 0 0.0040037955735182217 0.057029855989315897 0 -0.017676766441697331 0.059018118145828163 0 -0.006962553630887762 0.050496889670781309 0 -0.0078308139493440121 0.060774731025119197 0 -0.020419375651676681 0.0067369574427317332 0 -0.020991326224326579 0.01824307176821811 0 -0.011002681221868321 0.011548500244333239 0 -0.020691166216051309 -0.0040443791037982563 0 -0.020419375651676681 0.0067369574427317332 0 -0.027135101676566669 0.00097548958815388644 0 -0.020691166216051309 -0.0040443791037982563 0 -0.020419375651676681 0.0067369574427317332 0 -0.01243404289280208 0.0024010229120926809 0 -0.020419375651676681 0.0067369574427317332 0 -0.027135101676566669 0.00097548958815388644 0 -0.02922259017720269 0.011592874327646951 0 -0.020419375651676681 0.0067369574427317332 0 -0.02922259017720269 0.011592874327646951 0 -0.020991326224326579 0.01824307176821811 0 -0.036063631271118141 0.023080953117398599 0 -0.02922259017720269 0.011592874327646951 0 -0.020991326224326579 0.01824307176821811 0 -0.036063631271118141 0.023080953117398599 0 -0.020702075672625789 0.03150682309497084 0 -0.020991326224326579 0.01824307176821811 0 -0.020702075672625789 0.03150682309497084 0 -0.020991326224326579 0.01824307176821811 0 -0.0091133395240997391 0.02343754540277259 0 -0.020991326224326579 0.01824307176821811 0 -0.0091133395240997391 0.02343754540277259 0 -0.011002681221868321 0.011548500244333239 0 -0.020702075672625789 0.03150682309497084 0 -0.0072171044046684214 0.037505046313161143 0 -0.0091133395240997391 0.02343754540277259 0 -0.0072171044046684214 0.037505046313161143 0 -0.0091133395240997391 0.02343754540277259 0 0.0051685400355623761 0.029825520168575939 0 -0.0091133395240997391 0.02343754540277259 0 0.00079270169857894972 0.014600932552028441 0 0.0051685400355623761 0.029825520168575939 0 -0.0091133395240997391 0.02343754540277259 0 -0.011002681221868321 0.011548500244333239 0 0.00079270169857894972 0.014600932552028441 0 -0.011002681221868321 0.011548500244333239 0 -0.0036174073565606751 0.0035994414650109569 0 0.00079270169857894972 0.014600932552028441 0 -0.01190346157300424 -0.0036268694762264472 0 -0.01243404289280208 0.0024010229120926809 0 -0.0036174073565606751 0.0035994414650109569 0 -0.011002681221868321 0.011548500244333239 0 -0.01243404289280208 0.0024010229120926809 0 -0.0036174073565606751 0.0035994414650109569 0 -0.020419375651676681 0.0067369574427317332 0 -0.011002681221868321 0.011548500244333239 0 -0.01243404289280208 0.0024010229120926809 0 -0.0036174073565606751 0.0035994414650109569 0 0.0048101977232623471 0.0047236435778324742 0 0.0024568228245273188 -0.0058992493484748354 0 -0.0036174073565606751 0.0035994414650109569 0 0.0048101977232623471 0.0047236435778324742 0 0.00079270169857894972 0.014600932552028441 0 0.01391193333841664 0.0059217649024471616 0 0.019587949351128071 0.002405934079128156 0 0.01057394725604094 -0.00023765587989192039 0 0.0048101977232623471 0.0047236435778324742 0 0.01391193333841664 0.0059217649024471616 0 0.01057394725604094 -0.00023765587989192039 0 0.0048101977232623471 0.0047236435778324742 0 0.01391193333841664 0.0059217649024471616 0 0.011959205258540471 0.01613561241694738 0 0.0048101977232623471 0.0047236435778324742 0 0.00079270169857894972 0.014600932552028441 0 0.011959205258540471 0.01613561241694738 0 0.00079270169857894972 0.014600932552028441 0 0.0051685400355623761 0.029825520168575939 0 0.011959205258540471 0.01613561241694738 0 0.0051685400355623761 0.029825520168575939 0 0.011959205258540471 0.01613561241694738 0 0.017688740233385451 0.027718441924381759 0 0.017688740233385451 0.027718441924381759 0 0.025202892310900601 0.013747747124600669 0 0.03565331525629916 0.026040841738459861 0 0.017688740233385451 0.027718441924381759 0 0.025202892310900601 0.013747747124600669 0 0.011959205258540471 0.01613561241694738 0 0.017688740233385451 0.027718441924381759 0 0.025202892310900601 0.013747747124600669 0 0.017688740233385451 0.027718441924381759 0 0.029723580255492831 0.038645317601412023 0 0.03565331525629916 0.026040841738459861 0 0.025202892310900601 0.013747747124600669 0 0.019587949351128071 0.002405934079128156 0 0.032717044388414128 -0.00022294767518126881 0 0.025202892310900601 0.013747747124600669 0 0.032717044388414128 -0.00022294767518126881 0 0.01391193333841664 0.0059217649024471616 0 0.025202892310900601 0.013747747124600669 0 0.019587949351128071 0.002405934079128156 0 0.01391193333841664 0.0059217649024471616 0 0.011959205258540471 0.01613561241694738 0 0.025202892310900601 0.013747747124600669 0 0.014725755390087979 0.05988872561090311 0 0.0040037955735182217 0.057029855989315897 0 0.0084598163284994223 0.068541811941015274 0 0.0040037955735182217 0.057029855989315897 0 0.0022149064860116372 0.04407084923788545 0 0.016081854856533771 0.045496934047592953 0 0.014725755390087979 0.05988872561090311 0 0.0040037955735182217 0.057029855989315897 0 0.016081854856533771 0.045496934047592953 0 0.0051685400355623761 0.029825520168575939 0 0.017688740233385451 0.027718441924381759 0 0.016081854856533771 0.045496934047592953 0 0.0051685400355623761 0.029825520168575939 0 0.0022149064860116372 0.04407084923788545 0 0.016081854856533771 0.045496934047592953 0 -0.0072171044046684214 0.037505046313161143 0 0.0051685400355623761 0.029825520168575939 0 0.0022149064860116372 0.04407084923788545 0 0.017688740233385451 0.027718441924381759 0 0.029723580255492831 0.038645317601412023 0 0.016081854856533771 0.045496934047592953 0 0.029723580255492831 0.038645317601412023 0 0.016081854856533771 0.045496934047592953 0 0.028783184660528659 0.049245094146927119 0 0.014725755390087979 0.05988872561090311 0 0.016081854856533771 0.045496934047592953 0 0.024719626459390749 0.058296603512639787 0 0.016081854856533771 0.045496934047592953 0 0.028783184660528659 0.049245094146927119 0 0.024719626459390749 0.058296603512639787 0 0.028783184660528659 0.049245094146927119 0 0.024719626459390749 0.058296603512639787 0 0.032803486467401118 0.062600452766418832 0 0.038669884907369723 0.050733787445938157 0 0.05258951456807387 0.05169063567814064 0 0.045911161873339962 0.062727861856346739 0 0.038669884907369723 0.050733787445938157 0 0.032803486467401118 0.062600452766418832 0 0.045911161873339962 0.062727861856346739 0 0.028783184660528659 0.049245094146927119 0 0.038669884907369723 0.050733787445938157 0 0.032803486467401118 0.062600452766418832 0 0.029723580255492831 0.038645317601412023 0 0.038669884907369723 0.050733787445938157 0 0.046526987001704691 0.037730952096819308 0 0.029723580255492831 0.038645317601412023 0 0.046526987001704691 0.037730952096819308 0 0.03565331525629916 0.026040841738459861 0 0.038669884907369723 0.050733787445938157 0 0.046526987001704691 0.037730952096819308 0 0.05258951456807387 0.05169063567814064 0 0.029723580255492831 0.038645317601412023 0 0.028783184660528659 0.049245094146927119 0 0.038669884907369723 0.050733787445938157 0 0.046526987001704691 0.037730952096819308 0 0.057810347756094019 0.032818473269482978 0 0.060335016372712477 0.043590078158158171 0 0.046526987001704691 0.037730952096819308 0 0.060335016372712477 0.043590078158158171 0 0.05258951456807387 0.05169063567814064 0 0.060335016372712477 0.043590078158158171 0 0.05258951456807387 0.05169063567814064 0 0.067620817058947486 0.053112721762684993 0 0.05258951456807387 0.05169063567814064 0 0.056985589483321802 0.061895971095616807 0 0.067620817058947486 0.053112721762684993 0 0.05258951456807387 0.05169063567814064 0 0.056985589483321802 0.061895971095616807 0 0.045911161873339962 0.062727861856346739 0 0.038685914346674913 0.01435605241597772 0 0.050579644772147568 0.020256215414396681 0 0.047025321839654959 0.0052983043102026676 0 0.038685914346674913 0.01435605241597772 0 0.047025321839654959 0.0052983043102026676 0 0.032717044388414128 -0.00022294767518126881 0 0.047025321839654959 0.0052983043102026676 0 0.032717044388414128 -0.00022294767518126881 0 0.025202892310900601 0.013747747124600669 0 0.038685914346674913 0.01435605241597772 0 0.032717044388414128 -0.00022294767518126881 0 0.046526987001704691 0.037730952096819308 0 0.03565331525629916 0.026040841738459861 0 0.050579644772147568 0.020256215414396681 0 0.025202892310900601 0.013747747124600669 0 0.038685914346674913 0.01435605241597772 0 0.03565331525629916 0.026040841738459861 0 0.038685914346674913 0.01435605241597772 0 0.03565331525629916 0.026040841738459861 0 0.050579644772147568 0.020256215414396681 0 0.046526987001704691 0.037730952096819308 0 0.057810347756094019 0.032818473269482978 0 0.050579644772147568 0.020256215414396681 0 0.050579644772147568 0.020256215414396681 0 0.061333599290895623 0.01081955629558679 0 0.069667576587648106 0.022869576678334599 0 0.057810347756094019 0.032818473269482978 0 0.050579644772147568 0.020256215414396681 0 0.069667576587648106 0.022869576678334599 0 0.050579644772147568 0.020256215414396681 0 0.061333599290895623 0.01081955629558679 0 0.047025321839654959 0.0052983043102026676 0 0.061333599290895623 0.01081955629558679 0 0.047025321839654959 0.0052983043102026676 0 0.047025321839654959 0.0052983043102026676 0 0.058975878380341823 0.001701104691348615 0 0.054587243132687133 -0.005030141054661607 0 0.061333599290895623 0.01081955629558679 0 0.047025321839654959 0.0052983043102026676 0 0.058975878380341823 0.001701104691348615 0 0.061333599290895623 0.01081955629558679 0 0.071151040616473218 0.01167590153895965 0 0.067610423712539836 -0.0020604952949755742 0 0.061333599290895623 0.01081955629558679 0 0.058975878380341823 0.001701104691348615 0 0.067610423712539836 -0.0020604952949755742 0 0.061333599290895623 0.01081955629558679 0 0.071151040616473218 0.01167590153895965 0 0.069667576587648106 0.022869576678334599 0 0.071151040616473218 0.01167590153895965 0 0.077845831092297979 0.0053110267895053499 0 0.080482693348288614 0.014568849222610661 0 0.071151040616473218 0.01167590153895965 0 0.077845831092297979 0.0053110267895053499 0 0.067610423712539836 -0.0020604952949755742 0 0.077845831092297979 0.0053110267895053499 0 0.087218838477258864 0.0060413693734897092 0 0.082087524036717277 -0.0047761931783755667 0 0.077845831092297979 0.0053110267895053499 0 0.080482693348288614 0.014568849222610661 0 0.087218838477258864 0.0060413693734897092 0 0.093467574477248905 0.014576589189992949 0 0.087218838477258864 0.0060413693734897092 0 0.093940628788715563 0.0062886560966533469 0 0.080482693348288614 0.014568849222610661 0 0.093467574477248905 0.014576589189992949 0 0.087218838477258864 0.0060413693734897092 0 0.087218838477258864 0.0060413693734897092 0 0.091567309821212278 -0.00098424470217601612 0 0.082087524036717277 -0.0047761931783755667 0 0.087218838477258864 0.0060413693734897092 0 0.093940628788715563 0.0062886560966533469 0 0.091567309821212278 -0.00098424470217601612 0 0.083792157369909637 0.025507174681269961 0 0.084903606594731146 0.037104062313560587 0 0.094044238409064965 0.028749247639736301 0 0.093467574477248905 0.014576589189992949 0 0.083792157369909637 0.025507174681269961 0 0.094044238409064965 0.028749247639736301 0 0.080482693348288614 0.014568849222610661 0 0.093467574477248905 0.014576589189992949 0 0.083792157369909637 0.025507174681269961 0 0.083792157369909637 0.025507174681269961 0 0.069667576587648106 0.022869576678334599 0 0.072472801880598778 0.037748199181885787 0 0.071151040616473218 0.01167590153895965 0 0.080482693348288614 0.014568849222610661 0 0.069667576587648106 0.022869576678334599 0 0.080482693348288614 0.014568849222610661 0 0.083792157369909637 0.025507174681269961 0 0.069667576587648106 0.022869576678334599 0 0.057810347756094019 0.032818473269482978 0 0.069667576587648106 0.022869576678334599 0 0.072472801880598778 0.037748199181885787 0 0.072472801880598778 0.037748199181885787 0 0.067620817058947486 0.053112721762684993 0 0.084669073271429876 0.048933405206894903 0 0.057810347756094019 0.032818473269482978 0 0.060335016372712477 0.043590078158158171 0 0.072472801880598778 0.037748199181885787 0 0.060335016372712477 0.043590078158158171 0 0.072472801880598778 0.037748199181885787 0 0.067620817058947486 0.053112721762684993 0 0.067620817058947486 0.053112721762684993 0 0.07947165422696667 0.062320335567148347 0 0.084669073271429876 0.048933405206894903 0 0.056985589483321802 0.061895971095616807 0 0.067620817058947486 0.053112721762684993 0 0.066670073305173272 0.066205739247031492 0 0.067620817058947486 0.053112721762684993 0 0.07947165422696667 0.062320335567148347 0 0.066670073305173272 0.066205739247031492 0 0.07947165422696667 0.062320335567148347 0 0.084669073271429876 0.048933405206894903 0 0.093172461482427194 0.061247082398517928 0 0.084669073271429876 0.048933405206894903 0 0.093172461482427194 0.061247082398517928 0 0.098954138379694301 0.051670318212385567 0 0.084669073271429876 0.048933405206894903 0 0.096520985913679413 0.040753916676947263 0 0.098954138379694301 0.051670318212385567 0 0.083792157369909637 0.025507174681269961 0 0.072472801880598778 0.037748199181885787 0 0.084903606594731146 0.037104062313560587 0 0.072472801880598778 0.037748199181885787 0 0.084669073271429876 0.048933405206894903 0 0.084903606594731146 0.037104062313560587 0 0.084669073271429876 0.048933405206894903 0 0.084903606594731146 0.037104062313560587 0 0.096520985913679413 0.040753916676947263 0 0.084903606594731146 0.037104062313560587 0 0.096520985913679413 0.040753916676947263 0 0.094044238409064965 0.028749247639736301 0 0.096520985913679413 0.040753916676947263 0 0.1038815709591706 0.033472877315628681 0 0.1145259151899127 0.047886133546214682 0 0.096520985913679413 0.040753916676947263 0 0.098954138379694301 0.051670318212385567 0 0.1145259151899127 0.047886133546214682 0 0.096520985913679413 0.040753916676947263 0 0.1038815709591706 0.033472877315628681 0 0.094044238409064965 0.028749247639736301 0 0.093172461482427194 0.061247082398517928 0 0.098954138379694301 0.051670318212385567 0 0.1058822560410223 0.059531053233353101 0 0.098954138379694301 0.051670318212385567 0 0.1058822560410223 0.059531053233353101 0 0.1145259151899127 0.047886133546214682 0 0.1145259151899127 0.047886133546214682 0 0.1204297969431717 0.055002002505404941 0 0.11688028196426919 0.067996556043338652 0 0.1145259151899127 0.047886133546214682 0 0.11688028196426919 0.067996556043338652 0 0.1058822560410223 0.059531053233353101 0 0.1145259151899127 0.047886133546214682 0 0.11688028196426919 0.067996556043338652 0 0.1145259151899127 0.047886133546214682 0 0.1204297969431717 0.055002002505404941 0 0.1233698590855634 0.042628228609694438 0 0.1204297969431717 0.055002002505404941 0 0.1233698590855634 0.042628228609694438 0 0.13035972252529171 0.049554185983596108 0 0.1204297969431717 0.055002002505404941 0 0.1216352587087912 0.064169241606271743 0 0.13146749193025431 0.061236951587981828 0 0.1204297969431717 0.055002002505404941 0 0.1216352587087912 0.064169241606271743 0 0.11688028196426919 0.067996556043338652 0 0.1038815709591706 0.033472877315628681 0 0.1145259151899127 0.047886133546214682 0 0.11217154841555491 0.027775711049090879 0 0.1145259151899127 0.047886133546214682 0 0.1233698590855634 0.042628228609694438 0 0.11217154841555491 0.027775711049090879 0 0.1145259151899127 0.047886133546214682 0 0.11217154841555491 0.027775711049090879 0 0.1233698590855634 0.042628228609694438 0 0.1247153688863379 0.032319924216542117 0 0.11217154841555491 0.027775711049090879 0 0.11217154841555491 0.027775711049090879 0 0.109817181641197 0.0076652885519670694 0 0.11217154841555491 0.027775711049090879 0 0.109817181641197 0.0076652885519670694 0 0.10812138201279491 0.01289087608560582 0 0.11217154841555491 0.027775711049090879 0 0.1178869899404274 0.01995347206273506 0 0.109817181641197 0.0076652885519670694 0 0.1247153688863379 0.032319924216542117 0 0.11217154841555491 0.027775711049090879 0 0.1178869899404274 0.01995347206273506 0 0.1178869899404274 0.01995347206273506 0 0.1184305648778739 0.01290641700843608 0 0.12676122497650619 0.017213734322898421 0 0.1247153688863379 0.032319924216542117 0 0.1178869899404274 0.01995347206273506 0 0.12676122497650619 0.017213734322898421 0 0.1184305648778739 0.01290641700843608 0 0.1204873325010313 0.0058500305137734162 0 0.12676122497650619 0.017213734322898421 0 0.1204873325010313 0.0058500305137734162 0 0.109817181641197 0.0076652885519670694 0 0.1133883428256052 -0.0027087516383113128 0 0.1178869899404274 0.01995347206273506 0 0.1184305648778739 0.01290641700843608 0 0.109817181641197 0.0076652885519670694 0 0.1184305648778739 0.01290641700843608 0 0.1204873325010313 0.0058500305137734162 0 0.109817181641197 0.0076652885519670694 0 0.109817181641197 0.0076652885519670694 0 0.10812138201279491 0.01289087608560582 0 0.1053836954224675 -0.016695027662019871 0 0.10812138201279491 0.01289087608560582 0 0.10106372335802399 0.014728277582015999 0 0.10052077007441119 0.0092462673863109666 0 0.10812138201279491 0.01289087608560582 0 0.10052077007441119 0.0092462673863109666 0 0.10157561452540199 -0.00040726733682942259 0 0.096890073032441237 0.0023318467723570822 0 0.10052077007441119 0.0092462673863109666 0 0.10157561452540199 -0.00040726733682942259 0 0.093940628788715563 0.0062886560966533469 0 0.096890073032441237 0.0023318467723570822 0 0.10052077007441119 0.0092462673863109666 0 0.093940628788715563 0.0062886560966533469 0 0.096890073032441237 0.0023318467723570822 0 0.091567309821212278 -0.00098424470217601612 0 0.093467574477248905 0.014576589189992949 0 0.093940628788715563 0.0062886560966533469 0 0.10052077007441119 0.0092462673863109666 0 0.093467574477248905 0.014576589189992949 0 0.10106372335802399 0.014728277582015999 0 0.10052077007441119 0.0092462673863109666 0 0.093467574477248905 0.014576589189992949 0 0.094044238409064965 0.028749247639736301 0 0.1021451668676408 0.02219937766615426 0 0.093467574477248905 0.014576589189992949 0 0.10106372335802399 0.014728277582015999 0 0.1021451668676408 0.02219937766615426 0 0.1038815709591706 0.033472877315628681 0 0.094044238409064965 0.028749247639736301 0 0.1021451668676408 0.02219937766615426 0 0.1038815709591706 0.033472877315628681 0 0.11217154841555491 0.027775711049090879 0 0.1021451668676408 0.02219937766615426 0 0.11217154841555491 0.027775711049090879 0 0.10812138201279491 0.01289087608560582 0 0.1021451668676408 0.02219937766615426 0 0.10812138201279491 0.01289087608560582 0 0.10106372335802399 0.014728277582015999 0 0.1021451668676408 0.02219937766615426 0 0.098461373215836534 0.101273008079914 0 0.099730951134802265 0.1121174307168149 0 0.1212986478806161 0.1057371520678589 0 0.099730951134802265 0.1121174307168149 0 0.1123984680180381 0.1195378682208748 0 0.1008769106930586 0.1347098478196766 0 0.099730951134802265 0.1121174307168149 0 0.1123984680180381 0.1195378682208748 0 0.1212986478806161 0.1057371520678589 0 0.1123984680180381 0.1195378682208748 0 0.12349701806390299 0.1245150900138474 0 0.1212986478806161 0.1057371520678589 0 0.12349701806390299 0.1245150900138474 0 0.1212986478806161 0.1057371520678589 0 0.098461373215836534 0.101273008079914 0 0.1212986478806161 0.1057371520678589 0 0.1187594920426856 0.084048306794060085 0 0.1212986478806161 0.1057371520678589 0 0.1187594920426856 0.084048306794060085 0 0.1212986478806161 0.1057371520678589 0 0.1187594920426856 0.084048306794060085 0 0.12794602954063461 0.095459697576126851 0 0.099730951134802265 0.1121174307168149 0 0.1212986478806161 0.1057371520678589 0 0.1212986478806161 0.1057371520678589 0 0.12756651237084651 0.1038829567658382 0 0.1187594920426856 0.084048306794060085 0 0.11688028196426919 0.067996556043338652 0 0.094834488196198358 0.085741371485866552 0 0.1187594920426856 0.084048306794060085 0 0.1216352587087912 0.064169241606271743 0 0.11688028196426919 0.067996556043338652 0 0.1187594920426856 0.084048306794060085 0 0.1216352587087912 0.064169241606271743 0 0.13146749193025431 0.061236951587981828 0 0.1187594920426856 0.084048306794060085 0 0.11688028196426919 0.067996556043338652 0 0.1216352587087912 0.064169241606271743 0 0.11688028196426919 0.067996556043338652 0 0.1058822560410223 0.059531053233353101 0 0.11688028196426919 0.067996556043338652 0 0.10014931022427841 0.069703778417480794 0 0.11688028196426919 0.067996556043338652 0 0.094834488196198358 0.085741371485866552 0 0.11688028196426919 0.067996556043338652 0 0.10014931022427841 0.069703778417480794 0 0.094834488196198358 0.085741371485866552 0 0.10014931022427841 0.069703778417480794 0 0.094834488196198358 0.085741371485866552 0 0.086990441328530413 0.072966947331261967 0 0.093172461482427194 0.061247082398517928 0 0.1058822560410223 0.059531053233353101 0 0.10014931022427841 0.069703778417480794 0 0.098461373215836534 0.101273008079914 0 0.1187594920426856 0.084048306794060085 0 0.094834488196198358 0.085741371485866552 0 0.098461373215836534 0.101273008079914 0 0.1187594920426856 0.084048306794060085 0 0.094834488196198358 0.085741371485866552 0 0.086990441328530413 0.072966947331261967 0 0.077597958347435464 0.08420956350754133 0 0.094834488196198358 0.085741371485866552 0 0.077597958347435464 0.08420956350754133 0 0.072788694428129047 0.1034861869283963 0 0.07947165422696667 0.062320335567148347 0 0.093172461482427194 0.061247082398517928 0 0.086990441328530413 0.072966947331261967 0 0.093172461482427194 0.061247082398517928 0 0.10014931022427841 0.069703778417480794 0 0.086990441328530413 0.072966947331261967 0 0.086990441328530413 0.072966947331261967 0 0.076716775493876455 0.074579552611016939 0 0.077597958347435464 0.08420956350754133 0 0.07947165422696667 0.062320335567148347 0 0.086990441328530413 0.072966947331261967 0 0.076716775493876455 0.074579552611016939 0 0.07947165422696667 0.062320335567148347 0 0.076716775493876455 0.074579552611016939 0 0.066670073305173272 0.066205739247031492 0 0.076716775493876455 0.074579552611016939 0 0.066670073305173272 0.066205739247031492 0 0.065574280834596196 0.079037610840034606 0 0.077597958347435464 0.08420956350754133 0 0.065832723187041697 0.090381047998325512 0 0.072788694428129047 0.1034861869283963 0 0.076716775493876455 0.074579552611016939 0 0.077597958347435464 0.08420956350754133 0 0.065574280834596196 0.079037610840034606 0 0.077597958347435464 0.08420956350754133 0 0.065574280834596196 0.079037610840034606 0 0.065832723187041697 0.090381047998325512 0 0.065832723187041697 0.090381047998325512 0 0.072788694428129047 0.1034861869283963 0 0.057332245753243777 0.095081478281562479 0 0.072788694428129047 0.1034861869283963 0 0.058970370776360123 0.103474469679578 0 0.057332245753243777 0.095081478281562479 0 0.098461373215836534 0.101273008079914 0 0.094834488196198358 0.085741371485866552 0 0.072788694428129047 0.1034861869283963 0 0.094834488196198358 0.085741371485866552 0 0.072788694428129047 0.1034861869283963 0 0.098461373215836534 0.101273008079914 0 0.072788694428129047 0.1034861869283963 0 0.078163254388987469 0.11849770936576789 0 0.099730951134802265 0.1121174307168149 0 0.078163254388987469 0.11849770936576789 0 0.088120035262332058 0.12856528371976361 0 0.098461373215836534 0.101273008079914 0 0.078163254388987469 0.11849770936576789 0 0.098461373215836534 0.101273008079914 0 0.099730951134802265 0.1121174307168149 0 0.078163254388987469 0.11849770936576789 0 0.099730951134802265 0.1121174307168149 0 0.078163254388987469 0.11849770936576789 0 0.078163254388987469 0.11849770936576789 0 0.051987868683326333 0.12624106075438479 0 0.072788694428129047 0.1034861869283963 0 0.078163254388987469 0.11849770936576789 0 0.050742900660059757 0.121231002370926 0 0.072788694428129047 0.1034861869283963 0 0.050742900660059757 0.121231002370926 0 0.054532454792133533 0.11016327345807329 0 0.078163254388987469 0.11849770936576789 0 0.050742900660059757 0.121231002370926 0 0.051987868683326333 0.12624106075438479 0 0.072788694428129047 0.1034861869283963 0 0.050742900660059757 0.121231002370926 0 0.050742900660059757 0.121231002370926 0 0.040523164831600379 0.1195611200108887 0 0.051987868683326333 0.12624106075438479 0 0.047887877780297843 0.11503873945742731 0 0.054532454792133533 0.11016327345807329 0 0.04504369297842567 0.1093194749618247 0 0.050742900660059757 0.121231002370926 0 0.047887877780297843 0.11503873945742731 0 0.054532454792133533 0.11016327345807329 0 0.072788694428129047 0.1034861869283963 0 0.054532454792133533 0.11016327345807329 0 0.058970370776360123 0.103474469679578 0 0.054532454792133533 0.11016327345807329 0 0.058970370776360123 0.103474469679578 0 0.051163950392121849 0.1027828165449156 0 0.058970370776360123 0.103474469679578 0 0.057332245753243777 0.095081478281562479 0 0.051163950392121849 0.1027828165449156 0 0.057332245753243777 0.095081478281562479 0 0.048192621140614282 0.095079704623173805 0 0.051163950392121849 0.1027828165449156 0 0.054532454792133533 0.11016327345807329 0 0.051163950392121849 0.1027828165449156 0 0.04504369297842567 0.1093194749618247 0 0.051163950392121849 0.1027828165449156 0 0.04504369297842567 0.1093194749618247 0 0.038520517300792319 0.10037413187539899 0 0.048192621140614282 0.095079704623173805 0 0.051163950392121849 0.1027828165449156 0 0.038520517300792319 0.10037413187539899 0 0.048192621140614282 0.095079704623173805 0 0.038520517300792319 0.10037413187539899 0 0.041146211844238723 0.089861234673020707 0 0.038520517300792319 0.10037413187539899 0 0.041146211844238723 0.089861234673020707 0 0.028511241058810682 0.091945867645633297 0 0.04504369297842567 0.1093194749618247 0 0.038520517300792319 0.10037413187539899 0 0.032569766384176697 0.11042611548834461 0 0.038520517300792319 0.10037413187539899 0 0.032569766384176697 0.11042611548834461 0 0.023665470332340979 0.1027655685590755 0 0.032569766384176697 0.11042611548834461 0 0.040523164831600379 0.1195611200108887 0 0.02917425319539399 0.12076198050781491 0 0.040523164831600379 0.1195611200108887 0 0.02917425319539399 0.12076198050781491 0 0.025812482977664919 0.13398441214300111 0 0.050742900660059757 0.121231002370926 0 0.047887877780297843 0.11503873945742731 0 0.040523164831600379 0.1195611200108887 0 0.047887877780297843 0.11503873945742731 0 0.04504369297842567 0.1093194749618247 0 0.040523164831600379 0.1195611200108887 0 0.04504369297842567 0.1093194749618247 0 0.032569766384176697 0.11042611548834461 0 0.040523164831600379 0.1195611200108887 0 0.056985589483321802 0.061895971095616807 0 0.053070900657720889 0.072805468432977138 0 0.045911161873339962 0.062727861856346739 0 0.056985589483321802 0.061895971095616807 0 0.066670073305173272 0.066205739247031492 0 0.053070900657720889 0.072805468432977138 0 0.066670073305173272 0.066205739247031492 0 0.065574280834596196 0.079037610840034606 0 0.053070900657720889 0.072805468432977138 0 0.053070900657720889 0.072805468432977138 0 0.053557254016329443 0.086044293243315237 0 0.04444686012432774 0.081617031393485071 0 0.065574280834596196 0.079037610840034606 0 0.053070900657720889 0.072805468432977138 0 0.053557254016329443 0.086044293243315237 0 0.065574280834596196 0.079037610840034606 0 0.065832723187041697 0.090381047998325512 0 0.053557254016329443 0.086044293243315237 0 0.065832723187041697 0.090381047998325512 0 0.057332245753243777 0.095081478281562479 0 0.053557254016329443 0.086044293243315237 0 0.048192621140614282 0.095079704623173805 0 0.053557254016329443 0.086044293243315237 0 0.041146211844238723 0.089861234673020707 0 0.057332245753243777 0.095081478281562479 0 0.048192621140614282 0.095079704623173805 0 0.053557254016329443 0.086044293243315237 0 0.041146211844238723 0.089861234673020707 0 0.033860882250687258 0.083626991080633234 0 0.028511241058810682 0.091945867645633297 0 0.053557254016329443 0.086044293243315237 0 0.041146211844238723 0.089861234673020707 0 0.04444686012432774 0.081617031393485071 0 0.041146211844238723 0.089861234673020707 0 0.033860882250687258 0.083626991080633234 0 0.04444686012432774 0.081617031393485071 0 0.033860882250687258 0.083626991080633234 0 0.04444686012432774 0.081617031393485071 0 0.040587874293746537 0.072916002928030729 0 0.053070900657720889 0.072805468432977138 0 0.04444686012432774 0.081617031393485071 0 0.040587874293746537 0.072916002928030729 0 0.033860882250687258 0.083626991080633234 0 0.040587874293746537 0.072916002928030729 0 0.02978343665049818 0.075137588441946485 0 0.040587874293746537 0.072916002928030729 0 0.032803486467401118 0.062600452766418832 0 0.02978343665049818 0.075137588441946485 0 0.053070900657720889 0.072805468432977138 0 0.040587874293746537 0.072916002928030729 0 0.045911161873339962 0.062727861856346739 0 0.040587874293746537 0.072916002928030729 0 0.032803486467401118 0.062600452766418832 0 0.045911161873339962 0.062727861856346739 0 0.014725755390087979 0.05988872561090311 0 0.024719626459390749 0.058296603512639787 0 0.02036368373249775 0.070078422563951581 0 0.032803486467401118 0.062600452766418832 0 0.02036368373249775 0.070078422563951581 0 0.02978343665049818 0.075137588441946485 0 0.024719626459390749 0.058296603512639787 0 0.032803486467401118 0.062600452766418832 0 0.02036368373249775 0.070078422563951581 0 0.02036368373249775 0.070078422563951581 0 0.02978343665049818 0.075137588441946485 0 0.022305971976077012 0.082110844747890183 0 0.02036368373249775 0.070078422563951581 0 0.022305971976077012 0.082110844747890183 0 0.0093435276278285694 0.079881005833793775 0 0.033860882250687258 0.083626991080633234 0 0.022305971976077012 0.082110844747890183 0 0.028511241058810682 0.091945867645633297 0 0.033860882250687258 0.083626991080633234 0 0.02978343665049818 0.075137588441946485 0 0.022305971976077012 0.082110844747890183 0 0.022305971976077012 0.082110844747890183 0 0.028511241058810682 0.091945867645633297 0 0.013887311517661569 0.091543924073343774 0 -0.001369140142595633 0.093026309473403332 0 0.013887311517661569 0.091543924073343774 0 0.0093435276278285694 0.079881005833793775 0 -0.0021053623162286439 0.081401419193926253 0 -0.001369140142595633 0.093026309473403332 0 0.0093435276278285694 0.079881005833793775 0 0.022305971976077012 0.082110844747890183 0 0.013887311517661569 0.091543924073343774 0 0.0093435276278285694 0.079881005833793775 0 0.02036368373249775 0.070078422563951581 0 0.0093435276278285694 0.079881005833793775 0 0.0084598163284994223 0.068541811941015274 0 -0.0027143546311693642 0.070219084288717995 0 -0.0021053623162286439 0.081401419193926253 0 0.0093435276278285694 0.079881005833793775 0 -0.0027143546311693642 0.070219084288717995 0 0.0093435276278285694 0.079881005833793775 0 0.0084598163284994223 0.068541811941015274 0 -0.0027143546311693642 0.070219084288717995 0 0.0040037955735182217 0.057029855989315897 0 0.0084598163284994223 0.068541811941015274 0 0.014725755390087979 0.05988872561090311 0 0.02036368373249775 0.070078422563951581 0 0.0084598163284994223 0.068541811941015274 0 0.032569766384176697 0.11042611548834461 0 0.01808860634162144 0.11889216058808109 0 0.023665470332340979 0.1027655685590755 0 0.01808860634162144 0.11889216058808109 0 0.02917425319539399 0.12076198050781491 0 0.025812482977664919 0.13398441214300111 0 0.032569766384176697 0.11042611548834461 0 0.01808860634162144 0.11889216058808109 0 0.02917425319539399 0.12076198050781491 0 0.01808860634162144 0.11889216058808109 0 0.023665470332340979 0.1027655685590755 0 0.011424316535686841 0.103820897176401 0 0.038520517300792319 0.10037413187539899 0 0.028511241058810682 0.091945867645633297 0 0.023665470332340979 0.1027655685590755 0 0.013887311517661569 0.091543924073343774 0 0.023665470332340979 0.1027655685590755 0 0.011424316535686841 0.103820897176401 0 0.028511241058810682 0.091945867645633297 0 0.013887311517661569 0.091543924073343774 0 0.023665470332340979 0.1027655685590755 0 -9.545565130723651e-05 0.11508968561245959 0 -0.001369140142595633 0.093026309473403332 0 0.011424316535686841 0.103820897176401 0 -0.001369140142595633 0.093026309473403332 0 0.013887311517661569 0.091543924073343774 0 0.011424316535686841 0.103820897176401 0 -9.545565130723651e-05 0.11508968561245959 0 0.01808860634162144 0.11889216058808109 0 0.011424316535686841 0.103820897176401 0 -0.00036290272799637669 0.1417277635316174 0 0.025812482977664919 0.13398441214300111 0 -0.00036290272799637669 0.1417277635316174 0 0.01808860634162144 0.11889216058808109 0 0.025812482977664919 0.13398441214300111 0 -0.00036290272799637669 0.1417277635316174 0 -9.545565130723651e-05 0.11508968561245959 0 0.01808860634162144 0.11889216058808109 0 0.025812482977664919 0.13398441214300111 0 0.015302581961550319 0.1518022969749466 0 0.038678541961530158 0.15200388709200771 0 -0.00036290272799637669 0.1417277635316174 0 0.025812482977664919 0.13398441214300111 0 0.015302581961550319 0.1518022969749466 0 -0.0065513981512488537 0.1625384461529791 0 -0.00036290272799637669 0.1417277635316174 0 0.015302581961550319 0.1518022969749466 0 0.018936185747801749 0.1687569759551279 0 0.014551848704186351 0.20020862416900859 0 0.037098285869612169 0.19172176667039151 0 -0.0065513981512488537 0.1625384461529791 0 0.015302581961550319 0.1518022969749466 0 0.018936185747801749 0.1687569759551279 0 -0.00080617046592665331 0.18551006481824811 0 0.018936185747801749 0.1687569759551279 0 0.014551848704186351 0.20020862416900859 0 -0.00080617046592665331 0.18551006481824811 0 -0.0065513981512488537 0.1625384461529791 0 0.018936185747801749 0.1687569759551279 0 -0.00080617046592665331 0.18551006481824811 0 0.018936185747801749 0.1687569759551279 0 0.015302581961550319 0.1518022969749466 0 0.018936185747801749 0.1687569759551279 0 0.038678541961530158 0.15200388709200771 0 0.018936185747801749 0.1687569759551279 0 0.038678541961530158 0.15200388709200771 0 0.018936185747801749 0.1687569759551279 0 0.046384112186247141 0.16661947659436849 0 0.038678541961530158 0.15200388709200771 0 0.046384112186247141 0.16661947659436849 0 0.055004714227587362 0.1514283342290953 0 0.038678541961530158 0.15200388709200771 0 0.046384112186247141 0.16661947659436849 0 0.037098285869612169 0.19172176667039151 0 0.018936185747801749 0.1687569759551279 0 0.046384112186247141 0.16661947659436849 0 0.037098285869612169 0.19172176667039151 0 0.046384112186247141 0.16661947659436849 0 0.06020334698685606 0.17615245443818561 0 0.037098285869612169 0.19172176667039151 0 0.06020334698685606 0.17615245443818561 0 0.057666808875999273 0.16219102454876089 0 0.069677802366185065 0.15672359253277371 0 0.046384112186247141 0.16661947659436849 0 0.057666808875999273 0.16219102454876089 0 0.055004714227587362 0.1514283342290953 0 0.046384112186247141 0.16661947659436849 0 0.06020334698685606 0.17615245443818561 0 0.057666808875999273 0.16219102454876089 0 0.057666808875999273 0.16219102454876089 0 0.055004714227587362 0.1514283342290953 0 0.069677802366185065 0.15672359253277371 0 0.055004714227587362 0.1514283342290953 0 0.058420898175258557 0.13525079822888761 0 0.038678541961530158 0.15200388709200771 0 0.058420898175258557 0.13525079822888761 0 0.04406101643207469 0.13794717552835301 0 0.038678541961530158 0.15200388709200771 0 0.055004714227587362 0.1514283342290953 0 0.058420898175258557 0.13525079822888761 0 0.066031415799516713 0.14444506397051729 0 0.058420898175258557 0.13525079822888761 0 0.038678541961530158 0.15200388709200771 0 0.058420898175258557 0.13525079822888761 0 0.051987868683326333 0.12624106075438479 0 0.04406101643207469 0.13794717552835301 0 0.040523164831600379 0.1195611200108887 0 0.025812482977664919 0.13398441214300111 0 0.051987868683326333 0.12624106075438479 0 0.025812482977664919 0.13398441214300111 0 0.051987868683326333 0.12624106075438479 0 0.04406101643207469 0.13794717552835301 0 0.025812482977664919 0.13398441214300111 0 0.051987868683326333 0.12624106075438479 0 0.025812482977664919 0.13398441214300111 0 0.04406101643207469 0.13794717552835301 0 0.038678541961530158 0.15200388709200771 0 0.030467515956601039 0.24774395088406731 0 0.018526633236342169 0.24192634682243749 0 0.040033691600889473 0.23650642683457171 0 0.030467515956601039 0.24774395088406731 0 0.018526633236342169 0.24192634682243749 0 0.020945845084855509 0.25415764331182761 0 0.018526633236342169 0.24192634682243749 0 0.01004767869401268 0.2460499980395312 0 0.0057197087398602716 0.25638837365480188 0 -0.010208609849512841 0.2283640234091508 0 0.01004767869401268 0.2460499980395312 0 0.0071314278210166913 0.23026998457289971 0 0.018526633236342169 0.24192634682243749 0 0.01004767869401268 0.2460499980395312 0 0.0071314278210166913 0.23026998457289971 0 -0.0043330685824554648 0.2434028898310768 0 0.01004767869401268 0.2460499980395312 0 0.0012536845682404041 0.25038943113572448 0 0.018526633236342169 0.24192634682243749 0 0.0071314278210166913 0.23026998457289971 0 0.013840057388997519 0.22028167092212811 0 0.0071314278210166913 0.23026998457289971 0 0.013840057388997519 0.22028167092212811 0 0.00056179698415907697 0.21621471215728191 0 0.018526633236342169 0.24192634682243749 0 0.027812459552977158 0.2168240567464145 0 0.018526633236342169 0.24192634682243749 0 0.013840057388997519 0.22028167092212811 0 0.027812459552977158 0.2168240567464145 0 0.018526633236342169 0.24192634682243749 0 0.027812459552977158 0.2168240567464145 0 0.040033691600889473 0.23650642683457171 0 0.013840057388997519 0.22028167092212811 0 0.027812459552977158 0.2168240567464145 0 0.014551848704186351 0.20020862416900859 0 -0.0015602628643092611 0.2010491387064765 0 0.00056179698415907697 0.21621471215728191 0 0.014551848704186351 0.20020862416900859 0 0.013840057388997519 0.22028167092212811 0 0.00056179698415907697 0.21621471215728191 0 0.014551848704186351 0.20020862416900859 0 -0.0015602628643092611 0.2010491387064765 0 -0.00080617046592665331 0.18551006481824811 0 0.014551848704186351 0.20020862416900859 0 0.027812459552977158 0.2168240567464145 0 0.014551848704186351 0.20020862416900859 0 0.037098285869612169 0.19172176667039151 0 0.037098285869612169 0.19172176667039151 0 0.059105729572145417 0.2001321618613533 0 0.046537857297330378 0.21402133494381559 0 0.06020334698685606 0.17615245443818561 0 0.037098285869612169 0.19172176667039151 0 0.059105729572145417 0.2001321618613533 0 0.059105729572145417 0.2001321618613533 0 0.046537857297330378 0.21402133494381559 0 0.06088778720315037 0.2259057062896149 0 0.027812459552977158 0.2168240567464145 0 0.037098285869612169 0.19172176667039151 0 0.027812459552977158 0.2168240567464145 0 0.037098285869612169 0.19172176667039151 0 0.046537857297330378 0.21402133494381559 0 0.027812459552977158 0.2168240567464145 0 0.046537857297330378 0.21402133494381559 0 0.040033691600889473 0.23650642683457171 0 0.046537857297330378 0.21402133494381559 0 0.06088778720315037 0.2259057062896149 0 0.040033691600889473 0.23650642683457171 0 0.06088778720315037 0.2259057062896149 0 0.055010650704319597 0.24584136736710169 0 0.040033691600889473 0.23650642683457171 0 0.030467515956601039 0.24774395088406731 0 0.040033691600889473 0.23650642683457171 0 0.042345457215367442 0.25898809975177373 0 0.055010650704319597 0.24584136736710169 0 0.040033691600889473 0.23650642683457171 0 0.042345457215367442 0.25898809975177373 0 0.091121925685512209 0.23981708687531289 0 0.072037619681666235 0.24489848484308671 0 0.082096508033023236 0.263412377189987 0 0.091121925685512209 0.23981708687531289 0 0.072037619681666235 0.24489848484308671 0 0.077677808080868799 0.22791753816310509 0 0.06088778720315037 0.2259057062896149 0 0.055010650704319597 0.24584136736710169 0 0.072037619681666235 0.24489848484308671 0 0.06088778720315037 0.2259057062896149 0 0.072037619681666235 0.24489848484308671 0 0.077677808080868799 0.22791753816310509 0 0.06088778720315037 0.2259057062896149 0 0.077677808080868799 0.22791753816310509 0 0.077166167295064342 0.20886874574435829 0 0.091121925685512209 0.23981708687531289 0 0.077677808080868799 0.22791753816310509 0 0.1001473433380001 0.2162217965606385 0 0.077677808080868799 0.22791753816310509 0 0.077166167295064342 0.20886874574435829 0 0.1001473433380001 0.2162217965606385 0 0.077166167295064342 0.20886874574435829 0 0.09084708818394116 0.19687151128807101 0 0.1001473433380001 0.2162217965606385 0 0.059105729572145417 0.2001321618613533 0 0.06088778720315037 0.2259057062896149 0 0.077166167295064342 0.20886874574435829 0 0.06020334698685606 0.17615245443818561 0 0.059105729572145417 0.2001321618613533 0 0.075888542567759815 0.18732810591666371 0 0.059105729572145417 0.2001321618613533 0 0.077166167295064342 0.20886874574435829 0 0.075888542567759815 0.18732810591666371 0 0.077166167295064342 0.20886874574435829 0 0.09084708818394116 0.19687151128807101 0 0.075888542567759815 0.18732810591666371 0 0.09084708818394116 0.19687151128807101 0 0.075888542567759815 0.18732810591666371 0 0.0923522089236022 0.17897014083689841 0 0.09084708818394116 0.19687151128807101 0 0.10917276099048789 0.19262650624596411 0 0.0923522089236022 0.17897014083689841 0 0.09084708818394116 0.19687151128807101 0 0.10917276099048789 0.19262650624596411 0 0.1001473433380001 0.2162217965606385 0 0.10917276099048789 0.19262650624596411 0 0.1349245558641794 0.1844407421103155 0 0.12582442383595879 0.21375262309230411 0 0.10917276099048789 0.19262650624596411 0 0.1001473433380001 0.2162217965606385 0 0.12582442383595879 0.21375262309230411 0 0.10917276099048789 0.19262650624596411 0 0.1001473433380001 0.2162217965606385 0 0.091121925685512209 0.23981708687531289 0 0.1001473433380001 0.2162217965606385 0 0.1113971971903429 0.23083828334454551 0 0.091121925685512209 0.23981708687531289 0 0.1001473433380001 0.2162217965606385 0 0.1001473433380001 0.2162217965606385 0 0.1113971971903429 0.23083828334454551 0 0.12582442383595879 0.21375262309230411 0 0.1113971971903429 0.23083828334454551 0 0.12737001399432599 0.2350171290031898 0 0.12582442383595879 0.21375262309230411 0 0.1113971971903429 0.23083828334454551 0 0.1125222790979172 0.24938278119128249 0 0.12737001399432599 0.2350171290031898 0 0.091121925685512209 0.23981708687531289 0 0.1125222790979172 0.24938278119128249 0 0.097108688912541458 0.25457928013682479 0 0.091121925685512209 0.23981708687531289 0 0.1113971971903429 0.23083828334454551 0 0.1125222790979172 0.24938278119128249 0 0.080475257176957152 0.13939670641544821 0 0.09203600747431831 0.1566290626499599 0 0.1008769106930586 0.1347098478196766 0 0.080475257176957152 0.13939670641544821 0 0.069677802366185065 0.15672359253277371 0 0.09203600747431831 0.1566290626499599 0 0.078163254388987469 0.11849770936576789 0 0.088120035262332058 0.12856528371976361 0 0.080475257176957152 0.13939670641544821 0 0.088120035262332058 0.12856528371976361 0 0.080475257176957152 0.13939670641544821 0 0.1008769106930586 0.1347098478196766 0 0.078163254388987469 0.11849770936576789 0 0.058420898175258557 0.13525079822888761 0 0.070772706385180018 0.13439756949515541 0 0.078163254388987469 0.11849770936576789 0 0.058420898175258557 0.13525079822888761 0 0.078163254388987469 0.11849770936576789 0 0.058420898175258557 0.13525079822888761 0 0.051987868683326333 0.12624106075438479 0 0.078163254388987469 0.11849770936576789 0 0.080475257176957152 0.13939670641544821 0 0.070772706385180018 0.13439756949515541 0 0.080475257176957152 0.13939670641544821 0 0.070772706385180018 0.13439756949515541 0 0.066031415799516713 0.14444506397051729 0 0.058420898175258557 0.13525079822888761 0 0.070772706385180018 0.13439756949515541 0 0.066031415799516713 0.14444506397051729 0 0.080475257176957152 0.13939670641544821 0 0.066031415799516713 0.14444506397051729 0 0.069677802366185065 0.15672359253277371 0 0.055004714227587362 0.1514283342290953 0 0.066031415799516713 0.14444506397051729 0 0.069677802366185065 0.15672359253277371 0 0.06020334698685606 0.17615245443818561 0 0.078031581663744298 0.1711606712748962 0 0.069677802366185065 0.15672359253277371 0 0.06020334698685606 0.17615245443818561 0 0.078031581663744298 0.1711606712748962 0 0.075888542567759815 0.18732810591666371 0 0.078031581663744298 0.1711606712748962 0 0.075888542567759815 0.18732810591666371 0 0.0923522089236022 0.17897014083689841 0 0.078031581663744298 0.1711606712748962 0 0.0923522089236022 0.17897014083689841 0 0.09203600747431831 0.1566290626499599 0 0.078031581663744298 0.1711606712748962 0 0.069677802366185065 0.15672359253277371 0 0.09203600747431831 0.1566290626499599 0 0.09203600747431831 0.1566290626499599 0 0.1095009938747914 0.17050799922861551 0 0.11839594946802209 0.1508670222009888 0 0.0923522089236022 0.17897014083689841 0 0.09203600747431831 0.1566290626499599 0 0.1095009938747914 0.17050799922861551 0 0.10917276099048789 0.19262650624596411 0 0.0923522089236022 0.17897014083689841 0 0.1095009938747914 0.17050799922861551 0 0.1095009938747914 0.17050799922861551 0 0.12887580100952131 0.1664594433040972 0 0.1349245558641794 0.1844407421103155 0 0.10917276099048789 0.19262650624596411 0 0.1095009938747914 0.17050799922861551 0 0.1349245558641794 0.1844407421103155 0 0.1095009938747914 0.17050799922861551 0 0.11839594946802209 0.1508670222009888 0 0.12887580100952131 0.1664594433040972 0 0.09203600747431831 0.1566290626499599 0 0.11839594946802209 0.1508670222009888 0 0.1008769106930586 0.1347098478196766 0 0.099730951134802265 0.1121174307168149 0 0.088120035262332058 0.12856528371976361 0 0.1008769106930586 0.1347098478196766 0 0.11839594946802209 0.1508670222009888 0 0.1166090161192762 0.13443758207393761 0 0.13457443098473601 0.13348359250328851 0 0.12349701806390299 0.1245150900138474 0 0.1166090161192762 0.13443758207393761 0 0.13457443098473601 0.13348359250328851 0 0.1123984680180381 0.1195378682208748 0 0.1008769106930586 0.1347098478196766 0 0.1166090161192762 0.13443758207393761 0 0.11839594946802209 0.1508670222009888 0 0.1008769106930586 0.1347098478196766 0 0.1166090161192762 0.13443758207393761 0 0.1123984680180381 0.1195378682208748 0 0.12349701806390299 0.1245150900138474 0 0.1166090161192762 0.13443758207393761 0 0.13457443098473601 0.13348359250328851 0 0.1559357110147748 0.1370992726444111 0 0.15107741427417851 0.11934751352569729 0 0.13457443098473601 0.13348359250328851 0 0.1559357110147748 0.1370992726444111 0 0.1431639226944231 0.15472553885866719 0 0.1559357110147748 0.1370992726444111 0 0.1431639226944231 0.15472553885866719 0 0.1635831945742833 0.15985143265254231 0 0.11839594946802209 0.1508670222009888 0 0.13457443098473601 0.13348359250328851 0 0.1431639226944231 0.15472553885866719 0 0.11839594946802209 0.1508670222009888 0 0.1431639226944231 0.15472553885866719 0 0.12887580100952131 0.1664594433040972 0 0.12887580100952131 0.1664594433040972 0 0.1349245558641794 0.1844407421103155 0 0.15100980184191501 0.17352328833438971 0 0.1349245558641794 0.1844407421103155 0 0.15100980184191501 0.17352328833438971 0 0.16128730354904311 0.19286923208905959 0 0.1431639226944231 0.15472553885866719 0 0.12887580100952131 0.1664594433040972 0 0.15100980184191501 0.17352328833438971 0 0.1431639226944231 0.15472553885866719 0 0.15100980184191501 0.17352328833438971 0 0.1635831945742833 0.15985143265254231 0 0.15100980184191501 0.17352328833438971 0 0.1635831945742833 0.15985143265254231 0 0.17745476359229531 0.17611929600565851 0 0.15100980184191501 0.17352328833438971 0 0.17745476359229531 0.17611929600565851 0 0.16128730354904311 0.19286923208905959 0 0.17745476359229531 0.17611929600565851 0 0.16128730354904311 0.19286923208905959 0 0.17745476359229531 0.17611929600565851 0 0.1936222236355474 0.15936935992225751 0 0.1906734982338073 0.18555530684197449 0 0.17745476359229531 0.17611929600565851 0 0.1836237556933718 0.2004701905746617 0 0.1906734982338073 0.18555530684197449 0 0.1635831945742833 0.15985143265254231 0 0.17745476359229531 0.17611929600565851 0 0.17839388790020799 0.15500916637422779 0 0.17745476359229531 0.17611929600565851 0 0.17839388790020799 0.15500916637422779 0 0.1936222236355474 0.15936935992225751 0 0.17745476359229531 0.17611929600565851 0 0.1936222236355474 0.15936935992225751 0 0.17839388790020799 0.15500916637422779 0 0.19031327409976431 0.13999789072300839 0 0.1936222236355474 0.15936935992225751 0 0.17839388790020799 0.15500916637422779 0 0.1720428894555619 0.14213411036255921 0 0.19031327409976431 0.13999789072300839 0 0.1720428894555619 0.14213411036255921 0 0.19031327409976431 0.13999789072300839 0 0.17182667185582151 0.1201681408548069 0 0.19031327409976431 0.13999789072300839 0 0.19602929382425541 0.12119549501190161 0 0.17182667185582151 0.1201681408548069 0 0.1559357110147748 0.1370992726444111 0 0.15107741427417851 0.11934751352569729 0 0.17182667185582151 0.1201681408548069 0 0.1559357110147748 0.1370992726444111 0 0.1720428894555619 0.14213411036255921 0 0.17182667185582151 0.1201681408548069 0 0.1559357110147748 0.1370992726444111 0 0.1635831945742833 0.15985143265254231 0 0.1720428894555619 0.14213411036255921 0 0.1635831945742833 0.15985143265254231 0 0.17839388790020799 0.15500916637422779 0 0.1720428894555619 0.14213411036255921 0 0.14133206126170589 0.25001069905194012 0 0.1517893413470236 0.2271551117050781 0 0.16432584004148529 0.24062447961538569 0 0.14133206126170589 0.25001069905194012 0 0.12737001399432599 0.2350171290031898 0 0.1517893413470236 0.2271551117050781 0 0.1125222790979172 0.24938278119128249 0 0.14133206126170589 0.25001069905194012 0 0.12737001399432599 0.2350171290031898 0 0.12737001399432599 0.2350171290031898 0 0.1517893413470236 0.2271551117050781 0 0.12582442383595879 0.21375262309230411 0 0.12737001399432599 0.2350171290031898 0 0.1517893413470236 0.2271551117050781 0 0.1517893413470236 0.2271551117050781 0 0.14906144479098191 0.20794090809485269 0 0.12582442383595879 0.21375262309230411 0 0.1349245558641794 0.1844407421103155 0 0.14906144479098191 0.20794090809485269 0 0.12582442383595879 0.21375262309230411 0 0.1349245558641794 0.1844407421103155 0 0.14906144479098191 0.20794090809485269 0 0.16128730354904311 0.19286923208905959 0 0.17745476359229531 0.17611929600565851 0 0.16128730354904311 0.19286923208905959 0 0.1836237556933718 0.2004701905746617 0 0.1836237556933718 0.2004701905746617 0 0.17620866869972121 0.21929309440696629 0 0.20062799605241791 0.21143107710885151 0 0.16128730354904311 0.19286923208905959 0 0.1836237556933718 0.2004701905746617 0 0.17620866869972121 0.21929309440696629 0 0.1517893413470236 0.2271551117050781 0 0.14906144479098191 0.20794090809485269 0 0.17620866869972121 0.21929309440696629 0 0.14906144479098191 0.20794090809485269 0 0.16128730354904311 0.19286923208905959 0 0.17620866869972121 0.21929309440696629 0 0.1517893413470236 0.2271551117050781 0 0.17620866869972121 0.21929309440696629 0 0.16432584004148529 0.24062447961538569 0 0.1517893413470236 0.2271551117050781 0 0.17620866869972121 0.21929309440696629 0 0.17620866869972121 0.21929309440696629 0 0.18184759709716819 0.23516008637747271 0 0.18865550570012271 0.22619966867795879 0 0.17620866869972121 0.21929309440696629 0 0.18184759709716819 0.23516008637747271 0 0.16432584004148529 0.24062447961538569 0 0.18184759709716819 0.23516008637747271 0 0.17858821144581949 0.2493729017097541 0 0.16432584004148529 0.24062447961538569 0 0.18184759709716819 0.23516008637747271 0 0.17858821144581949 0.2493729017097541 0 0.19593776095118459 0.238914416818547 0 0.17858821144581949 0.2493729017097541 0 0.19593776095118459 0.238914416818547 0 0.17858821144581949 0.2493729017097541 0 0.16432584004148529 0.24062447961538569 0 0.16123866194045569 0.25983138660096339 0 0.20811563217553661 0.2388596092279883 0 0.20237997148191059 0.24939831330470491 0 0.22018070489453781 0.24096094808464219 0 0.20811563217553661 0.2388596092279883 0 0.20930978410487711 0.22692076136152051 0 0.22018070489453781 0.24096094808464219 0 0.20811563217553661 0.2388596092279883 0 0.19593776095118459 0.238914416818547 0 0.20930978410487711 0.22692076136152051 0 0.20811563217553661 0.2388596092279883 0 0.20237997148191059 0.24939831330470491 0 0.19593776095118459 0.238914416818547 0 0.20237997148191059 0.24939831330470491 0 0.19593776095118459 0.238914416818547 0 0.19282534313631669 0.25715223097465112 0 0.17858821144581949 0.2493729017097541 0 0.19593776095118459 0.238914416818547 0 0.19282534313631669 0.25715223097465112 0 0.19593776095118459 0.238914416818547 0 0.19282534313631669 0.25715223097465112 0 0.19593776095118459 0.238914416818547 0 0.18865550570012271 0.22619966867795879 0 0.20062799605241791 0.21143107710885151 0 0.19593776095118459 0.238914416818547 0 0.20062799605241791 0.21143107710885151 0 0.19593776095118459 0.238914416818547 0 0.20930978410487711 0.22692076136152051 0 0.20062799605241791 0.21143107710885151 0 0.17620866869972121 0.21929309440696629 0 0.18865550570012271 0.22619966867795879 0 0.20062799605241791 0.21143107710885151 0 0.18184759709716819 0.23516008637747271 0 0.19593776095118459 0.238914416818547 0 0.18865550570012271 0.22619966867795879 0 0.20930978410487711 0.22692076136152051 0 0.20062799605241791 0.21143107710885151 0 0.22452169232541599 0.2203751723493679 0 0.20930978410487711 0.22692076136152051 0 0.22452169232541599 0.2203751723493679 0 0.22018070489453781 0.24096094808464219 0 0.20062799605241791 0.21143107710885151 0 0.22273570372444579 0.20431330610604789 0 0.22452169232541599 0.2203751723493679 0 0.20062799605241791 0.21143107710885151 0 0.22273570372444579 0.20431330610604789 0 0.20062799605241791 0.21143107710885151 0 0.20330080480670559 0.19576923726761461 0 0.22273570372444579 0.20431330610604789 0 0.20062799605241791 0.21143107710885151 0 0.20330080480670559 0.19576923726761461 0 0.17620866869972121 0.21929309440696629 0 0.20062799605241791 0.21143107710885151 0 0.1836237556933718 0.2004701905746617 0 0.20062799605241791 0.21143107710885151 0 0.20330080480670559 0.19576923726761461 0 0.1836237556933718 0.2004701905746617 0 0.20330080480670559 0.19576923726761461 0 0.1906734982338073 0.18555530684197449 0 0.20330080480670559 0.19576923726761461 0 0.21719066893649519 0.18941320266217901 0 0.22273570372444579 0.20431330610604789 0 0.20330080480670559 0.19576923726761461 0 0.20597361356099481 0.18010739742637791 0 0.20330080480670559 0.19576923726761461 0 0.21719066893649519 0.18941320266217901 0 0.20597361356099481 0.18010739742637791 0 0.22986581310700799 0.1918038030371523 0 0.244843411396472 0.19719553510323951 0 0.22273570372444579 0.20431330610604789 0 0.244843411396472 0.19719553510323951 0 0.22273570372444579 0.20431330610604789 0 0.21719066893649519 0.18941320266217901 0 0.22986581310700799 0.1918038030371523 0 0.22273570372444579 0.20431330610604789 0 0.21719066893649519 0.18941320266217901 0 0.22986581310700799 0.1918038030371523 0 0.2248991822672102 0.1838061617748728 0 0.22986581310700799 0.1918038030371523 0 0.244843411396472 0.19719553510323951 0 0.23315883549058139 0.17900349801511159 0 0.244843411396472 0.19719553510323951 0 0.2430509576257906 0.1782428790590608 0 0.25573313105287498 0.19368949404512251 0 0.244843411396472 0.19719553510323951 0 0.23315883549058139 0.17900349801511159 0 0.244843411396472 0.19719553510323951 0 0.23738913598904171 0.20508291136455389 0 0.22273570372444579 0.20431330610604789 0 0.244843411396472 0.19719553510323951 0 0.24759964644662921 0.20563296174650381 0 0.25051184467687082 0.19976735916025609 0 0.244843411396472 0.19719553510323951 0 0.23738913598904171 0.20508291136455389 0 0.24759964644662921 0.20563296174650381 0 0.23738913598904171 0.20508291136455389 0 0.24210461977438091 0.2167855311437476 0 0.22452169232541599 0.2203751723493679 0 0.23738913598904171 0.20508291136455389 0 0.24759964644662921 0.20563296174650381 0 0.24210461977438091 0.2167855311437476 0 0.24210461977438091 0.2167855311437476 0 0.2551345362036832 0.22495942205538511 0 0.25176131172314981 0.2140080222830662 0 0.24759964644662921 0.20563296174650381 0 0.24210461977438091 0.2167855311437476 0 0.25176131172314981 0.2140080222830662 0 0.23738913598904171 0.20508291136455389 0 0.22273570372444579 0.20431330610604789 0 0.22452169232541599 0.2203751723493679 0 0.22452169232541599 0.2203751723493679 0 0.23711205839069119 0.22920270105853049 0 0.22018070489453781 0.24096094808464219 0 0.24361873875543821 0.24293243165950959 0 0.2551345362036832 0.22495942205538511 0 0.23711205839069119 0.22920270105853049 0 0.24361873875543821 0.24293243165950959 0 0.2551345362036832 0.22495942205538511 0 0.24210461977438091 0.2167855311437476 0 0.23711205839069119 0.22920270105853049 0 0.2551345362036832 0.22495942205538511 0 0.24210461977438091 0.2167855311437476 0 0.22452169232541599 0.2203751723493679 0 0.23711205839069119 0.22920270105853049 0 0.23711205839069119 0.22920270105853049 0 0.24361873875543821 0.24293243165950959 0 0.22018070489453781 0.24096094808464219 0 0.24361873875543821 0.24293243165950959 0 0.22018070489453781 0.24096094808464219 0 0.24361873875543821 0.24293243165950959 0 0.22018070489453781 0.24096094808464219 0 0.22912935102857809 0.26554640224584047 0 0.20978968367879949 0.14261942383885651 0 0.1936222236355474 0.15936935992225751 0 0.20951480209695619 0.15642435221631601 0 0.20978968367879949 0.14261942383885651 0 0.20951480209695619 0.15642435221631601 0 0.22147425958469041 0.16081146092698401 0 0.20978968367879949 0.14261942383885651 0 0.22147425958469041 0.16081146092698401 0 0.22202307126592341 0.1432965668560994 0 0.20978968367879949 0.14261942383885651 0 0.22147425958469041 0.16081146092698401 0 0.20978968367879949 0.14261942383885651 0 0.21091711479334679 0.1240402284623067 0 0.19602929382425541 0.12119549501190161 0 0.20978968367879949 0.14261942383885651 0 0.22202307126592341 0.1432965668560994 0 0.2201966269851322 0.1318375425329302 0 0.20978968367879949 0.14261942383885651 0 0.2201966269851322 0.1318375425329302 0 0.20978968367879949 0.14261942383885651 0 0.2201966269851322 0.1318375425329302 0 0.21091711479334679 0.1240402284623067 0 0.20978968367879949 0.14261942383885651 0 0.19031327409976431 0.13999789072300839 0 0.19602929382425541 0.12119549501190161 0 0.20978968367879949 0.14261942383885651 0 0.19602929382425541 0.12119549501190161 0 0.20978968367879949 0.14261942383885651 0 0.19031327409976431 0.13999789072300839 0 0.1936222236355474 0.15936935992225751 0 0.20978968367879949 0.14261942383885651 0 0.1936222236355474 0.15936935992225751 0 0.20330080480670559 0.19576923726761461 0 0.1906734982338073 0.18555530684197449 0 0.20597361356099481 0.18010739742637791 0 0.1936222236355474 0.15936935992225751 0 0.1906734982338073 0.18555530684197449 0 0.20597361356099481 0.18010739742637791 0 0.20597361356099481 0.18010739742637791 0 0.21034657090549999 0.16596043404225999 0 0.21938141153475629 0.17500414338504819 0 0.21719066893649519 0.18941320266217901 0 0.20597361356099481 0.18010739742637791 0 0.21938141153475629 0.17500414338504819 0 0.1936222236355474 0.15936935992225751 0 0.20597361356099481 0.18010739742637791 0 0.21034657090549999 0.16596043404225999 0 0.1936222236355474 0.15936935992225751 0 0.20951480209695619 0.15642435221631601 0 0.21034657090549999 0.16596043404225999 0 0.21034657090549999 0.16596043404225999 0 0.22147425958469041 0.16081146092698401 0 0.21938141153475629 0.17500414338504819 0 0.20951480209695619 0.15642435221631601 0 0.21034657090549999 0.16596043404225999 0 0.22147425958469041 0.16081146092698401 0 0.22147425958469041 0.16081146092698401 0 0.23315883549058139 0.17900349801511159 0 0.22147425958469041 0.16081146092698401 0 0.23036878419870649 0.16279626407299891 0 0.23315883549058139 0.17900349801511159 0 0.22147425958469041 0.16081146092698401 0 0.21938141153475629 0.17500414338504819 0 0.23315883549058139 0.17900349801511159 0 0.23036878419870649 0.16279626407299891 0 0.2384962917417528 0.15334468447276489 0 0.22819042612952589 0.15290883038891279 0 0.22147425958469041 0.16081146092698401 0 0.23036878419870649 0.16279626407299891 0 0.22819042612952589 0.15290883038891279 0 0.21719066893649519 0.18941320266217901 0 0.2248991822672102 0.1838061617748728 0 0.21938141153475629 0.17500414338504819 0 0.2248991822672102 0.1838061617748728 0 0.21938141153475629 0.17500414338504819 0 0.23315883549058139 0.17900349801511159 0 0.22986581310700799 0.1918038030371523 0 0.2248991822672102 0.1838061617748728 0 0.23315883549058139 0.17900349801511159 0 0.23036878419870649 0.16279626407299891 0 0.23315883549058139 0.17900349801511159 0 0.2430509576257906 0.1782428790590608 0 0.244843411396472 0.19719553510323951 0 0.23315883549058139 0.17900349801511159 0 0.2430509576257906 0.1782428790590608 0 0.2430509576257906 0.1782428790590608 0 0.24880186532544779 0.17141868754398379 0 0.2533764568832888 0.1801615451987901 0 0.2430509576257906 0.1782428790590608 0 0.25573313105287498 0.19368949404512251 0 0.23036878419870649 0.16279626407299891 0 0.24272211009073899 0.16514967366366889 0 0.2384962917417528 0.15334468447276489 0 0.23036878419870649 0.16279626407299891 0 0.2430509576257906 0.1782428790590608 0 0.23036878419870649 0.16279626407299891 0 0.2430509576257906 0.1782428790590608 0 0.24272211009073899 0.16514967366366889 0 0.2430509576257906 0.1782428790590608 0 0.24272211009073899 0.16514967366366889 0 0.24880186532544779 0.17141868754398379 0 0.24272211009073899 0.16514967366366889 0 0.24880186532544779 0.17141868754398379 0 0.25270998014602059 0.15868141745007261 0 0.24272211009073899 0.16514967366366889 0 0.2384962917417528 0.15334468447276489 0 0.25270998014602059 0.15868141745007261 0 0.24718136849428871 0.14582163936673781 0 0.2384962917417528 0.15334468447276489 0 0.25270998014602059 0.15868141745007261 0 0.24718136849428871 0.14582163936673781 0 0.2385232097084978 0.14199121985749319 0 0.2384962917417528 0.15334468447276489 0 0.2385232097084978 0.14199121985749319 0 0.2384962917417528 0.15334468447276489 0 0.23061240142562989 0.14553014674219611 0 0.22147425958469041 0.16081146092698401 0 0.22819042612952589 0.15290883038891279 0 0.22202307126592341 0.1432965668560994 0 0.2384962917417528 0.15334468447276489 0 0.22819042612952589 0.15290883038891279 0 0.23061240142562989 0.14553014674219611 0 0.22819042612952589 0.15290883038891279 0 0.23061240142562989 0.14553014674219611 0 0.22202307126592341 0.1432965668560994 0 0.23061240142562989 0.14553014674219611 0 0.22202307126592341 0.1432965668560994 0 0.23352565258962579 0.1331854303952397 0 0.2201966269851322 0.1318375425329302 0 0.22788252506564299 0.12548793427679289 0 0.2193381225776877 0.118050034410165 0 0.22202307126592341 0.1432965668560994 0 0.2201966269851322 0.1318375425329302 0 0.23352565258962579 0.1331854303952397 0 0.2385232097084978 0.14199121985749319 0 0.23061240142562989 0.14553014674219611 0 0.23352565258962579 0.1331854303952397 0 0.23352565258962579 0.1331854303952397 0 0.22788252506564299 0.12548793427679289 0 0.2348660637694194 0.1213961821613693 0 0.2201966269851322 0.1318375425329302 0 0.23352565258962579 0.1331854303952397 0 0.22788252506564299 0.12548793427679289 0 0.23352565258962579 0.1331854303952397 0 0.24770667845891439 0.1326561328647054 0 0.243398868573273 0.1239299872959108 0 0.23352565258962579 0.1331854303952397 0 0.243398868573273 0.1239299872959108 0 0.2348660637694194 0.1213961821613693 0 0.2385232097084978 0.14199121985749319 0 0.23352565258962579 0.1331854303952397 0 0.24770667845891439 0.1326561328647054 0 0.24718136849428871 0.14582163936673781 0 0.2385232097084978 0.14199121985749319 0 0.24770667845891439 0.1326561328647054 0 0.24770667845891439 0.1326561328647054 0 0.243398868573273 0.1239299872959108 0 0.25118777109297968 0.1185556191124543 0 0.243398868573273 0.1239299872959108 0 0.23917810013929361 0.11288580384505049 0 0.25118777109297968 0.1185556191124543 0 0.23917810013929361 0.11288580384505049 0 0.24734493670419361 0.1068835534419868 0 0.25118777109297968 0.1185556191124543 0 0.243398868573273 0.1239299872959108 0 0.23917810013929361 0.11288580384505049 0 0.2348660637694194 0.1213961821613693 0 0.24639972969286381 0.097120955784311389 0 0.24929952472796879 0.09277626672631184 0 0.25088998798156009 0.095610935489149285 0 0.24639972969286381 0.097120955784311389 0 0.24734493670419361 0.1068835534419868 0 0.23796673874010549 0.1012477745571275 0 0.24639972969286381 0.097120955784311389 0 0.24734493670419361 0.1068835534419868 0 0.25388215962848382 0.1019767303477439 0 0.23917810013929361 0.11288580384505049 0 0.23796673874010549 0.1012477745571275 0 0.22889824236009271 0.10461778154546821 0 0.23917810013929361 0.11288580384505049 0 0.24734493670419361 0.1068835534419868 0 0.23796673874010549 0.1012477745571275 0 0.24639972969286381 0.097120955784311389 0 0.23796673874010549 0.1012477745571275 0 0.23853307607999741 0.091969533431423833 0 0.23796673874010549 0.1012477745571275 0 0.2301580205500966 0.094696501859706517 0 0.23853307607999741 0.091969533431423833 0 0.23796673874010549 0.1012477745571275 0 0.2301580205500966 0.094696501859706517 0 0.22889824236009271 0.10461778154546821 0 0.22889824236009271 0.10461778154546821 0 0.21991254506158059 0.1077591151145008 0 0.22006592189047411 0.097879233684030287 0 0.22889824236009271 0.10461778154546821 0 0.21991254506158059 0.1077591151145008 0 0.22834593316228621 0.1150328085588911 0 0.2301580205500966 0.094696501859706517 0 0.22889824236009271 0.10461778154546821 0 0.22006592189047411 0.097879233684030287 0 0.22788252506564299 0.12548793427679289 0 0.2348660637694194 0.1213961821613693 0 0.22834593316228621 0.1150328085588911 0 0.23917810013929361 0.11288580384505049 0 0.2348660637694194 0.1213961821613693 0 0.22834593316228621 0.1150328085588911 0 0.23917810013929361 0.11288580384505049 0 0.22889824236009271 0.10461778154546821 0 0.22834593316228621 0.1150328085588911 0 0.21991254506158059 0.1077591151145008 0 0.22834593316228621 0.1150328085588911 0 0.2193381225776877 0.118050034410165 0 0.22788252506564299 0.12548793427679289 0 0.22834593316228621 0.1150328085588911 0 0.2193381225776877 0.118050034410165 0 0.21091711479334679 0.1240402284623067 0 0.2092318469008593 0.10649864651768 0 0.19602929382425541 0.12119549501190161 0 0.2201966269851322 0.1318375425329302 0 0.2193381225776877 0.118050034410165 0 0.21091711479334679 0.1240402284623067 0 0.2193381225776877 0.118050034410165 0 0.21091711479334679 0.1240402284623067 0 0.2092318469008593 0.10649864651768 0 0.21991254506158059 0.1077591151145008 0 0.2193381225776877 0.118050034410165 0 0.2092318469008593 0.10649864651768 0 0.22006592189047411 0.097879233684030287 0 0.2092318469008593 0.10649864651768 0 0.21007663751274461 0.086697043322975384 0 0.2092318469008593 0.10649864651768 0 0.1943724519524932 0.089560820961977719 0 0.21007663751274461 0.086697043322975384 0 0.21991254506158059 0.1077591151145008 0 0.22006592189047411 0.097879233684030287 0 0.2092318469008593 0.10649864651768 0 0.19544664957414881 0.1046517011729084 0 0.19602929382425541 0.12119549501190161 0 0.1821530056189872 0.1013518422000743 0 0.2092318469008593 0.10649864651768 0 0.19544664957414881 0.1046517011729084 0 0.1943724519524932 0.089560820961977719 0 0.19544664957414881 0.1046517011729084 0 0.1943724519524932 0.089560820961977719 0 0.1821530056189872 0.1013518422000743 0 0.2092318469008593 0.10649864651768 0 0.19544664957414881 0.1046517011729084 0 0.19602929382425541 0.12119549501190161 0 0.19703378471119851 0.065467235301583576 0 0.1861834325969168 0.057801002324011509 0 0.18421724494272379 0.075608041328628736 0 0.19581965143904889 0.077835504636232025 0 0.19703378471119851 0.065467235301583576 0 0.20747764169280999 0.073440976479560341 0 0.19581965143904889 0.077835504636232025 0 0.19703378471119851 0.065467235301583576 0 0.18421724494272379 0.075608041328628736 0 0.19581965143904889 0.077835504636232025 0 0.1943724519524932 0.089560820961977719 0 0.1823756312024169 0.087634068271237153 0 0.19581965143904889 0.077835504636232025 0 0.1943724519524932 0.089560820961977719 0 0.21007663751274461 0.086697043322975384 0 0.19581965143904889 0.077835504636232025 0 0.21007663751274461 0.086697043322975384 0 0.20747764169280999 0.073440976479560341 0 0.22006592189047411 0.097879233684030287 0 0.21007663751274461 0.086697043322975384 0 0.22326785469775079 0.08650030796022623 0 0.21007663751274461 0.086697043322975384 0 0.20747764169280999 0.073440976479560341 0 0.22027647920991381 0.075102962463963016 0 0.21007663751274461 0.086697043322975384 0 0.22027647920991381 0.075102962463963016 0 0.22326785469775079 0.08650030796022623 0 0.19703378471119851 0.065467235301583576 0 0.20747764169280999 0.073440976479560341 0 0.21418165559114419 0.062102136673047682 0 0.20747764169280999 0.073440976479560341 0 0.22027647920991381 0.075102962463963016 0 0.21418165559114419 0.062102136673047682 0 0.22913774980391871 0.070344279624347306 0 0.23408212777602089 0.076515097859691225 0 0.21418165559114419 0.062102136673047682 0 0.22027647920991381 0.075102962463963016 0 0.23408212777602089 0.076515097859691225 0 0.21418165559114419 0.062102136673047682 0 0.23408212777602089 0.076515097859691225 0 0.21418165559114419 0.062102136673047682 0 0.22027647920991381 0.075102962463963016 0 0.23408212777602089 0.076515097859691225 0 0.22746068780396109 0.081020687065960897 0 0.2301580205500966 0.094696501859706517 0 0.22006592189047411 0.097879233684030287 0 0.22326785469775079 0.08650030796022623 0 0.22027647920991381 0.075102962463963016 0 0.22326785469775079 0.08650030796022623 0 0.22746068780396109 0.081020687065960897 0 0.22326785469775079 0.08650030796022623 0 0.22746068780396109 0.081020687065960897 0 0.23221628953215931 0.085964379979963146 0 0.23408212777602089 0.076515097859691225 0 0.22746068780396109 0.081020687065960897 0 0.23221628953215931 0.085964379979963146 0 0.2301580205500966 0.094696501859706517 0 0.22326785469775079 0.08650030796022623 0 0.23221628953215931 0.085964379979963146 0 0.2301580205500966 0.094696501859706517 0 0.23221628953215931 0.085964379979963146 0 0.23853307607999741 0.091969533431423833 0 0.23408212777602089 0.076515097859691225 0 0.24594137967901089 0.08882087318617525 0 0.25398259996089712 0.090928059046335205 0 0.23408212777602089 0.076515097859691225 0 0.24405622954033299 0.080224300494273634 0 0.25398259996089712 0.090928059046335205 0 0.23408212777602089 0.076515097859691225 0 0.25398259996089712 0.090928059046335205 0 0.23853307607999741 0.091969533431423833 0 0.2376932182667971 0.085817471114313371 0 0.24594137967901089 0.08882087318617525 0 0.23221628953215931 0.085964379979963146 0 0.23853307607999741 0.091969533431423833 0 0.2376932182667971 0.085817471114313371 0 0.23408212777602089 0.076515097859691225 0 0.23221628953215931 0.085964379979963146 0 0.2376932182667971 0.085817471114313371 0 0.23408212777602089 0.076515097859691225 0 0.2376932182667971 0.085817471114313371 0 0.24594137967901089 0.08882087318617525 0 0.24405622954033299 0.080224300494273634 0 0.25225342751038088 0.087010082367358924 0 0.2517554421642465 0.080550414852398958 0 0.24594137967901089 0.08882087318617525 0 0.24929952472796879 0.09277626672631184 0 0.25398259996089712 0.090928059046335205 0 0.24639972969286381 0.097120955784311389 0 0.24594137967901089 0.08882087318617525 0 0.24929952472796879 0.09277626672631184 0 0.24639972969286381 0.097120955784311389 0 0.23853307607999741 0.091969533431423833 0 0.24594137967901089 0.08882087318617525 0 0.22913774980391871 0.070344279624347306 0 0.23408212777602089 0.076515097859691225 0 0.25161164891901211 0.072730534538392233 0 0.22913774980391871 0.070344279624347306 0 0.24158377186862559 0.061289070425846068 0 0.25161164891901211 0.072730534538392233 0 0.22913774980391871 0.070344279624347306 0 0.25161164891901211 0.072730534538392233 0 0.23408212777602089 0.076515097859691225 0 0.24405622954033299 0.080224300494273634 0 0.25161164891901211 0.072730534538392233 0 0.24405622954033299 0.080224300494273634 0 0.25161164891901211 0.072730534538392233 0 0.2517554421642465 0.080550414852398958 0 0.24158377186862559 0.061289070425846068 0 0.25474285378151401 0.060042326012909437 0 0.25161164891901211 0.072730534538392233 0 0.24158377186862559 0.061289070425846068 0 0.24680145086798089 0.048182382784922581 0 0.22901707995378351 0.053692632194744842 0 0.24158377186862559 0.061289070425846068 0 0.24680145086798089 0.048182382784922581 0 0.25474285378151401 0.060042326012909437 0 0.24680145086798089 0.048182382784922581 0 0.23495575517601749 0.039988453898542137 0 0.22901707995378351 0.053692632194744842 0 0.24680145086798089 0.048182382784922581 0 0.23495575517601749 0.039988453898542137 0 0.24324226348344821 0.029690765515171861 0 0.23495575517601749 0.039988453898542137 0 0.24324226348344821 0.029690765515171861 0 0.2301429422871232 0.031188644715111059 0 0.23495575517601749 0.039988453898542137 0 0.22380382404125049 0.03974292224734087 0 0.22901707995378351 0.053692632194744842 0 0.23495575517601749 0.039988453898542137 0 0.22380382404125049 0.03974292224734087 0 0.2301429422871232 0.031188644715111059 0 0.22380382404125049 0.03974292224734087 0 0.2301429422871232 0.031188644715111059 0 0.21975587505297539 0.029328081146163719 0 0.22913774980391871 0.070344279624347306 0 0.22901707995378351 0.053692632194744842 0 0.21418165559114419 0.062102136673047682 0 0.22913774980391871 0.070344279624347306 0 0.24158377186862559 0.061289070425846068 0 0.22901707995378351 0.053692632194744842 0 0.22380382404125049 0.03974292224734087 0 0.22901707995378351 0.053692632194744842 0 0.21659119702428711 0.049272007271079277 0 0.22901707995378351 0.053692632194744842 0 0.21418165559114419 0.062102136673047682 0 0.21659119702428711 0.049272007271079277 0 0.23277634814028031 0.01252197371701085 0 0.2606787272139568 0.001980303172608151 0 0.2280713860586738 0.018470539750626961 0 0.23277634814028031 0.01252197371701085 0 0.25126880305074312 0.01387743523983893 0 0.23277634814028031 0.01252197371701085 0 0.25126880305074312 0.01387743523983893 0 0.2606787272139568 0.001980303172608151 0 0.24488347523265111 0.00476263714914716 0 0.23277634814028031 0.01252197371701085 0 0.2606787272139568 0.001980303172608151 0 0.24488347523265111 0.00476263714914716 0 0.23277634814028031 0.01252197371701085 0 0.23230624884787579 0.00086340406273482527 0 0.2280713860586738 0.018470539750626961 0 0.25126880305074312 0.01387743523983893 0 0.24324226348344821 0.029690765515171861 0 0.2280713860586738 0.018470539750626961 0 0.25126880305074312 0.01387743523983893 0 0.2280713860586738 0.018470539750626961 0 0.23277634814028031 0.01252197371701085 0 0.20487396906660441 0.023063644261414992 0 0.23277634814028031 0.01252197371701085 0 0.20487396906660441 0.023063644261414992 0 0.24324226348344821 0.029690765515171861 0 0.2301429422871232 0.031188644715111059 0 0.2280713860586738 0.018470539750626961 0 0.2301429422871232 0.031188644715111059 0 0.21975587505297539 0.029328081146163719 0 0.2280713860586738 0.018470539750626961 0 0.23277634814028031 0.01252197371701085 0 0.23230624884787579 0.00086340406273482527 0 0.21729458140653729 0.00043280060133069059 0 0.21729458140653729 0.00043280060133069059 0 0.20487396906660441 0.023063644261414992 0 0.20179196345325179 0.01358810655218742 0 0.21729458140653729 0.00043280060133069059 0 0.20179196345325179 0.01358810655218742 0 0.19158345893234341 -0.00083487295755481524 0 0.23277634814028031 0.01252197371701085 0 0.21729458140653729 0.00043280060133069059 0 0.20487396906660441 0.023063644261414992 0 0.21729458140653729 0.00043280060133069059 0 0.20179196345325179 0.01358810655218742 0 0.21975587505297539 0.029328081146163719 0 0.2280713860586738 0.018470539750626961 0 0.20487396906660441 0.023063644261414992 0 0.2280713860586738 0.018470539750626961 0 0.20487396906660441 0.023063644261414992 0 0.21975587505297539 0.029328081146163719 0 0.20487396906660441 0.023063644261414992 0 0.2103986258721301 0.036590490448162351 0 0.20487396906660441 0.023063644261414992 0 0.20179196345325179 0.01358810655218742 0 0.1862893454999659 0.02674341250304375 0 0.20487396906660441 0.023063644261414992 0 0.17919134011335561 0.032766681139542987 0 0.1862893454999659 0.02674341250304375 0 0.20487396906660441 0.023063644261414992 0 0.17919134011335561 0.032766681139542987 0 0.20487396906660441 0.023063644261414992 0 0.1981375120854553 0.036925936929841453 0 0.17919134011335561 0.032766681139542987 0 0.20487396906660441 0.023063644261414992 0 0.1862893454999659 0.02674341250304375 0 0.20179196345325179 0.01358810655218742 0 0.1862893454999659 0.02674341250304375 0 0.20179196345325179 0.01358810655218742 0 0.18770445891216059 0.012243459946126391 0 0.1862893454999659 0.02674341250304375 0 0.20179196345325179 0.01358810655218742 0 0.18770445891216059 0.012243459946126391 0 0.19158345893234341 -0.00083487295755481524 0 0.20444759928401751 0.049935252833695418 0 0.21418165559114419 0.062102136673047682 0 0.1942811834062674 0.047689175486404292 0 0.21418165559114419 0.062102136673047682 0 0.1942811834062674 0.047689175486404292 0 0.20444759928401751 0.049935252833695418 0 0.21418165559114419 0.062102136673047682 0 0.21659119702428711 0.049272007271079277 0 0.22380382404125049 0.03974292224734087 0 0.21659119702428711 0.049272007271079277 0 0.2103986258721301 0.036590490448162351 0 0.22380382404125049 0.03974292224734087 0 0.21975587505297539 0.029328081146163719 0 0.2103986258721301 0.036590490448162351 0 0.20487396906660441 0.023063644261414992 0 0.2103986258721301 0.036590490448162351 0 0.1981375120854553 0.036925936929841453 0 0.20444759928401751 0.049935252833695418 0 0.2103986258721301 0.036590490448162351 0 0.1981375120854553 0.036925936929841453 0 0.20444759928401751 0.049935252833695418 0 0.21659119702428711 0.049272007271079277 0 0.2103986258721301 0.036590490448162351 0 0.1981375120854553 0.036925936929841453 0 0.1942811834062674 0.047689175486404292 0 0.17919134011335561 0.032766681139542987 0 0.20444759928401751 0.049935252833695418 0 0.1981375120854553 0.036925936929841453 0 0.1942811834062674 0.047689175486404292 0 0.19703378471119851 0.065467235301583576 0 0.21418165559114419 0.062102136673047682 0 0.1942811834062674 0.047689175486404292 0 0.19703378471119851 0.065467235301583576 0 0.1942811834062674 0.047689175486404292 0 0.1861834325969168 0.057801002324011509 0 0.20444759928401751 0.049935252833695418 0 0.1942811834062674 0.047689175486404292 0 0.1942811834062674 0.047689175486404292 0 0.1861834325969168 0.057801002324011509 0 0.17710358540988541 0.050987995864936693 0 0.1861834325969168 0.057801002324011509 0 0.1736382153757674 0.061032122104872237 0 0.17710358540988541 0.050987995864936693 0 0.1942811834062674 0.047689175486404292 0 0.17556753532615721 0.034135774294036518 0 0.16835590986166449 0.041961476528279362 0 0.1942811834062674 0.047689175486404292 0 0.17556753532615721 0.034135774294036518 0 0.1942811834062674 0.047689175486404292 0 0.17710358540988541 0.050987995864936693 0 0.16835590986166449 0.041961476528279362 0 0.1942811834062674 0.047689175486404292 0 0.17919134011335561 0.032766681139542987 0 0.17556753532615721 0.034135774294036518 0 0.1942811834062674 0.047689175486404292 0 0.16835590986166449 0.041961476528279362 0 0.17919134011335561 0.032766681139542987 0 0.17556753532615721 0.034135774294036518 0 0.16985387917408251 0.02999764613362951 0 0.17556753532615721 0.034135774294036518 0 0.16835590986166449 0.041961476528279362 0 0.17919134011335561 0.032766681139542987 0 0.17556753532615721 0.034135774294036518 0 0.17556753532615721 0.034135774294036518 0 0.16985387917408251 0.02999764613362951 0 0.17710358540988541 0.050987995864936693 0 0.16835590986166449 0.041961476528279362 0 0.1630591858088109 0.046456202881115863 0 0.17556753532615721 0.034135774294036518 0 0.1598361174740357 0.040079189504456568 0 0.16985387917408251 0.02999764613362951 0 0.16835590986166449 0.041961476528279362 0 0.1598361174740357 0.040079189504456568 0 0.17556753532615721 0.034135774294036518 0 0.16835590986166449 0.041961476528279362 0 0.1598361174740357 0.040079189504456568 0 0.17556753532615721 0.034135774294036518 0 0.1598361174740357 0.040079189504456568 0 0.16835590986166449 0.041961476528279362 0 0.1630591858088109 0.046456202881115863 0 0.15823050613881121 0.032299081984747118 0 0.1598361174740357 0.040079189504456568 0 0.16985387917408251 0.02999764613362951 0 0.15823050613881121 0.032299081984747118 0 0.1598361174740357 0.040079189504456568 0 0.1581624545571266 0.039709425330939213 0 0.16835590986166449 0.041961476528279362 0 0.1630591858088109 0.046456202881115863 0 0.1598361174740357 0.040079189504456568 0 0.1630591858088109 0.046456202881115863 0 0.1581624545571266 0.039709425330939213 0 0.1630591858088109 0.046456202881115863 0 0.1598361174740357 0.040079189504456568 0 0.1581624545571266 0.039709425330939213 0 0.1598361174740357 0.040079189504456568 0 0.1581624545571266 0.039709425330939213 0 0.1736382153757674 0.061032122104872237 0 0.1630591858088109 0.046456202881115863 0 0.15904439019135649 0.061485469409662298 0 0.1736382153757674 0.061032122104872237 0 0.1630591858088109 0.046456202881115863 0 0.1736382153757674 0.061032122104872237 0 0.17710358540988541 0.050987995864936693 0 0.1630591858088109 0.046456202881115863 0 0.18770445891216059 0.012243459946126391 0 0.17338990426021511 0.0089353632906695613 0 0.19158345893234341 -0.00083487295755481524 0 0.1862893454999659 0.02674341250304375 0 0.16985387917408251 0.02999764613362951 0 0.17338990426021511 0.0089353632906695613 0 0.1862893454999659 0.02674341250304375 0 0.16985387917408251 0.02999764613362951 0 0.18770445891216059 0.012243459946126391 0 0.17338990426021511 0.0089353632906695613 0 0.1862893454999659 0.02674341250304375 0 0.17919134011335561 0.032766681139542987 0 0.1862893454999659 0.02674341250304375 0 0.16985387917408251 0.02999764613362951 0 0.17919134011335561 0.032766681139542987 0 0.1862893454999659 0.02674341250304375 0 0.17338990426021511 0.0089353632906695613 0 0.16985387917408251 0.02999764613362951 0 0.15010025361353191 0.015691038940858298 0 0.16985387917408251 0.02999764613362951 0 0.15010025361353191 0.015691038940858298 0 0.15823050613881121 0.032299081984747118 0 0.16985387917408251 0.02999764613362951 0 0.15010025361353191 0.015691038940858298 0 0.15823050613881121 0.032299081984747118 0 0.16985387917408251 0.02999764613362951 0 0.17338990426021511 0.0089353632906695613 0 0.15010025361353191 0.015691038940858298 0 0.1564263838336292 -0.0027420855689384242 0 0.15010025361353191 0.015691038940858298 0 0.13034662805298211 0.001384431748086113 0 0.1564263838336292 -0.0027420855689384242 0 0.15010025361353191 0.015691038940858298 0 0.1442545413050548 0.020546928539512361 0 0.13034662805298211 0.001384431748086113 0 0.15823050613881121 0.032299081984747118 0 0.1581624545571266 0.039709425330939213 0 0.1442545413050548 0.020546928539512361 0 0.15823050613881121 0.032299081984747118 0 0.15010025361353191 0.015691038940858298 0 0.1442545413050548 0.020546928539512361 0 0.1581624545571266 0.039709425330939213 0 0.1442545413050548 0.020546928539512361 0 0.1442545413050548 0.020546928539512361 0 0.1342925117224078 0.026523815463173409 0 0.12676122497650619 0.017213734322898421 0 0.1442545413050548 0.020546928539512361 0 0.1342925117224078 0.026523815463173409 0 0.1414389117217322 0.036014674773740693 0 0.1247153688863379 0.032319924216542117 0 0.1342925117224078 0.026523815463173409 0 0.12676122497650619 0.017213734322898421 0 0.1204873325010313 0.0058500305137734162 0 0.12676122497650619 0.017213734322898421 0 0.13034662805298211 0.001384431748086113 0 0.15010025361353191 0.015691038940858298 0 0.13034662805298211 0.001384431748086113 0 0.1442545413050548 0.020546928539512361 0 0.12676122497650619 0.017213734322898421 0 0.13034662805298211 0.001384431748086113 0 0.1442545413050548 0.020546928539512361 0 0.13034662805298211 0.001384431748086113 0 0.1630591858088109 0.046456202881115863 0 0.14287491086969389 0.046487225592935687 0 0.14090933892574789 0.065252254837587467 0 0.1630591858088109 0.046456202881115863 0 0.15904439019135649 0.061485469409662298 0 0.14090933892574789 0.065252254837587467 0 0.1630591858088109 0.046456202881115863 0 0.14090933892574789 0.065252254837587467 0 0.1581624545571266 0.039709425330939213 0 0.14287491086969389 0.046487225592935687 0 0.1630591858088109 0.046456202881115863 0 0.1581624545571266 0.039709425330939213 0 0.14287491086969389 0.046487225592935687 0 0.1581624545571266 0.039709425330939213 0 0.1414389117217322 0.036014674773740693 0 0.1581624545571266 0.039709425330939213 0 0.1442545413050548 0.020546928539512361 0 0.1414389117217322 0.036014674773740693 0 0.1581624545571266 0.039709425330939213 0 0.1414389117217322 0.036014674773740693 0 0.14287491086969389 0.046487225592935687 0 0.14287491086969389 0.046487225592935687 0 0.13255175461772381 0.041400847835301818 0 0.13035972252529171 0.049554185983596108 0 0.1414389117217322 0.036014674773740693 0 0.14287491086969389 0.046487225592935687 0 0.13255175461772381 0.041400847835301818 0 0.1247153688863379 0.032319924216542117 0 0.1342925117224078 0.026523815463173409 0 0.1414389117217322 0.036014674773740693 0 0.1247153688863379 0.032319924216542117 0 0.1414389117217322 0.036014674773740693 0 0.1247153688863379 0.032319924216542117 0 0.1414389117217322 0.036014674773740693 0 0.13255175461772381 0.041400847835301818 0 0.1233698590855634 0.042628228609694438 0 0.1247153688863379 0.032319924216542117 0 0.13255175461772381 0.041400847835301818 0 0.1233698590855634 0.042628228609694438 0 0.13255175461772381 0.041400847835301818 0 0.13035972252529171 0.049554185983596108 0 0.14287491086969389 0.046487225592935687 0 0.13146749193025431 0.061236951587981828 0 0.14090933892574789 0.065252254837587467 0 0.14287491086969389 0.046487225592935687 0 0.13035972252529171 0.049554185983596108 0 0.13146749193025431 0.061236951587981828 0 0.1204297969431717 0.055002002505404941 0 0.13035972252529171 0.049554185983596108 0 0.13146749193025431 0.061236951587981828 0 0.1187594920426856 0.084048306794060085 0 0.14090933892574789 0.065252254837587467 0 0.1187594920426856 0.084048306794060085 0 0.13146749193025431 0.061236951587981828 0 0.14090933892574789 0.065252254837587467 0 0.15904439019135649 0.061485469409662298 0 0.14090933892574789 0.065252254837587467 0 0.15857082065509981 0.073201297815073701 0 0.14090933892574789 0.065252254837587467 0 0.1493850129384863 0.082218106326044746 0 0.15857082065509981 0.073201297815073701 0 0.14090933892574789 0.065252254837587467 0 0.1493850129384863 0.082218106326044746 0 0.13657330076777369 0.085740179789636856 0 0.1493850129384863 0.082218106326044746 0 0.15857082065509981 0.073201297815073701 0 0.15727970626839219 0.092526106863925761 0 0.1493850129384863 0.082218106326044746 0 0.14518078515227351 0.092612993564770263 0 0.15727970626839219 0.092526106863925761 0 0.1493850129384863 0.082218106326044746 0 0.14518078515227351 0.092612993564770263 0 0.13657330076777369 0.085740179789636856 0 0.14518078515227351 0.092612993564770263 0 0.13657330076777369 0.085740179789636856 0 0.1367800607067477 0.098144868473837521 0 0.13657330076777369 0.085740179789636856 0 0.12794602954063461 0.095459697576126851 0 0.1367800607067477 0.098144868473837521 0 0.1187594920426856 0.084048306794060085 0 0.13657330076777369 0.085740179789636856 0 0.12794602954063461 0.095459697576126851 0 0.1187594920426856 0.084048306794060085 0 0.14090933892574789 0.065252254837587467 0 0.13657330076777369 0.085740179789636856 0 0.12794602954063461 0.095459697576126851 0 0.12756651237084651 0.1038829567658382 0 0.1367800607067477 0.098144868473837521 0 0.1212986478806161 0.1057371520678589 0 0.12794602954063461 0.095459697576126851 0 0.12756651237084651 0.1038829567658382 0 0.1212986478806161 0.1057371520678589 0 0.12756651237084651 0.1038829567658382 0 0.13500994611942579 0.11446706490779859 0 0.12756651237084651 0.1038829567658382 0 0.13631059106924689 0.1052326491294702 0 0.13500994611942579 0.11446706490779859 0 0.13631059106924689 0.1052326491294702 0 0.1367800607067477 0.098144868473837521 0 0.14588584507996749 0.1044357063704065 0 0.13631059106924689 0.1052326491294702 0 0.13500994611942579 0.11446706490779859 0 0.14588584507996749 0.1044357063704065 0 0.12756651237084651 0.1038829567658382 0 0.13631059106924689 0.1052326491294702 0 0.1367800607067477 0.098144868473837521 0 0.13457443098473601 0.13348359250328851 0 0.13500994611942579 0.11446706490779859 0 0.15107741427417851 0.11934751352569729 0 0.12349701806390299 0.1245150900138474 0 0.1212986478806161 0.1057371520678589 0 0.13500994611942579 0.11446706490779859 0 0.12349701806390299 0.1245150900138474 0 0.13457443098473601 0.13348359250328851 0 0.13500994611942579 0.11446706490779859 0 0.13500994611942579 0.11446706490779859 0 0.15107741427417851 0.11934751352569729 0 0.14588584507996749 0.1044357063704065 0 0.15107741427417851 0.11934751352569729 0 0.14588584507996749 0.1044357063704065 0 0.15798309099555741 0.1068851941250684 0 0.14518078515227351 0.092612993564770263 0 0.1367800607067477 0.098144868473837521 0 0.14588584507996749 0.1044357063704065 0 0.14588584507996749 0.1044357063704065 0 0.15798309099555741 0.1068851941250684 0 0.15727970626839219 0.092526106863925761 0 0.14518078515227351 0.092612993564770263 0 0.14588584507996749 0.1044357063704065 0 0.15727970626839219 0.092526106863925761 0 0.15798309099555741 0.1068851941250684 0 0.16935130295947401 0.096298263617024565 0 0.15727970626839219 0.092526106863925761 0 0.15798309099555741 0.1068851941250684 0 0.16935130295947401 0.096298263617024565 0 0.17182667185582151 0.1201681408548069 0 0.15107741427417851 0.11934751352569729 0 0.15798309099555741 0.1068851941250684 0 0.17182667185582151 0.1201681408548069 0 0.19602929382425541 0.12119549501190161 0 0.17182667185582151 0.1201681408548069 0 0.1821530056189872 0.1013518422000743 0 0.16935130295947401 0.096298263617024565 0 0.17182667185582151 0.1201681408548069 0 0.1821530056189872 0.1013518422000743 0 0.16935130295947401 0.096298263617024565 0 0.1821530056189872 0.1013518422000743 0 0.1823756312024169 0.087634068271237153 0 0.1943724519524932 0.089560820961977719 0 0.1821530056189872 0.1013518422000743 0 0.1823756312024169 0.087634068271237153 0 0.16935130295947401 0.096298263617024565 0 0.1823756312024169 0.087634068271237153 0 0.17052123575811559 0.083705254822905972 0 0.1823756312024169 0.087634068271237153 0 0.18421724494272379 0.075608041328628736 0 0.17052123575811559 0.083705254822905972 0 0.19581965143904889 0.077835504636232025 0 0.1823756312024169 0.087634068271237153 0 0.18421724494272379 0.075608041328628736 0 0.1861834325969168 0.057801002324011509 0 0.1736382153757674 0.061032122104872237 0 0.18421724494272379 0.075608041328628736 0 0.1736382153757674 0.061032122104872237 0 0.18421724494272379 0.075608041328628736 0 0.17052123575811559 0.083705254822905972 0 0.1736382153757674 0.061032122104872237 0 0.18421724494272379 0.075608041328628736 0 0.1736382153757674 0.061032122104872237 0 0.15857082065509981 0.073201297815073701 0 0.17052123575811559 0.083705254822905972 0 0.1736382153757674 0.061032122104872237 0 0.15904439019135649 0.061485469409662298 0 0.15857082065509981 0.073201297815073701 0 0.15857082065509981 0.073201297815073701 0 0.15727970626839219 0.092526106863925761 0 0.17052123575811559 0.083705254822905972 0 0.16935130295947401 0.096298263617024565 0 0.15727970626839219 0.092526106863925761 0 0.17052123575811559 0.083705254822905972 0 0.10959910650366279 0.47464618373203038 0 0.08698622773984746 0.46500280966533558 0 0.092633610958140572 0.48381766744793148 0 0.1079880574847826 0.5 0 0.10959910650366279 0.47464618373203038 0 0.092633610958140572 0.48381766744793148 0 0.1079880574847826 0.5 0 0.10959910650366279 0.47464618373203038 0 0.12989459617232979 0.48138448289014879 0 0.10959910650366279 0.47464618373203038 0 0.104415467728808 0.45552366093969882 0 0.13567667893806831 0.46214848144906773 0 0.1175391651047667 0.44141589212313309 0 0.104415467728808 0.45552366093969882 0 0.13567667893806831 0.46214848144906773 0 0.1175391651047667 0.44141589212313309 0 0.104415467728808 0.45552366093969882 0 0.092600605198941116 0.42561491275051389 0 0.10959910650366279 0.47464618373203038 0 0.104415467728808 0.45552366093969882 0 0.08698622773984746 0.46500280966533558 0 0.104415467728808 0.45552366093969882 0 0.08698622773984746 0.46500280966533558 0 0.082073125638814803 0.44738006954584908 0 0.104415467728808 0.45552366093969882 0 0.082073125638814803 0.44738006954584908 0 0.092600605198941116 0.42561491275051389 0 0.082073125638814803 0.44738006954584908 0 0.064784792644329764 0.45568008953519401 0 0.06157853488214763 0.43507887483850333 0 0.08698622773984746 0.46500280966533558 0 0.064784792644329764 0.45568008953519401 0 0.068547009081590976 0.47871548878911119 0 0.08698622773984746 0.46500280966533558 0 0.082073125638814803 0.44738006954584908 0 0.064784792644329764 0.45568008953519401 0 0.08698622773984746 0.46500280966533558 0 0.068547009081590976 0.47871548878911119 0 0.092633610958140572 0.48381766744793148 0 0.068547009081590976 0.47871548878911119 0 0.092633610958140572 0.48381766744793148 0 0.078537066843384851 0.5 0 0.1079880574847826 0.5 0 0.092633610958140572 0.48381766744793148 0 0.078537066843384851 0.5 0 0.068547009081590976 0.47871548878911119 0 0.078537066843384851 0.5 0 0.049086076201987072 0.5 0 0.068547009081590976 0.47871548878911119 0 0.049086076201987072 0.5 0 0.046781511490601731 0.47034750604651809 0 0.046781511490601731 0.47034750604651809 0 0.028248353660726651 0.48098347699858179 0 0.023580197947088832 0.4579000401158384 0 0.049086076201987072 0.5 0 0.046781511490601731 0.47034750604651809 0 0.028248353660726651 0.48098347699858179 0 0.049086076201987072 0.5 0 0.019635085560589242 0.5 0 0.028248353660726651 0.48098347699858179 0 0.019635085560589242 0.5 0 0.028248353660726651 0.48098347699858179 0 0.002158897103366377 0.47666983883055269 0 0.028248353660726651 0.48098347699858179 0 0.002158897103366377 0.47666983883055269 0 0.023580197947088832 0.4579000401158384 0 -0.0098159050808084292 0.5 0 0.019635085560589242 0.5 0 0.002158897103366377 0.47666983883055269 0 0.0126338634495201 0.4381440055387073 0 0.0043144051270178176 0.45472756546099208 0 0.023580197947088832 0.4579000401158384 0 -0.00085659373153767517 0.43893874695334101 0 0.0126338634495201 0.4381440055387073 0 0.0043144051270178176 0.45472756546099208 0 -0.0062179193122818468 0.46262535980993602 0 0.002158897103366377 0.47666983883055269 0 0.0043144051270178176 0.45472756546099208 0 0.002158897103366377 0.47666983883055269 0 0.0043144051270178176 0.45472756546099208 0 0.023580197947088832 0.4579000401158384 0 0.0126338634495201 0.4381440055387073 0 0.023580197947088832 0.4579000401158384 0 0.024475638594812901 0.43866336671052419 0 0.023580197947088832 0.4579000401158384 0 0.024475638594812901 0.43866336671052419 0 0.04398478828038855 0.44232590645116832 0 0.046781511490601731 0.47034750604651809 0 0.023580197947088832 0.4579000401158384 0 0.04398478828038855 0.44232590645116832 0 0.064784792644329764 0.45568008953519401 0 0.068547009081590976 0.47871548878911119 0 0.046781511490601731 0.47034750604651809 0 0.064784792644329764 0.45568008953519401 0 0.046781511490601731 0.47034750604651809 0 0.04398478828038855 0.44232590645116832 0 0.064784792644329764 0.45568008953519401 0 0.04398478828038855 0.44232590645116832 0 0.06157853488214763 0.43507887483850333 0 0.04398478828038855 0.44232590645116832 0 0.06157853488214763 0.43507887483850333 0 0.051403440410182397 0.41926393710196008 0 0.06157853488214763 0.43507887483850333 0 0.051403440410182397 0.41926393710196008 0 0.067662045293115036 0.40981393337789529 0 0.051403440410182397 0.41926393710196008 0 0.045399930520418318 0.39570873974832582 0 0.067662045293115036 0.40981393337789529 0 0.051403440410182397 0.41926393710196008 0 0.034589524650725137 0.41856623516762109 0 0.045399930520418318 0.39570873974832582 0 0.024475638594812901 0.43866336671052419 0 0.04398478828038855 0.44232590645116832 0 0.034589524650725137 0.41856623516762109 0 0.04398478828038855 0.44232590645116832 0 0.051403440410182397 0.41926393710196008 0 0.034589524650725137 0.41856623516762109 0 0.024475638594812901 0.43866336671052419 0 0.020222006506546441 0.41282577987709068 0 0.0096820257698774989 0.42068437546216347 0 0.024475638594812901 0.43866336671052419 0 0.0096820257698774989 0.42068437546216347 0 0.024475638594812901 0.43866336671052419 0 0.034589524650725137 0.41856623516762109 0 0.020222006506546441 0.41282577987709068 0 0.034589524650725137 0.41856623516762109 0 0.020222006506546441 0.41282577987709068 0 0.0221926061876687 0.39961354804976718 0 -0.0051115870550579026 0.40270538421380281 0 0.0096820257698774989 0.42068437546216347 0 -0.00654839579707347 0.40627376905409451 0 0.0096820257698774989 0.42068437546216347 0 0.0068084082858462366 0.42782114514274722 0 -0.0051115870550579026 0.40270538421380281 0 0.0096820257698774989 0.42068437546216347 0 0.01032273649714081 0.40594179219939491 0 -0.00654839579707347 0.40627376905409451 0 0.0068084082858462366 0.42782114514274722 0 0.020222006506546441 0.41282577987709068 0 0.0096820257698774989 0.42068437546216347 0 0.01032273649714081 0.40594179219939491 0 0.0126338634495201 0.4381440055387073 0 0.0096820257698774989 0.42068437546216347 0 0.0068084082858462366 0.42782114514274722 0 0.0126338634495201 0.4381440055387073 0 0.024475638594812901 0.43866336671052419 0 0.0096820257698774989 0.42068437546216347 0 -0.0049645001103141243 0.42800246128872799 0 -0.00085659373153767517 0.43893874695334101 0 0.0068084082858462366 0.42782114514274722 0 -0.00085659373153767517 0.43893874695334101 0 0.0126338634495201 0.4381440055387073 0 0.0068084082858462366 0.42782114514274722 0 0.0016991597321124371 0.37954553274575858 0 0.01689654441139567 0.38237585772907201 0 0.01420749733036923 0.36630424648818322 0 0.0016991597321124371 0.37954553274575858 0 0.0046286310766693031 0.39387987339415009 0 0.01689654441139567 0.38237585772907201 0 -0.0058383104565521487 0.38842434075647703 0 0.0016991597321124371 0.37954553274575858 0 0.0046286310766693031 0.39387987339415009 0 0.0046286310766693031 0.39387987339415009 0 0.01032273649714081 0.40594179219939491 0 0.0221926061876687 0.39961354804976718 0 0.0046286310766693031 0.39387987339415009 0 0.0221926061876687 0.39961354804976718 0 0.01689654441139567 0.38237585772907201 0 -0.0051115870550579026 0.40270538421380281 0 0.0046286310766693031 0.39387987339415009 0 0.01032273649714081 0.40594179219939491 0 0.020222006506546441 0.41282577987709068 0 0.01032273649714081 0.40594179219939491 0 0.0221926061876687 0.39961354804976718 0 0.01689654441139567 0.38237585772907201 0 0.03384036500607665 0.38457927172336409 0 0.030620471656630829 0.36869856636125481 0 0.0221926061876687 0.39961354804976718 0 0.01689654441139567 0.38237585772907201 0 0.03384036500607665 0.38457927172336409 0 0.03384036500607665 0.38457927172336409 0 0.054092272254269727 0.37649964672840081 0 0.030620471656630829 0.36869856636125481 0 0.03384036500607665 0.38457927172336409 0 0.045399930520418318 0.39570873974832582 0 0.054092272254269727 0.37649964672840081 0 0.034589524650725137 0.41856623516762109 0 0.0221926061876687 0.39961354804976718 0 0.045399930520418318 0.39570873974832582 0 0.0221926061876687 0.39961354804976718 0 0.03384036500607665 0.38457927172336409 0 0.045399930520418318 0.39570873974832582 0 0.045399930520418318 0.39570873974832582 0 0.074038043529317449 0.38333428407866899 0 0.067662045293115036 0.40981393337789529 0 0.045399930520418318 0.39570873974832582 0 0.067662045293115036 0.40981393337789529 0 0.045399930520418318 0.39570873974832582 0 0.054092272254269727 0.37649964672840081 0 0.074038043529317449 0.38333428407866899 0 0.074038043529317449 0.38333428407866899 0 0.1041586876744878 0.38379309937742312 0 0.1018591235779477 0.36188605249449202 0 0.074038043529317449 0.38333428407866899 0 0.091595243215351119 0.40245288053264111 0 0.1041586876744878 0.38379309937742312 0 0.074038043529317449 0.38333428407866899 0 0.091595243215351119 0.40245288053264111 0 0.067662045293115036 0.40981393337789529 0 0.074038043529317449 0.38333428407866899 0 0.067662045293115036 0.40981393337789529 0 0.06157853488214763 0.43507887483850333 0 0.067662045293115036 0.40981393337789529 0 0.092600605198941116 0.42561491275051389 0 0.06157853488214763 0.43507887483850333 0 0.067662045293115036 0.40981393337789529 0 0.082073125638814803 0.44738006954584908 0 0.06157853488214763 0.43507887483850333 0 0.092600605198941116 0.42561491275051389 0 0.067662045293115036 0.40981393337789529 0 0.092600605198941116 0.42561491275051389 0 0.091595243215351119 0.40245288053264111 0 0.067662045293115036 0.40981393337789529 0 0.092600605198941116 0.42561491275051389 0 0.1175391651047667 0.44141589212313309 0 0.11951683438089419 0.40970817307870461 0 0.13573149626452111 0.42489420828500768 0 0.1175391651047667 0.44141589212313309 0 0.092600605198941116 0.42561491275051389 0 0.11951683438089419 0.40970817307870461 0 0.091595243215351119 0.40245288053264111 0 0.092600605198941116 0.42561491275051389 0 0.11951683438089419 0.40970817307870461 0 0.1175391651047667 0.44141589212313309 0 0.092600605198941116 0.42561491275051389 0 0.11951683438089419 0.40970817307870461 0 0.123652872163868 0.38682039342394631 0 0.1041586876744878 0.38379309937742312 0 0.123652872163868 0.38682039342394631 0 0.1041586876744878 0.38379309937742312 0 0.1261321638681823 0.3640591506305112 0 0.091595243215351119 0.40245288053264111 0 0.11951683438089419 0.40970817307870461 0 0.1041586876744878 0.38379309937742312 0 0.1057541768122595 0.34381902233000883 0 0.1018591235779477 0.36188605249449202 0 0.080414041765520111 0.35685463477944301 0 0.1041586876744878 0.38379309937742312 0 0.1018591235779477 0.36188605249449202 0 0.1261321638681823 0.3640591506305112 0 0.1057541768122595 0.34381902233000883 0 0.1018591235779477 0.36188605249449202 0 0.1261321638681823 0.3640591506305112 0 0.1057541768122595 0.34381902233000883 0 0.1264559515818951 0.33605814285010571 0 0.1261321638681823 0.3640591506305112 0 0.1057541768122595 0.34381902233000883 0 0.1068964425600375 0.32801934920003573 0 0.1264559515818951 0.33605814285010571 0 0.1225330628970052 0.31535656161609321 0 0.1068964425600375 0.32801934920003573 0 0.1264559515818951 0.33605814285010571 0 0.1225330628970052 0.31535656161609321 0 0.097465113166396306 0.31437125352826922 0 0.1225330628970052 0.31535656161609321 0 0.1068964425600375 0.32801934920003573 0 0.097465113166396306 0.31437125352826922 0 0.1068964425600375 0.32801934920003573 0 0.097465113166396306 0.31437125352826922 0 0.08415238010017223 0.33369156121092358 0 0.1057541768122595 0.34381902233000883 0 0.1068964425600375 0.32801934920003573 0 0.08415238010017223 0.33369156121092358 0 0.097465113166396306 0.31437125352826922 0 0.08415238010017223 0.33369156121092358 0 0.072397163435787448 0.31338594544044418 0 0.097465113166396306 0.31437125352826922 0 0.072397163435787448 0.31338594544044418 0 0.08415238010017223 0.33369156121092358 0 0.072397163435787448 0.31338594544044418 0 0.066026003917269732 0.33062974340371848 0 0.072397163435787448 0.31338594544044418 0 0.055022841036659102 0.31270303915715147 0 0.066026003917269732 0.33062974340371848 0 0.080414041765520111 0.35685463477944301 0 0.057503495353417623 0.34373912816416419 0 0.08415238010017223 0.33369156121092358 0 0.066026003917269732 0.33062974340371848 0 0.080414041765520111 0.35685463477944301 0 0.080414041765520111 0.35685463477944301 0 0.052171123795654778 0.35732014080114027 0 0.057503495353417623 0.34373912816416419 0 0.1057541768122595 0.34381902233000883 0 0.08415238010017223 0.33369156121092358 0 0.080414041765520111 0.35685463477944301 0 0.074038043529317449 0.38333428407866899 0 0.1018591235779477 0.36188605249449202 0 0.080414041765520111 0.35685463477944301 0 0.074038043529317449 0.38333428407866899 0 0.080414041765520111 0.35685463477944301 0 0.054092272254269727 0.37649964672840081 0 0.074038043529317449 0.38333428407866899 0 0.080414041765520111 0.35685463477944301 0 0.054092272254269727 0.37649964672840081 0 0.080414041765520111 0.35685463477944301 0 0.052171123795654778 0.35732014080114027 0 0.052171123795654778 0.35732014080114027 0 0.041103747056829808 0.34567929945128639 0 0.057503495353417623 0.34373912816416419 0 0.041103747056829808 0.34567929945128639 0 0.030620471656630829 0.36869856636125481 0 0.02320795702784036 0.34303769933002098 0 0.052171123795654778 0.35732014080114027 0 0.041103747056829808 0.34567929945128639 0 0.030620471656630829 0.36869856636125481 0 0.054092272254269727 0.37649964672840081 0 0.052171123795654778 0.35732014080114027 0 0.030620471656630829 0.36869856636125481 0 0.01689654441139567 0.38237585772907201 0 0.030620471656630829 0.36869856636125481 0 0.01420749733036923 0.36630424648818322 0 0.030620471656630829 0.36869856636125481 0 0.01420749733036923 0.36630424648818322 0 0.02320795702784036 0.34303769933002098 0 -0.0013866461761331409 0.35786357627480991 0 0.01420749733036923 0.36630424648818322 0 0.02320795702784036 0.34303769933002098 0 -0.0013866461761331409 0.35786357627480991 0 0.0053448791358674261 0.3398377684093693 0 0.02320795702784036 0.34303769933002098 0 -0.0013866461761331409 0.35786357627480991 0 0.02320795702784036 0.34303769933002098 0 -0.0013866461761331409 0.35786357627480991 0 0.0016991597321124371 0.37954553274575858 0 0.01420749733036923 0.36630424648818322 0 0.01281914404673218 0.31374463226847288 0 0.0046366698239865469 0.32328774136327859 0 0.021943685714380878 0.3237720630099607 0 0.01281914404673218 0.31374463226847288 0 0.0046366698239865469 0.32328774136327859 0 0.0032755366433567402 0.31052339785774491 0 -0.0062323808828551224 0.33461536958361737 0 0.0046366698239865469 0.32328774136327859 0 0.0053448791358674261 0.3398377684093693 0 0.0046366698239865469 0.32328774136327859 0 0.0053448791358674261 0.3398377684093693 0 0.021943685714380878 0.3237720630099607 0 0.02320795702784036 0.34303769933002098 0 0.021943685714380878 0.3237720630099607 0 0.047802560231813673 0.32821182238523228 0 0.0053448791358674261 0.3398377684093693 0 0.02320795702784036 0.34303769933002098 0 0.021943685714380878 0.3237720630099607 0 0.01281914404673218 0.31374463226847288 0 0.021943685714380878 0.3237720630099607 0 0.024713113289476771 0.30787301343487172 0 0.021943685714380878 0.3237720630099607 0 0.037648518637530798 0.31202013287385783 0 0.024713113289476771 0.30787301343487172 0 0.047802560231813673 0.32821182238523228 0 0.055022841036659102 0.31270303915715147 0 0.037648518637530798 0.31202013287385783 0 0.021943685714380878 0.3237720630099607 0 0.047802560231813673 0.32821182238523228 0 0.037648518637530798 0.31202013287385783 0 0.02320795702784036 0.34303769933002098 0 0.047802560231813673 0.32821182238523228 0 0.041103747056829808 0.34567929945128639 0 0.02320795702784036 0.34303769933002098 0 0.047802560231813673 0.32821182238523228 0 0.041103747056829808 0.34567929945128639 0 0.057503495353417623 0.34373912816416419 0 0.047802560231813673 0.32821182238523228 0 0.066026003917269732 0.33062974340371848 0 0.057503495353417623 0.34373912816416419 0 0.047802560231813673 0.32821182238523228 0 0.072397163435787448 0.31338594544044418 0 0.047802560231813673 0.32821182238523228 0 0.072397163435787448 0.31338594544044418 0 0.047802560231813673 0.32821182238523228 0 0.055022841036659102 0.31270303915715147 0 0.072397163435787448 0.31338594544044418 0 0.066026003917269732 0.33062974340371848 0 0.047802560231813673 0.32821182238523228 0 0.055022841036659102 0.31270303915715147 0 0.048268794749993127 0.30202993587505689 0 0.037648518637530798 0.31202013287385783 0 0.055022841036659102 0.31270303915715147 0 0.048268794749993127 0.30202993587505689 0 0.063027174388470206 0.29933874819400169 0 0.050858454826111947 0.2885275383281567 0 0.061336387779927011 0.27689489931873978 0 0.064013957068474958 0.28745744615972357 0 0.050858454826111947 0.2885275383281567 0 0.064013957068474958 0.28745744615972357 0 0.063027174388470206 0.29933874819400169 0 0.048268794749993127 0.30202993587505689 0 0.050858454826111947 0.2885275383281567 0 0.063027174388470206 0.29933874819400169 0 0.050858454826111947 0.2885275383281567 0 0.034791527410230227 0.28484029471276601 0 0.036508866669343137 0.29819192053317822 0 0.050858454826111947 0.2885275383281567 0 0.034791527410230227 0.28484029471276601 0 0.047138143724239023 0.27385636652452472 0 0.048268794749993127 0.30202993587505689 0 0.050858454826111947 0.2885275383281567 0 0.036508866669343137 0.29819192053317822 0 0.055022841036659102 0.31270303915715147 0 0.037648518637530798 0.31202013287385783 0 0.048268794749993127 0.30202993587505689 0 0.036508866669343137 0.29819192053317822 0 0.037648518637530798 0.31202013287385783 0 0.036508866669343137 0.29819192053317822 0 0.037648518637530798 0.31202013287385783 0 0.024713113289476771 0.30787301343487172 0 0.01281914404673218 0.31374463226847288 0 0.024713113289476771 0.30787301343487172 0 0.011724109107430941 0.30253001435966198 0 0.024713113289476771 0.30787301343487172 0 0.022322793797061941 0.29469968425199983 0 0.011724109107430941 0.30253001435966198 0 0.036508866669343137 0.29819192053317822 0 0.024713113289476771 0.30787301343487172 0 0.022322793797061941 0.29469968425199983 0 0.034791527410230227 0.28484029471276601 0 0.036508866669343137 0.29819192053317822 0 0.022322793797061941 0.29469968425199983 0 0.034791527410230227 0.28484029471276601 0 0.02125075851114077 0.28152166520883692 0 0.022322793797061941 0.29469968425199983 0 0.02125075851114077 0.28152166520883692 0 0.022322793797061941 0.29469968425199983 0 0.01151720508948172 0.29089303581106402 0 -0.00090435185522157874 0.29742975324218318 0 0.01151720508948172 0.29089303581106402 0 0.0075221420031196667 0.27762628943385992 0 -0.00090435185522157874 0.29742975324218318 0 0.0075221420031196667 0.27762628943385992 0 -0.00090435185522157874 0.29742975324218318 0 -4.501939692783466e-05 0.29213092697448362 0 0.0075221420031196667 0.27762628943385992 0 0.022322793797061941 0.29469968425199983 0 0.01151720508948172 0.29089303581106402 0 0.011724109107430941 0.30253001435966198 0 0.02125075851114077 0.28152166520883692 0 0.01151720508948172 0.29089303581106402 0 0.0075221420031196667 0.27762628943385992 0 -0.00090435185522157874 0.29742975324218318 0 0.01151720508948172 0.29089303581106402 0 0.011724109107430941 0.30253001435966198 0 -0.00090435185522157874 0.29742975324218318 0 0.0032755366433567402 0.31052339785774491 0 0.011724109107430941 0.30253001435966198 0 0.01281914404673218 0.31374463226847288 0 0.0032755366433567402 0.31052339785774491 0 0.011724109107430941 0.30253001435966198 0 0.018526633236342169 0.24192634682243749 0 0.0092408069197071549 0.26702863689846063 0 0.018526633236342169 0.24192634682243749 0 0.0057197087398602716 0.25638837365480188 0 0.0092408069197071549 0.26702863689846063 0 0.01004767869401268 0.2460499980395312 0 0.0012536845682404041 0.25038943113572448 0 0.0057197087398602716 0.25638837365480188 0 -0.0064195805784558694 0.25571646301748818 0 0.0012536845682404041 0.25038943113572448 0 0.0057197087398602716 0.25638837365480188 0 -0.001815615808124528 0.26650856277061302 0 0.0057197087398602716 0.25638837365480188 0 0.0092408069197071549 0.26702863689846063 0 -4.501939692783466e-05 0.29213092697448362 0 0.0075221420031196667 0.27762628943385992 0 0.0092408069197071549 0.26702863689846063 0 -4.501939692783466e-05 0.29213092697448362 0 0.0092408069197071549 0.26702863689846063 0 -0.0010589938020261389 0.27626584534435938 0 -0.001815615808124528 0.26650856277061302 0 0.0092408069197071549 0.26702863689846063 0 -0.0010589938020261389 0.27626584534435938 0 -4.501939692783466e-05 0.29213092697448362 0 0.0092408069197071549 0.26702863689846063 0 0.0075221420031196667 0.27762628943385992 0 0.0092408069197071549 0.26702863689846063 0 0.01884645571884477 0.27167056472268031 0 0.0092408069197071549 0.26702863689846063 0 0.01884645571884477 0.27167056472268031 0 0.025548424226771688 0.25993163864234481 0 0.02125075851114077 0.28152166520883692 0 0.0075221420031196667 0.27762628943385992 0 0.01884645571884477 0.27167056472268031 0 0.034791527410230227 0.28484029471276601 0 0.02125075851114077 0.28152166520883692 0 0.03067014693348457 0.27224459342989932 0 0.02125075851114077 0.28152166520883692 0 0.01884645571884477 0.27167056472268031 0 0.03067014693348457 0.27224459342989932 0 0.01884645571884477 0.27167056472268031 0 0.03067014693348457 0.27224459342989932 0 0.025548424226771688 0.25993163864234481 0 0.0092408069197071549 0.26702863689846063 0 0.025548424226771688 0.25993163864234481 0 0.020945845084855509 0.25415764331182761 0 0.018526633236342169 0.24192634682243749 0 0.0092408069197071549 0.26702863689846063 0 0.020945845084855509 0.25415764331182761 0 0.030467515956601039 0.24774395088406731 0 0.025548424226771688 0.25993163864234481 0 0.020945845084855509 0.25415764331182761 0 0.030467515956601039 0.24774395088406731 0 0.025548424226771688 0.25993163864234481 0 0.042345457215367442 0.25898809975177373 0 0.03067014693348457 0.27224459342989932 0 0.025548424226771688 0.25993163864234481 0 0.042345457215367442 0.25898809975177373 0 0.03067014693348457 0.27224459342989932 0 0.042345457215367442 0.25898809975177373 0 0.047138143724239023 0.27385636652452472 0 0.034791527410230227 0.28484029471276601 0 0.03067014693348457 0.27224459342989932 0 0.047138143724239023 0.27385636652452472 0 0.047138143724239023 0.27385636652452472 0 0.061336387779927011 0.27689489931873978 0 0.062220982624195363 0.2612002384708802 0 0.050858454826111947 0.2885275383281567 0 0.047138143724239023 0.27385636652452472 0 0.061336387779927011 0.27689489931873978 0 0.042345457215367442 0.25898809975177373 0 0.062220982624195363 0.2612002384708802 0 0.042345457215367442 0.25898809975177373 0 0.047138143724239023 0.27385636652452472 0 0.062220982624195363 0.2612002384708802 0 0.055010650704319597 0.24584136736710169 0 0.042345457215367442 0.25898809975177373 0 0.062220982624195363 0.2612002384708802 0 0.055010650704319597 0.24584136736710169 0 0.072037619681666235 0.24489848484308671 0 0.062220982624195363 0.2612002384708802 0 0.072037619681666235 0.24489848484308671 0 0.062220982624195363 0.2612002384708802 0 0.082096508033023236 0.263412377189987 0 0.062220982624195363 0.2612002384708802 0 0.082096508033023236 0.263412377189987 0 0.075124921148622514 0.26832165015100068 0 0.062220982624195363 0.2612002384708802 0 0.082096508033023236 0.263412377189987 0 0.091121925685512209 0.23981708687531289 0 0.082096508033023236 0.263412377189987 0 0.082096508033023236 0.263412377189987 0 0.10269404283371319 0.26570487529071668 0 0.091121925685512209 0.23981708687531289 0 0.082096508033023236 0.263412377189987 0 0.097108688912541458 0.25457928013682479 0 0.082096508033023236 0.263412377189987 0 0.081191699624411584 0.26577783194259819 0 0.082096508033023236 0.263412377189987 0 0.095073375641923599 0.2729301847703039 0 0.10269404283371319 0.26570487529071668 0 0.086118207181965015 0.27254252119564198 0 0.084753545028096081 0.27874136854009313 0 0.090722264418775608 0.28148892717307722 0 0.086118207181965015 0.27254252119564198 0 0.090722264418775608 0.28148892717307722 0 0.095073375641923599 0.2729301847703039 0 0.082096508033023236 0.263412377189987 0 0.086118207181965015 0.27254252119564198 0 0.095073375641923599 0.2729301847703039 0 0.082096508033023236 0.263412377189987 0 0.086118207181965015 0.27254252119564198 0 0.081191699624411584 0.26577783194259819 0 0.086118207181965015 0.27254252119564198 0 0.081191699624411584 0.26577783194259819 0 0.080578609937525816 0.27305751936860201 0 0.081191699624411584 0.26577783194259819 0 0.080578609937525816 0.27305751936860201 0 0.075124921148622514 0.26832165015100068 0 0.082096508033023236 0.263412377189987 0 0.081191699624411584 0.26577783194259819 0 0.075124921148622514 0.26832165015100068 0 0.080578609937525816 0.27305751936860201 0 0.084753545028096081 0.27874136854009313 0 0.078613540163712539 0.27889164372580932 0 0.080578609937525816 0.27305751936860201 0 0.078613540163712539 0.27889164372580932 0 0.075293508661542441 0.27424487807788461 0 0.086118207181965015 0.27254252119564198 0 0.080578609937525816 0.27305751936860201 0 0.084753545028096081 0.27874136854009313 0 0.084753545028096081 0.27874136854009313 0 0.078613540163712539 0.27889164372580932 0 0.08311611149609216 0.28458078662965042 0 0.078613540163712539 0.27889164372580932 0 0.075293508661542441 0.27424487807788461 0 0.070487922741212183 0.27980885978068643 0 0.061336387779927011 0.27689489931873978 0 0.062220982624195363 0.2612002384708802 0 0.069368218011036722 0.27223705585605218 0 0.075293508661542441 0.27424487807788461 0 0.070487922741212183 0.27980885978068643 0 0.069368218011036722 0.27223705585605218 0 0.080578609937525816 0.27305751936860201 0 0.075293508661542441 0.27424487807788461 0 0.075124921148622514 0.26832165015100068 0 0.075293508661542441 0.27424487807788461 0 0.075124921148622514 0.26832165015100068 0 0.069368218011036722 0.27223705585605218 0 0.062220982624195363 0.2612002384708802 0 0.075124921148622514 0.26832165015100068 0 0.069368218011036722 0.27223705585605218 0 0.061336387779927011 0.27689489931873978 0 0.070487922741212183 0.27980885978068643 0 0.069368218011036722 0.27223705585605218 0 0.070487922741212183 0.27980885978068643 0 0.064013957068474958 0.28745744615972357 0 0.073979493225443532 0.28906189167903379 0 0.061336387779927011 0.27689489931873978 0 0.070487922741212183 0.27980885978068643 0 0.064013957068474958 0.28745744615972357 0 0.064013957068474958 0.28745744615972357 0 0.073979493225443532 0.28906189167903379 0 0.063027174388470206 0.29933874819400169 0 0.073979493225443532 0.28906189167903379 0 0.063027174388470206 0.29933874819400169 0 0.078331618679198523 0.29855834812592141 0 0.078613540163712539 0.27889164372580932 0 0.070487922741212183 0.27980885978068643 0 0.073979493225443532 0.28906189167903379 0 0.072397163435787448 0.31338594544044418 0 0.055022841036659102 0.31270303915715147 0 0.063027174388470206 0.29933874819400169 0 0.072397163435787448 0.31338594544044418 0 0.063027174388470206 0.29933874819400169 0 0.078331618679198523 0.29855834812592141 0 0.072397163435787448 0.31338594544044418 0 0.078331618679198523 0.29855834812592141 0 0.096227813102222032 0.29902058745768662 0 0.097465113166396306 0.31437125352826922 0 0.072397163435787448 0.31338594544044418 0 0.096227813102222032 0.29902058745768662 0 0.072397163435787448 0.31338594544044418 0 0.096227813102222032 0.29902058745768662 0 0.078331618679198523 0.29855834812592141 0 0.086026449244069436 0.29198456785844079 0 0.096227813102222032 0.29902058745768662 0 0.073979493225443532 0.28906189167903379 0 0.08311611149609216 0.28458078662965042 0 0.086026449244069436 0.29198456785844079 0 0.078613540163712539 0.27889164372580932 0 0.073979493225443532 0.28906189167903379 0 0.08311611149609216 0.28458078662965042 0 0.073979493225443532 0.28906189167903379 0 0.078331618679198523 0.29855834812592141 0 0.086026449244069436 0.29198456785844079 0 0.086026449244069436 0.29198456785844079 0 0.090722264418775608 0.28148892717307722 0 0.099700991401329778 0.28702670613255299 0 0.08311611149609216 0.28458078662965042 0 0.086026449244069436 0.29198456785844079 0 0.090722264418775608 0.28148892717307722 0 0.084753545028096081 0.27874136854009313 0 0.08311611149609216 0.28458078662965042 0 0.090722264418775608 0.28148892717307722 0 0.096227813102222032 0.29902058745768662 0 0.1200584627686571 0.28465522947492972 0 0.090722264418775608 0.28148892717307722 0 0.099700991401329778 0.28702670613255299 0 0.10546996747292479 0.27798421869863083 0 0.099700991401329778 0.28702670613255299 0 0.096227813102222032 0.29902058745768662 0 0.1200584627686571 0.28465522947492972 0 0.099700991401329778 0.28702670613255299 0 0.1200584627686571 0.28465522947492972 0 0.10546996747292479 0.27798421869863083 0 0.086026449244069436 0.29198456785844079 0 0.099700991401329778 0.28702670613255299 0 0.096227813102222032 0.29902058745768662 0 0.097465113166396306 0.31437125352826922 0 0.096227813102222032 0.29902058745768662 0 0.11344818134399259 0.3006384292111588 0 0.1225330628970052 0.31535656161609321 0 0.11344818134399259 0.3006384292111588 0 0.12693017061634279 0.29750950275657811 0 0.1225330628970052 0.31535656161609321 0 0.097465113166396306 0.31437125352826922 0 0.11344818134399259 0.3006384292111588 0 0.11344818134399259 0.3006384292111588 0 0.1200584627686571 0.28465522947492972 0 0.12693017061634279 0.29750950275657811 0 0.096227813102222032 0.29902058745768662 0 0.11344818134399259 0.3006384292111588 0 0.1200584627686571 0.28465522947492972 0 0.1232915776344031 0.26799737339144669 0 0.10546996747292479 0.27798421869863083 0 0.10269404283371319 0.26570487529071668 0 0.1200584627686571 0.28465522947492972 0 0.1232915776344031 0.26799737339144669 0 0.10546996747292479 0.27798421869863083 0 0.1232915776344031 0.26799737339144669 0 0.10269404283371319 0.26570487529071668 0 0.1125222790979172 0.24938278119128249 0 0.1232915776344031 0.26799737339144669 0 0.10269404283371319 0.26570487529071668 0 0.082096508033023236 0.263412377189987 0 0.097108688912541458 0.25457928013682479 0 0.10269404283371319 0.26570487529071668 0 0.1125222790979172 0.24938278119128249 0 0.097108688912541458 0.25457928013682479 0 0.10269404283371319 0.26570487529071668 0 0.095073375641923599 0.2729301847703039 0 0.10546996747292479 0.27798421869863083 0 0.10269404283371319 0.26570487529071668 0 0.090722264418775608 0.28148892717307722 0 0.095073375641923599 0.2729301847703039 0 0.10546996747292479 0.27798421869863083 0 0.14388911243509331 0.27028987149217493 0 0.15153071154214481 0.2860093521859704 0 0.16680101887826901 0.27283995831146568 0 0.14388911243509331 0.27028987149217493 0 0.13692161933433211 0.28748640928572688 0 0.15153071154214481 0.2860093521859704 0 0.14388911243509331 0.27028987149217493 0 0.16680101887826901 0.27283995831146568 0 0.14133206126170589 0.25001069905194012 0 0.16432584004148529 0.24062447961538569 0 0.16123866194045569 0.25983138660096339 0 0.14388911243509331 0.27028987149217493 0 0.16123866194045569 0.25983138660096339 0 0.14133206126170589 0.25001069905194012 0 0.14388911243509331 0.27028987149217493 0 0.16123866194045569 0.25983138660096339 0 0.14133206126170589 0.25001069905194012 0 0.1232915776344031 0.26799737339144669 0 0.14388911243509331 0.27028987149217493 0 0.1125222790979172 0.24938278119128249 0 0.14133206126170589 0.25001069905194012 0 0.1232915776344031 0.26799737339144669 0 0.1232915776344031 0.26799737339144669 0 0.14388911243509331 0.27028987149217493 0 0.1200584627686571 0.28465522947492972 0 0.1232915776344031 0.26799737339144669 0 0.14388911243509331 0.27028987149217493 0 0.1200584627686571 0.28465522947492972 0 0.14388911243509331 0.27028987149217493 0 0.13692161933433211 0.28748640928572688 0 0.1200584627686571 0.28465522947492972 0 0.14388911243509331 0.27028987149217493 0 0.1200584627686571 0.28465522947492972 0 0.13692161933433211 0.28748640928572688 0 0.12693017061634279 0.29750950275657811 0 0.13692161933433211 0.28748640928572688 0 0.12693017061634279 0.29750950275657811 0 0.14168952673772731 0.29941088419498191 0 0.1225330628970052 0.31535656161609321 0 0.12693017061634279 0.29750950275657811 0 0.14168952673772731 0.29941088419498191 0 0.1225330628970052 0.31535656161609321 0 0.14168952673772731 0.29941088419498191 0 0.1442156203211537 0.31936292534782429 0 0.14168952673772731 0.29941088419498191 0 0.1554111462823051 0.30293834088858351 0 0.1442156203211537 0.31936292534782429 0 0.14168952673772731 0.29941088419498191 0 0.1554111462823051 0.30293834088858351 0 0.15153071154214481 0.2860093521859704 0 0.13692161933433211 0.28748640928572688 0 0.14168952673772731 0.29941088419498191 0 0.15153071154214481 0.2860093521859704 0 0.15153071154214481 0.2860093521859704 0 0.16608147990298311 0.29428571531161718 0 0.16680101887826901 0.27283995831146568 0 0.1554111462823051 0.30293834088858351 0 0.15153071154214481 0.2860093521859704 0 0.16608147990298311 0.29428571531161718 0 0.16608147990298311 0.29428571531161718 0 0.1772048030327833 0.28458775967095168 0 0.16680101887826901 0.27283995831146568 0 0.1554111462823051 0.30293834088858351 0 0.16563052782280149 0.30726951773467293 0 0.15974319678861609 0.31646992801679957 0 0.1554111462823051 0.30293834088858351 0 0.16608147990298311 0.29428571531161718 0 0.16563052782280149 0.30726951773467293 0 0.16608147990298311 0.29428571531161718 0 0.16563052782280149 0.30726951773467293 0 0.17539976513165931 0.30484657262727971 0 0.16563052782280149 0.30726951773467293 0 0.17539976513165931 0.30484657262727971 0 0.17151705100844361 0.31780703182908449 0 0.18622378802843631 0.2958353199299692 0 0.1826225208446414 0.31693764151118481 0 0.19215269827660161 0.29629144773047478 0 0.1814724331806683 0.32280479789128608 0 0.18622378802843631 0.2958353199299692 0 0.19215269827660161 0.29629144773047478 0 0.1826225208446414 0.31693764151118481 0 0.19215269827660161 0.29629144773047478 0 0.1826225208446414 0.31693764151118481 0 0.1814724331806683 0.32280479789128608 0 0.16608147990298311 0.29428571531161718 0 0.17539976513165931 0.30484657262727971 0 0.18622378802843631 0.2958353199299692 0 0.17539976513165931 0.30484657262727971 0 0.18622378802843631 0.2958353199299692 0 0.1826225208446414 0.31693764151118481 0 0.1772048030327833 0.28458775967095168 0 0.18622378802843631 0.2958353199299692 0 0.1897129253214449 0.27539004513075471 0 0.16608147990298311 0.29428571531161718 0 0.18622378802843631 0.2958353199299692 0 0.16608147990298311 0.29428571531161718 0 0.1772048030327833 0.28458775967095168 0 0.18622378802843631 0.2958353199299692 0 0.1772048030327833 0.28458775967095168 0 0.16680101887826901 0.27283995831146568 0 0.1897129253214449 0.27539004513075471 0 0.16680101887826901 0.27283995831146568 0 0.17933366945531801 0.26444113929049168 0 0.1897129253214449 0.27539004513075471 0 0.17933366945531801 0.26444113929049168 0 0.19282534313631669 0.25715223097465112 0 0.1897129253214449 0.27539004513075471 0 0.16680101887826901 0.27283995831146568 0 0.1897129253214449 0.27539004513075471 0 0.16680101887826901 0.27283995831146568 0 0.16123866194045569 0.25983138660096339 0 0.17933366945531801 0.26444113929049168 0 0.14388911243509331 0.27028987149217493 0 0.16680101887826901 0.27283995831146568 0 0.16123866194045569 0.25983138660096339 0 0.17858821144581949 0.2493729017097541 0 0.16123866194045569 0.25983138660096339 0 0.17858821144581949 0.2493729017097541 0 0.16123866194045569 0.25983138660096339 0 0.17933366945531801 0.26444113929049168 0 0.17858821144581949 0.2493729017097541 0 0.17933366945531801 0.26444113929049168 0 0.19282534313631669 0.25715223097465112 0 0.20237997148191059 0.24939831330470491 0 0.19282534313631669 0.25715223097465112 0 0.19972413594027341 0.26707802680431048 0 0.19282534313631669 0.25715223097465112 0 0.1897129253214449 0.27539004513075471 0 0.19282534313631669 0.25715223097465112 0 0.1897129253214449 0.27539004513075471 0 0.19972413594027341 0.26707802680431048 0 0.19328748777458951 0.27881790632833592 0 0.1897129253214449 0.27539004513075471 0 0.19225718184199209 0.28543473499965277 0 0.19328748777458951 0.27881790632833592 0 0.19919703039000469 0.27880416232191257 0 0.19225718184199209 0.28543473499965277 0 0.19328748777458951 0.27881790632833592 0 0.19198281354491639 0.27564268286102339 0 0.19919703039000469 0.27880416232191257 0 0.1897129253214449 0.27539004513075471 0 0.19198281354491639 0.27564268286102339 0 0.19328748777458951 0.27881790632833592 0 0.1897129253214449 0.27539004513075471 0 0.19198281354491639 0.27564268286102339 0 0.1897129253214449 0.27539004513075471 0 0.19198281354491639 0.27564268286102339 0 0.19972413594027341 0.26707802680431048 0 0.19972413594027341 0.26707802680431048 0 0.19919703039000469 0.27880416232191257 0 0.20758366584918281 0.27342119282451383 0 0.19198281354491639 0.27564268286102339 0 0.19972413594027341 0.26707802680431048 0 0.19919703039000469 0.27880416232191257 0 0.19919703039000469 0.27880416232191257 0 0.20758366584918281 0.27342119282451383 0 0.20762404657775349 0.28270875537559143 0 0.19972413594027341 0.26707802680431048 0 0.20758366584918281 0.27342119282451383 0 0.21290480426382 0.26203959358869378 0 0.20758366584918281 0.27342119282451383 0 0.21843099638843699 0.27583267826815122 0 0.21290480426382 0.26203959358869378 0 0.20758366584918281 0.27342119282451383 0 0.21843099638843699 0.27583267826815122 0 0.20762404657775349 0.28270875537559143 0 0.20237997148191059 0.24939831330470491 0 0.19972413594027341 0.26707802680431048 0 0.21290480426382 0.26203959358869378 0 0.20237997148191059 0.24939831330470491 0 0.22018070489453781 0.24096094808464219 0 0.21290480426382 0.26203959358869378 0 0.22018070489453781 0.24096094808464219 0 0.21290480426382 0.26203959358869378 0 0.22912935102857809 0.26554640224584047 0 0.21843099638843699 0.27583267826815122 0 0.22912935102857809 0.26554640224584047 0 0.2347284862073977 0.28441488888135352 0 0.21843099638843699 0.27583267826815122 0 0.21290480426382 0.26203959358869378 0 0.22912935102857809 0.26554640224584047 0 0.2347284862073977 0.28441488888135352 0 0.25602446519606742 0.2859048948949382 0 0.25128267307254498 0.2641379763117172 0 0.22912935102857809 0.26554640224584047 0 0.2347284862073977 0.28441488888135352 0 0.25128267307254498 0.2641379763117172 0 0.24361873875543821 0.24293243165950959 0 0.22912935102857809 0.26554640224584047 0 0.25128267307254498 0.2641379763117172 0 0.24361873875543821 0.24293243165950959 0 0.22912935102857809 0.26554640224584047 0 0.24814684602186221 0.30059923556721579 0 0.23079301558873899 0.31393882277801932 0 0.2560607936250161 0.32160046612801729 0 0.24814684602186221 0.30059923556721579 0 0.2347284862073977 0.28441488888135352 0 0.25602446519606742 0.2859048948949382 0 0.2347284862073977 0.28441488888135352 0 0.22014977214923201 0.29844534164884479 0 0.21737151846490349 0.28695875410428179 0 0.24814684602186221 0.30059923556721579 0 0.2347284862073977 0.28441488888135352 0 0.22014977214923201 0.29844534164884479 0 0.21843099638843699 0.27583267826815122 0 0.2347284862073977 0.28441488888135352 0 0.21737151846490349 0.28695875410428179 0 0.22014977214923201 0.29844534164884479 0 0.20552523755246199 0.30627717942802118 0 0.23079301558873899 0.31393882277801932 0 0.24814684602186221 0.30059923556721579 0 0.22014977214923201 0.29844534164884479 0 0.24814684602186221 0.30059923556721579 0 0.22014977214923201 0.29844534164884479 0 0.23079301558873899 0.31393882277801932 0 0.20552523755246199 0.30627717942802118 0 0.23079301558873899 0.31393882277801932 0 0.22014977214923201 0.29844534164884479 0 0.20552523755246199 0.30627717942802118 0 0.19215269827660161 0.29629144773047478 0 0.22014977214923201 0.29844534164884479 0 0.19215269827660161 0.29629144773047478 0 0.22014977214923201 0.29844534164884479 0 0.20744851906548209 0.29048952307998349 0 0.19215269827660161 0.29629144773047478 0 0.21843099638843699 0.27583267826815122 0 0.21737151846490349 0.28695875410428179 0 0.20762404657775349 0.28270875537559143 0 0.22014977214923201 0.29844534164884479 0 0.21737151846490349 0.28695875410428179 0 0.20744851906548209 0.29048952307998349 0 0.21737151846490349 0.28695875410428179 0 0.20744851906548209 0.29048952307998349 0 0.20762404657775349 0.28270875537559143 0 0.20744851906548209 0.29048952307998349 0 0.20762404657775349 0.28270875537559143 0 0.20160557357746051 0.28707347212699058 0 0.18622378802843631 0.2958353199299692 0 0.1897129253214449 0.27539004513075471 0 0.19225718184199209 0.28543473499965277 0 0.19919703039000469 0.27880416232191257 0 0.19215269827660161 0.29629144773047478 0 0.18622378802843631 0.2958353199299692 0 0.1897129253214449 0.27539004513075471 0 0.19919703039000469 0.27880416232191257 0 0.19215269827660161 0.29629144773047478 0 0.19225718184199209 0.28543473499965277 0 0.19919703039000469 0.27880416232191257 0 0.20160557357746051 0.28707347212699058 0 0.19215269827660161 0.29629144773047478 0 0.19919703039000469 0.27880416232191257 0 0.20762404657775349 0.28270875537559143 0 0.20160557357746051 0.28707347212699058 0 0.20744851906548209 0.29048952307998349 0 0.20160557357746051 0.28707347212699058 0 0.19215269827660161 0.29629144773047478 0 0.18622378802843631 0.2958353199299692 0 0.19215269827660161 0.29629144773047478 0 0.19225718184199209 0.28543473499965277 0 0.18622378802843631 0.2958353199299692 0 0.19215269827660161 0.29629144773047478 0 0.19215269827660161 0.29629144773047478 0 0.19527342565445391 0.31337727136687371 0 0.1814724331806683 0.32280479789128608 0 0.20552523755246199 0.30627717942802118 0 0.19215269827660161 0.29629144773047478 0 0.19527342565445391 0.31337727136687371 0 0.20552523755246199 0.30627717942802118 0 0.19527342565445391 0.31337727136687371 0 0.20249957090953991 0.31667082994918749 0 0.19527342565445391 0.31337727136687371 0 0.1972234358802912 0.32533208274402747 0 0.1814724331806683 0.32280479789128608 0 0.19527342565445391 0.31337727136687371 0 0.1972234358802912 0.32533208274402747 0 0.20249957090953991 0.31667082994918749 0 0.1972234358802912 0.32533208274402747 0 0.18778541173670019 0.34187705013400682 0 0.20693680948950721 0.33920242313450621 0 0.1972234358802912 0.32533208274402747 0 0.18778541173670019 0.34187705013400682 0 0.1814724331806683 0.32280479789128608 0 0.1972234358802912 0.32533208274402747 0 0.20693680948950721 0.33920242313450621 0 0.21197618455095249 0.32169678625782772 0 0.20693680948950721 0.33920242313450621 0 0.21197618455095249 0.32169678625782772 0 0.22284805690504539 0.33326724130463298 0 0.20552523755246199 0.30627717942802118 0 0.21197618455095249 0.32169678625782772 0 0.23079301558873899 0.31393882277801932 0 0.20552523755246199 0.30627717942802118 0 0.20249957090953991 0.31667082994918749 0 0.21197618455095249 0.32169678625782772 0 0.1972234358802912 0.32533208274402747 0 0.20249957090953991 0.31667082994918749 0 0.21197618455095249 0.32169678625782772 0 0.21197618455095249 0.32169678625782772 0 0.23079301558873899 0.31393882277801932 0 0.22284805690504539 0.33326724130463298 0 0.23079301558873899 0.31393882277801932 0 0.22284805690504539 0.33326724130463298 0 0.2423823474144742 0.34098530055066961 0 0.23079301558873899 0.31393882277801932 0 0.2423823474144742 0.34098530055066961 0 0.2560607936250161 0.32160046612801729 0 0.23079301558873899 0.31393882277801932 0 0.2560607936250161 0.32160046612801729 0 0.24623799603150401 0.36656479957190968 0 0.220857295356334 0.36115596472338451 0 0.23918734035693251 0.38903870326050299 0 0.2423823474144742 0.34098530055066961 0 0.24623799603150401 0.36656479957190968 0 0.220857295356334 0.36115596472338451 0 0.2423823474144742 0.34098530055066961 0 0.24623799603150401 0.36656479957190968 0 0.25873649080524119 0.35274097737885318 0 0.22284805690504539 0.33326724130463298 0 0.2423823474144742 0.34098530055066961 0 0.220857295356334 0.36115596472338451 0 0.220857295356334 0.36115596472338451 0 0.20038179004910131 0.38191263307236301 0 0.220857295356334 0.36115596472338451 0 0.1992715412559074 0.35847487906425868 0 0.20038179004910131 0.38191263307236301 0 0.20693680948950721 0.33920242313450621 0 0.220857295356334 0.36115596472338451 0 0.1992715412559074 0.35847487906425868 0 0.20693680948950721 0.33920242313450621 0 0.22284805690504539 0.33326724130463298 0 0.220857295356334 0.36115596472338451 0 0.18778541173670019 0.34187705013400682 0 0.1992715412559074 0.35847487906425868 0 0.18039639964789411 0.36822632425703322 0 0.18778541173670019 0.34187705013400682 0 0.20693680948950721 0.33920242313450621 0 0.1992715412559074 0.35847487906425868 0 0.1992715412559074 0.35847487906425868 0 0.18039639964789411 0.36822632425703322 0 0.20038179004910131 0.38191263307236301 0 0.18039639964789411 0.36822632425703322 0 0.17079216808473471 0.34931814805209749 0 0.1544946780467914 0.36863613248653632 0 0.17079216808473471 0.34931814805209749 0 0.1544946780467914 0.36863613248653632 0 0.1447488247260007 0.35160798880747479 0 0.17079216808473471 0.34931814805209749 0 0.16279061964727409 0.33337018439680821 0 0.1447488247260007 0.35160798880747479 0 0.18778541173670019 0.34187705013400682 0 0.18039639964789411 0.36822632425703322 0 0.17079216808473471 0.34931814805209749 0 0.18778541173670019 0.34187705013400682 0 0.17079216808473471 0.34931814805209749 0 0.1814724331806683 0.32280479789128608 0 0.17079216808473471 0.34931814805209749 0 0.1814724331806683 0.32280479789128608 0 0.1814724331806683 0.32280479789128608 0 0.17151705100844361 0.31780703182908449 0 0.16279061964727409 0.33337018439680821 0 0.1826225208446414 0.31693764151118481 0 0.1814724331806683 0.32280479789128608 0 0.17151705100844361 0.31780703182908449 0 0.17539976513165931 0.30484657262727971 0 0.1826225208446414 0.31693764151118481 0 0.17151705100844361 0.31780703182908449 0 0.17151705100844361 0.31780703182908449 0 0.15974319678861609 0.31646992801679957 0 0.16279061964727409 0.33337018439680821 0 0.16563052782280149 0.30726951773467293 0 0.17151705100844361 0.31780703182908449 0 0.15974319678861609 0.31646992801679957 0 0.17079216808473471 0.34931814805209749 0 0.1814724331806683 0.32280479789128608 0 0.16279061964727409 0.33337018439680821 0 0.16279061964727409 0.33337018439680821 0 0.14276431007079429 0.33513623100662038 0 0.1447488247260007 0.35160798880747479 0 0.16279061964727409 0.33337018439680821 0 0.14276431007079429 0.33513623100662038 0 0.1442156203211537 0.31936292534782429 0 0.1554111462823051 0.30293834088858351 0 0.15974319678861609 0.31646992801679957 0 0.1442156203211537 0.31936292534782429 0 0.15974319678861609 0.31646992801679957 0 0.16279061964727409 0.33337018439680821 0 0.1442156203211537 0.31936292534782429 0 0.1225330628970052 0.31535656161609321 0 0.1442156203211537 0.31936292534782429 0 0.1264559515818951 0.33605814285010571 0 0.14276431007079429 0.33513623100662038 0 0.1264559515818951 0.33605814285010571 0 0.1447488247260007 0.35160798880747479 0 0.14276431007079429 0.33513623100662038 0 0.1442156203211537 0.31936292534782429 0 0.1264559515818951 0.33605814285010571 0 0.1264559515818951 0.33605814285010571 0 0.1261321638681823 0.3640591506305112 0 0.1447488247260007 0.35160798880747479 0 0.1261321638681823 0.3640591506305112 0 0.1544946780467914 0.36863613248653632 0 0.14128235632249581 0.38410799434159798 0 0.1261321638681823 0.3640591506305112 0 0.1544946780467914 0.36863613248653632 0 0.1447488247260007 0.35160798880747479 0 0.14891137963376641 0.39716734849523672 0 0.14128235632249581 0.38410799434159798 0 0.1340207831644927 0.39866244793036021 0 0.14891137963376641 0.39716734849523672 0 0.1340207831644927 0.39866244793036021 0 0.1443421771372983 0.41163185030355942 0 0.14891137963376641 0.39716734849523672 0 0.1443421771372983 0.41163185030355942 0 0.15874512791872289 0.40300462498973311 0 0.1544946780467914 0.36863613248653632 0 0.14128235632249581 0.38410799434159798 0 0.16616645362582241 0.38842982491093248 0 0.14891137963376641 0.39716734849523672 0 0.14128235632249581 0.38410799434159798 0 0.16616645362582241 0.38842982491093248 0 0.123652872163868 0.38682039342394631 0 0.1261321638681823 0.3640591506305112 0 0.14128235632249581 0.38410799434159798 0 0.123652872163868 0.38682039342394631 0 0.14128235632249581 0.38410799434159798 0 0.1340207831644927 0.39866244793036021 0 0.11951683438089419 0.40970817307870461 0 0.123652872163868 0.38682039342394631 0 0.1340207831644927 0.39866244793036021 0 0.11951683438089419 0.40970817307870461 0 0.1443421771372983 0.41163185030355942 0 0.11951683438089419 0.40970817307870461 0 0.1340207831644927 0.39866244793036021 0 0.1443421771372983 0.41163185030355942 0 0.11951683438089419 0.40970817307870461 0 0.13573149626452111 0.42489420828500768 0 0.1443421771372983 0.41163185030355942 0 0.1175391651047667 0.44141589212313309 0 0.13573149626452111 0.42489420828500768 0 0.1444461286939322 0.43861638490699523 0 0.13573149626452111 0.42489420828500768 0 0.1528131760057137 0.42309874101264627 0 0.1444461286939322 0.43861638490699523 0 0.1528131760057137 0.42309874101264627 0 0.15738782814687341 0.42549697420693439 0 0.1444461286939322 0.43861638490699523 0 0.1528131760057137 0.42309874101264627 0 0.15738782814687341 0.42549697420693439 0 0.15738782814687341 0.42549697420693439 0 0.1444461286939322 0.43861638490699523 0 0.15738782814687341 0.42549697420693439 0 0.1568626107174089 0.44104257608757852 0 0.1444461286939322 0.43861638490699523 0 0.1528131760057137 0.42309874101264627 0 0.1443421771372983 0.41163185030355942 0 0.16916751989370241 0.41355552752841301 0 0.13573149626452111 0.42489420828500768 0 0.1528131760057137 0.42309874101264627 0 0.1443421771372983 0.41163185030355942 0 0.1528131760057137 0.42309874101264627 0 0.16916751989370241 0.41355552752841301 0 0.15738782814687341 0.42549697420693439 0 0.1443421771372983 0.41163185030355942 0 0.16916751989370241 0.41355552752841301 0 0.15874512791872289 0.40300462498973311 0 0.1443421771372983 0.41163185030355942 0 0.16916751989370241 0.41355552752841301 0 0.16916751989370241 0.41355552752841301 0 0.15738782814687341 0.42549697420693439 0 0.16916751989370241 0.41355552752841301 0 0.15738782814687341 0.42549697420693439 0 0.17244742439409419 0.42548480029121671 0 0.15738782814687341 0.42549697420693439 0 0.18250812207337291 0.43866613349726807 0 0.15738782814687341 0.42549697420693439 0 0.16595589473682679 0.44134619334113889 0 0.1568626107174089 0.44104257608757852 0 0.15738782814687341 0.42549697420693439 0 0.17244742439409419 0.42548480029121671 0 0.18250812207337291 0.43866613349726807 0 0.15738782814687341 0.42549697420693439 0 0.18250812207337291 0.43866613349726807 0 0.16595589473682679 0.44134619334113889 0 0.17244742439409419 0.42548480029121671 0 0.18072622746242881 0.4242205659322521 0 0.18250812207337291 0.43866613349726807 0 0.18072622746242881 0.4242205659322521 0 0.1928014636709095 0.42926124109011871 0 0.18250812207337291 0.43866613349726807 0 0.16916751989370241 0.41355552752841301 0 0.17990628474186859 0.40266930142134139 0 0.1921272108059619 0.415334638291598 0 0.16916751989370241 0.41355552752841301 0 0.18072622746242881 0.4242205659322521 0 0.1921272108059619 0.415334638291598 0 0.16916751989370241 0.41355552752841301 0 0.1921272108059619 0.415334638291598 0 0.16916751989370241 0.41355552752841301 0 0.17990628474186859 0.40266930142134139 0 0.16916751989370241 0.41355552752841301 0 0.17244742439409419 0.42548480029121671 0 0.18072622746242881 0.4242205659322521 0 0.17990628474186859 0.40266930142134139 0 0.1921272108059619 0.415334638291598 0 0.17990628474186859 0.40266930142134139 0 0.16616645362582241 0.38842982491093248 0 0.18171273201617161 0.38530952091541748 0 0.17990628474186859 0.40266930142134139 0 0.16616645362582241 0.38842982491093248 0 0.16916751989370241 0.41355552752841301 0 0.17990628474186859 0.40266930142134139 0 0.1684963465450289 0.40191481971260479 0 0.14891137963376641 0.39716734849523672 0 0.15874512791872289 0.40300462498973311 0 0.16616645362582241 0.38842982491093248 0 0.16916751989370241 0.41355552752841301 0 0.1684963465450289 0.40191481971260479 0 0.15874512791872289 0.40300462498973311 0 0.1684963465450289 0.40191481971260479 0 0.15874512791872289 0.40300462498973311 0 0.16616645362582241 0.38842982491093248 0 0.17990628474186859 0.40266930142134139 0 0.1684963465450289 0.40191481971260479 0 0.16616645362582241 0.38842982491093248 0 0.18039639964789411 0.36822632425703322 0 0.1544946780467914 0.36863613248653632 0 0.16616645362582241 0.38842982491093248 0 0.18039639964789411 0.36822632425703322 0 0.16616645362582241 0.38842982491093248 0 0.18171273201617161 0.38530952091541748 0 0.18039639964789411 0.36822632425703322 0 0.18171273201617161 0.38530952091541748 0 0.20038179004910131 0.38191263307236301 0 0.17990628474186859 0.40266930142134139 0 0.18171273201617161 0.38530952091541748 0 0.20038179004910131 0.38191263307236301 0 0.20038179004910131 0.38191263307236301 0 0.19502862405250981 0.40048845361061758 0 0.207699210613108 0.40203724165716759 0 0.17990628474186859 0.40266930142134139 0 0.20038179004910131 0.38191263307236301 0 0.19502862405250981 0.40048845361061758 0 0.17990628474186859 0.40266930142134139 0 0.20038179004910131 0.38191263307236301 0 0.17990628474186859 0.40266930142134139 0 0.19502862405250981 0.40048845361061758 0 0.1921272108059619 0.415334638291598 0 0.19502862405250981 0.40048845361061758 0 0.207699210613108 0.40203724165716759 0 0.1921272108059619 0.415334638291598 0 0.20038179004910131 0.38191263307236301 0 0.207699210613108 0.40203724165716759 0 0.21834329730051749 0.38842355499660042 0 0.207699210613108 0.40203724165716759 0 0.21834329730051749 0.38842355499660042 0 0.2256284947460675 0.40386958086668351 0 0.220857295356334 0.36115596472338451 0 0.20038179004910131 0.38191263307236301 0 0.21834329730051749 0.38842355499660042 0 0.220857295356334 0.36115596472338451 0 0.21834329730051749 0.38842355499660042 0 0.23918734035693251 0.38903870326050299 0 0.21834329730051749 0.38842355499660042 0 0.2256284947460675 0.40386958086668351 0 0.23918734035693251 0.38903870326050299 0 0.2256284947460675 0.40386958086668351 0 0.23918734035693251 0.38903870326050299 0 0.24084754010726511 0.40863241178267501 0 0.23918734035693251 0.38903870326050299 0 0.25743629571091808 0.38396917439821993 0 0.2523373844092352 0.40010599182405571 0 0.23918734035693251 0.38903870326050299 0 0.24084754010726511 0.40863241178267501 0 0.2523373844092352 0.40010599182405571 0 0.24623799603150401 0.36656479957190968 0 0.23918734035693251 0.38903870326050299 0 0.25743629571091808 0.38396917439821993 0 0.24201254274905609 0.42725764853548859 0 0.23566632879412749 0.43425220595876179 0 0.24131083729858241 0.44120336760534179 0 0.24201254274905609 0.42725764853548859 0 0.23566632879412749 0.43425220595876179 0 0.22879145869436929 0.42928338197006022 0 0.24201254274905609 0.42725764853548859 0 0.24131083729858241 0.44120336760534179 0 0.25336664074446502 0.43902463535920011 0 0.24201254274905609 0.42725764853548859 0 0.24084754010726511 0.40863241178267501 0 0.2308571519230638 0.41783625636243937 0 0.24201254274905609 0.42725764853548859 0 0.24084754010726511 0.40863241178267501 0 0.25465335017694779 0.4141452213601361 0 0.24084754010726511 0.40863241178267501 0 0.25465335017694779 0.4141452213601361 0 0.2523373844092352 0.40010599182405571 0 0.2256284947460675 0.40386958086668351 0 0.24084754010726511 0.40863241178267501 0 0.2308571519230638 0.41783625636243937 0 0.2256284947460675 0.40386958086668351 0 0.2308571519230638 0.41783625636243937 0 0.21683642817551829 0.41724931714071561 0 0.2308571519230638 0.41783625636243937 0 0.22879145869436929 0.42928338197006022 0 0.21683642817551829 0.41724931714071561 0 0.22879145869436929 0.42928338197006022 0 0.2198415447690189 0.43311491367025751 0 0.21683642817551829 0.41724931714071561 0 0.24201254274905609 0.42725764853548859 0 0.2308571519230638 0.41783625636243937 0 0.22879145869436929 0.42928338197006022 0 0.23566632879412749 0.43425220595876179 0 0.22879145869436929 0.42928338197006022 0 0.2297199211166768 0.439648922372122 0 0.22879145869436929 0.42928338197006022 0 0.2198415447690189 0.43311491367025751 0 0.2297199211166768 0.439648922372122 0 0.2198415447690189 0.43311491367025751 0 0.20678317314388331 0.43052356089812122 0 0.2214391354818053 0.44571248350464387 0 0.2198415447690189 0.43311491367025751 0 0.20678317314388331 0.43052356089812122 0 0.21683642817551829 0.41724931714071561 0 0.207699210613108 0.40203724165716759 0 0.21683642817551829 0.41724931714071561 0 0.1921272108059619 0.415334638291598 0 0.207699210613108 0.40203724165716759 0 0.2256284947460675 0.40386958086668351 0 0.21683642817551829 0.41724931714071561 0 0.21683642817551829 0.41724931714071561 0 0.1921272108059619 0.415334638291598 0 0.20678317314388331 0.43052356089812122 0 0.21683642817551829 0.41724931714071561 0 0.1921272108059619 0.415334638291598 0 0.20678317314388331 0.43052356089812122 0 0.1928014636709095 0.42926124109011871 0 0.20762841599987281 0.45183529278760132 0 0.20678317314388331 0.43052356089812122 0 0.1921272108059619 0.415334638291598 0 0.20678317314388331 0.43052356089812122 0 0.1921272108059619 0.415334638291598 0 0.1928014636709095 0.42926124109011871 0 0.18072622746242881 0.4242205659322521 0 0.1921272108059619 0.415334638291598 0 0.1928014636709095 0.42926124109011871 0 0.1928014636709095 0.42926124109011871 0 0.20762841599987281 0.45183529278760132 0 0.18250812207337291 0.43866613349726807 0 0.20762841599987281 0.45183529278760132 0 0.18250812207337291 0.43866613349726807 0 0.20762841599987281 0.45183529278760132 0 0.1836445036459379 0.45527302234142297 0 0.18250812207337291 0.43866613349726807 0 0.19721112723468701 0.46411192770517268 0 0.20762841599987281 0.45183529278760132 0 0.1836445036459379 0.45527302234142297 0 0.19721112723468701 0.46411192770517268 0 0.19196389563252261 0.4757838166823698 0 0.1836445036459379 0.45527302234142297 0 0.20762841599987281 0.45183529278760132 0 0.1836445036459379 0.45527302234142297 0 0.20762841599987281 0.45183529278760132 0 0.22706318641483239 0.4620238514133308 0 0.21380171792059521 0.4649950202350237 0 0.20762841599987281 0.45183529278760132 0 0.22706318641483239 0.4620238514133308 0 0.20762841599987281 0.45183529278760132 0 0.21609711375012891 0.45062143359278628 0 0.22706318641483239 0.4620238514133308 0 0.2060816041963312 0.46335210544361749 0 0.21380171792059521 0.4649950202350237 0 0.2067998509198046 0.47704607043699188 0 0.19721112723468701 0.46411192770517268 0 0.2060816041963312 0.46335210544361749 0 0.2067998509198046 0.47704607043699188 0 0.2060816041963312 0.46335210544361749 0 0.21380171792059521 0.4649950202350237 0 0.20762841599987281 0.45183529278760132 0 0.19721112723468701 0.46411192770517268 0 0.2060816041963312 0.46335210544361749 0 0.20762841599987281 0.45183529278760132 0 0.20678317314388331 0.43052356089812122 0 0.20762841599987281 0.45183529278760132 0 0.21609711375012891 0.45062143359278628 0 0.20678317314388331 0.43052356089812122 0 0.21609711375012891 0.45062143359278628 0 0.2214391354818053 0.44571248350464387 0 0.20762841599987281 0.45183529278760132 0 0.21609711375012891 0.45062143359278628 0 0.20678317314388331 0.43052356089812122 0 0.2214391354818053 0.44571248350464387 0 0.2198415447690189 0.43311491367025751 0 0.2297199211166768 0.439648922372122 0 0.2214391354818053 0.44571248350464387 0 0.2297199211166768 0.439648922372122 0 0.23433902970138251 0.44807197383219383 0 0.2214391354818053 0.44571248350464387 0 0.23433902970138251 0.44807197383219383 0 0.2214391354818053 0.44571248350464387 0 0.23609509781972729 0.46090140611116659 0 0.21609711375012891 0.45062143359278628 0 0.2214391354818053 0.44571248350464387 0 0.22517363336662341 0.45481479365548177 0 0.21609711375012891 0.45062143359278628 0 0.22517363336662341 0.45481479365548177 0 0.22706318641483239 0.4620238514133308 0 0.21380171792059521 0.4649950202350237 0 0.22706318641483239 0.4620238514133308 0 0.22288184970565411 0.47447204180659719 0 0.22706318641483239 0.4620238514133308 0 0.2324379752712023 0.46949301553015188 0 0.22288184970565411 0.47447204180659719 0 0.22706318641483239 0.4620238514133308 0 0.23609509781972729 0.46090140611116659 0 0.2324379752712023 0.46949301553015188 0 0.2214391354818053 0.44571248350464387 0 0.23609509781972729 0.46090140611116659 0 0.2214391354818053 0.44571248350464387 0 0.22517363336662341 0.45481479365548177 0 0.23609509781972729 0.46090140611116659 0 0.22517363336662341 0.45481479365548177 0 0.22706318641483239 0.4620238514133308 0 0.23609509781972729 0.46090140611116659 0 0.23433902970138251 0.44807197383219383 0 0.23609509781972729 0.46090140611116659 0 0.24321266363657421 0.45260529178336889 0 0.23609509781972729 0.46090140611116659 0 0.24037322237777189 0.47003568646618732 0 0.2324379752712023 0.46949301553015188 0 0.23609509781972729 0.46090140611116659 0 0.2473945425162335 0.46347012622428641 0 0.24037322237777189 0.47003568646618732 0 0.2473945425162335 0.46347012622428641 0 0.24321266363657421 0.45260529178336889 0 0.25540991105305882 0.45273216118076443 0 0.23609509781972729 0.46090140611116659 0 0.2473945425162335 0.46347012622428641 0 0.24321266363657421 0.45260529178336889 0 0.2483250131831701 0.44639136398216878 0 0.24321266363657421 0.45260529178336889 0 0.24131083729858241 0.44120336760534179 0 0.2483250131831701 0.44639136398216878 0 0.24321266363657421 0.45260529178336889 0 0.25540991105305882 0.45273216118076443 0 0.2483250131831701 0.44639136398216878 0 0.24131083729858241 0.44120336760534179 0 0.25336664074446502 0.43902463535920011 0 0.23566632879412749 0.43425220595876179 0 0.2297199211166768 0.439648922372122 0 0.24131083729858241 0.44120336760534179 0 0.2297199211166768 0.439648922372122 0 0.23433902970138251 0.44807197383219383 0 0.24131083729858241 0.44120336760534179 0 0.23433902970138251 0.44807197383219383 0 0.24321266363657421 0.45260529178336889 0 0.24131083729858241 0.44120336760534179 0 0.23577652003802571 0.48003209185347773 0 0.25123198639226618 0.47722161250405348 0 0.25524301069177158 0.49999999999999939 0 0.23577652003802571 0.48003209185347773 0 0.2257920200503738 0.5 0 0.25524301069177158 0.49999999999999939 0 0.2473945425162335 0.46347012622428641 0 0.24037322237777189 0.47003568646618732 0 0.25123198639226618 0.47722161250405348 0 0.24037322237777189 0.47003568646618732 0 0.23577652003802571 0.48003209185347773 0 0.25123198639226618 0.47722161250405348 0 0.24037322237777189 0.47003568646618732 0 0.23577652003802571 0.48003209185347773 0 0.2324379752712023 0.46949301553015188 0 0.23577652003802571 0.48003209185347773 0 0.2324379752712023 0.46949301553015188 0 0.22288184970565411 0.47447204180659719 0 0.23577652003802571 0.48003209185347773 0 0.22288184970565411 0.47447204180659719 0 0.2257920200503738 0.5 0 0.2257920200503738 0.5 0 0.2067998509198046 0.47704607043699188 0 0.19634102940897599 0.5 0 0.21380171792059521 0.4649950202350237 0 0.22288184970565411 0.47447204180659719 0 0.2067998509198046 0.47704607043699188 0 0.22288184970565411 0.47447204180659719 0 0.2257920200503738 0.5 0 0.2067998509198046 0.47704607043699188 0 0.2067998509198046 0.47704607043699188 0 0.19196389563252261 0.4757838166823698 0 0.19634102940897599 0.5 0 0.19721112723468701 0.46411192770517268 0 0.2067998509198046 0.47704607043699188 0 0.19196389563252261 0.4757838166823698 0 0.19196389563252261 0.4757838166823698 0 0.19634102940897599 0.5 0 0.17491476851873439 0.47868232495043511 0 0.19634102940897599 0.5 0 0.16689003876757821 0.5 0 0.17491476851873439 0.47868232495043511 0 0.16689003876757821 0.5 0 0.17491476851873439 0.47868232495043511 0 0.15074595363581569 0.48015434019748282 0 0.17491476851873439 0.47868232495043511 0 0.15966059129200311 0.45871075189524529 0 0.15074595363581569 0.48015434019748282 0 0.19196389563252261 0.4757838166823698 0 0.17491476851873439 0.47868232495043511 0 0.1836445036459379 0.45527302234142297 0 0.1836445036459379 0.45527302234142297 0 0.1729422779370352 0.44849902526876878 0 0.15966059129200311 0.45871075189524529 0 0.17491476851873439 0.47868232495043511 0 0.1836445036459379 0.45527302234142297 0 0.15966059129200311 0.45871075189524529 0 0.1729422779370352 0.44849902526876878 0 0.18250812207337291 0.43866613349726807 0 0.16595589473682679 0.44134619334113889 0 0.1836445036459379 0.45527302234142297 0 0.1729422779370352 0.44849902526876878 0 0.18250812207337291 0.43866613349726807 0 0.1729422779370352 0.44849902526876878 0 0.16595589473682679 0.44134619334113889 0 0.15966059129200311 0.45871075189524529 0 0.16595589473682679 0.44134619334113889 0 0.1568626107174089 0.44104257608757852 0 0.15966059129200311 0.45871075189524529 0 0.1836445036459379 0.45527302234142297 0 0.15966059129200311 0.45871075189524529 0 0.15966059129200311 0.45871075189524529 0 0.13567667893806831 0.46214848144906773 0 0.15074595363581569 0.48015434019748282 0 0.15966059129200311 0.45871075189524529 0 0.13567667893806831 0.46214848144906773 0 0.15966059129200311 0.45871075189524529 0 0.1444461286939322 0.43861638490699523 0 0.13567667893806831 0.46214848144906773 0 0.1568626107174089 0.44104257608757852 0 0.15966059129200311 0.45871075189524529 0 0.1444461286939322 0.43861638490699523 0 0.1175391651047667 0.44141589212313309 0 0.1444461286939322 0.43861638490699523 0 0.13567667893806831 0.46214848144906773 0 0.10959910650366279 0.47464618373203038 0 0.13567667893806831 0.46214848144906773 0 0.12989459617232979 0.48138448289014879 0 0.13567667893806831 0.46214848144906773 0 0.12989459617232979 0.48138448289014879 0 0.15074595363581569 0.48015434019748282 0 0.12989459617232979 0.48138448289014879 0 0.13743904812618049 0.5 0 0.15074595363581569 0.48015434019748282 0 0.1079880574847826 0.5 0 0.12989459617232979 0.48138448289014879 0 0.13743904812618049 0.5 0 0.16689003876757821 0.5 0 0.13743904812618049 0.5 0 0.15074595363581569 0.48015434019748282 0 0.3472379200626145 0.47909098409398149 0 0.36575393433800579 0.5 0 0.33738805434478908 0.50000000000000089 0 0.36575393433800579 0.5 0 0.37170427505074571 0.47353016111901991 0 0.37986649276336998 0.48911602098724283 0 0.3472379200626145 0.47909098409398149 0 0.37170427505074571 0.47353016111901991 0 0.3472379200626145 0.47909098409398149 0 0.36575393433800579 0.5 0 0.37170427505074571 0.47353016111901991 0 0.37170427505074571 0.47353016111901991 0 0.35971057408100771 0.45261438748525129 0 0.37982681549656838 0.45135261394386411 0 0.3472379200626145 0.47909098409398149 0 0.37170427505074571 0.47353016111901991 0 0.35971057408100771 0.45261438748525129 0 0.35971057408100771 0.45261438748525129 0 0.35455650496545721 0.43433367562759162 0 0.37218322809940352 0.42613779087652248 0 0.35971057408100771 0.45261438748525129 0 0.37218322809940352 0.42613779087652248 0 0.35971057408100771 0.45261438748525129 0 0.37218322809940352 0.42613779087652248 0 0.37982681549656838 0.45135261394386411 0 0.34325501185077828 0.45480202909001638 0 0.33464434432110118 0.43862459181232322 0 0.35455650496545721 0.43433367562759162 0 0.35971057408100771 0.45261438748525129 0 0.34325501185077828 0.45480202909001638 0 0.35455650496545721 0.43433367562759162 0 0.3472379200626145 0.47909098409398149 0 0.35971057408100771 0.45261438748525129 0 0.34325501185077828 0.45480202909001638 0 0.3472379200626145 0.47909098409398149 0 0.35971057408100771 0.45261438748525129 0 0.3472379200626145 0.47909098409398149 0 0.32889086360137632 0.46285211118280589 0 0.34325501185077828 0.45480202909001638 0 0.32889086360137632 0.46285211118280589 0 0.34325501185077828 0.45480202909001638 0 0.33464434432110118 0.43862459181232322 0 0.32889086360137632 0.46285211118280589 0 0.33464434432110118 0.43862459181232322 0 0.31116646284535332 0.44961787600383829 0 0.33464434432110118 0.43862459181232322 0 0.31116646284535332 0.44961787600383829 0 0.31628579199202839 0.43007345436476002 0 0.32889086360137632 0.46285211118280589 0 0.31280224980850591 0.47065894802618741 0 0.31116646284535332 0.44961787600383829 0 0.32889086360137632 0.46285211118280589 0 0.31280224980850591 0.47065894802618741 0 0.32423919271990409 0.48431823807048718 0 0.31280224980850591 0.47065894802618741 0 0.32423919271990409 0.48431823807048718 0 0.30124046537719329 0.48954549204699099 0 0.3472379200626145 0.47909098409398149 0 0.32423919271990409 0.48431823807048718 0 0.3472379200626145 0.47909098409398149 0 0.32889086360137632 0.46285211118280589 0 0.32423919271990409 0.48431823807048718 0 0.3472379200626145 0.47909098409398149 0 0.33738805434478908 0.50000000000000089 0 0.3472379200626145 0.47909098409398149 0 0.32423919271990409 0.48431823807048718 0 0.33738805434478908 0.50000000000000089 0 0.32423919271990409 0.48431823807048718 0 0.30124046537719329 0.48954549204699099 0 0.32423919271990409 0.48431823807048718 0 0.33738805434478908 0.50000000000000089 0 0.31000637312711649 0.5 0 0.32423919271990409 0.48431823807048718 0 0.30124046537719329 0.48954549204699099 0 0.31000637312711649 0.5 0 0.30124046537719329 0.48954549204699099 0 0.31000637312711649 0.5 0 0.28262469190944411 0.5 0 0.31280224980850591 0.47065894802618741 0 0.30124046537719329 0.48954549204699099 0 0.2956855204979465 0.4657195710025222 0 0.30124046537719329 0.48954549204699099 0 0.28437705039613997 0.47846667850851521 0 0.2956855204979465 0.4657195710025222 0 0.30124046537719329 0.48954549204699099 0 0.27824173803448238 0.49477274602349502 0 0.30124046537719329 0.48954549204699099 0 0.28262469190944411 0.5 0 0.27824173803448238 0.49477274602349502 0 0.30124046537719329 0.48954549204699099 0 0.28437705039613997 0.47846667850851521 0 0.27824173803448238 0.49477274602349502 0 0.28262469190944411 0.5 0 0.27824173803448238 0.49477274602349502 0 0.25524301069177158 0.49999999999999939 0 0.27824173803448238 0.49477274602349502 0 0.26904628160808869 0.47862327535941451 0 0.25524301069177158 0.49999999999999939 0 0.27824173803448238 0.49477274602349502 0 0.25524301069177158 0.49999999999999939 0 0.28437705039613997 0.47846667850851521 0 0.27824173803448238 0.49477274602349502 0 0.26904628160808869 0.47862327535941451 0 0.28437705039613997 0.47846667850851521 0 0.26904628160808869 0.47862327535941451 0 0.27256586895228618 0.46015404394858878 0 0.26904628160808869 0.47862327535941451 0 0.25123198639226618 0.47722161250405348 0 0.25912971810438667 0.46644024384342148 0 0.2473945425162335 0.46347012622428641 0 0.25123198639226618 0.47722161250405348 0 0.25912971810438667 0.46644024384342148 0 0.26904628160808869 0.47862327535941451 0 0.25123198639226618 0.47722161250405348 0 0.25524301069177158 0.49999999999999939 0 0.26528934902497692 0.44184213392777649 0 0.25540991105305882 0.45273216118076443 0 0.27256586895228618 0.46015404394858878 0 0.26528934902497692 0.44184213392777649 0 0.25336664074446502 0.43902463535920011 0 0.25540991105305882 0.45273216118076443 0 0.2483250131831701 0.44639136398216878 0 0.25336664074446502 0.43902463535920011 0 0.25540991105305882 0.45273216118076443 0 0.2473945425162335 0.46347012622428641 0 0.25540991105305882 0.45273216118076443 0 0.25912971810438667 0.46644024384342148 0 0.25540991105305882 0.45273216118076443 0 0.25912971810438667 0.46644024384342148 0 0.27256586895228618 0.46015404394858878 0 0.26904628160808869 0.47862327535941451 0 0.25912971810438667 0.46644024384342148 0 0.27256586895228618 0.46015404394858878 0 0.26528934902497692 0.44184213392777649 0 0.27256586895228618 0.46015404394858878 0 0.28719142464674718 0.44976612317821102 0 0.26528934902497692 0.44184213392777649 0 0.28719142464674718 0.44976612317821102 0 0.28118927558541118 0.43458679356674629 0 0.28719142464674718 0.44976612317821102 0 0.29911225377621392 0.42931950244677208 0 0.28118927558541118 0.43458679356674629 0 0.27256586895228618 0.46015404394858878 0 0.28719142464674718 0.44976612317821102 0 0.2956855204979465 0.4657195710025222 0 0.28437705039613997 0.47846667850851521 0 0.27256586895228618 0.46015404394858878 0 0.2956855204979465 0.4657195710025222 0 0.28719142464674718 0.44976612317821102 0 0.2956855204979465 0.4657195710025222 0 0.31116646284535332 0.44961787600383829 0 0.31280224980850591 0.47065894802618741 0 0.2956855204979465 0.4657195710025222 0 0.31116646284535332 0.44961787600383829 0 0.28719142464674718 0.44976612317821102 0 0.31116646284535332 0.44961787600383829 0 0.29911225377621392 0.42931950244677208 0 0.31116646284535332 0.44961787600383829 0 0.29911225377621392 0.42931950244677208 0 0.31628579199202839 0.43007345436476002 0 0.29911225377621392 0.42931950244677208 0 0.31017284996449868 0.41628105123336068 0 0.31628579199202839 0.43007345436476002 0 0.29911225377621392 0.42931950244677208 0 0.31017284996449868 0.41628105123336068 0 0.29232973327710449 0.40701537356674389 0 0.31017284996449868 0.41628105123336068 0 0.29232973327710449 0.40701537356674389 0 0.3116310816856574 0.40067228695350982 0 0.29232973327710449 0.40701537356674389 0 0.28459685770758097 0.42173572787744829 0 0.26956239569411239 0.40474444831874451 0 0.29911225377621392 0.42931950244677208 0 0.29232973327710449 0.40701537356674389 0 0.28459685770758097 0.42173572787744829 0 0.29911225377621392 0.42931950244677208 0 0.28459685770758097 0.42173572787744829 0 0.28118927558541118 0.43458679356674629 0 0.26528934902497692 0.44184213392777649 0 0.28118927558541118 0.43458679356674629 0 0.26933775019415812 0.42319359978479881 0 0.28459685770758097 0.42173572787744829 0 0.28118927558541118 0.43458679356674629 0 0.26933775019415812 0.42319359978479881 0 0.28459685770758097 0.42173572787744829 0 0.26933775019415812 0.42319359978479881 0 0.26956239569411239 0.40474444831874451 0 0.25465335017694779 0.4141452213601361 0 0.2523373844092352 0.40010599182405571 0 0.26956239569411239 0.40474444831874451 0 0.26933775019415812 0.42319359978479881 0 0.25465335017694779 0.4141452213601361 0 0.25643630070510343 0.42755114613180911 0 0.26933775019415812 0.42319359978479881 0 0.25465335017694779 0.4141452213601361 0 0.26956239569411239 0.40474444831874451 0 0.26528934902497692 0.44184213392777649 0 0.26933775019415812 0.42319359978479881 0 0.25643630070510343 0.42755114613180911 0 0.24201254274905609 0.42725764853548859 0 0.25465335017694779 0.4141452213601361 0 0.25643630070510343 0.42755114613180911 0 0.24201254274905609 0.42725764853548859 0 0.25336664074446502 0.43902463535920011 0 0.25643630070510343 0.42755114613180911 0 0.26528934902497692 0.44184213392777649 0 0.25336664074446502 0.43902463535920011 0 0.25643630070510343 0.42755114613180911 0 0.25743629571091808 0.38396917439821993 0 0.2523373844092352 0.40010599182405571 0 0.26956239569411239 0.40474444831874451 0 0.25743629571091808 0.38396917439821993 0 0.26956239569411239 0.40474444831874451 0 0.27790632558201922 0.38719414372548339 0 0.29232973327710449 0.40701537356674389 0 0.26956239569411239 0.40474444831874451 0 0.27790632558201922 0.38719414372548339 0 0.25743629571091808 0.38396917439821993 0 0.27790632558201922 0.38719414372548339 0 0.26762442920530821 0.36849995928162999 0 0.27790632558201922 0.38719414372548339 0 0.29657357609492258 0.38701908264882529 0 0.28679705980142611 0.36853639278718442 0 0.29657357609492258 0.38701908264882529 0 0.30335856868390682 0.37138461207352369 0 0.28679705980142611 0.36853639278718442 0 0.29232973327710449 0.40701537356674389 0 0.27790632558201922 0.38719414372548339 0 0.29657357609492258 0.38701908264882529 0 0.29232973327710449 0.40701537356674389 0 0.29657357609492258 0.38701908264882529 0 0.3116310816856574 0.40067228695350982 0 0.29657357609492258 0.38701908264882529 0 0.3180833910114762 0.38013871306539232 0 0.30335856868390682 0.37138461207352369 0 0.29657357609492258 0.38701908264882529 0 0.3116310816856574 0.40067228695350982 0 0.3180833910114762 0.38013871306539232 0 0.34000780565312572 0.37626287509103018 0 0.33243201580351323 0.39602320094676868 0 0.35308490487563038 0.39097995822468562 0 0.3180833910114762 0.38013871306539232 0 0.34000780565312572 0.37626287509103018 0 0.33243201580351323 0.39602320094676868 0 0.3116310816856574 0.40067228695350982 0 0.33243201580351323 0.39602320094676868 0 0.32633304905297522 0.4165242503275054 0 0.3116310816856574 0.40067228695350982 0 0.3180833910114762 0.38013871306539232 0 0.33243201580351323 0.39602320094676868 0 0.31017284996449868 0.41628105123336068 0 0.32633304905297522 0.4165242503275054 0 0.31628579199202839 0.43007345436476002 0 0.31017284996449868 0.41628105123336068 0 0.3116310816856574 0.40067228695350982 0 0.32633304905297522 0.4165242503275054 0 0.33464434432110118 0.43862459181232322 0 0.32633304905297522 0.4165242503275054 0 0.31628579199202839 0.43007345436476002 0 0.33464434432110118 0.43862459181232322 0 0.32633304905297522 0.4165242503275054 0 0.34887354821906269 0.41538029494738438 0 0.33243201580351323 0.39602320094676868 0 0.32633304905297522 0.4165242503275054 0 0.34887354821906269 0.41538029494738438 0 0.34887354821906269 0.41538029494738438 0 0.35455650496545721 0.43433367562759162 0 0.37218322809940352 0.42613779087652248 0 0.33464434432110118 0.43862459181232322 0 0.34887354821906269 0.41538029494738438 0 0.35455650496545721 0.43433367562759162 0 0.34887354821906269 0.41538029494738438 0 0.37218322809940352 0.42613779087652248 0 0.36888079041535848 0.40503859681629378 0 0.36888079041535848 0.40503859681629378 0 0.3712162157927128 0.38199114138113271 0 0.35308490487563038 0.39097995822468562 0 0.36888079041535848 0.40503859681629378 0 0.3712162157927128 0.38199114138113271 0 0.38424556533199139 0.39312379409648318 0 0.3712162157927128 0.38199114138113271 0 0.35308490487563038 0.39097995822468562 0 0.35842778343633119 0.37245633183599058 0 0.34000780565312572 0.37626287509103018 0 0.35308490487563038 0.39097995822468562 0 0.35842778343633119 0.37245633183599058 0 0.34887354821906269 0.41538029494738438 0 0.36888079041535848 0.40503859681629378 0 0.35308490487563038 0.39097995822468562 0 0.33243201580351323 0.39602320094676868 0 0.34887354821906269 0.41538029494738438 0 0.35308490487563038 0.39097995822468562 0 0.34842818192604352 0.35628281052485722 0 0.34028312478289852 0.3316718639235926 0 0.34842818192604352 0.35628281052485722 0 0.36901675618310159 0.35227363829032299 0 0.35621538760826338 0.34101595269899748 0 0.34842818192604352 0.35628281052485722 0 0.35842778343633119 0.37245633183599058 0 0.36901675618310159 0.35227363829032299 0 0.34000780565312572 0.37626287509103018 0 0.34842818192604352 0.35628281052485722 0 0.35842778343633119 0.37245633183599058 0 0.3712162157927128 0.38199114138113271 0 0.35842778343633119 0.37245633183599058 0 0.3786504201682715 0.36696746181382112 0 0.35842778343633119 0.37245633183599058 0 0.36901675618310159 0.35227363829032299 0 0.3786504201682715 0.36696746181382112 0 0.36660634418592108 0.3365771676765954 0 0.37119871693045681 0.3228526235735667 0 0.38375498114720302 0.33991877587412639 0 0.36901675618310159 0.35227363829032299 0 0.36660634418592108 0.3365771676765954 0 0.38375498114720302 0.33991877587412639 0 0.36901675618310159 0.35227363829032299 0 0.36660634418592108 0.3365771676765954 0 0.35621538760826338 0.34101595269899748 0 0.36660634418592108 0.3365771676765954 0 0.37119871693045681 0.3228526235735667 0 0.35674253096335218 0.32827428307961981 0 0.36660634418592108 0.3365771676765954 0 0.35621538760826338 0.34101595269899748 0 0.35674253096335218 0.32827428307961981 0 0.37119871693045681 0.3228526235735667 0 0.35389026093653791 0.30873437495101957 0 0.37530360048715272 0.30742562413563518 0 0.37119871693045681 0.3228526235735667 0 0.35674253096335218 0.32827428307961981 0 0.35389026093653791 0.30873437495101957 0 0.35674253096335218 0.32827428307961981 0 0.34028312478289852 0.3316718639235926 0 0.35389026093653791 0.30873437495101957 0 0.35621538760826338 0.34101595269899748 0 0.35674253096335218 0.32827428307961981 0 0.34028312478289852 0.3316718639235926 0 0.34842818192604352 0.35628281052485722 0 0.35621538760826338 0.34101595269899748 0 0.34028312478289852 0.3316718639235926 0 0.34028312478289852 0.3316718639235926 0 0.32300453272423829 0.32502979073118071 0 0.33186412773384688 0.34458539617801148 0 0.34028312478289852 0.3316718639235926 0 0.33213806763975318 0.3070609173223281 0 0.34028312478289852 0.3316718639235926 0 0.33213806763975318 0.3070609173223281 0 0.35389026093653791 0.30873437495101957 0 0.34028312478289852 0.3316718639235926 0 0.32300453272423829 0.32502979073118071 0 0.33213806763975318 0.3070609173223281 0 0.33186412773384688 0.34458539617801148 0 0.30659634969756988 0.33692375282801351 0 0.32300453272423829 0.32502979073118071 0 0.33186412773384688 0.34458539617801148 0 0.30659634969756988 0.33692375282801351 0 0.31374111064370391 0.3588574883819447 0 0.33186412773384688 0.34458539617801148 0 0.30659634969756988 0.33692375282801351 0 0.31374111064370391 0.3588574883819447 0 0.33186412773384688 0.34458539617801148 0 0.33028166628585931 0.36214964623466139 0 0.34842818192604352 0.35628281052485722 0 0.33186412773384688 0.34458539617801148 0 0.33028166628585931 0.36214964623466139 0 0.34842818192604352 0.35628281052485722 0 0.34028312478289852 0.3316718639235926 0 0.33186412773384688 0.34458539617801148 0 0.34000780565312572 0.37626287509103018 0 0.34842818192604352 0.35628281052485722 0 0.33028166628585931 0.36214964623466139 0 0.3180833910114762 0.38013871306539232 0 0.34000780565312572 0.37626287509103018 0 0.33028166628585931 0.36214964623466139 0 0.3180833910114762 0.38013871306539232 0 0.31374111064370391 0.3588574883819447 0 0.33028166628585931 0.36214964623466139 0 0.31374111064370391 0.3588574883819447 0 0.30335856868390682 0.37138461207352369 0 0.29470215628072632 0.35270999133858172 0 0.3180833910114762 0.38013871306539232 0 0.31374111064370391 0.3588574883819447 0 0.30335856868390682 0.37138461207352369 0 0.31374111064370391 0.3588574883819447 0 0.29470215628072632 0.35270999133858172 0 0.30659634969756988 0.33692375282801351 0 0.29470215628072632 0.35270999133858172 0 0.27639127719645878 0.35129559248280851 0 0.28132857166129299 0.32926210947801537 0 0.29470215628072632 0.35270999133858172 0 0.28679705980142611 0.36853639278718442 0 0.27639127719645878 0.35129559248280851 0 0.30335856868390682 0.37138461207352369 0 0.29470215628072632 0.35270999133858172 0 0.28679705980142611 0.36853639278718442 0 0.27790632558201922 0.38719414372548339 0 0.28679705980142611 0.36853639278718442 0 0.26762442920530821 0.36849995928162999 0 0.28679705980142611 0.36853639278718442 0 0.26762442920530821 0.36849995928162999 0 0.27639127719645878 0.35129559248280851 0 0.27639127719645878 0.35129559248280851 0 0.25873649080524119 0.35274097737885318 0 0.2640658056808568 0.33786608502569182 0 0.26762442920530821 0.36849995928162999 0 0.27639127719645878 0.35129559248280851 0 0.25873649080524119 0.35274097737885318 0 0.2423823474144742 0.34098530055066961 0 0.25873649080524119 0.35274097737885318 0 0.2640658056808568 0.33786608502569182 0 0.24623799603150401 0.36656479957190968 0 0.26762442920530821 0.36849995928162999 0 0.25873649080524119 0.35274097737885318 0 0.24623799603150401 0.36656479957190968 0 0.25743629571091808 0.38396917439821993 0 0.26762442920530821 0.36849995928162999 0 0.2423823474144742 0.34098530055066961 0 0.2560607936250161 0.32160046612801729 0 0.2640658056808568 0.33786608502569182 0 0.2560607936250161 0.32160046612801729 0 0.2640658056808568 0.33786608502569182 0 0.28132857166129299 0.32926210947801537 0 0.27639127719645878 0.35129559248280851 0 0.2640658056808568 0.33786608502569182 0 0.28132857166129299 0.32926210947801537 0 0.2560607936250161 0.32160046612801729 0 0.28132857166129299 0.32926210947801537 0 0.27614391989449238 0.30275312948558669 0 0.2560607936250161 0.32160046612801729 0 0.28132857166129299 0.32926210947801537 0 0.32300453272423829 0.32502979073118071 0 0.30659634969756988 0.33692375282801351 0 0.30414099376712272 0.30490702340395781 0 0.28132857166129299 0.32926210947801537 0 0.30659634969756988 0.33692375282801351 0 0.30414099376712272 0.30490702340395781 0 0.29470215628072632 0.35270999133858172 0 0.28132857166129299 0.32926210947801537 0 0.30659634969756988 0.33692375282801351 0 0.28132857166129299 0.32926210947801537 0 0.30659634969756988 0.33692375282801351 0 0.30414099376712272 0.30490702340395781 0 0.29351572510489943 0.27733593801776552 0 0.32342128161815731 0.28072244583686978 0 0.30414099376712272 0.30490702340395781 0 0.27614391989449238 0.30275312948558669 0 0.29351572510489943 0.27733593801776552 0 0.30414099376712272 0.30490702340395781 0 0.27614391989449238 0.30275312948558669 0 0.28132857166129299 0.32926210947801537 0 0.30414099376712272 0.30490702340395781 0 0.27614391989449238 0.30275312948558669 0 0.27614391989449238 0.30275312948558669 0 0.25602446519606742 0.2859048948949382 0 0.2698204007840394 0.27761924422881779 0 0.27614391989449238 0.30275312948558669 0 0.2698204007840394 0.27761924422881779 0 0.29351572510489943 0.27733593801776552 0 0.24814684602186221 0.30059923556721579 0 0.27614391989449238 0.30275312948558669 0 0.25602446519606742 0.2859048948949382 0 0.24814684602186221 0.30059923556721579 0 0.2560607936250161 0.32160046612801729 0 0.27614391989449238 0.30275312948558669 0 0.24814684602186221 0.30059923556721579 0 0.27614391989449238 0.30275312948558669 0 0.24361873875543821 0.24293243165950959 0 0.25128267307254498 0.2641379763117172 0 0.26796497087459092 0.24498030807344609 0 0.25602446519606742 0.2859048948949382 0 0.25128267307254498 0.2641379763117172 0 0.2698204007840394 0.27761924422881779 0 0.2698204007840394 0.27761924422881779 0 0.27782605550920808 0.26174632733324199 0 0.29351572510489943 0.27733593801776552 0 0.25128267307254498 0.2641379763117172 0 0.2698204007840394 0.27761924422881779 0 0.27782605550920808 0.26174632733324199 0 0.25128267307254498 0.2641379763117172 0 0.27782605550920808 0.26174632733324199 0 0.26796497087459092 0.24498030807344609 0 0.27782605550920808 0.26174632733324199 0 0.26796497087459092 0.24498030807344609 0 0.29231120299374358 0.24702818448738331 0 0.27782605550920808 0.26174632733324199 0 0.29351572510489943 0.27733593801776552 0 0.29231120299374358 0.24702818448738331 0 0.29351572510489943 0.27733593801776552 0 0.3104186469421506 0.26557764296078379 0 0.32342128161815731 0.28072244583686978 0 0.3104186469421506 0.26557764296078379 0 0.29231120299374358 0.24702818448738331 0 0.31665743511289618 0.24907606090132059 0 0.29351572510489943 0.27733593801776552 0 0.3104186469421506 0.26557764296078379 0 0.29231120299374358 0.24702818448738331 0 0.3104186469421506 0.26557764296078379 0 0.33032390059782257 0.26357221953855969 0 0.31665743511289618 0.24907606090132059 0 0.33032390059782257 0.26357221953855969 0 0.34100366723204889 0.25112393731525778 0 0.31665743511289618 0.24907606090132059 0 0.33032390059782257 0.26357221953855969 0 0.34100366723204889 0.25112393731525778 0 0.34834114683063672 0.25999595384554453 0 0.34100366723204889 0.25112393731525778 0 0.31665743511289618 0.24907606090132059 0 0.33032390059782257 0.26357221953855969 0 0.34268634002561232 0.2744993206810965 0 0.32342128161815731 0.28072244583686978 0 0.33032390059782257 0.26357221953855969 0 0.34268634002561232 0.2744993206810965 0 0.34834114683063672 0.25999595384554453 0 0.3104186469421506 0.26557764296078379 0 0.33032390059782257 0.26357221953855969 0 0.32342128161815731 0.28072244583686978 0 0.32342128161815731 0.28072244583686978 0 0.33213806763975318 0.3070609173223281 0 0.30414099376712272 0.30490702340395781 0 0.32342128161815731 0.28072244583686978 0 0.33213806763975318 0.3070609173223281 0 0.30414099376712272 0.30490702340395781 0 0.33213806763975318 0.3070609173223281 0 0.32300453272423829 0.32502979073118071 0 0.30414099376712272 0.30490702340395781 0 0.33213806763975318 0.3070609173223281 0 0.33213806763975318 0.3070609173223281 0 0.35389026093653791 0.30873437495101957 0 0.34268634002561232 0.2744993206810965 0 0.32342128161815731 0.28072244583686978 0 0.34558923486433712 0.29183737136382287 0 0.32342128161815731 0.28072244583686978 0 0.33213806763975318 0.3070609173223281 0 0.34558923486433712 0.29183737136382287 0 0.34268634002561232 0.2744993206810965 0 0.34558923486433712 0.29183737136382287 0 0.35987117456611922 0.28140603445168288 0 0.34558923486433712 0.29183737136382287 0 0.35987117456611922 0.28140603445168288 0 0.36582679549961228 0.29596909804113319 0 0.34558923486433712 0.29183737136382287 0 0.35389026093653791 0.30873437495101957 0 0.36582679549961228 0.29596909804113319 0 0.33213806763975318 0.3070609173223281 0 0.34558923486433712 0.29183737136382287 0 0.35389026093653791 0.30873437495101957 0 0.35389026093653791 0.30873437495101957 0 0.36582679549961228 0.29596909804113319 0 0.37530360048715272 0.30742562413563518 0 0.36582679549961228 0.29596909804113319 0 0.380796327257233 0.29629997470109309 0 0.37530360048715272 0.30742562413563518 0 0.35987117456611922 0.28140603445168288 0 0.36582679549961228 0.29596909804113319 0 0.37489870960497312 0.28772225478127489 0 0.36582679549961228 0.29596909804113319 0 0.37489870960497312 0.28772225478127489 0 0.380796327257233 0.29629997470109309 0 0.35987117456611922 0.28140603445168288 0 0.37489870960497312 0.28772225478127489 0 0.37354536770942459 0.27601942570158761 0 0.35987117456611922 0.28140603445168288 0 0.37354536770942459 0.27601942570158761 0 0.36331990270860692 0.26830100238074378 0 0.37354536770942459 0.27601942570158761 0 0.36331990270860692 0.26830100238074378 0 0.37005231505945879 0.26283990725541501 0 0.37354536770942459 0.27601942570158761 0 0.37005231505945879 0.26283990725541501 0 0.38038834998149429 0.26494790858661832 0 0.37005231505945879 0.26283990725541501 0 0.37099565353147862 0.25364670474182438 0 0.37005231505945879 0.26283990725541501 0 0.37099565353147862 0.25364670474182438 0 0.37631771382682261 0.25883781568719838 0 0.37005231505945879 0.26283990725541501 0 0.37099565353147862 0.25364670474182438 0 0.36524915388954748 0.25949584932333208 0 0.37099565353147862 0.25364670474182438 0 0.36534989935120171 0.25317181372919573 0 0.3718578707964344 0.24524406013167921 0 0.37099565353147862 0.25364670474182438 0 0.36534989935120171 0.25317181372919573 0 0.37099565353147862 0.25364670474182438 0 0.36534989935120171 0.25317181372919573 0 0.36524915388954748 0.25949584932333208 0 0.36534989935120171 0.25317181372919573 0 0.35899487155138898 0.26091325742271471 0 0.36331990270860692 0.26830100238074378 0 0.36524915388954748 0.25949584932333208 0 0.35899487155138898 0.26091325742271471 0 0.36331990270860692 0.26830100238074378 0 0.37005231505945879 0.26283990725541501 0 0.36524915388954748 0.25949584932333208 0 0.36534989935120171 0.25317181372919573 0 0.36524915388954748 0.25949584932333208 0 0.35899487155138898 0.26091325742271471 0 0.34100366723204889 0.25112393731525778 0 0.36534989935120171 0.25317181372919573 0 0.36534989935120171 0.25317181372919573 0 0.35899487155138898 0.26091325742271471 0 0.34834114683063672 0.25999595384554453 0 0.35899487155138898 0.26091325742271471 0 0.34834114683063672 0.25999595384554453 0 0.35357672871003631 0.26908036437265598 0 0.34100366723204889 0.25112393731525778 0 0.36534989935120171 0.25317181372919573 0 0.34834114683063672 0.25999595384554453 0 0.34268634002561232 0.2744993206810965 0 0.35987117456611922 0.28140603445168288 0 0.35357672871003631 0.26908036437265598 0 0.34268634002561232 0.2744993206810965 0 0.34834114683063672 0.25999595384554453 0 0.35357672871003631 0.26908036437265598 0 0.35987117456611922 0.28140603445168288 0 0.36331990270860692 0.26830100238074378 0 0.35357672871003631 0.26908036437265598 0 0.36331990270860692 0.26830100238074378 0 0.35899487155138898 0.26091325742271471 0 0.35357672871003631 0.26908036437265598 0 0.39832660169407558 0.27165652181898231 0 0.39051546411093552 0.26284988911383977 0 0.38784982312554123 0.27400347884331622 0 0.39832660169407558 0.27165652181898231 0 0.38784982312554123 0.27400347884331622 0 0.39607549678035547 0.28342547840765608 0 0.39832660169407558 0.27165652181898231 0 0.40666040909090989 0.26967779240191742 0 0.40724197976292592 0.28000041613575671 0 0.39832660169407558 0.27165652181898231 0 0.39607549678035547 0.28342547840765608 0 0.40724197976292592 0.28000041613575671 0 0.39832660169407558 0.27165652181898231 0 0.40168601064170789 0.26098529300317419 0 0.40666040909090989 0.26967779240191742 0 0.40168601064170789 0.26098529300317419 0 0.40666040909090989 0.26967779240191742 0 0.41028791863097391 0.25976728079173561 0 0.40168601064170789 0.26098529300317419 0 0.40529903042243348 0.25025499417346209 0 0.39367090866082288 0.25181065467480102 0 0.40168601064170789 0.26098529300317419 0 0.40529903042243348 0.25025499417346209 0 0.41028791863097391 0.25976728079173561 0 0.39832660169407558 0.27165652181898231 0 0.40168601064170789 0.26098529300317419 0 0.39051546411093552 0.26284988911383977 0 0.40168601064170789 0.26098529300317419 0 0.39367090866082288 0.25181065467480102 0 0.39051546411093552 0.26284988911383977 0 0.39051546411093552 0.26284988911383977 0 0.3824321552584245 0.25460868284298788 0 0.38038834998149429 0.26494790858661832 0 0.39367090866082288 0.25181065467480102 0 0.39051546411093552 0.26284988911383977 0 0.3824321552584245 0.25460868284298788 0 0.37099565353147862 0.25364670474182438 0 0.3824321552584245 0.25460868284298788 0 0.37705914132571833 0.25002333554334621 0 0.37099565353147862 0.25364670474182438 0 0.3824321552584245 0.25460868284298788 0 0.37099565353147862 0.25364670474182438 0 0.3824321552584245 0.25460868284298788 0 0.37631771382682261 0.25883781568719838 0 0.37005231505945879 0.26283990725541501 0 0.38038834998149429 0.26494790858661832 0 0.37631771382682261 0.25883781568719838 0 0.3824321552584245 0.25460868284298788 0 0.38038834998149429 0.26494790858661832 0 0.37631771382682261 0.25883781568719838 0 0.37354536770942459 0.27601942570158761 0 0.38038834998149429 0.26494790858661832 0 0.38784982312554123 0.27400347884331622 0 0.39051546411093552 0.26284988911383977 0 0.38038834998149429 0.26494790858661832 0 0.38784982312554123 0.27400347884331622 0 0.38784982312554123 0.27400347884331622 0 0.38558910008826452 0.28540197762715741 0 0.39607549678035547 0.28342547840765608 0 0.37354536770942459 0.27601942570158761 0 0.38784982312554123 0.27400347884331622 0 0.38558910008826452 0.28540197762715741 0 0.37489870960497312 0.28772225478127489 0 0.37354536770942459 0.27601942570158761 0 0.38558910008826452 0.28540197762715741 0 0.37489870960497312 0.28772225478127489 0 0.380796327257233 0.29629997470109309 0 0.38558910008826452 0.28540197762715741 0 0.380796327257233 0.29629997470109309 0 0.38558910008826452 0.28540197762715741 0 0.39589288832258301 0.29578385448011041 0 0.380796327257233 0.29629997470109309 0 0.37530360048715272 0.30742562413563518 0 0.3872668695408128 0.30549703914124832 0 0.380796327257233 0.29629997470109309 0 0.3872668695408128 0.30549703914124832 0 0.39589288832258301 0.29578385448011041 0 0.37530360048715272 0.30742562413563518 0 0.3872668695408128 0.30549703914124832 0 0.3883172221881156 0.3202774532673836 0 0.3872668695408128 0.30549703914124832 0 0.39662849881305262 0.30934807842324108 0 0.3883172221881156 0.3202774532673836 0 0.3872668695408128 0.30549703914124832 0 0.39662849881305262 0.30934807842324108 0 0.39589288832258301 0.29578385448011041 0 0.39662849881305262 0.30934807842324108 0 0.40553686045999521 0.30474415522352011 0 0.39589288832258301 0.29578385448011041 0 0.40553686045999521 0.30474415522352011 0 0.39589288832258301 0.29578385448011041 0 0.40798200903989162 0.29537837519227839 0 0.39662849881305262 0.30934807842324108 0 0.40553686045999521 0.30474415522352011 0 0.40425658947226573 0.31873524346402482 0 0.38558910008826452 0.28540197762715741 0 0.39607549678035547 0.28342547840765608 0 0.39589288832258301 0.29578385448011041 0 0.39589288832258301 0.29578385448011041 0 0.40382234476162743 0.28765905444844869 0 0.40798200903989162 0.29537837519227839 0 0.39607549678035547 0.28342547840765608 0 0.40382234476162743 0.28765905444844869 0 0.40724197976292592 0.28000041613575671 0 0.39607549678035547 0.28342547840765608 0 0.39589288832258301 0.29578385448011041 0 0.40382234476162743 0.28765905444844869 0 0.40382234476162743 0.28765905444844869 0 0.41182750483674391 0.28750842090320122 0 0.40724197976292592 0.28000041613575671 0 0.41182750483674391 0.28750842090320122 0 0.41538933598196082 0.28136638685403381 0 0.40724197976292592 0.28000041613575671 0 0.40382234476162743 0.28765905444844869 0 0.41182750483674391 0.28750842090320122 0 0.40798200903989162 0.29537837519227839 0 0.41182750483674391 0.28750842090320122 0 0.40798200903989162 0.29537837519227839 0 0.4167408349277511 0.29469872220164722 0 0.4167408349277511 0.29469872220164722 0 0.42002306177695292 0.28820415349910461 0 0.42555072378604852 0.29349315303042112 0 0.41182750483674391 0.28750842090320122 0 0.4167408349277511 0.29469872220164722 0 0.42002306177695292 0.28820415349910461 0 0.4167408349277511 0.29469872220164722 0 0.42216438569039832 0.2996738410999813 0 0.42555072378604852 0.29349315303042112 0 0.41182750483674391 0.28750842090320122 0 0.42002306177695292 0.28820415349910461 0 0.41538933598196082 0.28136638685403381 0 0.42002306177695292 0.28820415349910461 0 0.41538933598196082 0.28136638685403381 0 0.42239279897508092 0.28102084372296982 0 0.40553686045999521 0.30474415522352011 0 0.41549709671121798 0.30241409409111591 0 0.41499603573788463 0.31104223121256519 0 0.40553686045999521 0.30474415522352011 0 0.41499603573788463 0.31104223121256519 0 0.40425658947226573 0.31873524346402482 0 0.40798200903989162 0.29537837519227839 0 0.4167408349277511 0.29469872220164722 0 0.41549709671121798 0.30241409409111591 0 0.40553686045999521 0.30474415522352011 0 0.40798200903989162 0.29537837519227839 0 0.41549709671121798 0.30241409409111591 0 0.4167408349277511 0.29469872220164722 0 0.41549709671121798 0.30241409409111591 0 0.42216438569039832 0.2996738410999813 0 0.41549709671121798 0.30241409409111591 0 0.42255027025959602 0.30546173739153343 0 0.42216438569039832 0.2996738410999813 0 0.41549709671121798 0.30241409409111591 0 0.41499603573788463 0.31104223121256519 0 0.42255027025959602 0.30546173739153343 0 0.41499603573788463 0.31104223121256519 0 0.42255027025959602 0.30546173739153343 0 0.42440189411456752 0.31370777376514553 0 0.43087691839679038 0.30588797199274992 0 0.43314933795565441 0.29438176207297673 0 0.43792031468624493 0.31241900576534709 0 0.43314933795565441 0.29438176207297673 0 0.43792031468624493 0.31241900576534709 0 0.43637537982535768 0.29882768472670868 0 0.43314933795565441 0.29438176207297673 0 0.43792031468624493 0.31241900576534709 0 0.43087691839679038 0.30588797199274992 0 0.43158908294436071 0.31755263372051762 0 0.42440189411456752 0.31370777376514553 0 0.42255027025959602 0.30546173739153343 0 0.43087691839679038 0.30588797199274992 0 0.42440189411456752 0.31370777376514553 0 0.42255027025959602 0.30546173739153343 0 0.42736529090671732 0.30004451218764239 0 0.43087691839679038 0.30588797199274992 0 0.42255027025959602 0.30546173739153343 0 0.42216438569039832 0.2996738410999813 0 0.42736529090671732 0.30004451218764239 0 0.42216438569039832 0.2996738410999813 0 0.42736529090671732 0.30004451218764239 0 0.42555072378604852 0.29349315303042112 0 0.42736529090671732 0.30004451218764239 0 0.43087691839679038 0.30588797199274992 0 0.43314933795565441 0.29438176207297673 0 0.43087691839679038 0.30588797199274992 0 0.43792031468624493 0.31241900576534709 0 0.43158908294436071 0.31755263372051762 0 0.43637537982535768 0.29882768472670868 0 0.42837836122506379 0.27634451838060609 0 0.43637537982535768 0.29882768472670868 0 0.43314933795565441 0.29438176207297673 0 0.42837836122506379 0.27634451838060609 0 0.43637537982535768 0.29882768472670868 0 0.43583593424654121 0.28696452540658901 0 0.42837836122506379 0.27634451838060609 0 0.42807275935069189 0.28754748298043181 0 0.43314933795565441 0.29438176207297673 0 0.42837836122506379 0.27634451838060609 0 0.43314933795565441 0.29438176207297673 0 0.42837836122506379 0.27634451838060609 0 0.42807275935069189 0.28754748298043181 0 0.42521261443600128 0.28597049843772349 0 0.42837836122506379 0.27634451838060609 0 0.42807275935069189 0.28754748298043181 0 0.42521261443600128 0.28597049843772349 0 0.42555072378604852 0.29349315303042112 0 0.42002306177695292 0.28820415349910461 0 0.42521261443600128 0.28597049843772349 0 0.42239279897508092 0.28102084372296982 0 0.42002306177695292 0.28820415349910461 0 0.42521261443600128 0.28597049843772349 0 0.42555072378604852 0.29349315303042112 0 0.42736529090671732 0.30004451218764239 0 0.42555072378604852 0.29349315303042112 0 0.43314933795565441 0.29438176207297673 0 0.42807275935069189 0.28754748298043181 0 0.42555072378604852 0.29349315303042112 0 0.43314933795565441 0.29438176207297673 0 0.43637537982535768 0.29882768472670868 0 0.43583593424654121 0.28696452540658901 0 0.43879765526392328 0.29305439781554782 0 0.43583593424654121 0.28696452540658901 0 0.43746700108659109 0.28230420962973218 0 0.43441482523520419 0.2783026159187022 0 0.43583593424654121 0.28696452540658901 0 0.43441482523520419 0.2783026159187022 0 0.42837836122506379 0.27634451838060609 0 0.43441482523520419 0.2783026159187022 0 0.43386740996407669 0.27204118374218339 0 0.43942614800669982 0.27310320910158431 0 0.43441482523520419 0.2783026159187022 0 0.43386740996407669 0.27204118374218339 0 0.42837836122506379 0.27634451838060609 0 0.43386740996407669 0.27204118374218339 0 0.42837836122506379 0.27634451838060609 0 0.43160431664261317 0.26480174878213708 0 0.43717791755769669 0.26761150950123508 0 0.43386740996407669 0.27204118374218339 0 0.43160431664261317 0.26480174878213708 0 0.43717791755769669 0.26761150950123508 0 0.43386740996407669 0.27204118374218339 0 0.43942614800669982 0.27310320910158431 0 0.42677557111938258 0.27028498018614661 0 0.42837836122506379 0.27634451838060609 0 0.43160431664261317 0.26480174878213708 0 0.42677557111938258 0.27028498018614661 0 0.42322679935338242 0.27487056938325322 0 0.41879114331689132 0.27067059910221342 0 0.42677557111938258 0.27028498018614661 0 0.42837836122506379 0.27634451838060609 0 0.42521261443600128 0.28597049843772349 0 0.42837836122506379 0.27634451838060609 0 0.42239279897508092 0.28102084372296982 0 0.42677557111938258 0.27028498018614661 0 0.42837836122506379 0.27634451838060609 0 0.42322679935338242 0.27487056938325322 0 0.42837836122506379 0.27634451838060609 0 0.42322679935338242 0.27487056938325322 0 0.42239279897508092 0.28102084372296982 0 0.42322679935338242 0.27487056938325322 0 0.42239279897508092 0.28102084372296982 0 0.41909799396733338 0.27677434552126728 0 0.41538933598196082 0.28136638685403381 0 0.42239279897508092 0.28102084372296982 0 0.41909799396733338 0.27677434552126728 0 0.41538933598196082 0.28136638685403381 0 0.41909799396733338 0.27677434552126728 0 0.41335486397750471 0.27431343099316052 0 0.41909799396733338 0.27677434552126728 0 0.41879114331689132 0.27067059910221342 0 0.41335486397750471 0.27431343099316052 0 0.42322679935338242 0.27487056938325322 0 0.41909799396733338 0.27677434552126728 0 0.41879114331689132 0.27067059910221342 0 0.41879114331689132 0.27067059910221342 0 0.41335863893718161 0.26697338261696529 0 0.41851102121767292 0.26211182735018462 0 0.42677557111938258 0.27028498018614661 0 0.41879114331689132 0.27067059910221342 0 0.41851102121767292 0.26211182735018462 0 0.41879114331689132 0.27067059910221342 0 0.41335863893718161 0.26697338261696529 0 0.41335486397750471 0.27431343099316052 0 0.41335863893718161 0.26697338261696529 0 0.40666040909090989 0.26967779240191742 0 0.41335486397750471 0.27431343099316052 0 0.41538933598196082 0.28136638685403381 0 0.40724197976292592 0.28000041613575671 0 0.41335486397750471 0.27431343099316052 0 0.40666040909090989 0.26967779240191742 0 0.40724197976292592 0.28000041613575671 0 0.41335486397750471 0.27431343099316052 0 0.40529903042243348 0.25025499417346209 0 0.41028791863097391 0.25976728079173561 0 0.4217133014230659 0.25114646886968811 0 0.41335863893718161 0.26697338261696529 0 0.40666040909090989 0.26967779240191742 0 0.41028791863097391 0.25976728079173561 0 0.41335863893718161 0.26697338261696529 0 0.41028791863097391 0.25976728079173561 0 0.41851102121767292 0.26211182735018462 0 0.41028791863097391 0.25976728079173561 0 0.41851102121767292 0.26211182735018462 0 0.4217133014230659 0.25114646886968811 0 0.42677557111938258 0.27028498018614661 0 0.4217133014230659 0.25114646886968811 0 0.42677557111938258 0.27028498018614661 0 0.4217133014230659 0.25114646886968811 0 0.43160431664261317 0.26480174878213708 0 0.42677557111938258 0.27028498018614661 0 0.41851102121767292 0.26211182735018462 0 0.4217133014230659 0.25114646886968811 0 0.4217133014230659 0.25114646886968811 0 0.43160431664261317 0.26480174878213708 0 0.43001071716495332 0.25281982215425508 0 0.43160431664261317 0.26480174878213708 0 0.43467912737993358 0.25931067660770002 0 0.43001071716495332 0.25281982215425508 0 0.43467912737993358 0.25931067660770002 0 0.4353340475356976 0.26352846924019419 0 0.43919214430976489 0.26159213092077999 0 0.43717791755769669 0.26761150950123508 0 0.4353340475356976 0.26352846924019419 0 0.43919214430976489 0.26159213092077999 0 0.43717791755769669 0.26761150950123508 0 0.43160431664261317 0.26480174878213708 0 0.4353340475356976 0.26352846924019419 0 0.43160431664261317 0.26480174878213708 0 0.43467912737993358 0.25931067660770002 0 0.4353340475356976 0.26352846924019419 0 0.43467912737993358 0.25931067660770002 0 0.43001071716495332 0.25281982215425508 0 0.43821113475429302 0.25000115871653422 0 0.43467912737993358 0.25931067660770002 0 0.45645275158662268 0.26026931715860491 0 0.44562665868144707 0.25349310519189672 0 0.44872211326218148 0.24711147046875909 0 0.43821113475429302 0.25000115871653422 0 0.43919214430976489 0.26159213092077999 0 0.45878829994304632 0.27062477316956851 0 0.45645275158662268 0.26026931715860491 0 0.43467912737993358 0.25931067660770002 0 0.44264989529204979 0.25586355289855489 0 0.45645275158662268 0.26026931715860491 0 0.43467912737993358 0.25931067660770002 0 0.44264989529204979 0.25586355289855489 0 0.43821113475429302 0.25000115871653422 0 0.43467912737993358 0.25931067660770002 0 0.43919214430976489 0.26159213092077999 0 0.45645275158662268 0.26026931715860491 0 0.44264989529204979 0.25586355289855489 0 0.44562665868144707 0.25349310519189672 0 0.43821113475429302 0.25000115871653422 0 0.44562665868144707 0.25349310519189672 0 0.45645275158662268 0.26026931715860491 0 0.44872211326218148 0.24711147046875909 0 0.44264989529204979 0.25586355289855489 0 0.44562665868144707 0.25349310519189672 0 0.45645275158662268 0.26026931715860491 0 0.43919214430976489 0.26159213092077999 0 0.44471725256069672 0.26966925594479668 0 0.45878829994304632 0.27062477316956851 0 0.43919214430976489 0.26159213092077999 0 0.45878829994304632 0.27062477316956851 0 0.44110172544036452 0.2788143031780051 0 0.43942614800669982 0.27310320910158431 0 0.44900175298627581 0.27541465703081508 0 0.43746700108659109 0.28230420962973218 0 0.43441482523520419 0.2783026159187022 0 0.44110172544036452 0.2788143031780051 0 0.43441482523520419 0.2783026159187022 0 0.44110172544036452 0.2788143031780051 0 0.43942614800669982 0.27310320910158431 0 0.43717791755769669 0.26761150950123508 0 0.43919214430976489 0.26159213092077999 0 0.44471725256069672 0.26966925594479668 0 0.44471725256069672 0.26966925594479668 0 0.43942614800669982 0.27310320910158431 0 0.44900175298627581 0.27541465703081508 0 0.43717791755769669 0.26761150950123508 0 0.44471725256069672 0.26966925594479668 0 0.43942614800669982 0.27310320910158431 0 0.44471725256069672 0.26966925594479668 0 0.44900175298627581 0.27541465703081508 0 0.45878829994304632 0.27062477316956851 0 0.44110172544036452 0.2788143031780051 0 0.44900175298627581 0.27541465703081508 0 0.44643062049344251 0.28265878305160791 0 0.44900175298627581 0.27541465703081508 0 0.4530054429209015 0.28125805241057128 0 0.44643062049344251 0.28265878305160791 0 0.45878829994304632 0.27062477316956851 0 0.47838445557632758 0.27965741541835692 0 0.46017658012340751 0.27851234032765598 0 0.47838445557632758 0.27965741541835692 0 0.46170294919048632 0.28560680360896828 0 0.46017658012340751 0.27851234032765598 0 0.45878829994304632 0.27062477316956851 0 0.47838445557632758 0.27965741541835692 0 0.44900175298627581 0.27541465703081508 0 0.46017658012340751 0.27851234032765598 0 0.45878829994304632 0.27062477316956851 0 0.44900175298627581 0.27541465703081508 0 0.4530054429209015 0.28125805241057128 0 0.46017658012340751 0.27851234032765598 0 0.45878829994304632 0.27062477316956851 0 0.45645275158662268 0.26026931715860491 0 0.47822637579331162 0.26122795770950991 0 0.45645275158662268 0.26026931715860491 0 0.47216813690829312 0.25009565085581797 0 0.46044187928157942 0.2452867636306221 0 0.45645275158662268 0.26026931715860491 0 0.47822637579331162 0.26122795770950991 0 0.45645275158662268 0.26026931715860491 0 0.46044187928157942 0.2452867636306221 0 0.44872211326218148 0.24711147046875909 0 0.45645275158662268 0.26026931715860491 0 0.47216813690829312 0.25009565085581797 0 0.47822637579331162 0.26122795770950991 0 0.47216813690829312 0.25009565085581797 0 0.47822637579331162 0.26122795770950991 0 0.48469580451171151 0.25251553598463539 0 0.47822637579331162 0.26122795770950991 0 0.47838445557632758 0.27965741541835692 0 0.49092591791207651 0.2754582891809218 0 0.45878829994304632 0.27062477316956851 0 0.47822637579331162 0.26122795770950991 0 0.47838445557632758 0.27965741541835692 0 0.47822637579331162 0.26122795770950991 0 0.49092591791207651 0.2754582891809218 0 0.50000000000000067 0.2621865982604149 0 0.49092591791207651 0.2754582891809218 0 0.50000000000000067 0.2621865982604149 0 0.50003814698113436 0.28552941684918182 0 0.47838445557632758 0.27965741541835692 0 0.49092591791207651 0.2754582891809218 0 0.49798061120960901 0.28869005766714539 0 0.47822637579331162 0.26122795770950991 0 0.50000000000000067 0.2621865982604149 0 0.48469580451171151 0.25251553598463539 0 0.47822637579331162 0.26122795770950991 0 0.50000000000000067 0.2621865982604149 0 0.50000000000000067 0.2621865982604149 0 0.48469580451171151 0.25251553598463539 0 0.49286357021616328 0.24875869520616531 0 0.48458939162333081 0.30926070135288691 0 0.49798061120960901 0.28869005766714539 0 0.48458939162333081 0.30926070135288691 0 0.49798061120960901 0.28869005766714539 0 0.48344690374475041 0.29367210038599523 0 0.48458939162333081 0.30926070135288691 0 0.50000000000000033 0.28962087373363149 0 0.5 0.31852134982581692 0 0.47838445557632758 0.27965741541835692 0 0.49798061120960901 0.28869005766714539 0 0.48344690374475041 0.29367210038599523 0 0.48458939162333081 0.30926070135288691 0 0.50000000000000033 0.28962087373363149 0 0.49798061120960901 0.28869005766714539 0 0.47838445557632758 0.27965741541835692 0 0.49798061120960901 0.28869005766714539 0 0.50000000000000033 0.28962087373363149 0 0.49798061120960901 0.28869005766714539 0 0.49092591791207651 0.2754582891809218 0 0.50003814698113436 0.28552941684918182 0 0.49798061120960901 0.28869005766714539 0 0.50000000000000033 0.28962087373363149 0 0.50003814698113436 0.28552941684918182 0 0.49798061120960901 0.28869005766714539 0 0.50003814698113436 0.28552941684918182 0 0.49798061120960901 0.28869005766714539 0 0.47838445557632758 0.27965741541835692 0 0.48344690374475041 0.29367210038599523 0 0.4710171759827726 0.29587325236031259 0 0.47838445557632758 0.27965741541835692 0 0.4710171759827726 0.29587325236031259 0 0.46170294919048632 0.28560680360896828 0 0.48458939162333081 0.30926070135288691 0 0.48344690374475041 0.29367210038599523 0 0.4710171759827726 0.29587325236031259 0 0.48458939162333081 0.30926070135288691 0 0.4710171759827726 0.29587325236031259 0 0.46919038199651553 0.31092541098866949 0 0.46919038199651553 0.31092541098866949 0 0.46179647861053091 0.30379909883949768 0 0.45735069172889098 0.31586265735202279 0 0.4710171759827726 0.29587325236031259 0 0.46179647861053091 0.30379909883949768 0 0.45797456352725069 0.29508044061376743 0 0.4710171759827726 0.29587325236031259 0 0.46919038199651553 0.31092541098866949 0 0.46179647861053091 0.30379909883949768 0 0.45797456352725069 0.29508044061376743 0 0.44915664123208088 0.29567615397639557 0 0.45306508507595028 0.30400491265685059 0 0.46179647861053091 0.30379909883949768 0 0.45797456352725069 0.29508044061376743 0 0.45306508507595028 0.30400491265685059 0 0.46179647861053091 0.30379909883949768 0 0.45306508507595028 0.30400491265685059 0 0.45735069172889098 0.31586265735202279 0 0.4710171759827726 0.29587325236031259 0 0.46170294919048632 0.28560680360896828 0 0.45797456352725069 0.29508044061376743 0 0.46170294919048632 0.28560680360896828 0 0.45797456352725069 0.29508044061376743 0 0.45220852528500299 0.28799275338305069 0 0.4530054429209015 0.28125805241057128 0 0.46017658012340751 0.27851234032765598 0 0.46170294919048632 0.28560680360896828 0 0.4530054429209015 0.28125805241057128 0 0.46170294919048632 0.28560680360896828 0 0.45220852528500299 0.28799275338305069 0 0.4530054429209015 0.28125805241057128 0 0.44643062049344251 0.28265878305160791 0 0.45220852528500299 0.28799275338305069 0 0.44643062049344251 0.28265878305160791 0 0.45220852528500299 0.28799275338305069 0 0.44595003633670671 0.2892027286313486 0 0.45797456352725069 0.29508044061376743 0 0.45220852528500299 0.28799275338305069 0 0.44915664123208088 0.29567615397639557 0 0.45220852528500299 0.28799275338305069 0 0.44595003633670671 0.2892027286313486 0 0.44915664123208088 0.29567615397639557 0 0.44595003633670671 0.2892027286313486 0 0.44915664123208088 0.29567615397639557 0 0.44239443812114487 0.29596978914433458 0 0.43637537982535768 0.29882768472670868 0 0.44239443812114487 0.29596978914433458 0 0.43879765526392328 0.29305439781554782 0 0.44239443812114487 0.29596978914433458 0 0.43879765526392328 0.29305439781554782 0 0.4405848688626498 0.29045559198455889 0 0.43583593424654121 0.28696452540658901 0 0.43879765526392328 0.29305439781554782 0 0.4405848688626498 0.29045559198455889 0 0.44595003633670671 0.2892027286313486 0 0.44239443812114487 0.29596978914433458 0 0.4405848688626498 0.29045559198455889 0 0.44595003633670671 0.2892027286313486 0 0.4405848688626498 0.29045559198455889 0 0.44119288020453978 0.2850895546986878 0 0.44643062049344251 0.28265878305160791 0 0.44595003633670671 0.2892027286313486 0 0.44119288020453978 0.2850895546986878 0 0.43583593424654121 0.28696452540658901 0 0.4405848688626498 0.29045559198455889 0 0.44119288020453978 0.2850895546986878 0 0.43583593424654121 0.28696452540658901 0 0.43746700108659109 0.28230420962973218 0 0.44119288020453978 0.2850895546986878 0 0.43746700108659109 0.28230420962973218 0 0.44110172544036452 0.2788143031780051 0 0.44119288020453978 0.2850895546986878 0 0.44110172544036452 0.2788143031780051 0 0.44643062049344251 0.28265878305160791 0 0.44119288020453978 0.2850895546986878 0 0.43637537982535768 0.29882768472670868 0 0.43792031468624493 0.31241900576534709 0 0.44437239842565168 0.32131085107281121 0 0.43637537982535768 0.29882768472670868 0 0.44437239842565168 0.32131085107281121 0 0.44895806371916391 0.31089279738660619 0 0.44447606683515117 0.303945306022807 0 0.44437239842565168 0.32131085107281121 0 0.43637537982535768 0.29882768472670868 0 0.44447606683515117 0.303945306022807 0 0.44437239842565168 0.32131085107281121 0 0.44895806371916391 0.31089279738660619 0 0.45306508507595028 0.30400491265685059 0 0.44447606683515117 0.303945306022807 0 0.44895806371916391 0.31089279738660619 0 0.45306508507595028 0.30400491265685059 0 0.45735069172889098 0.31586265735202279 0 0.44915664123208088 0.29567615397639557 0 0.45306508507595028 0.30400491265685059 0 0.44447606683515117 0.303945306022807 0 0.44915664123208088 0.29567615397639557 0 0.44239443812114487 0.29596978914433458 0 0.44447606683515117 0.303945306022807 0 0.43637537982535768 0.29882768472670868 0 0.44239443812114487 0.29596978914433458 0 0.44447606683515117 0.303945306022807 0 0.43792031468624493 0.31241900576534709 0 0.44437239842565168 0.32131085107281121 0 0.43158908294436071 0.31755263372051762 0 0.44437239842565168 0.32131085107281121 0 0.43906638029688072 0.33501758737901011 0 0.4347214623810578 0.32639094132552388 0 0.44437239842565168 0.32131085107281121 0 0.45735069172889098 0.31586265735202279 0 0.45632266980438518 0.32769971772059392 0 0.44895806371916391 0.31089279738660619 0 0.44437239842565168 0.32131085107281121 0 0.45735069172889098 0.31586265735202279 0 0.44437239842565168 0.32131085107281121 0 0.45236941702594569 0.34379401741891358 0 0.44437239842565168 0.32131085107281121 0 0.45632266980438518 0.32769971772059392 0 0.45236941702594569 0.34379401741891358 0 0.44437239842565168 0.32131085107281121 0 0.44440192277084389 0.33659811884337942 0 0.45236941702594569 0.34379401741891358 0 0.44440192277084389 0.33659811884337942 0 0.43906638029688072 0.33501758737901011 0 0.44179949533489787 0.34627001950278291 0 0.43906638029688072 0.33501758737901011 0 0.44179949533489787 0.34627001950278291 0 0.43418539753513102 0.34216928995756019 0 0.44437239842565168 0.32131085107281121 0 0.44440192277084389 0.33659811884337942 0 0.43906638029688072 0.33501758737901011 0 0.44440192277084389 0.33659811884337942 0 0.45236941702594569 0.34379401741891358 0 0.44179949533489787 0.34627001950278291 0 0.45632266980438518 0.32769971772059392 0 0.47119817203705239 0.32983134503862799 0 0.45236941702594569 0.34379401741891358 0 0.47119817203705239 0.32983134503862799 0 0.47556781931950531 0.34628550243728901 0 0.45780695245077391 0.35040198872436917 0 0.47119817203705239 0.32983134503862799 0 0.45780695245077391 0.35040198872436917 0 0.45236941702594569 0.34379401741891358 0 0.47119817203705239 0.32983134503862799 0 0.45780695245077391 0.35040198872436917 0 0.46919038199651553 0.31092541098866949 0 0.45735069172889098 0.31586265735202279 0 0.47119817203705239 0.32983134503862799 0 0.45735069172889098 0.31586265735202279 0 0.45632266980438518 0.32769971772059392 0 0.47119817203705239 0.32983134503862799 0 0.48458939162333081 0.30926070135288691 0 0.47119817203705239 0.32983134503862799 0 0.48458939162333081 0.30926070135288691 0 0.46919038199651553 0.31092541098866949 0 0.47119817203705239 0.32983134503862799 0 0.48458939162333081 0.30926070135288691 0 0.47119817203705239 0.32983134503862799 0 0.48627107659597768 0.3302641449145246 0 0.47119817203705239 0.32983134503862799 0 0.48627107659597768 0.3302641449145246 0 0.47556781931950531 0.34628550243728901 0 0.48627107659597768 0.3302641449145246 0 0.5 0.3474218259180023 0 0.47556781931950531 0.34628550243728901 0 0.48627107659597768 0.3302641449145246 0 0.5 0.31852134982581692 0 0.5 0.3474218259180023 0 0.48458939162333081 0.30926070135288691 0 0.48627107659597768 0.3302641449145246 0 0.5 0.31852134982581692 0 0.48128441306875758 0.36096665538125411 0 0.47202366153203701 0.37327035567964051 0 0.5 0.37632230201018779 0 0.5 0.3474218259180023 0 0.48128441306875758 0.36096665538125411 0 0.5 0.37632230201018779 0 0.5 0.3474218259180023 0 0.47556781931950531 0.34628550243728901 0 0.48128441306875758 0.36096665538125411 0 0.47556781931950531 0.34628550243728901 0 0.48128441306875758 0.36096665538125411 0 0.46541556848018201 0.3601528124817584 0 0.48128441306875758 0.36096665538125411 0 0.47202366153203701 0.37327035567964051 0 0.46541556848018201 0.3601528124817584 0 0.47202366153203701 0.37327035567964051 0 0.46541556848018201 0.3601528124817584 0 0.4568466913824219 0.36873735501873661 0 0.46541556848018201 0.3601528124817584 0 0.4568466913824219 0.36873735501873661 0 0.45233919086884927 0.35948674899050409 0 0.47556781931950531 0.34628550243728901 0 0.46541556848018201 0.3601528124817584 0 0.45780695245077391 0.35040198872436917 0 0.45780695245077391 0.35040198872436917 0 0.44945896444613159 0.35140289884494452 0 0.45233919086884927 0.35948674899050409 0 0.46541556848018201 0.3601528124817584 0 0.45780695245077391 0.35040198872436917 0 0.45233919086884927 0.35948674899050409 0 0.45780695245077391 0.35040198872436917 0 0.44945896444613159 0.35140289884494452 0 0.45236941702594569 0.34379401741891358 0 0.44945896444613159 0.35140289884494452 0 0.45236941702594569 0.34379401741891358 0 0.44179949533489787 0.34627001950278291 0 0.44945896444613159 0.35140289884494452 0 0.44297976655019111 0.35706171958815253 0 0.45233919086884927 0.35948674899050409 0 0.44945896444613159 0.35140289884494452 0 0.44297976655019111 0.35706171958815253 0 0.44179949533489787 0.34627001950278291 0 0.44297976655019111 0.35706171958815253 0 0.44179949533489787 0.34627001950278291 0 0.43238007943891038 0.3508244207352213 0 0.4568466913824219 0.36873735501873661 0 0.44335447355227442 0.3699658452177047 0 0.45017672374555828 0.37999726972282299 0 0.4568466913824219 0.36873735501873661 0 0.45233919086884927 0.35948674899050409 0 0.44335447355227442 0.3699658452177047 0 0.44297976655019111 0.35706171958815253 0 0.45233919086884927 0.35948674899050409 0 0.44335447355227442 0.3699658452177047 0 0.44297976655019111 0.35706171958815253 0 0.44335447355227442 0.3699658452177047 0 0.43497733623624701 0.36051033329529769 0 0.44335447355227442 0.3699658452177047 0 0.43024751216464552 0.36807870054876202 0 0.43520018263078419 0.37639333761187799 0 0.43024751216464552 0.36807870054876202 0 0.43497733623624701 0.36051033329529769 0 0.42541918199439682 0.35873201979968 0 0.44335447355227442 0.3699658452177047 0 0.43024751216464552 0.36807870054876202 0 0.43497733623624701 0.36051033329529769 0 0.43024751216464552 0.36807870054876202 0 0.4174232254863886 0.36794799582314908 0 0.42541918199439682 0.35873201979968 0 0.43024751216464552 0.36807870054876202 0 0.4174232254863886 0.36794799582314908 0 0.42371284528474012 0.38263248338236922 0 0.4174232254863886 0.36794799582314908 0 0.41522461345230921 0.35586295838232929 0 0.42541918199439682 0.35873201979968 0 0.4174232254863886 0.36794799582314908 0 0.41522461345230921 0.35586295838232929 0 0.4058880882074814 0.36281632230316002 0 0.4174232254863886 0.36794799582314908 0 0.4058880882074814 0.36281632230316002 0 0.40482103798813263 0.37778687011555873 0 0.41522461345230921 0.35586295838232929 0 0.41275157337043622 0.34184718566146788 0 0.40035007870814882 0.34963292268526119 0 0.41522461345230921 0.35586295838232929 0 0.4058880882074814 0.36281632230316002 0 0.40035007870814882 0.34963292268526119 0 0.41522461345230921 0.35586295838232929 0 0.42226232518788082 0.34916771001332092 0 0.42541918199439682 0.35873201979968 0 0.41522461345230921 0.35586295838232929 0 0.42226232518788082 0.34916771001332092 0 0.41275157337043622 0.34184718566146788 0 0.42226232518788082 0.34916771001332092 0 0.42567630965352649 0.34062465681969128 0 0.41275157337043622 0.34184718566146788 0 0.42226232518788082 0.34916771001332092 0 0.43238007943891038 0.3508244207352213 0 0.42567630965352649 0.34062465681969128 0 0.42226232518788082 0.34916771001332092 0 0.42541918199439682 0.35873201979968 0 0.43238007943891038 0.3508244207352213 0 0.43497733623624701 0.36051033329529769 0 0.42541918199439682 0.35873201979968 0 0.43238007943891038 0.3508244207352213 0 0.44297976655019111 0.35706171958815253 0 0.43497733623624701 0.36051033329529769 0 0.43238007943891038 0.3508244207352213 0 0.44179949533489787 0.34627001950278291 0 0.43238007943891038 0.3508244207352213 0 0.43418539753513102 0.34216928995756019 0 0.43238007943891038 0.3508244207352213 0 0.43418539753513102 0.34216928995756019 0 0.42567630965352649 0.34062465681969128 0 0.43418539753513102 0.34216928995756019 0 0.43111480833720378 0.33353650176884703 0 0.42567630965352649 0.34062465681969128 0 0.43906638029688072 0.33501758737901011 0 0.43418539753513102 0.34216928995756019 0 0.43111480833720378 0.33353650176884703 0 0.43906638029688072 0.33501758737901011 0 0.43111480833720378 0.33353650176884703 0 0.4347214623810578 0.32639094132552388 0 0.43111480833720378 0.33353650176884703 0 0.42746464190119182 0.32453713268643369 0 0.41994516159097139 0.3318290328288363 0 0.43111480833720378 0.33353650176884703 0 0.42567630965352649 0.34062465681969128 0 0.41994516159097139 0.3318290328288363 0 0.44437239842565168 0.32131085107281121 0 0.43158908294436071 0.31755263372051762 0 0.4347214623810578 0.32639094132552388 0 0.43111480833720378 0.33353650176884703 0 0.4347214623810578 0.32639094132552388 0 0.42746464190119182 0.32453713268643369 0 0.43158908294436071 0.31755263372051762 0 0.4347214623810578 0.32639094132552388 0 0.42746464190119182 0.32453713268643369 0 0.42746464190119182 0.32453713268643369 0 0.42440189411456752 0.31370777376514553 0 0.41670826186394638 0.3216549309239406 0 0.43158908294436071 0.31755263372051762 0 0.42746464190119182 0.32453713268643369 0 0.42440189411456752 0.31370777376514553 0 0.41499603573788463 0.31104223121256519 0 0.42440189411456752 0.31370777376514553 0 0.41670826186394638 0.3216549309239406 0 0.42746464190119182 0.32453713268643369 0 0.41670826186394638 0.3216549309239406 0 0.41994516159097139 0.3318290328288363 0 0.41670826186394638 0.3216549309239406 0 0.41994516159097139 0.3318290328288363 0 0.40959646709594888 0.32995322536318961 0 0.41670826186394638 0.3216549309239406 0 0.40959646709594888 0.32995322536318961 0 0.40425658947226573 0.31873524346402482 0 0.41499603573788463 0.31104223121256519 0 0.41670826186394638 0.3216549309239406 0 0.40425658947226573 0.31873524346402482 0 0.42567630965352649 0.34062465681969128 0 0.41994516159097139 0.3318290328288363 0 0.41275157337043622 0.34184718566146788 0 0.41994516159097139 0.3318290328288363 0 0.40959646709594888 0.32995322536318961 0 0.41275157337043622 0.34184718566146788 0 0.40959646709594888 0.32995322536318961 0 0.41275157337043622 0.34184718566146788 0 0.39836555017068842 0.33486221065416272 0 0.39836555017068842 0.33486221065416272 0 0.38375498114720302 0.33991877587412639 0 0.40035007870814882 0.34963292268526119 0 0.41275157337043622 0.34184718566146788 0 0.39836555017068842 0.33486221065416272 0 0.40035007870814882 0.34963292268526119 0 0.39836555017068842 0.33486221065416272 0 0.40425658947226573 0.31873524346402482 0 0.3883172221881156 0.3202774532673836 0 0.40959646709594888 0.32995322536318961 0 0.39836555017068842 0.33486221065416272 0 0.40425658947226573 0.31873524346402482 0 0.39662849881305262 0.30934807842324108 0 0.40425658947226573 0.31873524346402482 0 0.3883172221881156 0.3202774532673836 0 0.37119871693045681 0.3228526235735667 0 0.37530360048715272 0.30742562413563518 0 0.3883172221881156 0.3202774532673836 0 0.37119871693045681 0.3228526235735667 0 0.3883172221881156 0.3202774532673836 0 0.38375498114720302 0.33991877587412639 0 0.39836555017068842 0.33486221065416272 0 0.3883172221881156 0.3202774532673836 0 0.38375498114720302 0.33991877587412639 0 0.36901675618310159 0.35227363829032299 0 0.38375498114720302 0.33991877587412639 0 0.38587968600437422 0.35437816723143589 0 0.38375498114720302 0.33991877587412639 0 0.38587968600437422 0.35437816723143589 0 0.40035007870814882 0.34963292268526119 0 0.36901675618310159 0.35227363829032299 0 0.38587968600437422 0.35437816723143589 0 0.3786504201682715 0.36696746181382112 0 0.3786504201682715 0.36696746181382112 0 0.39315957401225737 0.36512241886619112 0 0.3887759623883838 0.3790224784388122 0 0.38587968600437422 0.35437816723143589 0 0.3786504201682715 0.36696746181382112 0 0.39315957401225737 0.36512241886619112 0 0.39315957401225737 0.36512241886619112 0 0.40482103798813263 0.37778687011555873 0 0.3887759623883838 0.3790224784388122 0 0.39315957401225737 0.36512241886619112 0 0.4058880882074814 0.36281632230316002 0 0.40482103798813263 0.37778687011555873 0 0.39315957401225737 0.36512241886619112 0 0.4058880882074814 0.36281632230316002 0 0.40035007870814882 0.34963292268526119 0 0.38587968600437422 0.35437816723143589 0 0.39315957401225737 0.36512241886619112 0 0.40035007870814882 0.34963292268526119 0 0.39697119004381259 0.39162929289321963 0 0.38424556533199139 0.39312379409648318 0 0.39448578781869559 0.41036916274862428 0 0.39697119004381259 0.39162929289321963 0 0.39448578781869559 0.41036916274862428 0 0.40997448283737381 0.39575033207681931 0 0.39697119004381259 0.39162929289321963 0 0.40482103798813263 0.37778687011555873 0 0.3887759623883838 0.3790224784388122 0 0.39697119004381259 0.39162929289321963 0 0.40482103798813263 0.37778687011555873 0 0.40997448283737381 0.39575033207681931 0 0.3712162157927128 0.38199114138113271 0 0.3887759623883838 0.3790224784388122 0 0.38424556533199139 0.39312379409648318 0 0.39697119004381259 0.39162929289321963 0 0.3887759623883838 0.3790224784388122 0 0.38424556533199139 0.39312379409648318 0 0.3712162157927128 0.38199114138113271 0 0.3786504201682715 0.36696746181382112 0 0.3887759623883838 0.3790224784388122 0 0.36888079041535848 0.40503859681629378 0 0.38424556533199139 0.39312379409648318 0 0.39448578781869559 0.41036916274862428 0 0.37218322809940352 0.42613779087652248 0 0.36888079041535848 0.40503859681629378 0 0.39448578781869559 0.41036916274862428 0 0.37218322809940352 0.42613779087652248 0 0.39448578781869559 0.41036916274862428 0 0.39503139492354161 0.43788140143245968 0 0.39448578781869559 0.41036916274862428 0 0.41155518886423448 0.42909934386194248 0 0.39503139492354161 0.43788140143245968 0 0.39448578781869559 0.41036916274862428 0 0.41621833914484813 0.41259839029231993 0 0.41155518886423448 0.42909934386194248 0 0.41621833914484813 0.41259839029231993 0 0.41155518886423448 0.42909934386194248 0 0.42620734318668951 0.43057461686665471 0 0.41155518886423448 0.42909934386194248 0 0.42620734318668951 0.43057461686665471 0 0.41336011825886521 0.44585486451800388 0 0.42620734318668951 0.43057461686665471 0 0.44317068070027821 0.42329205785473661 0 0.4408219570231473 0.43853985938594842 0 0.41621833914484813 0.41259839029231993 0 0.42620734318668951 0.43057461686665471 0 0.43130708192407757 0.41182248661247089 0 0.42620734318668951 0.43057461686665471 0 0.43130708192407757 0.41182248661247089 0 0.44317068070027821 0.42329205785473661 0 0.41621833914484813 0.41259839029231993 0 0.43130708192407757 0.41182248661247089 0 0.42363769674401441 0.39948579302882481 0 0.43130708192407757 0.41182248661247089 0 0.43556221803651779 0.39652424610404258 0 0.44560661610732849 0.40750347698709788 0 0.43556221803651779 0.39652424610404258 0 0.42363769674401441 0.39948579302882481 0 0.42371284528474012 0.38263248338236922 0 0.43130708192407757 0.41182248661247089 0 0.43556221803651779 0.39652424610404258 0 0.42363769674401441 0.39948579302882481 0 0.39448578781869559 0.41036916274862428 0 0.41621833914484813 0.41259839029231993 0 0.40997448283737381 0.39575033207681931 0 0.41621833914484813 0.41259839029231993 0 0.42363769674401441 0.39948579302882481 0 0.40997448283737381 0.39575033207681931 0 0.42363769674401441 0.39948579302882481 0 0.40997448283737381 0.39575033207681931 0 0.42371284528474012 0.38263248338236922 0 0.40482103798813263 0.37778687011555873 0 0.40997448283737381 0.39575033207681931 0 0.42371284528474012 0.38263248338236922 0 0.4174232254863886 0.36794799582314908 0 0.40482103798813263 0.37778687011555873 0 0.42371284528474012 0.38263248338236922 0 0.43024751216464552 0.36807870054876202 0 0.42371284528474012 0.38263248338236922 0 0.43520018263078419 0.37639333761187799 0 0.43556221803651779 0.39652424610404258 0 0.42371284528474012 0.38263248338236922 0 0.43975740837778687 0.38550730522839471 0 0.42371284528474012 0.38263248338236922 0 0.43520018263078419 0.37639333761187799 0 0.43975740837778687 0.38550730522839471 0 0.44335447355227442 0.3699658452177047 0 0.43975740837778687 0.38550730522839471 0 0.45017672374555828 0.37999726972282299 0 0.44335447355227442 0.3699658452177047 0 0.43520018263078419 0.37639333761187799 0 0.43975740837778687 0.38550730522839471 0 0.43975740837778687 0.38550730522839471 0 0.45017672374555828 0.37999726972282299 0 0.44935165978115937 0.39219393138509862 0 0.43556221803651779 0.39652424610404258 0 0.44935165978115937 0.39219393138509862 0 0.44560661610732849 0.40750347698709788 0 0.43556221803651779 0.39652424610404258 0 0.43975740837778687 0.38550730522839471 0 0.44935165978115937 0.39219393138509862 0 0.44935165978115937 0.39219393138509862 0 0.45958200238826702 0.40044574864025678 0 0.44560661610732849 0.40750347698709788 0 0.45958200238826702 0.40044574864025678 0 0.46069671261557837 0.38350302209664983 0 0.47653132683729849 0.38985312210890011 0 0.44935165978115937 0.39219393138509862 0 0.45958200238826702 0.40044574864025678 0 0.46069671261557837 0.38350302209664983 0 0.4568466913824219 0.36873735501873661 0 0.45017672374555828 0.37999726972282299 0 0.46069671261557837 0.38350302209664983 0 0.45017672374555828 0.37999726972282299 0 0.44935165978115937 0.39219393138509862 0 0.46069671261557837 0.38350302209664983 0 0.47202366153203701 0.37327035567964051 0 0.4568466913824219 0.36873735501873661 0 0.46069671261557837 0.38350302209664983 0 0.47202366153203701 0.37327035567964051 0 0.47653132683729849 0.38985312210890011 0 0.5 0.37632230201018779 0 0.47202366153203701 0.37327035567964051 0 0.46069671261557837 0.38350302209664983 0 0.47653132683729849 0.38985312210890011 0 0.45958200238826702 0.40044574864025678 0 0.47653132683729849 0.38985312210890011 0 0.47396060786238958 0.40664666454012888 0 0.47653132683729849 0.38985312210890011 0 0.5 0.40522277810237328 0 0.47396060786238958 0.40664666454012888 0 0.47653132683729849 0.38985312210890011 0 0.5 0.40522277810237328 0 0.5 0.37632230201018779 0 0.5 0.43412325419455849 0 0.47720483329342911 0.42616221288852668 0 0.48275724908235818 0.44621894423069958 0 0.5 0.40522277810237328 0 0.5 0.43412325419455849 0 0.47720483329342911 0.42616221288852668 0 0.5 0.40522277810237328 0 0.47396060786238958 0.40664666454012888 0 0.47720483329342911 0.42616221288852668 0 0.47396060786238958 0.40664666454012888 0 0.47720483329342911 0.42616221288852668 0 0.4582260943716816 0.41638258826940372 0 0.47720483329342911 0.42616221288852668 0 0.45685499158874482 0.43492931900684378 0 0.4582260943716816 0.41638258826940372 0 0.47720483329342911 0.42616221288852668 0 0.45685499158874482 0.43492931900684378 0 0.46948412407945278 0.44103703552864432 0 0.45958200238826702 0.40044574864025678 0 0.4582260943716816 0.41638258826940372 0 0.44560661610732849 0.40750347698709788 0 0.45958200238826702 0.40044574864025678 0 0.47396060786238958 0.40664666454012888 0 0.4582260943716816 0.41638258826940372 0 0.43130708192407757 0.41182248661247089 0 0.44560661610732849 0.40750347698709788 0 0.44317068070027821 0.42329205785473661 0 0.4582260943716816 0.41638258826940372 0 0.44560661610732849 0.40750347698709788 0 0.44317068070027821 0.42329205785473661 0 0.45685499158874482 0.43492931900684378 0 0.4582260943716816 0.41638258826940372 0 0.44317068070027821 0.42329205785473661 0 0.45685499158874482 0.43492931900684378 0 0.44317068070027821 0.42329205785473661 0 0.4408219570231473 0.43853985938594842 0 0.4408219570231473 0.43853985938594842 0 0.44158919512087508 0.44822444692186503 0 0.43055916751284151 0.4471959716338173 0 0.4408219570231473 0.43853985938594842 0 0.44158919512087508 0.44822444692186503 0 0.44894978309654371 0.44444128137971911 0 0.45685499158874482 0.43492931900684378 0 0.4408219570231473 0.43853985938594842 0 0.44894978309654371 0.44444128137971911 0 0.44158919512087508 0.44822444692186503 0 0.44510334001513818 0.4568476921941293 0 0.43055916751284151 0.4471959716338173 0 0.44158919512087508 0.44822444692186503 0 0.44510334001513818 0.4568476921941293 0 0.44677157513223731 0.45366485892093628 0 0.44894978309654371 0.44444128137971911 0 0.44677157513223731 0.45366485892093628 0 0.4583645800248462 0.44506311184753611 0 0.44158919512087508 0.44822444692186503 0 0.44894978309654371 0.44444128137971911 0 0.44677157513223731 0.45366485892093628 0 0.4393113486299639 0.46789825857402101 0 0.44510334001513818 0.4568476921941293 0 0.45954089908664197 0.46627341581159432 0 0.4393113486299639 0.46789825857402101 0 0.45954089908664197 0.46627341581159432 0 0.4393113486299639 0.46789825857402101 0 0.44510334001513818 0.4568476921941293 0 0.44510334001513818 0.4568476921941293 0 0.44677157513223731 0.45366485892093628 0 0.44510334001513818 0.4568476921941293 0 0.46976242622725239 0.45124306440153689 0 0.44510334001513818 0.4568476921941293 0 0.44677157513223731 0.45366485892093628 0 0.46976242622725239 0.45124306440153689 0 0.44510334001513818 0.4568476921941293 0 0.45954089908664197 0.46627341581159432 0 0.46976242622725239 0.45124306440153689 0 0.44677157513223731 0.45366485892093628 0 0.4583645800248462 0.44506311184753611 0 0.46976242622725239 0.45124306440153689 0 0.45685499158874482 0.43492931900684378 0 0.44894978309654371 0.44444128137971911 0 0.4583645800248462 0.44506311184753611 0 0.4583645800248462 0.44506311184753611 0 0.46948412407945278 0.44103703552864432 0 0.46976242622725239 0.45124306440153689 0 0.45685499158874482 0.43492931900684378 0 0.4583645800248462 0.44506311184753611 0 0.46948412407945278 0.44103703552864432 0 0.47720483329342911 0.42616221288852668 0 0.46948412407945278 0.44103703552864432 0 0.48275724908235818 0.44621894423069958 0 0.46948412407945278 0.44103703552864432 0 0.48275724908235818 0.44621894423069958 0 0.46976242622725239 0.45124306440153689 0 0.48275724908235818 0.44621894423069958 0 0.46976242622725239 0.45124306440153689 0 0.47977044954332032 0.46464857304916912 0 0.45954089908664197 0.46627341581159432 0 0.47977044954332032 0.46464857304916912 0 0.45954089908664197 0.46627341581159432 0 0.46976242622725239 0.45124306440153689 0 0.47977044954332032 0.46464857304916912 0 0.48275724908235818 0.44621894423069958 0 0.47977044954332032 0.46464857304916912 0 0.49999999999999861 0.46302373028674382 0 0.47977044954332032 0.46464857304916912 0 0.49999999999999861 0.46302373028674382 0 0.5 0.43412325419455849 0 0.48275724908235818 0.44621894423069958 0 0.49999999999999861 0.46302373028674382 0 0.49999999999999861 0.46302373028674382 0 0.5 0.5 0 0.47219353801703717 0.4829607966743949 0 0.5 0.5 0 0.47219353801703717 0.4829607966743949 0 0.45516282512708578 0.5 0 0.47977044954332032 0.46464857304916912 0 0.49999999999999861 0.46302373028674382 0 0.47219353801703717 0.4829607966743949 0 0.45954089908664197 0.46627341581159432 0 0.47977044954332032 0.46464857304916912 0 0.47219353801703717 0.4829607966743949 0 0.47219353801703717 0.4829607966743949 0 0.45516282512708578 0.5 0 0.45142142646758632 0.48021632006940418 0 0.45954089908664197 0.46627341581159432 0 0.47219353801703717 0.4829607966743949 0 0.45142142646758632 0.48021632006940418 0 0.4393113486299639 0.46789825857402101 0 0.45142142646758632 0.48021632006940418 0 0.43089852147720192 0.48394912928701073 0 0.4393113486299639 0.46789825857402101 0 0.45954089908664197 0.46627341581159432 0 0.45142142646758632 0.48021632006940418 0 0.45516282512708578 0.5 0 0.45142142646758632 0.48021632006940418 0 0.43089852147720192 0.48394912928701073 0 0.45516282512708578 0.5 0 0.42248569432443922 0.49999999999999989 0 0.43089852147720192 0.48394912928701073 0 0.42248569432443922 0.49999999999999989 0 0.417141965519853 0.48452988300358268 0 0.43089852147720192 0.48394912928701073 0 0.42248569432443922 0.49999999999999989 0 0.43089852147720192 0.48394912928701073 0 0.42248569432443922 0.49999999999999989 0 0.40719799186494082 0.48965993984065759 0 0.39411981433122262 0.5 0 0.42248569432443922 0.49999999999999989 0 0.417141965519853 0.48452988300358268 0 0.40719799186494082 0.48965993984065759 0 0.417141965519853 0.48452988300358268 0 0.40719799186494082 0.48965993984065759 0 0.40734286483258397 0.48099546615015593 0 0.41472282685982481 0.47651741492667982 0 0.42202472686983161 0.46928672453691311 0 0.40473810510969932 0.47067519049980661 0 0.42202472686983161 0.46928672453691311 0 0.40473810510969932 0.47067519049980661 0 0.40734286483258397 0.48099546615015593 0 0.41472282685982481 0.47651741492667982 0 0.40473810510969932 0.47067519049980661 0 0.417141965519853 0.48452988300358268 0 0.40734286483258397 0.48099546615015593 0 0.41472282685982481 0.47651741492667982 0 0.417141965519853 0.48452988300358268 0 0.41472282685982481 0.47651741492667982 0 0.42272478473927261 0.47887948947181302 0 0.41472282685982481 0.47651741492667982 0 0.42202472686983161 0.46928672453691311 0 0.42272478473927261 0.47887948947181302 0 0.4393113486299639 0.46789825857402101 0 0.43089852147720192 0.48394912928701073 0 0.4393113486299639 0.46789825857402101 0 0.42202472686983161 0.46928672453691311 0 0.42272478473927261 0.47887948947181302 0 0.4393113486299639 0.46789825857402101 0 0.42272478473927261 0.47887948947181302 0 0.43089852147720192 0.48394912928701073 0 0.417141965519853 0.48452988300358268 0 0.42272478473927261 0.47887948947181302 0 0.43089852147720192 0.48394912928701073 0 0.44510334001513818 0.4568476921941293 0 0.43055916751284151 0.4471959716338173 0 0.42063698502700742 0.46240851516909331 0 0.4393113486299639 0.46789825857402101 0 0.44510334001513818 0.4568476921941293 0 0.42063698502700742 0.46240851516909331 0 0.4393113486299639 0.46789825857402101 0 0.42202472686983161 0.46928672453691311 0 0.42063698502700742 0.46240851516909331 0 0.4393113486299639 0.46789825857402101 0 0.42202472686983161 0.46928672453691311 0 0.44510334001513818 0.4568476921941293 0 0.42063698502700742 0.46240851516909331 0 0.42620734318668951 0.43057461686665471 0 0.4408219570231473 0.43853985938594842 0 0.43055916751284151 0.4471959716338173 0 0.42620734318668951 0.43057461686665471 0 0.43055916751284151 0.4471959716338173 0 0.41336011825886521 0.44585486451800388 0 0.43055916751284151 0.4471959716338173 0 0.41336011825886521 0.44585486451800388 0 0.42063698502700742 0.46240851516909331 0 0.41155518886423448 0.42909934386194248 0 0.41336011825886521 0.44585486451800388 0 0.39503139492354161 0.43788140143245968 0 0.41336011825886521 0.44585486451800388 0 0.42063698502700742 0.46240851516909331 0 0.39617063003887648 0.46796933814405661 0 0.42202472686983161 0.46928672453691311 0 0.42063698502700742 0.46240851516909331 0 0.40473810510969932 0.47067519049980661 0 0.42063698502700742 0.46240851516909331 0 0.39617063003887648 0.46796933814405661 0 0.40473810510969932 0.47067519049980661 0 0.42063698502700742 0.46240851516909331 0 0.39617063003887648 0.46796933814405661 0 0.41336011825886521 0.44585486451800388 0 0.39617063003887648 0.46796933814405661 0 0.39503139492354161 0.43788140143245968 0 0.37218322809940352 0.42613779087652248 0 0.39503139492354161 0.43788140143245968 0 0.37982681549656838 0.45135261394386411 0 0.39617063003887648 0.46796933814405661 0 0.39503139492354161 0.43788140143245968 0 0.37982681549656838 0.45135261394386411 0 0.37170427505074571 0.47353016111901991 0 0.39617063003887648 0.46796933814405661 0 0.37982681549656838 0.45135261394386411 0 0.37170427505074571 0.47353016111901991 0 0.37986649276336998 0.48911602098724283 0 0.39489962031660553 0.48277435004954961 0 0.37170427505074571 0.47353016111901991 0 0.39617063003887648 0.46796933814405661 0 0.37170427505074571 0.47353016111901991 0 0.39617063003887648 0.46796933814405661 0 0.39489962031660553 0.48277435004954961 0 0.37986649276336998 0.48911602098724283 0 0.39411981433122262 0.5 0 0.39489962031660553 0.48277435004954961 0 0.36575393433800579 0.5 0 0.37986649276336998 0.48911602098724283 0 0.39411981433122262 0.5 0 0.40719799186494082 0.48965993984065759 0 0.39411981433122262 0.5 0 0.39489962031660553 0.48277435004954961 0 0.40719799186494082 0.48965993984065759 0 0.40734286483258397 0.48099546615015593 0 0.39489962031660553 0.48277435004954961 0 0.40734286483258397 0.48099546615015593 0 0.40473810510969932 0.47067519049980661 0 0.39489962031660553 0.48277435004954961 0 0.39617063003887648 0.46796933814405661 0 0.40473810510969932 0.47067519049980661 0 0.39489962031660553 0.48277435004954961 0 0.33145417560969781 0.087100081470856947 0 0.33233947487771631 0.1007929423787613 0 0.34969229935110852 0.093227897474406976 0 0.33145417560969781 0.087100081470856947 0 0.34231493749382069 0.066314390235972423 0 0.35126857487049268 0.077277047470379237 0 0.33145417560969781 0.087100081470856947 0 0.34231493749382069 0.066314390235972423 0 0.32381908480511012 0.068552269235633137 0 0.33145417560969781 0.087100081470856947 0 0.34231493749382069 0.066314390235972423 0 0.34231493749382069 0.066314390235972423 0 0.32381908480511012 0.068552269235633137 0 0.33731287417120448 0.053409767562166872 0 0.32381908480511012 0.068552269235633137 0 0.31630257012735319 0.088381179229029244 0 0.30741011100195281 0.078655156414626615 0 0.33145417560969781 0.087100081470856947 0 0.32381908480511012 0.068552269235633137 0 0.31630257012735319 0.088381179229029244 0 0.33145417560969781 0.087100081470856947 0 0.31630257012735319 0.088381179229029244 0 0.31955265092160862 0.10170705594480769 0 0.33145417560969781 0.087100081470856947 0 0.32059341372557493 0.1078857727057414 0 0.33233947487771631 0.1007929423787613 0 0.33145417560969781 0.087100081470856947 0 0.31955265092160862 0.10170705594480769 0 0.32059341372557493 0.1078857727057414 0 0.31630257012735319 0.088381179229029244 0 0.31955265092160862 0.10170705594480769 0 0.31182530231249539 0.098183872439598946 0 0.33145417560969781 0.087100081470856947 0 0.32059341372557493 0.1078857727057414 0 0.31955265092160862 0.10170705594480769 0 0.30778780429658159 0.1056576316251351 0 0.31182530231249539 0.098183872439598946 0 0.32059341372557493 0.1078857727057414 0 0.32801722967508001 0.11007222068386049 0 0.33233947487771631 0.1007929423787613 0 0.32059341372557493 0.1078857727057414 0 0.32437558540373762 0.117669010016339 0 0.30719672230092893 0.1196409652060114 0 0.32437558540373762 0.117669010016339 0 0.30719672230092893 0.1196409652060114 0 0.32116128593483362 0.12825144094693841 0 0.31955265092160862 0.10170705594480769 0 0.32059341372557493 0.1078857727057414 0 0.30719672230092893 0.1196409652060114 0 0.31955265092160862 0.10170705594480769 0 0.30719672230092893 0.1196409652060114 0 0.32059341372557493 0.1078857727057414 0 0.32801722967508001 0.11007222068386049 0 0.32437558540373762 0.117669010016339 0 0.32437558540373762 0.117669010016339 0 0.33262675453952401 0.1257256660761317 0 0.32116128593483362 0.12825144094693841 0 0.32437558540373762 0.117669010016339 0 0.33476044469329108 0.11394115763460019 0 0.33262675453952401 0.1257256660761317 0 0.32801722967508001 0.11007222068386049 0 0.32437558540373762 0.117669010016339 0 0.33476044469329108 0.11394115763460019 0 0.33476044469329108 0.11394115763460019 0 0.34538113221042771 0.1078991936918693 0 0.34552765589005852 0.1225662580257747 0 0.33476044469329108 0.11394115763460019 0 0.34552765589005852 0.1225662580257747 0 0.33262675453952401 0.1257256660761317 0 0.33233947487771631 0.1007929423787613 0 0.34538113221042771 0.1078991936918693 0 0.34969229935110852 0.093227897474406976 0 0.32801722967508001 0.11007222068386049 0 0.33476044469329108 0.11394115763460019 0 0.33233947487771631 0.1007929423787613 0 0.33476044469329108 0.11394115763460019 0 0.33233947487771631 0.1007929423787613 0 0.34538113221042771 0.1078991936918693 0 0.35842651721168872 0.1041023780819013 0 0.36591223250569771 0.094429201960228484 0 0.34969229935110852 0.093227897474406976 0 0.34538113221042771 0.1078991936918693 0 0.35842651721168872 0.1041023780819013 0 0.34969229935110852 0.093227897474406976 0 0.34538113221042771 0.1078991936918693 0 0.35842651721168872 0.1041023780819013 0 0.35647856621523411 0.1155839105123518 0 0.34538113221042771 0.1078991936918693 0 0.34552765589005852 0.1225662580257747 0 0.35647856621523411 0.1155839105123518 0 0.34552765589005852 0.1225662580257747 0 0.35647856621523411 0.1155839105123518 0 0.35599012235683392 0.12540994831616989 0 0.35647856621523411 0.1155839105123518 0 0.36262644821365592 0.1229223894631926 0 0.35599012235683392 0.12540994831616989 0 0.37025946750598587 0.1046732117591074 0 0.37353714964359269 0.12702283653965399 0 0.37971055053204789 0.099020329494696371 0 0.36513469557926348 0.1123021844098111 0 0.37025946750598587 0.1046732117591074 0 0.37353714964359269 0.12702283653965399 0 0.36262644821365592 0.1229223894631926 0 0.36513469557926348 0.1123021844098111 0 0.37353714964359269 0.12702283653965399 0 0.35647856621523411 0.1155839105123518 0 0.36262644821365592 0.1229223894631926 0 0.36513469557926348 0.1123021844098111 0 0.35842651721168872 0.1041023780819013 0 0.35647856621523411 0.1155839105123518 0 0.36513469557926348 0.1123021844098111 0 0.35842651721168872 0.1041023780819013 0 0.36591223250569771 0.094429201960228484 0 0.37025946750598587 0.1046732117591074 0 0.35842651721168872 0.1041023780819013 0 0.36513469557926348 0.1123021844098111 0 0.37025946750598587 0.1046732117591074 0 0.36591223250569771 0.094429201960228484 0 0.37025946750598587 0.1046732117591074 0 0.37971055053204789 0.099020329494696371 0 0.36591223250569771 0.094429201960228484 0 0.3744397415558699 0.086341087212534418 0 0.37971055053204789 0.099020329494696371 0 0.36591223250569771 0.094429201960228484 0 0.3644318208224876 0.081807737027363076 0 0.34969229935110852 0.093227897474406976 0 0.36591223250569771 0.094429201960228484 0 0.3744397415558699 0.086341087212534418 0 0.3644318208224876 0.081807737027363076 0 0.3744397415558699 0.086341087212534418 0 0.3644318208224876 0.081807737027363076 0 0.37437052547156002 0.075421036388670343 0 0.3644318208224876 0.081807737027363076 0 0.34969229935110852 0.093227897474406976 0 0.35126857487049268 0.077277047470379237 0 0.33145417560969781 0.087100081470856947 0 0.34969229935110852 0.093227897474406976 0 0.35126857487049268 0.077277047470379237 0 0.34231493749382069 0.066314390235972423 0 0.35126857487049268 0.077277047470379237 0 0.35653475500000009 0.063379675708273506 0 0.35126857487049268 0.077277047470379237 0 0.35653475500000009 0.063379675708273506 0 0.36322710031275268 0.071231751464020054 0 0.36322710031275268 0.071231751464020054 0 0.37437052547156002 0.075421036388670343 0 0.36952982539922308 0.058273260725414139 0 0.35653475500000009 0.063379675708273506 0 0.36322710031275268 0.071231751464020054 0 0.36952982539922308 0.058273260725414139 0 0.3644318208224876 0.081807737027363076 0 0.35126857487049268 0.077277047470379237 0 0.36322710031275268 0.071231751464020054 0 0.3644318208224876 0.081807737027363076 0 0.36322710031275268 0.071231751464020054 0 0.37437052547156002 0.075421036388670343 0 0.36952982539922308 0.058273260725414139 0 0.35317569937794469 0.04552869900108851 0 0.36952982539922308 0.058273260725414139 0 0.36852844495694431 0.045629574550310359 0 0.35317569937794469 0.04552869900108851 0 0.35653475500000009 0.063379675708273506 0 0.36952982539922308 0.058273260725414139 0 0.35317569937794469 0.04552869900108851 0 0.36952982539922308 0.058273260725414139 0 0.36852844495694431 0.045629574550310359 0 0.3792846887310849 0.048754587642359237 0 0.36852844495694431 0.045629574550310359 0 0.37524330567798497 0.038399978651358337 0 0.3792846887310849 0.048754587642359237 0 0.36852844495694431 0.045629574550310359 0 0.36520164383662013 0.038374626404820318 0 0.37524330567798497 0.038399978651358337 0 0.36959097908565319 0.032143088342111083 0 0.36520164383662013 0.038374626404820318 0 0.37524330567798497 0.038399978651358337 0 0.36959097908565319 0.032143088342111083 0 0.35984945405272628 0.032756242931482923 0 0.36520164383662013 0.038374626404820318 0 0.35984945405272628 0.032756242931482923 0 0.36520164383662013 0.038374626404820318 0 0.35317569937794469 0.04552869900108851 0 0.36959097908565319 0.032143088342111083 0 0.35984945405272628 0.032756242931482923 0 0.36031659290608059 0.029100222996790989 0 0.36852844495694431 0.045629574550310359 0 0.36520164383662013 0.038374626404820318 0 0.35317569937794469 0.04552869900108851 0 0.35984945405272628 0.032756242931482923 0 0.35317569937794469 0.04552869900108851 0 0.3435576328213425 0.038033462463237633 0 0.36031659290608059 0.029100222996790989 0 0.3435576328213425 0.038033462463237633 0 0.35984945405272628 0.032756242931482923 0 0.35317569937794469 0.04552869900108851 0 0.35984945405272628 0.032756242931482923 0 0.36031659290608059 0.029100222996790989 0 0.3435576328213425 0.038033462463237633 0 0.36031659290608059 0.029100222996790989 0 0.35218751019607042 0.027142420681738388 0 0.3435576328213425 0.038033462463237633 0 0.35317569937794469 0.04552869900108851 0 0.33731287417120448 0.053409767562166872 0 0.3435576328213425 0.038033462463237633 0 0.35317569937794469 0.04552869900108851 0 0.3435576328213425 0.038033462463237633 0 0.34231493749382069 0.066314390235972423 0 0.35653475500000009 0.063379675708273506 0 0.35317569937794469 0.04552869900108851 0 0.34231493749382069 0.066314390235972423 0 0.35317569937794469 0.04552869900108851 0 0.34231493749382069 0.066314390235972423 0 0.35317569937794469 0.04552869900108851 0 0.33731287417120448 0.053409767562166872 0 0.36642895304847711 0.0028477869111517432 0 0.3650404586387942 0.01350129016369625 0 0.37873334006080328 0.0090585985067660347 0 0.3650404586387942 0.01350129016369625 0 0.37873334006080328 0.0090585985067660347 0 0.37707555299081907 0.02016698353034516 0 0.36642895304847711 0.0028477869111517432 0 0.3650404586387942 0.01350129016369625 0 0.35611489857163697 0.0090537399193832292 0 0.36031659290608059 0.029100222996790989 0 0.37707555299081907 0.02016698353034516 0 0.36188917371594959 0.02083820331994099 0 0.36031659290608059 0.029100222996790989 0 0.37707555299081907 0.02016698353034516 0 0.36959097908565319 0.032143088342111083 0 0.36031659290608059 0.029100222996790989 0 0.37707555299081907 0.02016698353034516 0 0.3650404586387942 0.01350129016369625 0 0.36188917371594959 0.02083820331994099 0 0.35566376664189608 0.016270511801761849 0 0.3650404586387942 0.01350129016369625 0 0.36188917371594959 0.02083820331994099 0 0.37707555299081907 0.02016698353034516 0 0.36188917371594959 0.02083820331994099 0 0.36031659290608059 0.029100222996790989 0 0.35769840777095741 0.02482585806824384 0 0.36031659290608059 0.029100222996790989 0 0.35769840777095741 0.02482585806824384 0 0.35218751019607042 0.027142420681738388 0 0.35218751019607042 0.027142420681738388 0 0.34951097666136549 0.021705906449717021 0 0.35540312338234292 0.02175445865904959 0 0.35769840777095741 0.02482585806824384 0 0.35218751019607042 0.027142420681738388 0 0.35540312338234292 0.02175445865904959 0 0.35218751019607042 0.027142420681738388 0 0.34601505833221741 0.027142036318731671 0 0.3435576328213425 0.038033462463237633 0 0.35218751019607042 0.027142420681738388 0 0.34601505833221741 0.027142036318731671 0 0.34951097666136549 0.021705906449717021 0 0.34882407386418429 0.015853734643815651 0 0.34340651743181622 0.01197148962925816 0 0.34305173978599091 0.02015546479430556 0 0.34601505833221741 0.027142036318731671 0 0.34951097666136549 0.021705906449717021 0 0.34305173978599091 0.02015546479430556 0 0.34951097666136549 0.021705906449717021 0 0.34882407386418429 0.015853734643815651 0 0.34305173978599091 0.02015546479430556 0 0.34951097666136549 0.021705906449717021 0 0.34882407386418429 0.015853734643815651 0 0.35566376664189608 0.016270511801761849 0 0.34951097666136549 0.021705906449717021 0 0.35540312338234292 0.02175445865904959 0 0.35566376664189608 0.016270511801761849 0 0.36188917371594959 0.02083820331994099 0 0.35540312338234292 0.02175445865904959 0 0.35566376664189608 0.016270511801761849 0 0.36188917371594959 0.02083820331994099 0 0.35769840777095741 0.02482585806824384 0 0.35540312338234292 0.02175445865904959 0 0.3650404586387942 0.01350129016369625 0 0.35566376664189608 0.016270511801761849 0 0.35611489857163697 0.0090537399193832292 0 0.34882407386418429 0.015853734643815651 0 0.35566376664189608 0.016270511801761849 0 0.35611489857163697 0.0090537399193832292 0 0.34882407386418429 0.015853734643815651 0 0.34702825459911713 0.0062134488153237667 0 0.34340651743181622 0.01197148962925816 0 0.34882407386418429 0.015853734643815651 0 0.35611489857163697 0.0090537399193832292 0 0.34702825459911713 0.0062134488153237667 0 0.34702825459911713 0.0062134488153237667 0 0.35515594858733218 -0.00054995058001772016 0 0.34467921555257031 -0.002962009106727068 0 0.36642895304847711 0.0028477869111517432 0 0.35611489857163697 0.0090537399193832292 0 0.35515594858733218 -0.00054995058001772016 0 0.35611489857163697 0.0090537399193832292 0 0.34702825459911713 0.0062134488153237667 0 0.35515594858733218 -0.00054995058001772016 0 0.32906798822248451 0.0022292724924981222 0 0.33759069584632828 0.0048298461918768196 0 0.33032746775886679 0.010338986568239431 0 0.32906798822248451 0.0022292724924981222 0 0.33759069584632828 0.0048298461918768196 0 0.33440601945123971 -0.0057011628620716199 0 0.34702825459911713 0.0062134488153237667 0 0.33759069584632828 0.0048298461918768196 0 0.34340651743181622 0.01197148962925816 0 0.34702825459911713 0.0062134488153237667 0 0.33759069584632828 0.0048298461918768196 0 0.34467921555257031 -0.002962009106727068 0 0.33759069584632828 0.0048298461918768196 0 0.33742009227316733 0.014756936623829941 0 0.34340651743181622 0.01197148962925816 0 0.33742009227316733 0.014756936623829941 0 0.34340651743181622 0.01197148962925816 0 0.34305173978599091 0.02015546479430556 0 0.33759069584632828 0.0048298461918768196 0 0.33742009227316733 0.014756936623829941 0 0.33032746775886679 0.010338986568239431 0 0.32543106526079951 0.023907659664303488 0 0.3435576328213425 0.038033462463237633 0 0.33446401954442861 0.025920327292151279 0 0.32543106526079951 0.023907659664303488 0 0.3435576328213425 0.038033462463237633 0 0.33742009227316733 0.014756936623829941 0 0.33032746775886679 0.010338986568239431 0 0.33446401954442861 0.025920327292151279 0 0.33742009227316733 0.014756936623829941 0 0.34305173978599091 0.02015546479430556 0 0.33446401954442861 0.025920327292151279 0 0.34601505833221741 0.027142036318731671 0 0.34305173978599091 0.02015546479430556 0 0.33446401954442861 0.025920327292151279 0 0.34601505833221741 0.027142036318731671 0 0.33446401954442861 0.025920327292151279 0 0.3435576328213425 0.038033462463237633 0 0.33446401954442861 0.025920327292151279 0 0.32543106526079951 0.023907659664303488 0 0.31933739796647281 0.0098329004768663974 0 0.33446401954442861 0.025920327292151279 0 0.31933739796647281 0.0098329004768663974 0 0.32543106526079951 0.023907659664303488 0 0.31348113240042191 0.029888191151119251 0 0.32082467137712389 0.036344990819430212 0 0.32543106526079951 0.023907659664303488 0 0.31348113240042191 0.029888191151119251 0 0.31319998263201282 0.01909765176294911 0 0.32543106526079951 0.023907659664303488 0 0.31319998263201282 0.01909765176294911 0 0.31933739796647281 0.0098329004768663974 0 0.32906798822248451 0.0022292724924981222 0 0.31933739796647281 0.0098329004768663974 0 0.323678360089515 -0.0081542079124204137 0 0.33032746775886679 0.010338986568239431 0 0.33446401954442861 0.025920327292151279 0 0.31933739796647281 0.0098329004768663974 0 0.31319998263201282 0.01909765176294911 0 0.31933739796647281 0.0098329004768663974 0 0.30731068762782848 0.01117427908853828 0 0.32906798822248451 0.0022292724924981222 0 0.33032746775886679 0.010338986568239431 0 0.31933739796647281 0.0098329004768663974 0 0.32381908480511012 0.068552269235633137 0 0.33731287417120448 0.053409767562166872 0 0.32369701635780418 0.048620016874902673 0 0.3435576328213425 0.038033462463237633 0 0.33006837729345317 0.03665007372908257 0 0.32369701635780418 0.048620016874902673 0 0.3435576328213425 0.038033462463237633 0 0.32369701635780418 0.048620016874902673 0 0.33731287417120448 0.053409767562166872 0 0.3435576328213425 0.038033462463237633 0 0.32369701635780418 0.048620016874902673 0 0.32543106526079951 0.023907659664303488 0 0.3435576328213425 0.038033462463237633 0 0.33006837729345317 0.03665007372908257 0 0.33006837729345317 0.03665007372908257 0 0.32082467137712389 0.036344990819430212 0 0.32369701635780418 0.048620016874902673 0 0.32543106526079951 0.023907659664303488 0 0.33006837729345317 0.03665007372908257 0 0.32082467137712389 0.036344990819430212 0 0.31348113240042191 0.029888191151119251 0 0.32082467137712389 0.036344990819430212 0 0.31144576557314108 0.04265901267774308 0 0.32082467137712389 0.036344990819430212 0 0.32369701635780418 0.048620016874902673 0 0.31144576557314108 0.04265901267774308 0 0.32369701635780418 0.048620016874902673 0 0.30383639989426642 0.059206571286568498 0 0.32369701635780418 0.048620016874902673 0 0.30383639989426642 0.059206571286568498 0 0.31144576557314108 0.04265901267774308 0 0.32381908480511012 0.068552269235633137 0 0.32369701635780418 0.048620016874902673 0 0.30383639989426642 0.059206571286568498 0 0.30383639989426642 0.059206571286568498 0 0.31144576557314108 0.04265901267774308 0 0.29669079440720392 0.040846561703298832 0 0.31348113240042191 0.029888191151119251 0 0.31144576557314108 0.04265901267774308 0 0.29669079440720392 0.040846561703298832 0 0.29669079440720392 0.040846561703298832 0 0.28130584529462771 0.042754763327043803 0 0.28590187316036347 0.02905187528255164 0 0.29669079440720392 0.040846561703298832 0 0.28130584529462771 0.042754763327043803 0 0.28548531059185872 0.058985933475976707 0 0.30383639989426642 0.059206571286568498 0 0.29669079440720392 0.040846561703298832 0 0.28548531059185872 0.058985933475976707 0 0.31933739796647281 0.0098329004768663974 0 0.30421077638851429 -0.0062545263384160207 0 0.30731068762782848 0.01117427908853828 0 0.29662453504030911 0.011699532524542561 0 0.30421077638851429 -0.0062545263384160207 0 0.31933739796647281 0.0098329004768663974 0 0.30731068762782848 0.01117427908853828 0 0.30421077638851429 -0.0062545263384160207 0 0.30731068762782848 0.01117427908853828 0 0.29971828353420149 0.02047191038580461 0 0.29662453504030911 0.011699532524542561 0 0.31348113240042191 0.029888191151119251 0 0.29669079440720392 0.040846561703298832 0 0.29971828353420149 0.02047191038580461 0 0.31348113240042191 0.029888191151119251 0 0.31319998263201282 0.01909765176294911 0 0.29971828353420149 0.02047191038580461 0 0.31319998263201282 0.01909765176294911 0 0.30731068762782848 0.01117427908853828 0 0.29971828353420149 0.02047191038580461 0 0.31348113240042191 0.029888191151119251 0 0.29971828353420149 0.02047191038580461 0 0.29971828353420149 0.02047191038580461 0 0.28590187316036347 0.02905187528255164 0 0.28595543466797901 0.011055629620493029 0 0.29669079440720392 0.040846561703298832 0 0.29971828353420149 0.02047191038580461 0 0.28590187316036347 0.02905187528255164 0 0.29971828353420149 0.02047191038580461 0 0.28595543466797901 0.011055629620493029 0 0.28758352426337419 0.00951183574126775 0 0.30421077638851429 -0.0062545263384160207 0 0.28758352426337419 0.00951183574126775 0 0.2905745917446767 -0.0093145170178452665 0 0.29662453504030911 0.011699532524542561 0 0.28758352426337419 0.00951183574126775 0 0.30421077638851429 -0.0062545263384160207 0 0.29662453504030911 0.011699532524542561 0 0.28595543466797901 0.011055629620493029 0 0.28758352426337419 0.00951183574126775 0 0.29971828353420149 0.02047191038580461 0 0.29662453504030911 0.011699532524542561 0 0.28595543466797901 0.011055629620493029 0 0.28595543466797901 0.011055629620493029 0 0.28758352426337419 0.00951183574126775 0 0.28595543466797901 0.011055629620493029 0 0.26583900789780501 0.030130511376117369 0 0.26841754345374957 -0.00094346368570095117 0 0.28595543466797901 0.011055629620493029 0 0.28758352426337419 0.00951183574126775 0 0.26841754345374957 -0.00094346368570095117 0 0.28595543466797901 0.011055629620493029 0 0.26841754345374957 -0.00094346368570095117 0 0.28595543466797901 0.011055629620493029 0 0.26583900789780501 0.030130511376117369 0 0.28590187316036347 0.02905187528255164 0 0.28595543466797901 0.011055629620493029 0 0.26583900789780501 0.030130511376117369 0 0.24324226348344821 0.029690765515171861 0 0.26583900789780501 0.030130511376117369 0 0.25126880305074312 0.01387743523983893 0 0.26583900789780501 0.030130511376117369 0 0.2606787272139568 0.001980303172608151 0 0.26583900789780501 0.030130511376117369 0 0.2606787272139568 0.001980303172608151 0 0.26841754345374957 -0.00094346368570095117 0 0.26583900789780501 0.030130511376117369 0 0.25126880305074312 0.01387743523983893 0 0.2606787272139568 0.001980303172608151 0 0.24488347523265111 0.00476263714914716 0 0.2606787272139568 0.001980303172608151 0 0.25042228605187061 -0.0047491306960444736 0 0.2606787272139568 0.001980303172608151 0 0.26841754345374957 -0.00094346368570095117 0 0.28130584529462771 0.042754763327043803 0 0.28548531059185872 0.058985933475976707 0 0.26996227796595518 0.052623650414277391 0 0.28548531059185872 0.058985933475976707 0 0.26996227796595518 0.052623650414277391 0 0.27408554803410529 0.075116789452437327 0 0.28130584529462771 0.042754763327043803 0 0.28590187316036347 0.02905187528255164 0 0.26583900789780501 0.030130511376117369 0 0.26583900789780501 0.030130511376117369 0 0.26996227796595518 0.052623650414277391 0 0.28130584529462771 0.042754763327043803 0 0.26583900789780501 0.030130511376117369 0 0.26996227796595518 0.052623650414277391 0 0.24680145086798089 0.048182382784922581 0 0.26583900789780501 0.030130511376117369 0 0.26996227796595518 0.052623650414277391 0 0.24680145086798089 0.048182382784922581 0 0.24324226348344821 0.029690765515171861 0 0.26583900789780501 0.030130511376117369 0 0.24680145086798089 0.048182382784922581 0 0.26583900789780501 0.030130511376117369 0 0.24680145086798089 0.048182382784922581 0 0.26996227796595518 0.052623650414277391 0 0.25474285378151401 0.060042326012909437 0 0.26996227796595518 0.052623650414277391 0 0.25474285378151401 0.060042326012909437 0 0.26375511928599632 0.065385991901108914 0 0.25161164891901211 0.072730534538392233 0 0.26375511928599632 0.065385991901108914 0 0.27408554803410529 0.075116789452437327 0 0.25161164891901211 0.072730534538392233 0 0.27408554803410529 0.075116789452437327 0 0.25474285378151401 0.060042326012909437 0 0.25161164891901211 0.072730534538392233 0 0.26375511928599632 0.065385991901108914 0 0.25161164891901211 0.072730534538392233 0 0.26313658244725779 0.078730631333103762 0 0.27408554803410529 0.075116789452437327 0 0.25161164891901211 0.072730534538392233 0 0.2517554421642465 0.080550414852398958 0 0.25717487398103839 0.080719670610067629 0 0.25161164891901211 0.072730534538392233 0 0.25717487398103839 0.080719670610067629 0 0.26313658244725779 0.078730631333103762 0 0.24405622954033299 0.080224300494273634 0 0.25398259996089712 0.090928059046335205 0 0.25225342751038088 0.087010082367358924 0 0.24929952472796879 0.09277626672631184 0 0.25398259996089712 0.090928059046335205 0 0.25088998798156009 0.095610935489149285 0 0.25398259996089712 0.090928059046335205 0 0.25225342751038088 0.087010082367358924 0 0.25398259996089712 0.090928059046335205 0 0.25225342751038088 0.087010082367358924 0 0.25814872205242839 0.086306581733941512 0 0.25483311642702361 0.083646687390941749 0 0.25717487398103839 0.080719670610067629 0 0.25814872205242839 0.086306581733941512 0 0.25225342751038088 0.087010082367358924 0 0.25483311642702361 0.083646687390941749 0 0.25814872205242839 0.086306581733941512 0 0.25225342751038088 0.087010082367358924 0 0.25483311642702361 0.083646687390941749 0 0.2517554421642465 0.080550414852398958 0 0.25483311642702361 0.083646687390941749 0 0.2517554421642465 0.080550414852398958 0 0.25717487398103839 0.080719670610067629 0 0.25717487398103839 0.080719670610067629 0 0.26313658244725779 0.078730631333103762 0 0.26350397538811521 0.083748765672116282 0 0.26313658244725779 0.078730631333103762 0 0.26350397538811521 0.083748765672116282 0 0.26930686591401798 0.081337396392505382 0 0.25717487398103839 0.080719670610067629 0 0.26350397538811521 0.083748765672116282 0 0.25814872205242839 0.086306581733941512 0 0.25398259996089712 0.090928059046335205 0 0.25814872205242839 0.086306581733941512 0 0.26507059787700948 0.09074437487507464 0 0.26350397538811521 0.083748765672116282 0 0.25814872205242839 0.086306581733941512 0 0.26507059787700948 0.09074437487507464 0 0.26507059787700948 0.09074437487507464 0 0.26937892197048602 0.086383873316705495 0 0.27348993660998783 0.09312921854415801 0 0.26937892197048602 0.086383873316705495 0 0.27552323406329948 0.082959611099673189 0 0.27348993660998783 0.09312921854415801 0 0.26350397538811521 0.083748765672116282 0 0.26507059787700948 0.09074437487507464 0 0.26937892197048602 0.086383873316705495 0 0.26313658244725779 0.078730631333103762 0 0.26930686591401798 0.081337396392505382 0 0.27408554803410529 0.075116789452437327 0 0.26930686591401798 0.081337396392505382 0 0.27552323406329948 0.082959611099673189 0 0.27408554803410529 0.075116789452437327 0 0.26937892197048602 0.086383873316705495 0 0.26930686591401798 0.081337396392505382 0 0.27552323406329948 0.082959611099673189 0 0.26350397538811521 0.083748765672116282 0 0.26937892197048602 0.086383873316705495 0 0.26930686591401798 0.081337396392505382 0 0.27552323406329948 0.082959611099673189 0 0.27408554803410529 0.075116789452437327 0 0.27552323406329948 0.082959611099673189 0 0.27408554803410529 0.075116789452437327 0 0.28457866082900979 0.083912989003222832 0 0.27552323406329948 0.082959611099673189 0 0.28100443421200938 0.091294493362817419 0 0.28457866082900979 0.083912989003222832 0 0.27552323406329948 0.082959611099673189 0 0.27348993660998783 0.09312921854415801 0 0.28100443421200938 0.091294493362817419 0 0.26996227796595518 0.052623650414277391 0 0.27408554803410529 0.075116789452437327 0 0.26996227796595518 0.052623650414277391 0 0.26375511928599632 0.065385991901108914 0 0.27408554803410529 0.075116789452437327 0 0.30383639989426642 0.059206571286568498 0 0.28548531059185872 0.058985933475976707 0 0.29074782951802902 0.076885972933531874 0 0.27408554803410529 0.075116789452437327 0 0.29074782951802902 0.076885972933531874 0 0.28548531059185872 0.058985933475976707 0 0.27408554803410529 0.075116789452437327 0 0.29074782951802902 0.076885972933531874 0 0.27408554803410529 0.075116789452437327 0 0.29074782951802902 0.076885972933531874 0 0.28457866082900979 0.083912989003222832 0 0.28100443421200938 0.091294493362817419 0 0.28457866082900979 0.083912989003222832 0 0.29025823347342838 0.095292739253499861 0 0.28457866082900979 0.083912989003222832 0 0.29619563494766438 0.086688458219315936 0 0.29025823347342838 0.095292739253499861 0 0.29619563494766438 0.086688458219315936 0 0.30391394979461611 0.094587001384033087 0 0.29025823347342838 0.095292739253499861 0 0.29074782951802902 0.076885972933531874 0 0.28457866082900979 0.083912989003222832 0 0.29619563494766438 0.086688458219315936 0 0.31630257012735319 0.088381179229029244 0 0.30741011100195281 0.078655156414626615 0 0.30391394979461611 0.094587001384033087 0 0.29619563494766438 0.086688458219315936 0 0.30741011100195281 0.078655156414626615 0 0.30391394979461611 0.094587001384033087 0 0.29074782951802902 0.076885972933531874 0 0.29619563494766438 0.086688458219315936 0 0.30741011100195281 0.078655156414626615 0 0.31630257012735319 0.088381179229029244 0 0.31182530231249539 0.098183872439598946 0 0.30391394979461611 0.094587001384033087 0 0.30383639989426642 0.059206571286568498 0 0.29074782951802902 0.076885972933531874 0 0.30741011100195281 0.078655156414626615 0 0.32381908480511012 0.068552269235633137 0 0.30383639989426642 0.059206571286568498 0 0.30741011100195281 0.078655156414626615 0 0.29074782951802902 0.076885972933531874 0 0.30741011100195281 0.078655156414626615 0 0.30719672230092893 0.1196409652060114 0 0.28886850701188682 0.1161942547232831 0 0.29484079368024918 0.1375748744672152 0 0.30719672230092893 0.1196409652060114 0 0.29623968428755187 0.1063200974104191 0 0.28886850701188682 0.1161942547232831 0 0.30719672230092893 0.1196409652060114 0 0.30778780429658159 0.1056576316251351 0 0.29623968428755187 0.1063200974104191 0 0.31955265092160862 0.10170705594480769 0 0.30719672230092893 0.1196409652060114 0 0.30778780429658159 0.1056576316251351 0 0.30778780429658159 0.1056576316251351 0 0.31182530231249539 0.098183872439598946 0 0.30391394979461611 0.094587001384033087 0 0.30778780429658159 0.1056576316251351 0 0.30391394979461611 0.094587001384033087 0 0.29623968428755187 0.1063200974104191 0 0.29623968428755187 0.1063200974104191 0 0.28350769646287682 0.1010193711813072 0 0.28886850701188682 0.1161942547232831 0 0.29623968428755187 0.1063200974104191 0 0.29025823347342838 0.095292739253499861 0 0.28350769646287682 0.1010193711813072 0 0.30391394979461611 0.094587001384033087 0 0.29623968428755187 0.1063200974104191 0 0.29025823347342838 0.095292739253499861 0 0.28100443421200938 0.091294493362817419 0 0.29025823347342838 0.095292739253499861 0 0.28350769646287682 0.1010193711813072 0 0.28886850701188682 0.1161942547232831 0 0.27598434037673591 0.1156252751582746 0 0.272984110026676 0.13398187550105789 0 0.27598434037673591 0.1156252751582746 0 0.26348335499378628 0.11245496727369669 0 0.272984110026676 0.13398187550105789 0 0.28886850701188682 0.1161942547232831 0 0.27598434037673591 0.1156252751582746 0 0.27142555348639208 0.10356115688480889 0 0.26348335499378628 0.11245496727369669 0 0.272984110026676 0.13398187550105789 0 0.28886850701188682 0.1161942547232831 0 0.27142555348639208 0.10356115688480889 0 0.27598434037673591 0.1156252751582746 0 0.27142555348639208 0.10356115688480889 0 0.26348335499378628 0.11245496727369669 0 0.28350769646287682 0.1010193711813072 0 0.28886850701188682 0.1161942547232831 0 0.27142555348639208 0.10356115688480889 0 0.27348993660998783 0.09312921854415801 0 0.28350769646287682 0.1010193711813072 0 0.27142555348639208 0.10356115688480889 0 0.27348993660998783 0.09312921854415801 0 0.28100443421200938 0.091294493362817419 0 0.28350769646287682 0.1010193711813072 0 0.26507059787700948 0.09074437487507464 0 0.27348993660998783 0.09312921854415801 0 0.27142555348639208 0.10356115688480889 0 0.25398259996089712 0.090928059046335205 0 0.25388215962848382 0.1019767303477439 0 0.26348335499378628 0.11245496727369669 0 0.25398259996089712 0.090928059046335205 0 0.26348335499378628 0.11245496727369669 0 0.25398259996089712 0.090928059046335205 0 0.27142555348639208 0.10356115688480889 0 0.26348335499378628 0.11245496727369669 0 0.25398259996089712 0.090928059046335205 0 0.26507059787700948 0.09074437487507464 0 0.27142555348639208 0.10356115688480889 0 0.25398259996089712 0.090928059046335205 0 0.27142555348639208 0.10356115688480889 0 0.25388215962848382 0.1019767303477439 0 0.26348335499378628 0.11245496727369669 0 0.25446947570225847 0.11046143135598049 0 0.24734493670419361 0.1068835534419868 0 0.25388215962848382 0.1019767303477439 0 0.25446947570225847 0.11046143135598049 0 0.25398259996089712 0.090928059046335205 0 0.25388215962848382 0.1019767303477439 0 0.25088998798156009 0.095610935489149285 0 0.24639972969286381 0.097120955784311389 0 0.25388215962848382 0.1019767303477439 0 0.25088998798156009 0.095610935489149285 0 0.26348335499378628 0.11245496727369669 0 0.25883558392711081 0.1280248590344279 0 0.272984110026676 0.13398187550105789 0 0.24734493670419361 0.1068835534419868 0 0.25446947570225847 0.11046143135598049 0 0.25118777109297968 0.1185556191124543 0 0.26348335499378628 0.11245496727369669 0 0.25446947570225847 0.11046143135598049 0 0.25118777109297968 0.1185556191124543 0 0.26348335499378628 0.11245496727369669 0 0.25118777109297968 0.1185556191124543 0 0.25883558392711081 0.1280248590344279 0 0.24770667845891439 0.1326561328647054 0 0.25118777109297968 0.1185556191124543 0 0.25883558392711081 0.1280248590344279 0 0.24718136849428871 0.14582163936673781 0 0.24770667845891439 0.1326561328647054 0 0.25881600506319752 0.14247570042022531 0 0.24770667845891439 0.1326561328647054 0 0.25883558392711081 0.1280248590344279 0 0.25881600506319752 0.14247570042022531 0 0.25883558392711081 0.1280248590344279 0 0.272984110026676 0.13398187550105789 0 0.25881600506319752 0.14247570042022531 0 0.272984110026676 0.13398187550105789 0 0.28248486505956832 0.155508783728418 0 0.272984110026676 0.13398187550105789 0 0.26679022889061582 0.1540467313307454 0 0.28248486505956832 0.155508783728418 0 0.272984110026676 0.13398187550105789 0 0.26679022889061582 0.1540467313307454 0 0.25881600506319752 0.14247570042022531 0 0.26679022889061582 0.1540467313307454 0 0.25881600506319752 0.14247570042022531 0 0.25270998014602059 0.15868141745007261 0 0.24718136849428871 0.14582163936673781 0 0.25881600506319752 0.14247570042022531 0 0.25270998014602059 0.15868141745007261 0 0.24880186532544779 0.17141868754398379 0 0.25270998014602059 0.15868141745007261 0 0.25806746919434292 0.1717213214653984 0 0.25270998014602059 0.15868141745007261 0 0.25806746919434292 0.1717213214653984 0 0.26115840608356028 0.16317752611207489 0 0.25806746919434292 0.1717213214653984 0 0.26115840608356028 0.16317752611207489 0 0.2721961777782822 0.1704422128363442 0 0.26679022889061582 0.1540467313307454 0 0.25270998014602059 0.15868141745007261 0 0.26115840608356028 0.16317752611207489 0 0.2430509576257906 0.1782428790590608 0 0.2533764568832888 0.1801615451987901 0 0.25573313105287498 0.19368949404512251 0 0.2533764568832888 0.1801615451987901 0 0.26190749049699502 0.18537564194426959 0 0.25573313105287498 0.19368949404512251 0 0.24880186532544779 0.17141868754398379 0 0.25806746919434292 0.1717213214653984 0 0.2533764568832888 0.1801615451987901 0 0.25806746919434292 0.1717213214653984 0 0.2533764568832888 0.1801615451987901 0 0.26190749049699502 0.18537564194426959 0 0.25806746919434292 0.1717213214653984 0 0.26190749049699502 0.18537564194426959 0 0.2721961777782822 0.1704422128363442 0 0.26190749049699502 0.18537564194426959 0 0.27335951068527592 0.17993629467213679 0 0.277604711708063 0.1866477462129833 0 0.26190749049699502 0.18537564194426959 0 0.2721961777782822 0.1704422128363442 0 0.26190749049699502 0.18537564194426959 0 0.27335951068527592 0.17993629467213679 0 0.2721961777782822 0.1704422128363442 0 0.27335951068527592 0.17993629467213679 0 0.2721961777782822 0.1704422128363442 0 0.2817296627577634 0.17727957769495009 0 0.27335951068527592 0.17993629467213679 0 0.277604711708063 0.1866477462129833 0 0.2817296627577634 0.17727957769495009 0 0.26679022889061582 0.1540467313307454 0 0.26115840608356028 0.16317752611207489 0 0.2721961777782822 0.1704422128363442 0 0.26679022889061582 0.1540467313307454 0 0.2721961777782822 0.1704422128363442 0 0.28248486505956832 0.155508783728418 0 0.2721961777782822 0.1704422128363442 0 0.28697054406703049 0.16567248124475481 0 0.2817296627577634 0.17727957769495009 0 0.2721961777782822 0.1704422128363442 0 0.28697054406703049 0.16567248124475481 0 0.28248486505956832 0.155508783728418 0 0.2721961777782822 0.1704422128363442 0 0.28248486505956832 0.155508783728418 0 0.28697054406703049 0.16567248124475481 0 0.28248486505956832 0.155508783728418 0 0.28697054406703049 0.16567248124475481 0 0.29238407922976289 0.15822209381059379 0 0.28248486505956832 0.155508783728418 0 0.29514107404428952 0.16522892070749229 0 0.29148247170386937 0.1736281346241263 0 0.29873706508564091 0.17162098712721521 0 0.28697054406703049 0.16567248124475481 0 0.29514107404428952 0.16522892070749229 0 0.29148247170386937 0.1736281346241263 0 0.28697054406703049 0.16567248124475481 0 0.29514107404428952 0.16522892070749229 0 0.29238407922976289 0.15822209381059379 0 0.29514107404428952 0.16522892070749229 0 0.29238407922976289 0.15822209381059379 0 0.30095465584757608 0.1572373083200885 0 0.28564469909236939 0.18602330441469361 0 0.2817296627577634 0.17727957769495009 0 0.29041664458222849 0.18182328024806119 0 0.277604711708063 0.1866477462129833 0 0.28564469909236939 0.18602330441469361 0 0.2817296627577634 0.17727957769495009 0 0.2817296627577634 0.17727957769495009 0 0.29148247170386937 0.1736281346241263 0 0.29041664458222849 0.18182328024806119 0 0.28697054406703049 0.16567248124475481 0 0.2817296627577634 0.17727957769495009 0 0.29148247170386937 0.1736281346241263 0 0.29148247170386937 0.1736281346241263 0 0.29873245439055129 0.18056236023027811 0 0.29873706508564091 0.17162098712721521 0 0.29148247170386937 0.1736281346241263 0 0.29041664458222849 0.18182328024806119 0 0.29873245439055129 0.18056236023027811 0 0.28564469909236939 0.18602330441469361 0 0.29041664458222849 0.18182328024806119 0 0.29773671176559818 0.19291325915372071 0 0.29041664458222849 0.18182328024806119 0 0.29873245439055129 0.18056236023027811 0 0.29773671176559818 0.19291325915372071 0 0.3071728998606848 0.18275212493630341 0 0.3113338377628877 0.16841406630250039 0 0.31473765888300281 0.19437385954368849 0 0.29873245439055129 0.18056236023027811 0 0.3071728998606848 0.18275212493630341 0 0.29773671176559818 0.19291325915372071 0 0.29873245439055129 0.18056236023027811 0 0.30369187200970499 0.17411840391664199 0 0.29873706508564091 0.17162098712721521 0 0.29873245439055129 0.18056236023027811 0 0.30369187200970499 0.17411840391664199 0 0.3071728998606848 0.18275212493630341 0 0.30369187200970499 0.17411840391664199 0 0.3071728998606848 0.18275212493630341 0 0.3113338377628877 0.16841406630250039 0 0.3113338377628877 0.16841406630250039 0 0.31162390837372611 0.1610010036012586 0 0.30793001664277259 0.14245427306131239 0 0.29514107404428952 0.16522892070749229 0 0.30095465584757608 0.1572373083200885 0 0.30248310294876002 0.16724248098691269 0 0.29514107404428952 0.16522892070749229 0 0.29873706508564091 0.17162098712721521 0 0.30248310294876002 0.16724248098691269 0 0.30369187200970499 0.17411840391664199 0 0.29873706508564091 0.17162098712721521 0 0.30248310294876002 0.16724248098691269 0 0.30369187200970499 0.17411840391664199 0 0.30248310294876002 0.16724248098691269 0 0.3113338377628877 0.16841406630250039 0 0.30095465584757608 0.1572373083200885 0 0.30248310294876002 0.16724248098691269 0 0.3113338377628877 0.16841406630250039 0 0.3113338377628877 0.16841406630250039 0 0.30793001664277259 0.14245427306131239 0 0.31162390837372611 0.1610010036012586 0 0.30793001664277259 0.14245427306131239 0 0.31715731281396659 0.149207922236435 0 0.30095465584757608 0.1572373083200885 0 0.3113338377628877 0.16841406630250039 0 0.30793001664277259 0.14245427306131239 0 0.30095465584757608 0.1572373083200885 0 0.30793001664277259 0.14245427306131239 0 0.29571888209198582 0.15019946667752559 0 0.30793001664277259 0.14245427306131239 0 0.29484079368024918 0.1375748744672152 0 0.29571888209198582 0.15019946667752559 0 0.30719672230092893 0.1196409652060114 0 0.31011008953121649 0.132610482508109 0 0.29484079368024918 0.1375748744672152 0 0.30793001664277259 0.14245427306131239 0 0.31011008953121649 0.132610482508109 0 0.31926360728617209 0.13842538477308111 0 0.30719672230092893 0.1196409652060114 0 0.29484079368024918 0.1375748744672152 0 0.30793001664277259 0.14245427306131239 0 0.31011008953121649 0.132610482508109 0 0.29484079368024918 0.1375748744672152 0 0.28886850701188682 0.1161942547232831 0 0.272984110026676 0.13398187550105789 0 0.29484079368024918 0.1375748744672152 0 0.272984110026676 0.13398187550105789 0 0.29484079368024918 0.1375748744672152 0 0.28248486505956832 0.155508783728418 0 0.29484079368024918 0.1375748744672152 0 0.28248486505956832 0.155508783728418 0 0.29484079368024918 0.1375748744672152 0 0.28248486505956832 0.155508783728418 0 0.29571888209198582 0.15019946667752559 0 0.29238407922976289 0.15822209381059379 0 0.30095465584757608 0.1572373083200885 0 0.29571888209198582 0.15019946667752559 0 0.29238407922976289 0.15822209381059379 0 0.28248486505956832 0.155508783728418 0 0.29571888209198582 0.15019946667752559 0 0.26796497087459092 0.24498030807344609 0 0.29231120299374358 0.24702818448738331 0 0.26796497087459092 0.24498030807344609 0 0.28009577872146868 0.2233626759126861 0 0.29231120299374358 0.24702818448738331 0 0.24361873875543821 0.24293243165950959 0 0.26796497087459092 0.24498030807344609 0 0.2551345362036832 0.22495942205538511 0 0.24361873875543821 0.24293243165950959 0 0.26796497087459092 0.24498030807344609 0 0.26796497087459092 0.24498030807344609 0 0.2551345362036832 0.22495942205538511 0 0.26746140486291792 0.22507220462319449 0 0.2551345362036832 0.22495942205538511 0 0.26746140486291792 0.22507220462319449 0 0.26665033365192897 0.20698641245126101 0 0.26796497087459092 0.24498030807344609 0 0.26746140486291792 0.22507220462319449 0 0.28009577872146868 0.2233626759126861 0 0.28009577872146868 0.2233626759126861 0 0.27793871329932668 0.20688360328710539 0 0.26665033365192897 0.20698641245126101 0 0.26746140486291792 0.22507220462319449 0 0.28009577872146868 0.2233626759126861 0 0.26665033365192897 0.20698641245126101 0 0.28009577872146868 0.2233626759126861 0 0.26665033365192897 0.20698641245126101 0 0.27793871329932668 0.20688360328710539 0 0.26665033365192897 0.20698641245126101 0 0.27366716306566652 0.19603506123043379 0 0.2551345362036832 0.22495942205538511 0 0.26665033365192897 0.20698641245126101 0 0.2551345362036832 0.22495942205538511 0 0.26665033365192897 0.20698641245126101 0 0.25176131172314981 0.2140080222830662 0 0.24759964644662921 0.20563296174650381 0 0.25176131172314981 0.2140080222830662 0 0.25500577163605398 0.20541682824369289 0 0.26665033365192897 0.20698641245126101 0 0.25176131172314981 0.2140080222830662 0 0.25500577163605398 0.20541682824369289 0 0.24759964644662921 0.20563296174650381 0 0.25500577163605398 0.20541682824369289 0 0.25051184467687082 0.19976735916025609 0 0.26665033365192897 0.20698641245126101 0 0.25573313105287498 0.19368949404512251 0 0.26665033365192897 0.20698641245126101 0 0.25500577163605398 0.20541682824369289 0 0.25573313105287498 0.19368949404512251 0 0.26190749049699502 0.18537564194426959 0 0.277604711708063 0.1866477462129833 0 0.25573313105287498 0.19368949404512251 0 0.26665033365192897 0.20698641245126101 0 0.25573313105287498 0.19368949404512251 0 0.27366716306566652 0.19603506123043379 0 0.244843411396472 0.19719553510323951 0 0.25051184467687082 0.19976735916025609 0 0.25573313105287498 0.19368949404512251 0 0.25500577163605398 0.20541682824369289 0 0.25051184467687082 0.19976735916025609 0 0.25573313105287498 0.19368949404512251 0 0.244843411396472 0.19719553510323951 0 0.25573313105287498 0.19368949404512251 0 0.25573313105287498 0.19368949404512251 0 0.27193519261869947 0.19195624006307299 0 0.27366716306566652 0.19603506123043379 0 0.277604711708063 0.1866477462129833 0 0.25573313105287498 0.19368949404512251 0 0.27193519261869947 0.19195624006307299 0 0.277604711708063 0.1866477462129833 0 0.25573313105287498 0.19368949404512251 0 0.26665033365192897 0.20698641245126101 0 0.27366716306566652 0.19603506123043379 0 0.27366716306566652 0.19603506123043379 0 0.28073576464819372 0.19145265876375259 0 0.28137373615530142 0.2001798137976237 0 0.27793871329932668 0.20688360328710539 0 0.27366716306566652 0.19603506123043379 0 0.28137373615530142 0.2001798137976237 0 0.277604711708063 0.1866477462129833 0 0.27193519261869947 0.19195624006307299 0 0.28073576464819372 0.19145265876375259 0 0.27193519261869947 0.19195624006307299 0 0.27366716306566652 0.19603506123043379 0 0.28073576464819372 0.19145265876375259 0 0.28073576464819372 0.19145265876375259 0 0.29773671176559818 0.19291325915372071 0 0.28137373615530142 0.2001798137976237 0 0.29773671176559818 0.19291325915372071 0 0.28790655490226802 0.2078540530435227 0 0.29773671176559818 0.19291325915372071 0 0.30368788484543607 0.20806700868491521 0 0.28790655490226802 0.2078540530435227 0 0.28564469909236939 0.18602330441469361 0 0.28073576464819372 0.19145265876375259 0 0.29773671176559818 0.19291325915372071 0 0.28073576464819372 0.19145265876375259 0 0.28137373615530142 0.2001798137976237 0 0.29773671176559818 0.19291325915372071 0 0.277604711708063 0.1866477462129833 0 0.28564469909236939 0.18602330441469361 0 0.28073576464819372 0.19145265876375259 0 0.29773671176559818 0.19291325915372071 0 0.30368788484543607 0.20806700868491521 0 0.31473765888300281 0.19437385954368849 0 0.3071728998606848 0.18275212493630341 0 0.29773671176559818 0.19291325915372071 0 0.31473765888300281 0.19437385954368849 0 0.29773671176559818 0.19291325915372071 0 0.31473765888300281 0.19437385954368849 0 0.30368788484543607 0.20806700868491521 0 0.31804033030051371 0.21956221819023919 0 0.31473765888300281 0.19437385954368849 0 0.30368788484543607 0.20806700868491521 0 0.28790655490226802 0.2078540530435227 0 0.30001816837579781 0.22563165349340489 0 0.30368788484543607 0.20806700868491521 0 0.30001816837579781 0.22563165349340489 0 0.31804033030051371 0.21956221819023919 0 0.28009577872146868 0.2233626759126861 0 0.27793871329932668 0.20688360328710539 0 0.28790655490226802 0.2078540530435227 0 0.27793871329932668 0.20688360328710539 0 0.28137373615530142 0.2001798137976237 0 0.28790655490226802 0.2078540530435227 0 0.28009577872146868 0.2233626759126861 0 0.28790655490226802 0.2078540530435227 0 0.30001816837579781 0.22563165349340489 0 0.28009577872146868 0.2233626759126861 0 0.30001816837579781 0.22563165349340489 0 0.29231120299374358 0.24702818448738331 0 0.30001816837579781 0.22563165349340489 0 0.31665743511289618 0.24907606090132059 0 0.31804033030051371 0.21956221819023919 0 0.30001816837579781 0.22563165349340489 0 0.29231120299374358 0.24702818448738331 0 0.31665743511289618 0.24907606090132059 0 0.29231120299374358 0.24702818448738331 0 0.31665743511289618 0.24907606090132059 0 0.34100366723204889 0.25112393731525778 0 0.31665743511289618 0.24907606090132059 0 0.33654674482895819 0.22874257236347389 0 0.34100366723204889 0.25112393731525778 0 0.33654674482895819 0.22874257236347389 0 0.3537865659103237 0.23186132248192681 0 0.31665743511289618 0.24907606090132059 0 0.31804033030051371 0.21956221819023919 0 0.33654674482895819 0.22874257236347389 0 0.31804033030051371 0.21956221819023919 0 0.33654674482895819 0.22874257236347389 0 0.33232279542047999 0.21070404894316169 0 0.33654674482895819 0.22874257236347389 0 0.33232279542047999 0.21070404894316169 0 0.35169253521121657 0.2142461096095897 0 0.33232279542047999 0.21070404894316169 0 0.3405967078787086 0.19659548500881749 0 0.35169253521121657 0.2142461096095897 0 0.31804033030051371 0.21956221819023919 0 0.31473765888300281 0.19437385954368849 0 0.31804033030051371 0.21956221819023919 0 0.33232279542047999 0.21070404894316169 0 0.31473765888300281 0.19437385954368849 0 0.31473765888300281 0.19437385954368849 0 0.3405967078787086 0.19659548500881749 0 0.32481838160429582 0.1820812115918693 0 0.31473765888300281 0.19437385954368849 0 0.3405967078787086 0.19659548500881749 0 0.33232279542047999 0.21070404894316169 0 0.31473765888300281 0.19437385954368849 0 0.3405967078787086 0.19659548500881749 0 0.3405967078787086 0.19659548500881749 0 0.3664557568744144 0.19881711047394621 0 0.3405967078787086 0.19659548500881749 0 0.35873126673835221 0.1941822269392231 0 0.3664557568744144 0.19881711047394621 0 0.3405967078787086 0.19659548500881749 0 0.35873126673835221 0.1941822269392231 0 0.34842273094199522 0.18606136757878841 0 0.35873126673835221 0.1941822269392231 0 0.34842273094199522 0.18606136757878841 0 0.36119034786668142 0.18302785062956911 0 0.35873126673835221 0.1941822269392231 0 0.3664557568744144 0.19881711047394621 0 0.36119034786668142 0.18302785062956911 0 0.35873126673835221 0.1941822269392231 0 0.36119034786668142 0.18302785062956911 0 0.3664557568744144 0.19881711047394621 0 0.36119034786668142 0.18302785062956911 0 0.37749839063242407 0.190274987341567 0 0.3664557568744144 0.19881711047394621 0 0.37467813071442962 0.217759523736623 0 0.37749839063242407 0.190274987341567 0 0.3664557568744144 0.19881711047394621 0 0.36415309715865002 0.21175274075951961 0 0.35169253521121657 0.2142461096095897 0 0.3664557568744144 0.19881711047394621 0 0.37467813071442962 0.217759523736623 0 0.36415309715865002 0.21175274075951961 0 0.37467813071442962 0.217759523736623 0 0.36415309715865002 0.21175274075951961 0 0.36184756832488463 0.22153580572107989 0 0.36415309715865002 0.21175274075951961 0 0.35169253521121657 0.2142461096095897 0 0.36184756832488463 0.22153580572107989 0 0.3405967078787086 0.19659548500881749 0 0.3664557568744144 0.19881711047394621 0 0.35169253521121657 0.2142461096095897 0 0.33654674482895819 0.22874257236347389 0 0.35169253521121657 0.2142461096095897 0 0.3537865659103237 0.23186132248192681 0 0.35169253521121657 0.2142461096095897 0 0.3537865659103237 0.23186132248192681 0 0.36184756832488463 0.22153580572107989 0 0.37467813071442962 0.217759523736623 0 0.3718578707964344 0.24524406013167921 0 0.37467813071442962 0.217759523736623 0 0.36184756832488463 0.22153580572107989 0 0.36492751262980327 0.23205933201774021 0 0.37467813071442962 0.217759523736623 0 0.36492751262980327 0.23205933201774021 0 0.3718578707964344 0.24524406013167921 0 0.3537865659103237 0.23186132248192681 0 0.36184756832488463 0.22153580572107989 0 0.36492751262980327 0.23205933201774021 0 0.36492751262980327 0.23205933201774021 0 0.3718578707964344 0.24524406013167921 0 0.35938510318396227 0.24269209313515991 0 0.37099565353147862 0.25364670474182438 0 0.3718578707964344 0.24524406013167921 0 0.36534989935120171 0.25317181372919573 0 0.3718578707964344 0.24524406013167921 0 0.37099565353147862 0.25364670474182438 0 0.3718578707964344 0.24524406013167921 0 0.37705914132571833 0.25002333554334621 0 0.36534989935120171 0.25317181372919573 0 0.3718578707964344 0.24524406013167921 0 0.35938510318396227 0.24269209313515991 0 0.34100366723204889 0.25112393731525778 0 0.3537865659103237 0.23186132248192681 0 0.35938510318396227 0.24269209313515991 0 0.34100366723204889 0.25112393731525778 0 0.36534989935120171 0.25317181372919573 0 0.35938510318396227 0.24269209313515991 0 0.3537865659103237 0.23186132248192681 0 0.36492751262980327 0.23205933201774021 0 0.35938510318396227 0.24269209313515991 0 0.33626756539213221 0.1453671843050755 0 0.32974195462460948 0.13721318033022961 0 0.32607280183011472 0.14746575303799109 0 0.33626756539213221 0.1453671843050755 0 0.32607280183011472 0.14746575303799109 0 0.33493408118851398 0.15797778741521759 0 0.32607280183011472 0.14746575303799109 0 0.32493852293823061 0.15779403744935869 0 0.33493408118851398 0.15797778741521759 0 0.343395247423604 0.1518624282582052 0 0.33626756539213221 0.1453671843050755 0 0.33493408118851398 0.15797778741521759 0 0.33626756539213221 0.1453671843050755 0 0.34019360069061422 0.13471294950290821 0 0.34639829793605881 0.14239995007339731 0 0.343395247423604 0.1518624282582052 0 0.33626756539213221 0.1453671843050755 0 0.34639829793605881 0.14239995007339731 0 0.34552765589005852 0.1225662580257747 0 0.34019360069061422 0.13471294950290821 0 0.33262675453952401 0.1257256660761317 0 0.34019360069061422 0.13471294950290821 0 0.33262675453952401 0.1257256660761317 0 0.32974195462460948 0.13721318033022961 0 0.33626756539213221 0.1453671843050755 0 0.34019360069061422 0.13471294950290821 0 0.32974195462460948 0.13721318033022961 0 0.32974195462460948 0.13721318033022961 0 0.32116128593483362 0.12825144094693841 0 0.31926360728617209 0.13842538477308111 0 0.33262675453952401 0.1257256660761317 0 0.32974195462460948 0.13721318033022961 0 0.32116128593483362 0.12825144094693841 0 0.30719672230092893 0.1196409652060114 0 0.31011008953121649 0.132610482508109 0 0.32116128593483362 0.12825144094693841 0 0.31011008953121649 0.132610482508109 0 0.32116128593483362 0.12825144094693841 0 0.31926360728617209 0.13842538477308111 0 0.30793001664277259 0.14245427306131239 0 0.31926360728617209 0.13842538477308111 0 0.31715731281396659 0.149207922236435 0 0.32974195462460948 0.13721318033022961 0 0.31926360728617209 0.13842538477308111 0 0.32607280183011472 0.14746575303799109 0 0.31926360728617209 0.13842538477308111 0 0.32607280183011472 0.14746575303799109 0 0.31715731281396659 0.149207922236435 0 0.32607280183011472 0.14746575303799109 0 0.31715731281396659 0.149207922236435 0 0.32493852293823061 0.15779403744935869 0 0.31162390837372611 0.1610010036012586 0 0.31715731281396659 0.149207922236435 0 0.32493852293823061 0.15779403744935869 0 0.31162390837372611 0.1610010036012586 0 0.33640712812020301 0.17201442711541551 0 0.3113338377628877 0.16841406630250039 0 0.31162390837372611 0.1610010036012586 0 0.33640712812020301 0.17201442711541551 0 0.31162390837372611 0.1610010036012586 0 0.32493852293823061 0.15779403744935869 0 0.33640712812020301 0.17201442711541551 0 0.3113338377628877 0.16841406630250039 0 0.32481838160429582 0.1820812115918693 0 0.33640712812020301 0.17201442711541551 0 0.3113338377628877 0.16841406630250039 0 0.31473765888300281 0.19437385954368849 0 0.3113338377628877 0.16841406630250039 0 0.31473765888300281 0.19437385954368849 0 0.32481838160429582 0.1820812115918693 0 0.3405967078787086 0.19659548500881749 0 0.32481838160429582 0.1820812115918693 0 0.33640712812020301 0.17201442711541551 0 0.3405967078787086 0.19659548500881749 0 0.33640712812020301 0.17201442711541551 0 0.34842273094199522 0.18606136757878841 0 0.33640712812020301 0.17201442711541551 0 0.33493408118851398 0.15797778741521759 0 0.35248271206517312 0.16561798129890851 0 0.343395247423604 0.1518624282582052 0 0.33493408118851398 0.15797778741521759 0 0.35248271206517312 0.16561798129890851 0 0.32493852293823061 0.15779403744935869 0 0.33640712812020301 0.17201442711541551 0 0.33493408118851398 0.15797778741521759 0 0.343395247423604 0.1518624282582052 0 0.35248271206517312 0.16561798129890851 0 0.35361154403863859 0.15371568970576399 0 0.35248271206517312 0.16561798129890851 0 0.36736374875513739 0.15502534358461159 0 0.35361154403863859 0.15371568970576399 0 0.33640712812020301 0.17201442711541551 0 0.35248271206517312 0.16561798129890851 0 0.36119034786668142 0.18302785062956911 0 0.33640712812020301 0.17201442711541551 0 0.34842273094199522 0.18606136757878841 0 0.36119034786668142 0.18302785062956911 0 0.33640712812020301 0.17201442711541551 0 0.36119034786668142 0.18302785062956911 0 0.36119034786668142 0.18302785062956911 0 0.37749839063242407 0.190274987341567 0 0.36119034786668142 0.18302785062956911 0 0.37160256682110809 0.17268432510288559 0 0.37749839063242407 0.190274987341567 0 0.36119034786668142 0.18302785062956911 0 0.36736374875513739 0.15502534358461159 0 0.35248271206517312 0.16561798129890851 0 0.36119034786668142 0.18302785062956911 0 0.36736374875513739 0.15502534358461159 0 0.37160256682110809 0.17268432510288559 0 0.36736374875513739 0.15502534358461159 0 0.38035778003018972 0.1624091188557947 0 0.36119034786668142 0.18302785062956911 0 0.37160256682110809 0.17268432510288559 0 0.36736374875513739 0.15502534358461159 0 0.36736374875513739 0.15502534358461159 0 0.37353714964359269 0.12702283653965399 0 0.36736374875513739 0.15502534358461159 0 0.35646504891724801 0.1438327807155366 0 0.36157218666994401 0.1343450094694057 0 0.36736374875513739 0.15502534358461159 0 0.35361154403863859 0.15371568970576399 0 0.35646504891724801 0.1438327807155366 0 0.35361154403863859 0.15371568970576399 0 0.35646504891724801 0.1438327807155366 0 0.34639829793605881 0.14239995007339731 0 0.343395247423604 0.1518624282582052 0 0.35361154403863859 0.15371568970576399 0 0.34639829793605881 0.14239995007339731 0 0.34552765589005852 0.1225662580257747 0 0.35091984351045402 0.1338439197433266 0 0.35599012235683392 0.12540994831616989 0 0.34552765589005852 0.1225662580257747 0 0.34019360069061422 0.13471294950290821 0 0.35091984351045402 0.1338439197433266 0 0.34019360069061422 0.13471294950290821 0 0.34639829793605881 0.14239995007339731 0 0.35091984351045402 0.1338439197433266 0 0.35646504891724801 0.1438327807155366 0 0.34639829793605881 0.14239995007339731 0 0.35091984351045402 0.1338439197433266 0 0.35646504891724801 0.1438327807155366 0 0.35091984351045402 0.1338439197433266 0 0.36157218666994401 0.1343450094694057 0 0.35091984351045402 0.1338439197433266 0 0.35599012235683392 0.12540994831616989 0 0.36157218666994401 0.1343450094694057 0 0.36262644821365592 0.1229223894631926 0 0.35599012235683392 0.12540994831616989 0 0.36157218666994401 0.1343450094694057 0 0.36736374875513739 0.15502534358461159 0 0.37353714964359269 0.12702283653965399 0 0.38321716942795542 0.1345432503700224 0 0.36262644821365592 0.1229223894631926 0 0.36157218666994401 0.1343450094694057 0 0.37353714964359269 0.12702283653965399 0 0.36736374875513739 0.15502534358461159 0 0.36157218666994401 0.1343450094694057 0 0.37353714964359269 0.12702283653965399 0 0.38321716942795542 0.1345432503700224 0 0.39534094258916119 0.13043600057333149 0 0.39528220406742121 0.11789121407096891 0 0.39534094258916119 0.13043600057333149 0 0.40336011378990982 0.13426622820541231 0 0.3938366917400854 0.14288615924560549 0 0.38321716942795542 0.1345432503700224 0 0.39534094258916119 0.13043600057333149 0 0.3938366917400854 0.14288615924560549 0 0.39534094258916119 0.13043600057333149 0 0.40336011378990982 0.13426622820541231 0 0.40100853392043428 0.1225931509746481 0 0.40336011378990982 0.13426622820541231 0 0.41426077641282327 0.12910623488873851 0 0.40100853392043428 0.1225931509746481 0 0.40336011378990982 0.13426622820541231 0 0.3938366917400854 0.14288615924560549 0 0.41511238942987783 0.1458422992314751 0 0.40448646908223651 0.15558222606454269 0 0.3938366917400854 0.14288615924560549 0 0.41511238942987783 0.1458422992314751 0 0.3938366917400854 0.14288615924560549 0 0.41511238942987783 0.1458422992314751 0 0.40448646908223651 0.15558222606454269 0 0.3938366917400854 0.14288615924560549 0 0.39251237634633118 0.15144818979218241 0 0.38321716942795542 0.1345432503700224 0 0.39251237634633118 0.15144818979218241 0 0.38763762574787192 0.15577753147479539 0 0.38321716942795542 0.1345432503700224 0 0.38763762574787192 0.15577753147479539 0 0.38035778003018972 0.1624091188557947 0 0.36736374875513739 0.15502534358461159 0 0.38321716942795542 0.1345432503700224 0 0.38035778003018972 0.1624091188557947 0 0.38321716942795542 0.1345432503700224 0 0.38035778003018972 0.1624091188557947 0 0.38321716942795542 0.1345432503700224 0 0.3938366917400854 0.14288615924560549 0 0.39251237634633118 0.15144818979218241 0 0.3797120087860813 0.16870241230308841 0 0.38714397037801701 0.1658820329817389 0 0.39954278223366252 0.1803290866820276 0 0.37160256682110809 0.17268432510288559 0 0.38035778003018972 0.1624091188557947 0 0.3797120087860813 0.16870241230308841 0 0.38035778003018972 0.1624091188557947 0 0.3797120087860813 0.16870241230308841 0 0.38714397037801701 0.1658820329817389 0 0.38035778003018972 0.1624091188557947 0 0.3797120087860813 0.16870241230308841 0 0.38763762574787192 0.15577753147479539 0 0.38714397037801701 0.1658820329817389 0 0.39495683255686631 0.16460506537423869 0 0.38763762574787192 0.15577753147479539 0 0.38035778003018972 0.1624091188557947 0 0.38714397037801701 0.1658820329817389 0 0.3797120087860813 0.16870241230308841 0 0.39954278223366252 0.1803290866820276 0 0.37160256682110809 0.17268432510288559 0 0.3797120087860813 0.16870241230308841 0 0.37749839063242407 0.190274987341567 0 0.3797120087860813 0.16870241230308841 0 0.38631267548427167 0.18040835716906739 0 0.39954278223366252 0.1803290866820276 0 0.3797120087860813 0.16870241230308841 0 0.38631267548427167 0.18040835716906739 0 0.37749839063242407 0.190274987341567 0 0.3797120087860813 0.16870241230308841 0 0.37749839063242407 0.190274987341567 0 0.38631267548427167 0.18040835716906739 0 0.39954278223366252 0.1803290866820276 0 0.39643368610006963 0.18835458738725119 0 0.39954278223366252 0.1803290866820276 0 0.40437646092405172 0.16953660240211271 0 0.41258235013931838 0.1762253624667709 0 0.39954278223366252 0.1803290866820276 0 0.39643368610006963 0.18835458738725119 0 0.40503655340217681 0.18809804398001079 0 0.38714397037801701 0.1658820329817389 0 0.39954278223366252 0.1803290866820276 0 0.39495683255686631 0.16460506537423869 0 0.39954278223366252 0.1803290866820276 0 0.39495683255686631 0.16460506537423869 0 0.40437646092405172 0.16953660240211271 0 0.40448646908223651 0.15558222606454269 0 0.39251237634633118 0.15144818979218241 0 0.39495683255686631 0.16460506537423869 0 0.39251237634633118 0.15144818979218241 0 0.38763762574787192 0.15577753147479539 0 0.39495683255686631 0.16460506537423869 0 0.40448646908223651 0.15558222606454269 0 0.39495683255686631 0.16460506537423869 0 0.40437646092405172 0.16953660240211271 0 0.40448646908223651 0.15558222606454269 0 0.41425642553916359 0.1670275144830648 0 0.42197991093085202 0.15703428869722891 0 0.40448646908223651 0.15558222606454269 0 0.40437646092405172 0.16953660240211271 0 0.41425642553916359 0.1670275144830648 0 0.40437646092405172 0.16953660240211271 0 0.41425642553916359 0.1670275144830648 0 0.41258235013931838 0.1762253624667709 0 0.41425642553916359 0.1670275144830648 0 0.41258235013931838 0.1762253624667709 0 0.42769848219495948 0.1703583898380108 0 0.41425642553916359 0.1670275144830648 0 0.42197991093085202 0.15703428869722891 0 0.42769848219495948 0.1703583898380108 0 0.39954278223366252 0.1803290866820276 0 0.41900887727024888 0.191918340458679 0 0.39954278223366252 0.1803290866820276 0 0.41258235013931838 0.1762253624667709 0 0.41900887727024888 0.191918340458679 0 0.41258235013931838 0.1762253624667709 0 0.42769848219495948 0.1703583898380108 0 0.41900887727024888 0.191918340458679 0 0.39954278223366252 0.1803290866820276 0 0.40503655340217681 0.18809804398001079 0 0.41900887727024888 0.191918340458679 0 0.43377453127173837 0.18526303465223309 0 0.42769848219495948 0.1703583898380108 0 0.41900887727024888 0.191918340458679 0 0.42769848219495948 0.1703583898380108 0 0.41900887727024888 0.191918340458679 0 0.43377453127173837 0.18526303465223309 0 0.42769848219495948 0.1703583898380108 0 0.44045816003021632 0.1788369629606931 0 0.42769848219495948 0.1703583898380108 0 0.43638808711967042 0.14879843921734279 0 0.4424696153421766 0.1602339240175972 0 0.42769848219495948 0.1703583898380108 0 0.43638808711967042 0.14879843921734279 0 0.42197991093085202 0.15703428869722891 0 0.42769848219495948 0.1703583898380108 0 0.43638808711967042 0.14879843921734279 0 0.43638808711967042 0.14879843921734279 0 0.41511238942987783 0.1458422992314751 0 0.43638808711967042 0.14879843921734279 0 0.42738934798011502 0.13589705017274301 0 0.41511238942987783 0.1458422992314751 0 0.42197991093085202 0.15703428869722891 0 0.43638808711967042 0.14879843921734279 0 0.41511238942987783 0.1458422992314751 0 0.43638808711967042 0.14879843921734279 0 0.42738934798011502 0.13589705017274301 0 0.4422805091527181 0.1341786343850887 0 0.42738934798011502 0.13589705017274301 0 0.4422805091527181 0.1341786343850887 0 0.42890497778548492 0.1215596431410699 0 0.42738934798011502 0.13589705017274301 0 0.41426077641282327 0.12910623488873851 0 0.42890497778548492 0.1215596431410699 0 0.42738934798011502 0.13589705017274301 0 0.41426077641282327 0.12910623488873851 0 0.41511238942987783 0.1458422992314751 0 0.40336011378990982 0.13426622820541231 0 0.41426077641282327 0.12910623488873851 0 0.41511238942987783 0.1458422992314751 0 0.40448646908223651 0.15558222606454269 0 0.42197991093085202 0.15703428869722891 0 0.41511238942987783 0.1458422992314751 0 0.40529903042243348 0.25025499417346209 0 0.39367090866082288 0.25181065467480102 0 0.39768079342857232 0.24044438491138151 0 0.40529903042243348 0.25025499417346209 0 0.39768079342857232 0.24044438491138151 0 0.40835822148005402 0.2393566034126198 0 0.39768079342857232 0.24044438491138151 0 0.40204974050513043 0.22898874974979741 0 0.40835822148005402 0.2393566034126198 0 0.39768079342857232 0.24044438491138151 0 0.38441199810286403 0.24172068400396091 0 0.3935657645860795 0.2335377584137262 0 0.39367090866082288 0.25181065467480102 0 0.39768079342857232 0.24044438491138151 0 0.38441199810286403 0.24172068400396091 0 0.39367090866082288 0.25181065467480102 0 0.3824321552584245 0.25460868284298788 0 0.38441199810286403 0.24172068400396091 0 0.3718578707964344 0.24524406013167921 0 0.38441199810286403 0.24172068400396091 0 0.39012052630775168 0.2229972149897651 0 0.3718578707964344 0.24524406013167921 0 0.37705914132571833 0.25002333554334621 0 0.38441199810286403 0.24172068400396091 0 0.3824321552584245 0.25460868284298788 0 0.37705914132571833 0.25002333554334621 0 0.38441199810286403 0.24172068400396091 0 0.3718578707964344 0.24524406013167921 0 0.39012052630775168 0.2229972149897651 0 0.38441199810286403 0.24172068400396091 0 0.39012052630775168 0.2229972149897651 0 0.3935657645860795 0.2335377584137262 0 0.37467813071442962 0.217759523736623 0 0.3718578707964344 0.24524406013167921 0 0.39012052630775168 0.2229972149897651 0 0.39768079342857232 0.24044438491138151 0 0.3935657645860795 0.2335377584137262 0 0.40204974050513043 0.22898874974979741 0 0.39012052630775168 0.2229972149897651 0 0.3935657645860795 0.2335377584137262 0 0.40204974050513043 0.22898874974979741 0 0.39012052630775168 0.2229972149897651 0 0.40204974050513043 0.22898874974979741 0 0.4047443534401165 0.21736407942113439 0 0.39012052630775168 0.2229972149897651 0 0.39460783281958228 0.2059341026791324 0 0.40838318181906957 0.2007503698478518 0 0.39012052630775168 0.2229972149897651 0 0.40838318181906957 0.2007503698478518 0 0.39012052630775168 0.2229972149897651 0 0.4047443534401165 0.21736407942113439 0 0.40838318181906957 0.2007503698478518 0 0.37467813071442962 0.217759523736623 0 0.3854522454813582 0.20659095353883539 0 0.37749839063242407 0.190274987341567 0 0.39012052630775168 0.2229972149897651 0 0.39460783281958228 0.2059341026791324 0 0.3854522454813582 0.20659095353883539 0 0.37467813071442962 0.217759523736623 0 0.39012052630775168 0.2229972149897651 0 0.3854522454813582 0.20659095353883539 0 0.37467813071442962 0.217759523736623 0 0.37749839063242407 0.190274987341567 0 0.39460783281958228 0.2059341026791324 0 0.3854522454813582 0.20659095353883539 0 0.39035634693260329 0.19598893894708949 0 0.3854522454813582 0.20659095353883539 0 0.39035634693260329 0.19598893894708949 0 0.37749839063242407 0.190274987341567 0 0.39035634693260329 0.19598893894708949 0 0.37749839063242407 0.190274987341567 0 0.38631267548427167 0.18040835716906739 0 0.39035634693260329 0.19598893894708949 0 0.37749839063242407 0.190274987341567 0 0.39035634693260329 0.19598893894708949 0 0.39643368610006963 0.18835458738725119 0 0.39946393561933807 0.19638347463523759 0 0.38631267548427167 0.18040835716906739 0 0.39035634693260329 0.19598893894708949 0 0.39643368610006963 0.18835458738725119 0 0.39460783281958228 0.2059341026791324 0 0.39035634693260329 0.19598893894708949 0 0.39946393561933807 0.19638347463523759 0 0.39460783281958228 0.2059341026791324 0 0.39946393561933807 0.19638347463523759 0 0.40838318181906957 0.2007503698478518 0 0.39946393561933807 0.19638347463523759 0 0.40503655340217681 0.18809804398001079 0 0.40838318181906957 0.2007503698478518 0 0.39643368610006963 0.18835458738725119 0 0.39946393561933807 0.19638347463523759 0 0.40503655340217681 0.18809804398001079 0 0.40503655340217681 0.18809804398001079 0 0.40838318181906957 0.2007503698478518 0 0.41208333080651072 0.1962429945937654 0 0.40503655340217681 0.18809804398001079 0 0.41208333080651072 0.1962429945937654 0 0.41900887727024888 0.191918340458679 0 0.40503655340217681 0.18809804398001079 0 0.40838318181906957 0.2007503698478518 0 0.40838318181906957 0.2007503698478518 0 0.41208333080651072 0.1962429945937654 0 0.41314077228789831 0.20647781177556379 0 0.40838318181906957 0.2007503698478518 0 0.41208333080651072 0.1962429945937654 0 0.41900887727024888 0.191918340458679 0 0.41314077228789831 0.20647781177556379 0 0.41900887727024888 0.191918340458679 0 0.42006660383587968 0.20550295632494689 0 0.41314077228789831 0.20647781177556379 0 0.41900887727024888 0.191918340458679 0 0.42553649852343928 0.20293344640378089 0 0.42006660383587968 0.20550295632494689 0 0.41208333080651072 0.1962429945937654 0 0.41900887727024888 0.191918340458679 0 0.41314077228789831 0.20647781177556379 0 0.41900887727024888 0.191918340458679 0 0.42553649852343928 0.20293344640378089 0 0.43765078236976701 0.2030169079254743 0 0.43377453127173837 0.18526303465223309 0 0.41900887727024888 0.191918340458679 0 0.43613819569365858 0.19444662480076699 0 0.41900887727024888 0.191918340458679 0 0.43765078236976701 0.2030169079254743 0 0.41900887727024888 0.191918340458679 0 0.43613819569365858 0.19444662480076699 0 0.43765078236976701 0.2030169079254743 0 0.42553649852343928 0.20293344640378089 0 0.42559065448839101 0.20845058584285911 0 0.42006660383587968 0.20550295632494689 0 0.42559065448839101 0.20845058584285911 0 0.4213814014054223 0.21362502612668269 0 0.42006660383587968 0.20550295632494689 0 0.42559065448839101 0.20845058584285911 0 0.43125602028044902 0.20746955780212831 0 0.42971274839676438 0.21272194255675689 0 0.42553649852343928 0.20293344640378089 0 0.42559065448839101 0.20845058584285911 0 0.43125602028044902 0.20746955780212831 0 0.42553649852343928 0.20293344640378089 0 0.43125602028044902 0.20746955780212831 0 0.43765078236976701 0.2030169079254743 0 0.43125602028044902 0.20746955780212831 0 0.43570233091086819 0.21098011162998431 0 0.43765078236976701 0.2030169079254743 0 0.43125602028044902 0.20746955780212831 0 0.43570233091086819 0.21098011162998431 0 0.42971274839676438 0.21272194255675689 0 0.43501706387314121 0.21698628445568741 0 0.42971274839676438 0.21272194255675689 0 0.4270835078669179 0.22191484848873649 0 0.43501706387314121 0.21698628445568741 0 0.43570233091086819 0.21098011162998431 0 0.42971274839676438 0.21272194255675689 0 0.42971274839676438 0.21272194255675689 0 0.4213814014054223 0.21362502612668269 0 0.4270835078669179 0.22191484848873649 0 0.42559065448839101 0.20845058584285911 0 0.42971274839676438 0.21272194255675689 0 0.4213814014054223 0.21362502612668269 0 0.40838318181906957 0.2007503698478518 0 0.41504824162106801 0.2259484193587698 0 0.40838318181906957 0.2007503698478518 0 0.41314077228789831 0.20647781177556379 0 0.41504824162106801 0.2259484193587698 0 0.4213814014054223 0.21362502612668269 0 0.41314077228789831 0.20647781177556379 0 0.41504824162106801 0.2259484193587698 0 0.4047443534401165 0.21736407942113439 0 0.40838318181906957 0.2007503698478518 0 0.41504824162106801 0.2259484193587698 0 0.4213814014054223 0.21362502612668269 0 0.42006660383587968 0.20550295632494689 0 0.41314077228789831 0.20647781177556379 0 0.40204974050513043 0.22898874974979741 0 0.4047443534401165 0.21736407942113439 0 0.41504824162106801 0.2259484193587698 0 0.40204974050513043 0.22898874974979741 0 0.41504824162106801 0.2259484193587698 0 0.40835822148005402 0.2393566034126198 0 0.4213814014054223 0.21362502612668269 0 0.41504824162106801 0.2259484193587698 0 0.4270835078669179 0.22191484848873649 0 0.43501706387314121 0.21698628445568741 0 0.4270835078669179 0.22191484848873649 0 0.43764248186141658 0.22438428651665129 0 0.4270835078669179 0.22191484848873649 0 0.42895718250100079 0.23744056102818739 0 0.43764248186141658 0.22438428651665129 0 0.42895718250100079 0.23744056102818739 0 0.4438551585445053 0.23263841013221889 0 0.43764248186141658 0.22438428651665129 0 0.41504824162106801 0.2259484193587698 0 0.4270835078669179 0.22191484848873649 0 0.42895718250100079 0.23744056102818739 0 0.42895718250100079 0.23744056102818739 0 0.44215758531266119 0.24226256032126581 0 0.43821113475429302 0.25000115871653422 0 0.43001071716495332 0.25281982215425508 0 0.42895718250100079 0.23744056102818739 0 0.43821113475429302 0.25000115871653422 0 0.4217133014230659 0.25114646886968811 0 0.43001071716495332 0.25281982215425508 0 0.42895718250100079 0.23744056102818739 0 0.4217133014230659 0.25114646886968811 0 0.41504824162106801 0.2259484193587698 0 0.4217133014230659 0.25114646886968811 0 0.41504824162106801 0.2259484193587698 0 0.40835822148005402 0.2393566034126198 0 0.4217133014230659 0.25114646886968811 0 0.41504824162106801 0.2259484193587698 0 0.42895718250100079 0.23744056102818739 0 0.40529903042243348 0.25025499417346209 0 0.4217133014230659 0.25114646886968811 0 0.40835822148005402 0.2393566034126198 0 0.4636161910840555 0.23462623942917149 0 0.46044187928157942 0.2452867636306221 0 0.47523650712389942 0.23510897427831509 0 0.4636161910840555 0.23462623942917149 0 0.46044187928157942 0.2452867636306221 0 0.45227994380755759 0.23848346083280461 0 0.46044187928157942 0.2452867636306221 0 0.44872211326218148 0.24711147046875909 0 0.45227994380755759 0.23848346083280461 0 0.44872211326218148 0.24711147046875909 0 0.44215758531266119 0.24226256032126581 0 0.45227994380755759 0.23848346083280461 0 0.44872211326218148 0.24711147046875909 0 0.44215758531266119 0.24226256032126581 0 0.43821113475429302 0.25000115871653422 0 0.42895718250100079 0.23744056102818739 0 0.44215758531266119 0.24226256032126581 0 0.4438551585445053 0.23263841013221889 0 0.44215758531266119 0.24226256032126581 0 0.45227994380755759 0.23848346083280461 0 0.4438551585445053 0.23263841013221889 0 0.4438551585445053 0.23263841013221889 0 0.44753481210907697 0.2227520991005123 0 0.4548867353603625 0.2289753210147904 0 0.45227994380755759 0.23848346083280461 0 0.4438551585445053 0.23263841013221889 0 0.4548867353603625 0.2289753210147904 0 0.4438551585445053 0.23263841013221889 0 0.43764248186141658 0.22438428651665129 0 0.44753481210907697 0.2227520991005123 0 0.43764248186141658 0.22438428651665129 0 0.44753481210907697 0.2227520991005123 0 0.44261496541482293 0.21464090227080951 0 0.44753481210907697 0.2227520991005123 0 0.45432564156572092 0.22103894574685681 0 0.4548867353603625 0.2289753210147904 0 0.44753481210907697 0.2227520991005123 0 0.45432564156572092 0.22103894574685681 0 0.44833315418816949 0.21499651674269729 0 0.45629268746928547 0.21411547539226899 0 0.47545519458781088 0.22522556207255731 0 0.45432564156572092 0.22103894574685681 0 0.4548867353603625 0.2289753210147904 0 0.46295737769562278 0.22464618984523271 0 0.46295737769562278 0.22464618984523271 0 0.45629268746928547 0.21411547539226899 0 0.47545519458781088 0.22522556207255731 0 0.45432564156572092 0.22103894574685681 0 0.46295737769562278 0.22464618984523271 0 0.45629268746928547 0.21411547539226899 0 0.4636161910840555 0.23462623942917149 0 0.45227994380755759 0.23848346083280461 0 0.4548867353603625 0.2289753210147904 0 0.4636161910840555 0.23462623942917149 0 0.4548867353603625 0.2289753210147904 0 0.46295737769562278 0.22464618984523271 0 0.4636161910840555 0.23462623942917149 0 0.46295737769562278 0.22464618984523271 0 0.46918616711809541 0.22989886160294579 0 0.45872294354722992 0.20840761799348159 0 0.45629268746928547 0.21411547539226899 0 0.47566507231082777 0.21574029934976499 0 0.45872294354722992 0.20840761799348159 0 0.47566507231082777 0.21574029934976499 0 0.46753717082244373 0.2049502490235415 0 0.45872294354722992 0.20840761799348159 0 0.47566507231082777 0.21574029934976499 0 0.46753717082244373 0.2049502490235415 0 0.45872294354722992 0.20840761799348159 0 0.45890288539406088 0.20168161672987989 0 0.44753481210907697 0.2227520991005123 0 0.44833315418816949 0.21499651674269729 0 0.44261496541482293 0.21464090227080951 0 0.45629268746928547 0.21411547539226899 0 0.44833315418816949 0.21499651674269729 0 0.43765078236976701 0.2030169079254743 0 0.45872294354722992 0.20840761799348159 0 0.45629268746928547 0.21411547539226899 0 0.44178081478363262 0.2010749366371968 0 0.45629268746928547 0.21411547539226899 0 0.44178081478363262 0.2010749366371968 0 0.43765078236976701 0.2030169079254743 0 0.45872294354722992 0.20840761799348159 0 0.44178081478363262 0.2010749366371968 0 0.45432564156572092 0.22103894574685681 0 0.45629268746928547 0.21411547539226899 0 0.44833315418816949 0.21499651674269729 0 0.45629268746928547 0.21411547539226899 0 0.43765078236976701 0.2030169079254743 0 0.43501706387314121 0.21698628445568741 0 0.43764248186141658 0.22438428651665129 0 0.44261496541482293 0.21464090227080951 0 0.43501706387314121 0.21698628445568741 0 0.43570233091086819 0.21098011162998431 0 0.44261496541482293 0.21464090227080951 0 0.44833315418816949 0.21499651674269729 0 0.44261496541482293 0.21464090227080951 0 0.43765078236976701 0.2030169079254743 0 0.43570233091086819 0.21098011162998431 0 0.44261496541482293 0.21464090227080951 0 0.43765078236976701 0.2030169079254743 0 0.45872294354722992 0.20840761799348159 0 0.45282877019809381 0.19878738165782331 0 0.44178081478363262 0.2010749366371968 0 0.45282877019809381 0.19878738165782331 0 0.44619951480619502 0.19549055991774589 0 0.44178081478363262 0.2010749366371968 0 0.43613819569365858 0.19444662480076699 0 0.44178081478363262 0.2010749366371968 0 0.43765078236976701 0.2030169079254743 0 0.44619951480619502 0.19549055991774589 0 0.44178081478363262 0.2010749366371968 0 0.44173230955423087 0.19537265851533031 0 0.43613819569365858 0.19444662480076699 0 0.44178081478363262 0.2010749366371968 0 0.44173230955423087 0.19537265851533031 0 0.43377453127173837 0.18526303465223309 0 0.43613819569365858 0.19444662480076699 0 0.44300043554382962 0.18929280046581751 0 0.43613819569365858 0.19444662480076699 0 0.44173230955423087 0.19537265851533031 0 0.44300043554382962 0.18929280046581751 0 0.44619951480619502 0.19549055991774589 0 0.44173230955423087 0.19537265851533031 0 0.44300043554382962 0.18929280046581751 0 0.44300043554382962 0.18929280046581751 0 0.45060430334968382 0.19143668721887641 0 0.45075823086090888 0.18276473562140641 0 0.45060430334968382 0.19143668721887641 0 0.45789553087339258 0.18935342854396109 0 0.45075823086090888 0.18276473562140641 0 0.44619951480619502 0.19549055991774589 0 0.44300043554382962 0.18929280046581751 0 0.45060430334968382 0.19143668721887641 0 0.45282877019809381 0.19878738165782331 0 0.44619951480619502 0.19549055991774589 0 0.45060430334968382 0.19143668721887641 0 0.45282877019809381 0.19878738165782331 0 0.45060430334968382 0.19143668721887641 0 0.45789553087339258 0.18935342854396109 0 0.45789553087339258 0.18935342854396109 0 0.46508508409516941 0.19832850218344281 0 0.47611716608028942 0.19530826817929531 0 0.45789553087339258 0.18935342854396109 0 0.45890288539406088 0.20168161672987989 0 0.46508508409516941 0.19832850218344281 0 0.45872294354722992 0.20840761799348159 0 0.45282877019809381 0.19878738165782331 0 0.45890288539406088 0.20168161672987989 0 0.45282877019809381 0.19878738165782331 0 0.45789553087339258 0.18935342854396109 0 0.45890288539406088 0.20168161672987989 0 0.46753717082244373 0.2049502490235415 0 0.45890288539406088 0.20168161672987989 0 0.46508508409516941 0.19832850218344281 0 0.46753717082244373 0.2049502490235415 0 0.46508508409516941 0.19832850218344281 0 0.47611716608028942 0.19530826817929531 0 0.47611716608028942 0.19530826817929531 0 0.5 0.1964305220329543 0 0.48852638976703527 0.1807945508230909 0 0.47611716608028942 0.19530826817929531 0 0.5 0.1964305220329543 0 0.48910718397736658 0.20927040340931941 0 0.5 0.1964305220329543 0 0.48910718397736658 0.20927040340931941 0 0.50000000000000222 0.22627263994656149 0 0.48910718397736658 0.20927040340931941 0 0.47566507231082777 0.21574029934976499 0 0.50000000000000222 0.22627263994656149 0 0.47611716608028942 0.19530826817929531 0 0.47566507231082777 0.21574029934976499 0 0.47611716608028942 0.19530826817929531 0 0.48910718397736658 0.20927040340931941 0 0.47566507231082777 0.21574029934976499 0 0.46753717082244373 0.2049502490235415 0 0.47611716608028942 0.19530826817929531 0 0.47566507231082777 0.21574029934976499 0 0.45629268746928547 0.21411547539226899 0 0.47566507231082777 0.21574029934976499 0 0.47545519458781088 0.22522556207255731 0 0.47566507231082777 0.21574029934976499 0 0.47545519458781088 0.22522556207255731 0 0.48243953069816647 0.23295085168799939 0 0.47566507231082777 0.21574029934976499 0 0.48243953069816647 0.23295085168799939 0 0.48760082903211238 0.2285669212970009 0 0.46295737769562278 0.22464618984523271 0 0.47545519458781088 0.22522556207255731 0 0.46918616711809541 0.22989886160294579 0 0.47566507231082777 0.21574029934976499 0 0.47545519458781088 0.22522556207255731 0 0.47545519458781088 0.22522556207255731 0 0.47523650712389942 0.23510897427831509 0 0.4636161910840555 0.23462623942917149 0 0.46918616711809541 0.22989886160294579 0 0.47523650712389942 0.23510897427831509 0 0.47545519458781088 0.22522556207255731 0 0.46918616711809541 0.22989886160294579 0 0.47523650712389942 0.23510897427831509 0 0.47545519458781088 0.22522556207255731 0 0.48243953069816647 0.23295085168799939 0 0.47523650712389942 0.23510897427831509 0 0.47566507231082777 0.21574029934976499 0 0.50000000000000222 0.22627263994656149 0 0.48760082903211238 0.2285669212970009 0 0.48243953069816647 0.23295085168799939 0 0.48760082903211238 0.2285669212970009 0 0.49999999999999911 0.23533079215191591 0 0.47566507231082777 0.21574029934976499 0 0.50000000000000222 0.22627263994656149 0 0.50000000000000222 0.22627263994656149 0 0.48760082903211238 0.2285669212970009 0 0.49999999999999911 0.23533079215191591 0 0.49999999999999911 0.23533079215191591 0 0.49286357021616328 0.24875869520616531 0 0.48022093964078932 0.24030877789126889 0 0.50000000000000067 0.2621865982604149 0 0.49999999999999911 0.23533079215191591 0 0.49286357021616328 0.24875869520616531 0 0.49999999999999911 0.23533079215191591 0 0.48022093964078932 0.24030877789126889 0 0.48243953069816647 0.23295085168799939 0 0.49999999999999911 0.23533079215191591 0 0.48022093964078932 0.24030877789126889 0 0.48469580451171151 0.25251553598463539 0 0.49286357021616328 0.24875869520616531 0 0.48022093964078932 0.24030877789126889 0 0.46044187928157942 0.2452867636306221 0 0.48022093964078932 0.24030877789126889 0 0.47216813690829312 0.25009565085581797 0 0.48469580451171151 0.25251553598463539 0 0.48022093964078932 0.24030877789126889 0 0.46044187928157942 0.2452867636306221 0 0.48022093964078932 0.24030877789126889 0 0.47523650712389942 0.23510897427831509 0 0.47216813690829312 0.25009565085581797 0 0.46044187928157942 0.2452867636306221 0 0.48022093964078932 0.24030877789126889 0 0.48243953069816647 0.23295085168799939 0 0.48022093964078932 0.24030877789126889 0 0.47523650712389942 0.23510897427831509 0 0.45670472036944049 0.1516213225278511 0 0.47702135361921122 0.15444420583835569 0 0.45670472036944049 0.1516213225278511 0 0.4652354671643244 0.13718343837439509 0 0.47702135361921122 0.15444420583835569 0 0.45670472036944049 0.1516213225278511 0 0.4652354671643244 0.13718343837439509 0 0.45178993828594233 0.13985288766974729 0 0.4652354671643244 0.13718343837439509 0 0.45834090762355761 0.12748260384405891 0 0.46583102023387019 0.1238830504881954 0 0.4652354671643244 0.13718343837439509 0 0.45834090762355761 0.12748260384405891 0 0.45178993828594233 0.13985288766974729 0 0.45834090762355761 0.12748260384405891 0 0.4422805091527181 0.1341786343850887 0 0.44817293118576729 0.1195588295528352 0 0.4422805091527181 0.1341786343850887 0 0.44817293118576729 0.1195588295528352 0 0.42890497778548492 0.1215596431410699 0 0.45834090762355761 0.12748260384405891 0 0.45178993828594233 0.13985288766974729 0 0.4422805091527181 0.1341786343850887 0 0.4422805091527181 0.1341786343850887 0 0.44817293118576729 0.1195588295528352 0 0.43638808711967042 0.14879843921734279 0 0.45178993828594233 0.13985288766974729 0 0.4422805091527181 0.1341786343850887 0 0.43638808711967042 0.14879843921734279 0 0.45670472036944049 0.1516213225278511 0 0.4424696153421766 0.1602339240175972 0 0.43638808711967042 0.14879843921734279 0 0.45670472036944049 0.1516213225278511 0 0.43638808711967042 0.14879843921734279 0 0.4422805091527181 0.1341786343850887 0 0.43638808711967042 0.14879843921734279 0 0.45670472036944049 0.1516213225278511 0 0.45178993828594233 0.13985288766974729 0 0.45670472036944049 0.1516213225278511 0 0.4424696153421766 0.1602339240175972 0 0.44908717168463608 0.17015754448718409 0 0.42769848219495948 0.1703583898380108 0 0.4424696153421766 0.1602339240175972 0 0.44908717168463608 0.17015754448718409 0 0.42769848219495948 0.1703583898380108 0 0.44908717168463608 0.17015754448718409 0 0.44045816003021632 0.1788369629606931 0 0.44300043554382962 0.18929280046581751 0 0.44045816003021632 0.1788369629606931 0 0.45075823086090888 0.18276473562140641 0 0.43377453127173837 0.18526303465223309 0 0.44300043554382962 0.18929280046581751 0 0.44045816003021632 0.1788369629606931 0 0.44908717168463608 0.17015754448718409 0 0.44045816003021632 0.1788369629606931 0 0.45075823086090888 0.18276473562140641 0 0.45789553087339258 0.18935342854396109 0 0.47611716608028942 0.19530826817929531 0 0.46233426645069581 0.17676372510809271 0 0.45789553087339258 0.18935342854396109 0 0.45075823086090888 0.18276473562140641 0 0.46233426645069581 0.17676372510809271 0 0.44908717168463608 0.17015754448718409 0 0.45075823086090888 0.18276473562140641 0 0.46233426645069581 0.17676372510809271 0 0.46233426645069581 0.17676372510809271 0 0.46528286009918451 0.1644054887760317 0 0.47656925984975052 0.1748762370088254 0 0.45670472036944049 0.1516213225278511 0 0.46528286009918451 0.1644054887760317 0 0.47702135361921122 0.15444420583835569 0 0.44908717168463608 0.17015754448718409 0 0.46233426645069581 0.17676372510809271 0 0.46528286009918451 0.1644054887760317 0 0.45670472036944049 0.1516213225278511 0 0.44908717168463608 0.17015754448718409 0 0.46528286009918451 0.1644054887760317 0 0.46528286009918451 0.1644054887760317 0 0.47656925984975052 0.1748762370088254 0 0.47702135361921122 0.15444420583835569 0 0.47656925984975052 0.1748762370088254 0 0.48518393370201351 0.16675339862012789 0 0.47702135361921122 0.15444420583835569 0 0.47656925984975052 0.1748762370088254 0 0.47702135361921122 0.15444420583835569 0 0.48518393370201351 0.16675339862012789 0 0.48142187067250869 0.15505563323356791 0 0.47702135361921122 0.15444420583835569 0 0.47611716608028942 0.19530826817929531 0 0.46233426645069581 0.17676372510809271 0 0.47656925984975052 0.1748762370088254 0 0.47611716608028942 0.19530826817929531 0 0.47656925984975052 0.1748762370088254 0 0.48852638976703527 0.1807945508230909 0 0.47611716608028942 0.19530826817929531 0 0.47656925984975052 0.1748762370088254 0 0.47656925984975052 0.1748762370088254 0 0.48852638976703527 0.1807945508230909 0 0.48518393370201351 0.16675339862012789 0 0.5 0.1964305220329543 0 0.48852638976703527 0.1807945508230909 0 0.5 0.16658840411934689 0 0.48518393370201351 0.16675339862012789 0 0.5 0.16658840411934689 0 0.48142187067250869 0.15505563323356791 0 0.48852638976703527 0.1807945508230909 0 0.48518393370201351 0.16675339862012789 0 0.5 0.16658840411934689 0 0.48142187067250869 0.15505563323356791 0 0.48401840695721132 0.14329119679904509 0 0.5 0.1367462862057397 0 0.5 0.16658840411934689 0 0.48142187067250869 0.15505563323356791 0 0.5 0.1367462862057397 0 0.47702135361921122 0.15444420583835569 0 0.47763040353712521 0.12691866191851731 0 0.47702135361921122 0.15444420583835569 0 0.48401840695721132 0.14329119679904509 0 0.47763040353712521 0.12691866191851731 0 0.48142187067250869 0.15505563323356791 0 0.47702135361921122 0.15444420583835569 0 0.48401840695721132 0.14329119679904509 0 0.48142187067250869 0.15505563323356791 0 0.47702135361921122 0.15444420583835569 0 0.4652354671643244 0.13718343837439509 0 0.47702135361921122 0.15444420583835569 0 0.47763040353712521 0.12691866191851731 0 0.4652354671643244 0.13718343837439509 0 0.47763040353712521 0.12691866191851731 0 0.46583102023387019 0.1238830504881954 0 0.48401840695721132 0.14329119679904509 0 0.47763040353712521 0.12691866191851731 0 0.5 0.1367462862057397 0 0.47763040353712521 0.12691866191851731 0 0.5 0.10690416829213251 0 0.47823945345503888 0.099393117998679031 0 0.47763040353712521 0.12691866191851731 0 0.5 0.1367462862057397 0 0.5 0.10690416829213251 0 0.5 0.10690416829213251 0 0.47823945345503888 0.099393117998679031 0 0.48538749282401972 0.086715269884528878 0 0.47823945345503888 0.099393117998679031 0 0.47311688125012052 0.087221366493469413 0 0.46769776492448528 0.097699040101108858 0 0.47823945345503888 0.099393117998679031 0 0.46729506447774388 0.1106057594947818 0 0.46769776492448528 0.097699040101108858 0 0.47763040353712521 0.12691866191851731 0 0.46583102023387019 0.1238830504881954 0 0.46729506447774388 0.1106057594947818 0 0.47763040353712521 0.12691866191851731 0 0.47823945345503888 0.099393117998679031 0 0.47763040353712521 0.12691866191851731 0 0.47823945345503888 0.099393117998679031 0 0.46729506447774388 0.1106057594947818 0 0.5 0.077062050378525093 0 0.48558967191520519 0.073251584224968566 0 0.48701655923400078 0.058189522764648907 0 0.5 0.10690416829213251 0 0.5 0.077062050378525093 0 0.48538749282401972 0.086715269884528878 0 0.5 0.077062050378525093 0 0.48558967191520519 0.073251584224968566 0 0.48538749282401972 0.086715269884528878 0 0.47823945345503888 0.099393117998679031 0 0.48538749282401972 0.086715269884528878 0 0.47311688125012052 0.087221366493469413 0 0.47311688125012052 0.087221366493469413 0 0.47656208776809211 0.07706950762453435 0 0.46680707080877087 0.073325297233296755 0 0.48558967191520519 0.073251584224968566 0 0.48538749282401972 0.086715269884528878 0 0.47656208776809211 0.07706950762453435 0 0.48538749282401972 0.086715269884528878 0 0.47311688125012052 0.087221366493469413 0 0.47656208776809211 0.07706950762453435 0 0.46680707080877087 0.073325297233296755 0 0.47314965659411151 0.057588582212981618 0 0.47758838177516838 0.067762863671058923 0 0.46680707080877087 0.073325297233296755 0 0.47314965659411151 0.057588582212981618 0 0.48558967191520519 0.073251584224968566 0 0.47656208776809211 0.07706950762453435 0 0.47758838177516838 0.067762863671058923 0 0.47656208776809211 0.07706950762453435 0 0.47758838177516838 0.067762863671058923 0 0.46680707080877087 0.073325297233296755 0 0.48558967191520519 0.073251584224968566 0 0.47758838177516838 0.067762863671058923 0 0.48701655923400078 0.058189522764648907 0 0.46233244383343641 0.066556840091762784 0 0.46046448502343029 0.089062012253611864 0 0.46233244383343641 0.066556840091762784 0 0.46680707080877087 0.073325297233296755 0 0.47314965659411151 0.057588582212981618 0 0.46233244383343641 0.066556840091762784 0 0.46680707080877087 0.073325297233296755 0 0.46046448502343029 0.089062012253611864 0 0.46233244383343641 0.066556840091762784 0 0.46046448502343029 0.089062012253611864 0 0.4504602692522679 0.078115265936708478 0 0.46233244383343641 0.066556840091762784 0 0.4504602692522679 0.078115265936708478 0 0.45022276114493331 0.065250536566251807 0 0.47311688125012052 0.087221366493469413 0 0.46680707080877087 0.073325297233296755 0 0.46046448502343029 0.089062012253611864 0 0.46046448502343029 0.089062012253611864 0 0.4510891421439413 0.093741824289196085 0 0.4504602692522679 0.078115265936708478 0 0.46680707080877087 0.073325297233296755 0 0.46046448502343029 0.089062012253611864 0 0.47311688125012052 0.087221366493469413 0 0.46046448502343029 0.089062012253611864 0 0.46769776492448528 0.097699040101108858 0 0.44132913367283971 0.090212340125828239 0 0.4504602692522679 0.078115265936708478 0 0.44001522832298662 0.07175016750190262 0 0.4510891421439413 0.093741824289196085 0 0.44132913367283971 0.090212340125828239 0 0.4504602692522679 0.078115265936708478 0 0.44001522832298662 0.07175016750190262 0 0.45022276114493331 0.065250536566251807 0 0.43575027890718482 0.053696124707718833 0 0.4504602692522679 0.078115265936708478 0 0.44001522832298662 0.07175016750190262 0 0.45022276114493331 0.065250536566251807 0 0.45796258051016042 0.1107825486050133 0 0.45431870810459829 0.1043104209032234 0 0.44817293118576729 0.1195588295528352 0 0.45796258051016042 0.1107825486050133 0 0.46065325836659998 0.117224788809224 0 0.44817293118576729 0.1195588295528352 0 0.45834090762355761 0.12748260384405891 0 0.46065325836659998 0.117224788809224 0 0.44817293118576729 0.1195588295528352 0 0.45834090762355761 0.12748260384405891 0 0.44817293118576729 0.1195588295528352 0 0.45834090762355761 0.12748260384405891 0 0.46065325836659998 0.117224788809224 0 0.46583102023387019 0.1238830504881954 0 0.46065325836659998 0.117224788809224 0 0.46583102023387019 0.1238830504881954 0 0.46729506447774388 0.1106057594947818 0 0.45796258051016042 0.1107825486050133 0 0.46065325836659998 0.117224788809224 0 0.46729506447774388 0.1106057594947818 0 0.46729506447774388 0.1106057594947818 0 0.46769776492448528 0.097699040101108858 0 0.45937294041609272 0.1022129442650022 0 0.45796258051016042 0.1107825486050133 0 0.46729506447774388 0.1106057594947818 0 0.45937294041609272 0.1022129442650022 0 0.46046448502343029 0.089062012253611864 0 0.46769776492448528 0.097699040101108858 0 0.45937294041609272 0.1022129442650022 0 0.46046448502343029 0.089062012253611864 0 0.45937294041609272 0.1022129442650022 0 0.45431870810459829 0.1043104209032234 0 0.46046448502343029 0.089062012253611864 0 0.4510891421439413 0.093741824289196085 0 0.45431870810459829 0.1043104209032234 0 0.46046448502343029 0.089062012253611864 0 0.45937294041609272 0.1022129442650022 0 0.46046448502343029 0.089062012253611864 0 0.45431870810459829 0.1043104209032234 0 0.45796258051016042 0.1107825486050133 0 0.45937294041609272 0.1022129442650022 0 0.45431870810459829 0.1043104209032234 0 0.44084244730712502 0.1036939135779533 0 0.44817293118576729 0.1195588295528352 0 0.42735681177647528 0.10333709331773711 0 0.45431870810459829 0.1043104209032234 0 0.44776524497603098 0.1070917530270078 0 0.44772689330663351 0.10080384807401931 0 0.44776524497603098 0.1070917530270078 0 0.44772689330663351 0.10080384807401931 0 0.44084244730712502 0.1036939135779533 0 0.4510891421439413 0.093741824289196085 0 0.45431870810459829 0.1043104209032234 0 0.44772689330663351 0.10080384807401931 0 0.4510891421439413 0.093741824289196085 0 0.44132913367283971 0.090212340125828239 0 0.44772689330663351 0.10080384807401931 0 0.44132913367283971 0.090212340125828239 0 0.44772689330663351 0.10080384807401931 0 0.44084244730712502 0.1036939135779533 0 0.44776524497603098 0.1070917530270078 0 0.44084244730712502 0.1036939135779533 0 0.44817293118576729 0.1195588295528352 0 0.44817293118576729 0.1195588295528352 0 0.42735681177647528 0.10333709331773711 0 0.45431870810459829 0.1043104209032234 0 0.44776524497603098 0.1070917530270078 0 0.44817293118576729 0.1195588295528352 0 0.45431870810459829 0.1043104209032234 0 0.44817293118576729 0.1195588295528352 0 0.42890497778548492 0.1215596431410699 0 0.41040073439000269 0.10811079598569 0 0.42735681177647528 0.10333709331773711 0 0.44817293118576729 0.1195588295528352 0 0.42890497778548492 0.1215596431410699 0 0.42735681177647528 0.10333709331773711 0 0.41426077641282327 0.12910623488873851 0 0.42890497778548492 0.1215596431410699 0 0.41040073439000269 0.10811079598569 0 0.41426077641282327 0.12910623488873851 0 0.41040073439000269 0.10811079598569 0 0.40100853392043428 0.1225931509746481 0 0.41426077641282327 0.12910623488873851 0 0.41040073439000269 0.10811079598569 0 0.41040073439000269 0.10811079598569 0 0.42735681177647528 0.10333709331773711 0 0.40654069236718138 0.087115357082641454 0 0.42735681177647528 0.10333709331773711 0 0.40654069236718138 0.087115357082641454 0 0.41040073439000269 0.10811079598569 0 0.40654069236718138 0.087115357082641454 0 0.44132913367283971 0.090212340125828239 0 0.42735681177647528 0.10333709331773711 0 0.42524696279148722 0.088805968555774717 0 0.44132913367283971 0.090212340125828239 0 0.44084244730712502 0.1036939135779533 0 0.42735681177647528 0.10333709331773711 0 0.44132913367283971 0.090212340125828239 0 0.44001522832298662 0.07175016750190262 0 0.42576121334945222 0.074559083696892098 0 0.44132913367283971 0.090212340125828239 0 0.42524696279148722 0.088805968555774717 0 0.42576121334945222 0.074559083696892098 0 0.44001522832298662 0.07175016750190262 0 0.42576121334945222 0.074559083696892098 0 0.43575027890718482 0.053696124707718833 0 0.42576121334945222 0.074559083696892098 0 0.41650613251011492 0.063889331672230446 0 0.43575027890718482 0.053696124707718833 0 0.42576121334945222 0.074559083696892098 0 0.41650613251011492 0.063889331672230446 0 0.40654069236718138 0.087115357082641454 0 0.41650613251011492 0.063889331672230446 0 0.40654069236718138 0.087115357082641454 0 0.40221470851736951 0.06358557966639819 0 0.42735681177647528 0.10333709331773711 0 0.42524696279148722 0.088805968555774717 0 0.40654069236718138 0.087115357082641454 0 0.42524696279148722 0.088805968555774717 0 0.42576121334945222 0.074559083696892098 0 0.40654069236718138 0.087115357082641454 0 0.40654069236718138 0.087115357082641454 0 0.38893594822348659 0.078811513398477764 0 0.39499031245261862 0.094280915222494543 0 0.40654069236718138 0.087115357082641454 0 0.38588395142050252 0.071017822449738532 0 0.38893594822348659 0.078811513398477764 0 0.40654069236718138 0.087115357082641454 0 0.38588395142050252 0.071017822449738532 0 0.40654069236718138 0.087115357082641454 0 0.40221470851736951 0.06358557966639819 0 0.38588395142050252 0.071017822449738532 0 0.40654069236718138 0.087115357082641454 0 0.40221470851736951 0.06358557966639819 0 0.36952982539922308 0.058273260725414139 0 0.38588395142050252 0.071017822449738532 0 0.36952982539922308 0.058273260725414139 0 0.38588395142050252 0.071017822449738532 0 0.38171290019943638 0.059504931571589988 0 0.37437052547156002 0.075421036388670343 0 0.36952982539922308 0.058273260725414139 0 0.38588395142050252 0.071017822449738532 0 0.3744397415558699 0.086341087212534418 0 0.37437052547156002 0.075421036388670343 0 0.38588395142050252 0.071017822449738532 0 0.38588395142050252 0.071017822449738532 0 0.38893594822348659 0.078811513398477764 0 0.37971055053204789 0.099020329494696371 0 0.38588395142050252 0.071017822449738532 0 0.37971055053204789 0.099020329494696371 0 0.3744397415558699 0.086341087212534418 0 0.38588395142050252 0.071017822449738532 0 0.37971055053204789 0.099020329494696371 0 0.38893594822348659 0.078811513398477764 0 0.38607655882572101 0.10667738188425011 0 0.39499031245261862 0.094280915222494543 0 0.38893594822348659 0.078811513398477764 0 0.38607655882572101 0.10667738188425011 0 0.38893594822348659 0.078811513398477764 0 0.37971055053204789 0.099020329494696371 0 0.38607655882572101 0.10667738188425011 0 0.37353714964359269 0.12702283653965399 0 0.37971055053204789 0.099020329494696371 0 0.38607655882572101 0.10667738188425011 0 0.38321716942795542 0.1345432503700224 0 0.38607655882572101 0.10667738188425011 0 0.37353714964359269 0.12702283653965399 0 0.38321716942795542 0.1345432503700224 0 0.38607655882572101 0.10667738188425011 0 0.37353714964359269 0.12702283653965399 0 0.37971055053204789 0.099020329494696371 0 0.38321716942795542 0.1345432503700224 0 0.38607655882572101 0.10667738188425011 0 0.39528220406742121 0.11789121407096891 0 0.38607655882572101 0.10667738188425011 0 0.39528220406742121 0.11789121407096891 0 0.39840805039408539 0.1045194085246088 0 0.39534094258916119 0.13043600057333149 0 0.39528220406742121 0.11789121407096891 0 0.40100853392043428 0.1225931509746481 0 0.41040073439000269 0.10811079598569 0 0.39528220406742121 0.11789121407096891 0 0.39840805039408539 0.1045194085246088 0 0.41040073439000269 0.10811079598569 0 0.39528220406742121 0.11789121407096891 0 0.40100853392043428 0.1225931509746481 0 0.41040073439000269 0.10811079598569 0 0.40654069236718138 0.087115357082641454 0 0.39840805039408539 0.1045194085246088 0 0.40654069236718138 0.087115357082641454 0 0.39499031245261862 0.094280915222494543 0 0.39840805039408539 0.1045194085246088 0 0.38607655882572101 0.10667738188425011 0 0.39499031245261862 0.094280915222494543 0 0.39840805039408539 0.1045194085246088 0 0.40034789333347393 0.021247929496978079 0 0.39609851540861962 0.0077548751215693974 0 0.38902263528534542 0.019618640221381271 0 0.39479256194511958 0.03060842194525042 0 0.40034789333347393 0.021247929496978079 0 0.38902263528534542 0.019618640221381271 0 0.39479256194511958 0.03060842194525042 0 0.40034789333347393 0.021247929496978079 0 0.40811207770188501 0.031231301905466701 0 0.40034789333347393 0.021247929496978079 0 0.39609851540861962 0.0077548751215693974 0 0.41371367632639988 0.017026408291222591 0 0.39609851540861962 0.0077548751215693974 0 0.37873334006080328 0.0090585985067660347 0 0.38071497791941461 -0.0053118919655108128 0 0.39609851540861962 0.0077548751215693974 0 0.37873334006080328 0.0090585985067660347 0 0.38902263528534542 0.019618640221381271 0 0.36642895304847711 0.0028477869111517432 0 0.37873334006080328 0.0090585985067660347 0 0.38071497791941461 -0.0053118919655108128 0 0.37873334006080328 0.0090585985067660347 0 0.37707555299081907 0.02016698353034516 0 0.38902263528534542 0.019618640221381271 0 0.37707555299081907 0.02016698353034516 0 0.38902263528534542 0.019618640221381271 0 0.38255320990286801 0.029986968475170812 0 0.39479256194511958 0.03060842194525042 0 0.38902263528534542 0.019618640221381271 0 0.38255320990286801 0.029986968475170812 0 0.36959097908565319 0.032143088342111083 0 0.37707555299081907 0.02016698353034516 0 0.38255320990286801 0.029986968475170812 0 0.38255320990286801 0.029986968475170812 0 0.37524330567798497 0.038399978651358337 0 0.38444240458797369 0.039712615782326682 0 0.39479256194511958 0.03060842194525042 0 0.38444240458797369 0.039712615782326682 0 0.39033825668281141 0.050813122197494599 0 0.36959097908565319 0.032143088342111083 0 0.38255320990286801 0.029986968475170812 0 0.37524330567798497 0.038399978651358337 0 0.37524330567798497 0.038399978651358337 0 0.38444240458797369 0.039712615782326682 0 0.3792846887310849 0.048754587642359237 0 0.38444240458797369 0.039712615782326682 0 0.3792846887310849 0.048754587642359237 0 0.39033825668281141 0.050813122197494599 0 0.39479256194511958 0.03060842194525042 0 0.38255320990286801 0.029986968475170812 0 0.38444240458797369 0.039712615782326682 0 0.38588395142050252 0.071017822449738532 0 0.39033825668281141 0.050813122197494599 0 0.38588395142050252 0.071017822449738532 0 0.38171290019943638 0.059504931571589988 0 0.39033825668281141 0.050813122197494599 0 0.36952982539922308 0.058273260725414139 0 0.38171290019943638 0.059504931571589988 0 0.3792846887310849 0.048754587642359237 0 0.38171290019943638 0.059504931571589988 0 0.3792846887310849 0.048754587642359237 0 0.39033825668281141 0.050813122197494599 0 0.40221470851736951 0.06358557966639819 0 0.39033825668281141 0.050813122197494599 0 0.39788872466755698 0.040055802250155051 0 0.40221470851736951 0.06358557966639819 0 0.38588395142050252 0.071017822449738532 0 0.39033825668281141 0.050813122197494599 0 0.40221470851736951 0.06358557966639819 0 0.39788872466755698 0.040055802250155051 0 0.40840196678402402 0.045319677100549599 0 0.40221470851736951 0.06358557966639819 0 0.39788872466755698 0.040055802250155051 0 0.39479256194511958 0.03060842194525042 0 0.39033825668281141 0.050813122197494599 0 0.39479256194511958 0.03060842194525042 0 0.39033825668281141 0.050813122197494599 0 0.39788872466755698 0.040055802250155051 0 0.39479256194511958 0.03060842194525042 0 0.39788872466755698 0.040055802250155051 0 0.40811207770188501 0.031231301905466701 0 0.39788872466755698 0.040055802250155051 0 0.40840196678402402 0.045319677100549599 0 0.40811207770188501 0.031231301905466701 0 0.41832330785649879 0.040516358434610503 0 0.4257879680246287 0.02966373080824276 0 0.40811207770188501 0.031231301905466701 0 0.40840196678402402 0.045319677100549599 0 0.41832330785649879 0.040516358434610503 0 0.40811207770188501 0.031231301905466701 0 0.40840196678402402 0.045319677100549599 0 0.41832330785649879 0.040516358434610503 0 0.41547101517680951 0.051209343246117547 0 0.40221470851736951 0.06358557966639819 0 0.40840196678402402 0.045319677100549599 0 0.41547101517680951 0.051209343246117547 0 0.41650613251011492 0.063889331672230446 0 0.40221470851736951 0.06358557966639819 0 0.41547101517680951 0.051209343246117547 0 0.41650613251011492 0.063889331672230446 0 0.41547101517680951 0.051209343246117547 0 0.43575027890718482 0.053696124707718833 0 0.41832330785649879 0.040516358434610503 0 0.41547101517680951 0.051209343246117547 0 0.43575027890718482 0.053696124707718833 0 0.41832330785649879 0.040516358434610503 0 0.43575027890718482 0.053696124707718833 0 0.4257879680246287 0.02966373080824276 0 0.43575027890718482 0.053696124707718833 0 0.4257879680246287 0.02966373080824276 0 0.44774859279791579 0.028138282616315541 0 0.4257879680246287 0.02966373080824276 0 0.43373192603638289 0.01040266456964275 0 0.44774859279791579 0.028138282616315541 0 0.4257879680246287 0.02966373080824276 0 0.41371367632639988 0.017026408291222591 0 0.43373192603638289 0.01040266456964275 0 0.4257879680246287 0.02966373080824276 0 0.41371367632639988 0.017026408291222591 0 0.40811207770188501 0.031231301905466701 0 0.40034789333347393 0.021247929496978079 0 0.41371367632639988 0.017026408291222591 0 0.40811207770188501 0.031231301905466701 0 0.39609851540861962 0.0077548751215693974 0 0.41371367632639988 0.017026408291222591 0 0.41650333971669179 0.00050237777190450389 0 0.41371367632639988 0.017026408291222591 0 0.41650333971669179 0.00050237777190450389 0 0.43373192603638289 0.01040266456964275 0 0.43373192603638289 0.01040266456964275 0 0.44774859279791579 0.028138282616315541 0 0.45974690668864687 0.0025804405249122519 0 0.44774859279791579 0.028138282616315541 0 0.46606836145344871 0.021546495768064809 0 0.46420040264344248 0.044051667929913808 0 0.44774859279791579 0.028138282616315541 0 0.46606836145344871 0.021546495768064809 0 0.45974690668864687 0.0025804405249122519 0 0.44774859279791579 0.028138282616315541 0 0.45974690668864687 0.0025804405249122519 0 0.45022276114493331 0.065250536566251807 0 0.43575027890718482 0.053696124707718833 0 0.45211113416515331 0.052396517114886708 0 0.43575027890718482 0.053696124707718833 0 0.44774859279791579 0.028138282616315541 0 0.43575027890718482 0.053696124707718833 0 0.44774859279791579 0.028138282616315541 0 0.45211113416515331 0.052396517114886708 0 0.44774859279791579 0.028138282616315541 0 0.45211113416515331 0.052396517114886708 0 0.46420040264344248 0.044051667929913808 0 0.46606836145344871 0.021546495768064809 0 0.46420040264344248 0.044051667929913808 0 0.46233244383343641 0.066556840091762784 0 0.45211113416515331 0.052396517114886708 0 0.46420040264344248 0.044051667929913808 0 0.46233244383343641 0.066556840091762784 0 0.46420040264344248 0.044051667929913808 0 0.46233244383343641 0.066556840091762784 0 0.46420040264344248 0.044051667929913808 0 0.47314965659411151 0.057588582212981618 0 0.46233244383343641 0.066556840091762784 0 0.45022276114493331 0.065250536566251807 0 0.45211113416515331 0.052396517114886708 0 0.47314965659411151 0.057588582212981618 0 0.48185520193382669 0.035757735787976037 0 0.48701655923400078 0.058189522764648907 0 0.47758838177516838 0.067762863671058923 0 0.47314965659411151 0.057588582212981618 0 0.48701655923400078 0.058189522764648907 0 0.46420040264344248 0.044051667929913808 0 0.47314965659411151 0.057588582212981618 0 0.48185520193382669 0.035757735787976037 0 0.46606836145344871 0.021546495768064809 0 0.46420040264344248 0.044051667929913808 0 0.48185520193382669 0.035757735787976037 0 0.48185520193382669 0.035757735787976037 0 0.5 0.047219932464917513 0 0.5 0.017377814551310041 0 0.5 0.077062050378525093 0 0.5 0.047219932464917513 0 0.48701655923400078 0.058189522764648907 0 0.48185520193382669 0.035757735787976037 0 0.5 0.047219932464917513 0 0.48701655923400078 0.058189522764648907 0 0.46606836145344871 0.021546495768064809 0 0.45974690668864687 0.0025804405249122519 0 0.48136924481065968 0.0059101465580164323 0 0.46606836145344871 0.021546495768064809 0 0.48185520193382669 0.035757735787976037 0 0.48136924481065968 0.0059101465580164323 0 0.48185520193382669 0.035757735787976037 0 0.48136924481065968 0.0059101465580164323 0 0.5 0.017377814551310041 0 0.48136924481065968 0.0059101465580164323 0 0.5 0.017377814551310041 0 0.5 -0.01246430336229748 0 0.45974690668864687 0.0025804405249122519 0 0.48136924481065968 0.0059101465580164323 0 0.47174522057937801 -0.022977401566491019 0 0.48136924481065968 0.0059101465580164323 0 0.5 -0.01246430336229748 0 0.47174522057937801 -0.022977401566491019 0 0.5 -0.01246430336229748 0 0.47174522057937801 -0.022977401566491019 0 0.5 -0.042306421275904997 0 0.47174522057937801 -0.022977401566491019 0 0.5 -0.042306421275904997 0 0.47001409945669348 -0.057048293687022023 0 0.5 -0.042306421275904997 0 0.47001409945669348 -0.057048293687022023 0 0.5 -0.072148539189512528 0 0.47174522057937801 -0.022977401566491019 0 0.47001409945669348 -0.057048293687022023 0 0.4532850235887852 -0.036249015680938787 0 0.47001409945669348 -0.057048293687022023 0 0.4532850235887852 -0.036249015680938787 0 0.44733394050767639 -0.05886331785652308 0 0.4532850235887852 -0.036249015680938787 0 0.43921346449248788 -0.015484528702947829 0 0.43399561952917642 -0.045101994580794891 0 0.4532850235887852 -0.036249015680938787 0 0.44733394050767639 -0.05886331785652308 0 0.43399561952917642 -0.045101994580794891 0 0.4532850235887852 -0.036249015680938787 0 0.43921346449248788 -0.015484528702947829 0 0.45634870539300598 -0.014610138340569101 0 0.43373192603638289 0.01040266456964275 0 0.45974690668864687 0.0025804405249122519 0 0.43921346449248788 -0.015484528702947829 0 0.45974690668864687 0.0025804405249122519 0 0.43921346449248788 -0.015484528702947829 0 0.45634870539300598 -0.014610138340569101 0 0.45974690668864687 0.0025804405249122519 0 0.47174522057937801 -0.022977401566491019 0 0.45974690668864687 0.0025804405249122519 0 0.47174522057937801 -0.022977401566491019 0 0.45634870539300598 -0.014610138340569101 0 0.47174522057937801 -0.022977401566491019 0 0.4532850235887852 -0.036249015680938787 0 0.45634870539300598 -0.014610138340569101 0 0.5 -0.10199065710312009 0 0.47719545063300961 -0.085059985253759823 0 0.46510100449075947 -0.10857633725362149 0 0.5 -0.10199065710312009 0 0.46510100449075947 -0.10857633725362149 0 0.47893506117769907 -0.1263546263232769 0 0.5 -0.10199065710312009 0 0.5 -0.1318327750167276 0 0.47893506117769907 -0.1263546263232769 0 0.5 -0.10199065710312009 0 0.47719545063300961 -0.085059985253759823 0 0.5 -0.072148539189512528 0 0.47001409945669348 -0.057048293687022023 0 0.47719545063300961 -0.085059985253759823 0 0.5 -0.072148539189512528 0 0.47001409945669348 -0.057048293687022023 0 0.44733394050767639 -0.05886331785652308 0 0.45086214921759471 -0.08553609903552295 0 0.47001409945669348 -0.057048293687022023 0 0.47719545063300961 -0.085059985253759823 0 0.45086214921759471 -0.08553609903552295 0 0.44733394050767639 -0.05886331785652308 0 0.45086214921759471 -0.08553609903552295 0 0.42851281074613212 -0.070381186298336715 0 0.47719545063300961 -0.085059985253759823 0 0.45086214921759471 -0.08553609903552295 0 0.46510100449075947 -0.10857633725362149 0 0.45086214921759471 -0.08553609903552295 0 0.46510100449075947 -0.10857633725362149 0 0.43145869800402109 -0.116595334878867 0 0.46510100449075947 -0.10857633725362149 0 0.43145869800402109 -0.116595334878867 0 0.45080130582426631 -0.1338309287863732 0 0.46510100449075947 -0.10857633725362149 0 0.45080130582426631 -0.1338309287863732 0 0.47893506117769907 -0.1263546263232769 0 0.43145869800402109 -0.116595334878867 0 0.40472615041640198 -0.1039652598749705 0 0.40713859993403051 -0.13340844657761061 0 0.45086214921759471 -0.08553609903552295 0 0.43145869800402109 -0.116595334878867 0 0.42415935089261719 -0.091384430588953153 0 0.43145869800402109 -0.116595334878867 0 0.42415935089261719 -0.091384430588953153 0 0.40472615041640198 -0.1039652598749705 0 0.42415935089261719 -0.091384430588953153 0 0.40231370089877361 -0.074522073172330575 0 0.40472615041640198 -0.1039652598749705 0 0.42415935089261719 -0.091384430588953153 0 0.42851281074613212 -0.070381186298336715 0 0.40231370089877361 -0.074522073172330575 0 0.45086214921759471 -0.08553609903552295 0 0.42415935089261719 -0.091384430588953153 0 0.42851281074613212 -0.070381186298336715 0 0.42851281074613212 -0.070381186298336715 0 0.40231370089877361 -0.074522073172330575 0 0.40773324916104242 -0.04825592149458436 0 0.40231370089877361 -0.074522073172330575 0 0.37571274685922229 -0.074054421797236744 0 0.38717147853693001 -0.06027092646118605 0 0.37571274685922229 -0.074054421797236744 0 0.38717147853693001 -0.06027092646118605 0 0.36424568480138531 -0.063181076578594925 0 0.37571274685922229 -0.074054421797236744 0 0.38567181383313082 -0.091351942300314848 0 0.36764953323896649 -0.092074926850790301 0 0.40231370089877361 -0.074522073172330575 0 0.37571274685922229 -0.074054421797236744 0 0.38567181383313082 -0.091351942300314848 0 0.40231370089877361 -0.074522073172330575 0 0.40472615041640198 -0.1039652598749705 0 0.40231370089877361 -0.074522073172330575 0 0.38567181383313082 -0.091351942300314848 0 0.40472615041640198 -0.1039652598749705 0 0.38567181383313082 -0.091351942300314848 0 0.40472615041640198 -0.1039652598749705 0 0.38819227338683687 -0.1078627665926651 0 0.38567181383313082 -0.091351942300314848 0 0.37644409074456048 -0.1036623315085025 0 0.38819227338683687 -0.1078627665926651 0 0.38567181383313082 -0.091351942300314848 0 0.37644409074456048 -0.1036623315085025 0 0.36764953323896649 -0.092074926850790301 0 0.38819227338683687 -0.1078627665926651 0 0.38061125384645461 -0.1169874577188753 0 0.39317968796985858 -0.1218441630815677 0 0.37644409074456048 -0.1036623315085025 0 0.38819227338683687 -0.1078627665926651 0 0.38061125384645461 -0.1169874577188753 0 0.37644409074456048 -0.1036623315085025 0 0.38061125384645461 -0.1169874577188753 0 0.37042076319628198 -0.1149998034366868 0 0.38061125384645461 -0.1169874577188753 0 0.37042076319628198 -0.1149998034366868 0 0.38209816509985928 -0.12927992000057059 0 0.38061125384645461 -0.1169874577188753 0 0.38384258531298943 -0.1268543400121912 0 0.38209816509985928 -0.12927992000057059 0 0.37042076319628198 -0.1149998034366868 0 0.38209816509985928 -0.12927992000057059 0 0.38061125384645461 -0.1169874577188753 0 0.39317968796985858 -0.1218441630815677 0 0.38384258531298943 -0.1268543400121912 0 0.40472615041640198 -0.1039652598749705 0 0.40713859993403051 -0.13340844657761061 0 0.40472615041640198 -0.1039652598749705 0 0.39317968796985858 -0.1218441630815677 0 0.40713859993403051 -0.13340844657761061 0 0.40472615041640198 -0.1039652598749705 0 0.38819227338683687 -0.1078627665926651 0 0.39317968796985858 -0.1218441630815677 0 0.41650333971669179 0.00050237777190450389 0 0.41974119136922861 -0.027947699350020661 0 0.39908412141158889 -0.020725440344928171 0 0.41650333971669179 0.00050237777190450389 0 0.39908412141158889 -0.020725440344928171 0 0.41650333971669179 0.00050237777190450389 0 0.43373192603638289 0.01040266456964275 0 0.43921346449248788 -0.015484528702947829 0 0.41650333971669179 0.00050237777190450389 0 0.43921346449248788 -0.015484528702947829 0 0.41974119136922861 -0.027947699350020661 0 0.43921346449248788 -0.015484528702947829 0 0.41974119136922861 -0.027947699350020661 0 0.43399561952917642 -0.045101994580794891 0 0.44733394050767639 -0.05886331785652308 0 0.42851281074613212 -0.070381186298336715 0 0.43399561952917642 -0.045101994580794891 0 0.42851281074613212 -0.070381186298336715 0 0.43399561952917642 -0.045101994580794891 0 0.40773324916104242 -0.04825592149458436 0 0.41974119136922861 -0.027947699350020661 0 0.43399561952917642 -0.045101994580794891 0 0.40773324916104242 -0.04825592149458436 0 0.41974119136922861 -0.027947699350020661 0 0.40773324916104242 -0.04825592149458436 0 0.39908412141158889 -0.020725440344928171 0 0.40773324916104242 -0.04825592149458436 0 0.38166490310648621 -0.041953258461760672 0 0.39908412141158889 -0.020725440344928171 0 0.40773324916104242 -0.04825592149458436 0 0.38717147853693001 -0.06027092646118605 0 0.38166490310648621 -0.041953258461760672 0 0.40231370089877361 -0.074522073172330575 0 0.40773324916104242 -0.04825592149458436 0 0.38717147853693001 -0.06027092646118605 0 0.38717147853693001 -0.06027092646118605 0 0.38166490310648621 -0.041953258461760672 0 0.36424568480138531 -0.063181076578594925 0 0.38166490310648621 -0.041953258461760672 0 0.39908412141158889 -0.020725440344928171 0 0.38166490310648621 -0.041953258461760672 0 0.37982675169876629 -0.022900903775348751 0 0.39908412141158889 -0.020725440344928171 0 0.37982675169876629 -0.022900903775348751 0 0.39908412141158889 -0.020725440344928171 0 0.38071497791941461 -0.0053118919655108128 0 0.39609851540861962 0.0077548751215693974 0 0.41650333971669179 0.00050237777190450389 0 0.39908412141158889 -0.020725440344928171 0 0.39609851540861962 0.0077548751215693974 0 0.39908412141158889 -0.020725440344928171 0 0.38071497791941461 -0.0053118919655108128 0 0.37982675169876629 -0.022900903775348751 0 0.38071497791941461 -0.0053118919655108128 0 0.36595777630272669 -0.009468117787350518 0 0.36595777630272669 -0.009468117787350518 0 0.36229153434858308 -0.025151596548009959 0 0.35281410748661701 -0.011577531556830381 0 0.36642895304847711 0.0028477869111517432 0 0.38071497791941461 -0.0053118919655108128 0 0.36595777630272669 -0.009468117787350518 0 0.36642895304847711 0.0028477869111517432 0 0.36595777630272669 -0.009468117787350518 0 0.35515594858733218 -0.00054995058001772016 0 0.37982675169876629 -0.022900903775348751 0 0.36595777630272669 -0.009468117787350518 0 0.36229153434858308 -0.025151596548009959 0 0.38166490310648621 -0.041953258461760672 0 0.37982675169876629 -0.022900903775348751 0 0.36229153434858308 -0.025151596548009959 0 0.36229153434858308 -0.025151596548009959 0 0.34733000253562252 -0.021919449839552831 0 0.34684616589099981 -0.033865848033349653 0 0.36229153434858308 -0.025151596548009959 0 0.34733000253562252 -0.021919449839552831 0 0.35281410748661701 -0.011577531556830381 0 0.36595777630272669 -0.009468117787350518 0 0.35515594858733218 -0.00054995058001772016 0 0.35281410748661701 -0.011577531556830381 0 0.34733000253562252 -0.021919449839552831 0 0.35281410748661701 -0.011577531556830381 0 0.34196296707861978 -0.01174916033336334 0 0.35281410748661701 -0.011577531556830381 0 0.34467921555257031 -0.002962009106727068 0 0.34196296707861978 -0.01174916033336334 0 0.35515594858733218 -0.00054995058001772016 0 0.35281410748661701 -0.011577531556830381 0 0.34467921555257031 -0.002962009106727068 0 0.33759069584632828 0.0048298461918768196 0 0.34467921555257031 -0.002962009106727068 0 0.33440601945123971 -0.0057011628620716199 0 0.34467921555257031 -0.002962009106727068 0 0.33440601945123971 -0.0057011628620716199 0 0.34196296707861978 -0.01174916033336334 0 0.32906798822248451 0.0022292724924981222 0 0.33440601945123971 -0.0057011628620716199 0 0.323678360089515 -0.0081542079124204137 0 0.33440601945123971 -0.0057011628620716199 0 0.33206196739172278 -0.01566830483433691 0 0.323678360089515 -0.0081542079124204137 0 0.34196296707861978 -0.01174916033336334 0 0.3393758629930686 -0.019053747571807299 0 0.33206196739172278 -0.01566830483433691 0 0.33440601945123971 -0.0057011628620716199 0 0.34196296707861978 -0.01174916033336334 0 0.33206196739172278 -0.01566830483433691 0 0.33669658715383038 -0.02673965769025884 0 0.3186642516041831 -0.019941771459701989 0 0.33388439123833891 -0.03439176467547149 0 0.3393758629930686 -0.019053747571807299 0 0.33669658715383038 -0.02673965769025884 0 0.33206196739172278 -0.01566830483433691 0 0.34733000253562252 -0.021919449839552831 0 0.3393758629930686 -0.019053747571807299 0 0.33669658715383038 -0.02673965769025884 0 0.34733000253562252 -0.021919449839552831 0 0.34196296707861978 -0.01174916033336334 0 0.3393758629930686 -0.019053747571807299 0 0.33669658715383038 -0.02673965769025884 0 0.33206196739172278 -0.01566830483433691 0 0.3186642516041831 -0.019941771459701989 0 0.34733000253562252 -0.021919449839552831 0 0.33669658715383038 -0.02673965769025884 0 0.34684616589099981 -0.033865848033349653 0 0.33669658715383038 -0.02673965769025884 0 0.3186642516041831 -0.019941771459701989 0 0.3186642516041831 -0.019941771459701989 0 0.33388439123833891 -0.03439176467547149 0 0.31933739796647281 0.0098329004768663974 0 0.323678360089515 -0.0081542079124204137 0 0.30421077638851429 -0.0062545263384160207 0 0.3186642516041831 -0.019941771459701989 0 0.323678360089515 -0.0081542079124204137 0 0.30421077638851429 -0.0062545263384160207 0 0.3186642516041831 -0.019941771459701989 0 0.323678360089515 -0.0081542079124204137 0 0.33206196739172278 -0.01566830483433691 0 0.3186642516041831 -0.019941771459701989 0 0.323678360089515 -0.0081542079124204137 0 0.32286567100023839 -0.042448718912449057 0 0.33162927748541909 -0.05197211981014082 0 0.32096282467687581 -0.063043515467711669 0 0.32096282467687581 -0.063043515467711669 0 0.30948998068361849 -0.066302038455037474 0 0.30913025320800791 -0.042857925244523323 0 0.32286567100023839 -0.042448718912449057 0 0.32096282467687581 -0.063043515467711669 0 0.30913025320800791 -0.042857925244523323 0 0.3186642516041831 -0.019941771459701989 0 0.32286567100023839 -0.042448718912449057 0 0.33388439123833891 -0.03439176467547149 0 0.3186642516041831 -0.019941771459701989 0 0.30913025320800791 -0.042857925244523323 0 0.3186642516041831 -0.019941771459701989 0 0.32286567100023839 -0.042448718912449057 0 0.30913025320800791 -0.042857925244523323 0 0.33388439123833891 -0.03439176467547149 0 0.33162927748541909 -0.05197211981014082 0 0.34906503801986211 -0.048786420627033131 0 0.32286567100023839 -0.042448718912449057 0 0.33388439123833891 -0.03439176467547149 0 0.33162927748541909 -0.05197211981014082 0 0.33388439123833891 -0.03439176467547149 0 0.34906503801986211 -0.048786420627033131 0 0.34684616589099981 -0.033865848033349653 0 0.33669658715383038 -0.02673965769025884 0 0.33388439123833891 -0.03439176467547149 0 0.34684616589099981 -0.033865848033349653 0 0.33388439123833891 -0.03439176467547149 0 0.34906503801986211 -0.048786420627033131 0 0.33162927748541909 -0.05197211981014082 0 0.33549774607107291 -0.072191485692539678 0 0.32096282467687581 -0.063043515467711669 0 0.33162927748541909 -0.05197211981014082 0 0.34073734096791419 -0.060283281705210037 0 0.33549774607107291 -0.072191485692539678 0 0.33162927748541909 -0.05197211981014082 0 0.34073734096791419 -0.060283281705210037 0 0.34906503801986211 -0.048786420627033131 0 0.34906503801986211 -0.048786420627033131 0 0.36082266523346329 -0.042587640049749673 0 0.36424568480138531 -0.063181076578594925 0 0.34073734096791419 -0.060283281705210037 0 0.34906503801986211 -0.048786420627033131 0 0.34865853619414411 -0.066874417493027194 0 0.34906503801986211 -0.048786420627033131 0 0.36424568480138531 -0.063181076578594925 0 0.34865853619414411 -0.066874417493027194 0 0.34906503801986211 -0.048786420627033131 0 0.36424568480138531 -0.063181076578594925 0 0.36229153434858308 -0.025151596548009959 0 0.34684616589099981 -0.033865848033349653 0 0.36082266523346329 -0.042587640049749673 0 0.34906503801986211 -0.048786420627033131 0 0.34684616589099981 -0.033865848033349653 0 0.36082266523346329 -0.042587640049749673 0 0.38166490310648621 -0.041953258461760672 0 0.36229153434858308 -0.025151596548009959 0 0.36082266523346329 -0.042587640049749673 0 0.38166490310648621 -0.041953258461760672 0 0.36082266523346329 -0.042587640049749673 0 0.36424568480138531 -0.063181076578594925 0 0.38166490310648621 -0.041953258461760672 0 0.36424568480138531 -0.063181076578594925 0 0.37571274685922229 -0.074054421797236744 0 0.36424568480138531 -0.063181076578594925 0 0.36238898357212701 -0.080406066962201969 0 0.37571274685922229 -0.074054421797236744 0 0.36424568480138531 -0.063181076578594925 0 0.37571274685922229 -0.074054421797236744 0 0.36764953323896649 -0.092074926850790301 0 0.36238898357212701 -0.080406066962201969 0 0.36764953323896649 -0.092074926850790301 0 0.36238898357212701 -0.080406066962201969 0 0.35654435898541548 -0.08948837991478685 0 0.36238898357212701 -0.080406066962201969 0 0.35654435898541548 -0.08948837991478685 0 0.34779259397564549 -0.083231529669600984 0 0.34790141253243201 -0.09274446347104226 0 0.34779259397564549 -0.083231529669600984 0 0.34001303374106101 -0.090251333178132054 0 0.35654435898541548 -0.08948837991478685 0 0.34790141253243201 -0.09274446347104226 0 0.34779259397564549 -0.083231529669600984 0 0.34779259397564549 -0.083231529669600984 0 0.34865853619414411 -0.066874417493027194 0 0.33549774607107291 -0.072191485692539678 0 0.36424568480138531 -0.063181076578594925 0 0.36238898357212701 -0.080406066962201969 0 0.34779259397564549 -0.083231529669600984 0 0.36424568480138531 -0.063181076578594925 0 0.34779259397564549 -0.083231529669600984 0 0.34865853619414411 -0.066874417493027194 0 0.36424568480138531 -0.063181076578594925 0 0.34779259397564549 -0.083231529669600984 0 0.37042076319628198 -0.1149998034366868 0 0.36426675148307641 -0.10438676964435741 0 0.3515848859579897 -0.113524083837899 0 0.36457778891387421 -0.12454968055256389 0 0.37042076319628198 -0.1149998034366868 0 0.38209816509985928 -0.12927992000057059 0 0.36457778891387421 -0.12454968055256389 0 0.37042076319628198 -0.1149998034366868 0 0.3515848859579897 -0.113524083837899 0 0.36457778891387421 -0.12454968055256389 0 0.3515848859579897 -0.113524083837899 0 0.36291655003088052 -0.12685959863317781 0 0.37644409074456048 -0.1036623315085025 0 0.37042076319628198 -0.1149998034366868 0 0.36426675148307641 -0.10438676964435741 0 0.37644409074456048 -0.1036623315085025 0 0.36764953323896649 -0.092074926850790301 0 0.36426675148307641 -0.10438676964435741 0 0.36764953323896649 -0.092074926850790301 0 0.36426675148307641 -0.10438676964435741 0 0.35446275282649248 -0.1000434015431893 0 0.36764953323896649 -0.092074926850790301 0 0.35654435898541548 -0.08948837991478685 0 0.35446275282649248 -0.1000434015431893 0 0.35654435898541548 -0.08948837991478685 0 0.34790141253243201 -0.09274446347104226 0 0.35446275282649248 -0.1000434015431893 0 0.34790141253243201 -0.09274446347104226 0 0.35446275282649248 -0.1000434015431893 0 0.34069432313354542 -0.100707673049502 0 0.35446275282649248 -0.1000434015431893 0 0.3515848859579897 -0.113524083837899 0 0.34069432313354542 -0.100707673049502 0 0.3515848859579897 -0.113524083837899 0 0.34069432313354542 -0.100707673049502 0 0.36426675148307641 -0.10438676964435741 0 0.35446275282649248 -0.1000434015431893 0 0.3515848859579897 -0.113524083837899 0 0.3515848859579897 -0.113524083837899 0 0.33337756916658601 -0.1179945242301995 0 0.34638748672144748 -0.12597683533878179 0 0.3515848859579897 -0.113524083837899 0 0.34638748672144748 -0.12597683533878179 0 0.36291655003088052 -0.12685959863317781 0 0.3515848859579897 -0.113524083837899 0 0.36291655003088052 -0.12685959863317781 0 0.36457778891387421 -0.12454968055256389 0 0.3515848859579897 -0.113524083837899 0 0.3515848859579897 -0.113524083837899 0 0.33337756916658601 -0.1179945242301995 0 0.33445786999106347 -0.098990336328345391 0 0.33337756916658601 -0.1179945242301995 0 0.3375689484773442 -0.12991599439942211 0 0.34638748672144748 -0.12597683533878179 0 0.33337756916658601 -0.1179945242301995 0 0.33445786999106347 -0.098990336328345391 0 0.31777144291511861 -0.10338944880681181 0 0.3515848859579897 -0.113524083837899 0 0.34069432313354542 -0.100707673049502 0 0.33445786999106347 -0.098990336328345391 0 0.3515848859579897 -0.113524083837899 0 0.33445786999106347 -0.098990336328345391 0 0.34790141253243201 -0.09274446347104226 0 0.34069432313354542 -0.100707673049502 0 0.34001303374106101 -0.090251333178132054 0 0.34069432313354542 -0.100707673049502 0 0.32980376030910119 -0.087891262261105024 0 0.34069432313354542 -0.100707673049502 0 0.33445786999106347 -0.098990336328345391 0 0.32980376030910119 -0.087891262261105024 0 0.33445786999106347 -0.098990336328345391 0 0.31777144291511861 -0.10338944880681181 0 0.31733085402413719 -0.084456588818791839 0 0.31777144291511861 -0.10338944880681181 0 0.31651364794240328 -0.1206559409031467 0 0.30717762796492848 -0.11177722782406049 0 0.33337756916658601 -0.1179945242301995 0 0.31777144291511861 -0.10338944880681181 0 0.31651364794240328 -0.1206559409031467 0 0.33337756916658601 -0.1179945242301995 0 0.31651364794240328 -0.1206559409031467 0 0.32817104058804958 -0.13248690569769581 0 0.34073734096791419 -0.060283281705210037 0 0.34865853619414411 -0.066874417493027194 0 0.33549774607107291 -0.072191485692539678 0 0.33549774607107291 -0.072191485692539678 0 0.34001303374106101 -0.090251333178132054 0 0.32980376030910119 -0.087891262261105024 0 0.34779259397564549 -0.083231529669600984 0 0.33549774607107291 -0.072191485692539678 0 0.34001303374106101 -0.090251333178132054 0 0.33549774607107291 -0.072191485692539678 0 0.32980376030910119 -0.087891262261105024 0 0.32589879627029678 -0.076895713060037049 0 0.34069432313354542 -0.100707673049502 0 0.34001303374106101 -0.090251333178132054 0 0.32980376030910119 -0.087891262261105024 0 0.33445786999106347 -0.098990336328345391 0 0.32980376030910119 -0.087891262261105024 0 0.31733085402413719 -0.084456588818791839 0 0.33445786999106347 -0.098990336328345391 0 0.31733085402413719 -0.084456588818791839 0 0.31777144291511861 -0.10338944880681181 0 0.31733085402413719 -0.084456588818791839 0 0.30824056676581479 -0.09196117370959174 0 0.32980376030910119 -0.087891262261105024 0 0.31733085402413719 -0.084456588818791839 0 0.32589879627029678 -0.076895713060037049 0 0.31733085402413719 -0.084456588818791839 0 0.32096282467687581 -0.063043515467711669 0 0.30948998068361849 -0.066302038455037474 0 0.31733085402413719 -0.084456588818791839 0 0.32589879627029678 -0.076895713060037049 0 0.32096282467687581 -0.063043515467711669 0 0.33549774607107291 -0.072191485692539678 0 0.32589879627029678 -0.076895713060037049 0 0.32096282467687581 -0.063043515467711669 0 0.31733085402413719 -0.084456588818791839 0 0.30948998068361849 -0.066302038455037474 0 0.30020383805721002 -0.069922841309239411 0 0.31733085402413719 -0.084456588818791839 0 0.30020383805721002 -0.069922841309239411 0 0.30948998068361849 -0.066302038455037474 0 0.30020383805721002 -0.069922841309239411 0 0.29953889802346528 -0.065737581124648475 0 0.30020383805721002 -0.069922841309239411 0 0.29953889802346528 -0.065737581124648475 0 0.30020383805721002 -0.069922841309239411 0 0.2984192425329279 -0.068408458371388203 0 0.29953889802346528 -0.065737581124648475 0 0.2984192425329279 -0.068408458371388203 0 0.29953889802346528 -0.065737581124648475 0 0.30020383805721002 -0.069922841309239411 0 0.2984192425329279 -0.068408458371388203 0 0.30020383805721002 -0.069922841309239411 0 0.30189662121391292 -0.080577543368630558 0 0.31733085402413719 -0.084456588818791839 0 0.30020383805721002 -0.069922841309239411 0 0.30189662121391292 -0.080577543368630558 0 0.31733085402413719 -0.084456588818791839 0 0.30824056676581479 -0.09196117370959174 0 0.30189662121391292 -0.080577543368630558 0 0.30824056676581479 -0.09196117370959174 0 0.29999679485602032 -0.090721993320212885 0 0.30189662121391292 -0.080577543368630558 0 0.30020383805721002 -0.069922841309239411 0 0.30189662121391292 -0.080577543368630558 0 0.29146739420938428 -0.084991714263092988 0 0.29999679485602032 -0.090721993320212885 0 0.30189662121391292 -0.080577543368630558 0 0.29146739420938428 -0.084991714263092988 0 0.29146739420938428 -0.084991714263092988 0 0.28451554588584033 -0.10157497015479749 0 0.29146739420938428 -0.084991714263092988 0 0.28277589884066889 -0.095644351484990703 0 0.27455964172546898 -0.076379322651736595 0 0.29999679485602032 -0.090721993320212885 0 0.29146739420938428 -0.084991714263092988 0 0.29346680135426129 -0.098780409851602219 0 0.2984192425329279 -0.068408458371388203 0 0.29146739420938428 -0.084991714263092988 0 0.29146739420938428 -0.084991714263092988 0 0.28237949976131022 -0.066541835787739603 0 0.27455964172546898 -0.076379322651736595 0 0.30020383805721002 -0.069922841309239411 0 0.2984192425329279 -0.068408458371388203 0 0.29146739420938428 -0.084991714263092988 0 0.2984192425329279 -0.068408458371388203 0 0.29146739420938428 -0.084991714263092988 0 0.28237949976131022 -0.066541835787739603 0 0.31651364794240328 -0.1206559409031467 0 0.3009645321064674 -0.1233779458503491 0 0.30717762796492848 -0.11177722782406049 0 0.3009645321064674 -0.1233779458503491 0 0.30717762796492848 -0.11177722782406049 0 0.29643139604076812 -0.1108025093264832 0 0.30717762796492848 -0.11177722782406049 0 0.30420712081988538 -0.1006602942335116 0 0.29643139604076812 -0.1108025093264832 0 0.30420712081988538 -0.1006602942335116 0 0.29346680135426129 -0.098780409851602219 0 0.29643139604076812 -0.1108025093264832 0 0.31777144291511861 -0.10338944880681181 0 0.30717762796492848 -0.11177722782406049 0 0.30420712081988538 -0.1006602942335116 0 0.31777144291511861 -0.10338944880681181 0 0.30824056676581479 -0.09196117370959174 0 0.30420712081988538 -0.1006602942335116 0 0.29999679485602032 -0.090721993320212885 0 0.30420712081988538 -0.1006602942335116 0 0.29346680135426129 -0.098780409851602219 0 0.30824056676581479 -0.09196117370959174 0 0.29999679485602032 -0.090721993320212885 0 0.30420712081988538 -0.1006602942335116 0 0.29146739420938428 -0.084991714263092988 0 0.29346680135426129 -0.098780409851602219 0 0.28451554588584033 -0.10157497015479749 0 0.29146739420938428 -0.084991714263092988 0 0.28277589884066889 -0.095644351484990703 0 0.28451554588584033 -0.10157497015479749 0 0.28294711883340179 -0.097605713871195515 0 0.28277589884066889 -0.095644351484990703 0 0.28294711883340179 -0.097605713871195515 0 0.28350422026734018 -0.10398743238654989 0 0.28294711883340179 -0.097605713871195515 0 0.28451554588584033 -0.10157497015479749 0 0.28294711883340179 -0.097605713871195515 0 0.28451554588584033 -0.10157497015479749 0 0.28350422026734018 -0.10398743238654989 0 0.28294711883340179 -0.097605713871195515 0 0.28277589884066889 -0.095644351484990703 0 0.28451554588584033 -0.10157497015479749 0 0.29346680135426129 -0.098780409851602219 0 0.28571910633615399 -0.104620849701877 0 0.28451554588584033 -0.10157497015479749 0 0.28571910633615399 -0.104620849701877 0 0.28451554588584033 -0.10157497015479749 0 0.28571910633615399 -0.104620849701877 0 0.28451554588584033 -0.10157497015479749 0 0.28350422026734018 -0.10398743238654989 0 0.28451554588584033 -0.10157497015479749 0 0.28350422026734018 -0.10398743238654989 0 0.28350422026734018 -0.10398743238654989 0 0.28148065356360191 -0.1088145406461471 0 0.29346680135426129 -0.098780409851602219 0 0.28571910633615399 -0.104620849701877 0 0.29643139604076812 -0.1108025093264832 0 0.3009645321064674 -0.1233779458503491 0 0.29643139604076812 -0.1108025093264832 0 0.28557040677683038 -0.1276560498062046 0 0.28350422026734018 -0.10398743238654989 0 0.28148065356360191 -0.1088145406461471 0 0.28557040677683038 -0.1276560498062046 0 0.28571910633615399 -0.104620849701877 0 0.29643139604076812 -0.1108025093264832 0 0.28557040677683038 -0.1276560498062046 0 0.28350422026734018 -0.10398743238654989 0 0.28557040677683038 -0.1276560498062046 0 0.28571910633615399 -0.104620849701877 0 0.28350422026734018 -0.10398743238654989 0 0.28557040677683038 -0.1276560498062046 0 0.28148065356360191 -0.1088145406461471 0 0.27556184609684181 -0.1203791388481444 0 0.28557040677683038 -0.1276560498062046 0 0.27556184609684181 -0.1203791388481444 0 0.27012238598064381 -0.110486785026315 0 0.26265347992112259 -0.12251615335900159 0 0.28148065356360191 -0.1088145406461471 0 0.27556184609684181 -0.1203791388481444 0 0.27012238598064381 -0.110486785026315 0 0.27012238598064381 -0.110486785026315 0 0.27268515252031139 -0.1012717288214582 0 0.25823079780134123 -0.099452363456823706 0 0.28148065356360191 -0.1088145406461471 0 0.27012238598064381 -0.110486785026315 0 0.27268515252031139 -0.1012717288214582 0 0.28350422026734018 -0.10398743238654989 0 0.28148065356360191 -0.1088145406461471 0 0.27268515252031139 -0.1012717288214582 0 0.28294711883340179 -0.097605713871195515 0 0.28350422026734018 -0.10398743238654989 0 0.27268515252031139 -0.1012717288214582 0 0.25823079780134123 -0.099452363456823706 0 0.26265347992112259 -0.12251615335900159 0 0.2390550231981283 -0.11095140769565939 0 0.27012238598064381 -0.110486785026315 0 0.25823079780134123 -0.099452363456823706 0 0.26265347992112259 -0.12251615335900159 0 0.27455964172546898 -0.076379322651736595 0 0.26617216461753651 -0.055152931432277563 0 0.28237949976131022 -0.066541835787739603 0 0.27455964172546898 -0.076379322651736595 0 0.26617216461753651 -0.055152931432277563 0 0.28294711883340179 -0.097605713871195515 0 0.27455964172546898 -0.076379322651736595 0 0.27268515252031139 -0.1012717288214582 0 0.25823079780134123 -0.099452363456823706 0 0.27455964172546898 -0.076379322651736595 0 0.28294711883340179 -0.097605713871195515 0 0.27268515252031139 -0.1012717288214582 0 0.27455964172546898 -0.076379322651736595 0 0.28294711883340179 -0.097605713871195515 0 0.28277589884066889 -0.095644351484990703 0 0.27455964172546898 -0.076379322651736595 0 0.25823079780134123 -0.099452363456823706 0 0.27455964172546898 -0.076379322651736595 0 0.25282332103220789 -0.077768968400902472 0 0.27455964172546898 -0.076379322651736595 0 0.25282332103220789 -0.077768968400902472 0 0.26617216461753651 -0.055152931432277563 0 0.25282332103220789 -0.077768968400902472 0 0.26617216461753651 -0.055152931432277563 0 0.2448580173371929 -0.055519512242431797 0 0.26617216461753651 -0.055152931432277563 0 0.25778468750960382 -0.033926540212818643 0 0.2448580173371929 -0.055519512242431797 0 0.28237949976131022 -0.066541835787739603 0 0.26617216461753651 -0.055152931432277563 0 0.27810196502126588 -0.051167499292103333 0 0.26617216461753651 -0.055152931432277563 0 0.27810196502126588 -0.051167499292103333 0 0.26914770643282188 -0.043569040009353341 0 0.27810196502126588 -0.051167499292103333 0 0.26914770643282188 -0.043569040009353341 0 0.26914770643282188 -0.043569040009353341 0 0.2659905529418628 -0.027216094557826129 0 0.28074456418233651 -0.03121125375791203 0 0.26914770643282188 -0.043569040009353341 0 0.28074456418233651 -0.03121125375791203 0 0.27919270149207182 -0.041158845437418892 0 0.26914770643282188 -0.043569040009353341 0 0.28074456418233651 -0.03121125375791203 0 0.27810196502126588 -0.051167499292103333 0 0.27919270149207182 -0.041158845437418892 0 0.26914770643282188 -0.043569040009353341 0 0.26914770643282188 -0.043569040009353341 0 0.25778468750960382 -0.033926540212818643 0 0.2659905529418628 -0.027216094557826129 0 0.26914770643282188 -0.043569040009353341 0 0.25778468750960382 -0.033926540212818643 0 0.26617216461753651 -0.055152931432277563 0 0.26914770643282188 -0.043569040009353341 0 0.25778468750960382 -0.033926540212818643 0 0.26617216461753651 -0.055152931432277563 0 0.25778468750960382 -0.033926540212818643 0 0.25778468750960382 -0.033926540212818643 0 0.25103947100691021 -0.016717951780026191 0 0.25632214367837608 -0.021785600485782469 0 0.25778468750960382 -0.033926540212818643 0 0.25103947100691021 -0.016717951780026191 0 0.25103947100691021 -0.016717951780026191 0 0.25726582168459072 -0.016637676568549649 0 0.2484089677875449 -0.01463295254214088 0 0.25103947100691021 -0.016717951780026191 0 0.25726582168459072 -0.016637676568549649 0 0.25632214367837608 -0.021785600485782469 0 0.25103947100691021 -0.016717951780026191 0 0.25726582168459072 -0.016637676568549649 0 0.25726582168459072 -0.016637676568549649 0 0.25632214367837608 -0.021785600485782469 0 0.25726582168459072 -0.016637676568549649 0 0.25632214367837608 -0.021785600485782469 0 0.2659905529418628 -0.027216094557826129 0 0.25778468750960382 -0.033926540212818643 0 0.25632214367837608 -0.021785600485782469 0 0.2659905529418628 -0.027216094557826129 0 0.25726582168459072 -0.016637676568549649 0 0.25895612448261401 -0.0074167875110536467 0 0.27446671242227749 -0.016415908599953379 0 0.2606787272139568 0.001980303172608151 0 0.25042228605187061 -0.0047491306960444736 0 0.25895612448261401 -0.0074167875110536467 0 0.25895612448261401 -0.0074167875110536467 0 0.2484089677875449 -0.01463295254214088 0 0.25042228605187061 -0.0047491306960444736 0 0.25895612448261401 -0.0074167875110536467 0 0.2484089677875449 -0.01463295254214088 0 0.25726582168459072 -0.016637676568549649 0 0.25895612448261401 -0.0074167875110536467 0 0.2484089677875449 -0.01463295254214088 0 0.25726582168459072 -0.016637676568549649 0 0.25895612448261401 -0.0074167875110536467 0 0.2606787272139568 0.001980303172608151 0 0.25895612448261401 -0.0074167875110536467 0 0.25895612448261401 -0.0074167875110536467 0 0.26841754345374957 -0.00094346368570095117 0 0.2606787272139568 0.001980303172608151 0 0.25895612448261401 -0.0074167875110536467 0 0.26841754345374957 -0.00094346368570095117 0 0.26841754345374957 -0.00094346368570095117 0 0.27446671242227749 -0.016415908599953379 0 0.2905745917446767 -0.0093145170178452665 0 0.26841754345374957 -0.00094346368570095117 0 0.2905745917446767 -0.0093145170178452665 0 0.25895612448261401 -0.0074167875110536467 0 0.26841754345374957 -0.00094346368570095117 0 0.27446671242227749 -0.016415908599953379 0 0.25726582168459072 -0.016637676568549649 0 0.27446671242227749 -0.016415908599953379 0 0.25726582168459072 -0.016637676568549649 0 0.2659905529418628 -0.027216094557826129 0 0.27446671242227749 -0.016415908599953379 0 0.2659905529418628 -0.027216094557826129 0 0.27446671242227749 -0.016415908599953379 0 0.28074456418233651 -0.03121125375791203 0 0.28074456418233651 -0.03121125375791203 0 0.29212974019068072 -0.019102919793883909 0 0.29583431910707347 -0.042420250459266097 0 0.27446671242227749 -0.016415908599953379 0 0.29212974019068072 -0.019102919793883909 0 0.29166760315996437 -0.016194140631357039 0 0.28074456418233651 -0.03121125375791203 0 0.29212974019068072 -0.019102919793883909 0 0.29212974019068072 -0.019102919793883909 0 0.29583431910707347 -0.042420250459266097 0 0.27446671242227749 -0.016415908599953379 0 0.29166760315996437 -0.016194140631357039 0 0.29212974019068072 -0.019102919793883909 0 0.30098284681711568 -0.029986846563416311 0 0.29583431910707347 -0.042420250459266097 0 0.27446671242227749 -0.016415908599953379 0 0.28074456418233651 -0.03121125375791203 0 0.29212974019068072 -0.019102919793883909 0 0.29212974019068072 -0.019102919793883909 0 0.29166760315996437 -0.016194140631357039 0 0.29212974019068072 -0.019102919793883909 0 0.29166760315996437 -0.016194140631357039 0 0.29490403005316862 -0.016152413965654259 0 0.29212974019068072 -0.019102919793883909 0 0.29490403005316862 -0.016152413965654259 0 0.2997659788524436 -0.021407626834704329 0 0.29166760315996437 -0.016194140631357039 0 0.29490403005316862 -0.016152413965654259 0 0.29212974019068072 -0.019102919793883909 0 0.29490403005316862 -0.016152413965654259 0 0.27446671242227749 -0.016415908599953379 0 0.29166760315996437 -0.016194140631357039 0 0.2905745917446767 -0.0093145170178452665 0 0.28758352426337419 0.00951183574126775 0 0.2905745917446767 -0.0093145170178452665 0 0.30421077638851429 -0.0062545263384160207 0 0.28758352426337419 0.00951183574126775 0 0.26841754345374957 -0.00094346368570095117 0 0.2905745917446767 -0.0093145170178452665 0 0.29490403005316862 -0.016152413965654259 0 0.2905745917446767 -0.0093145170178452665 0 0.29851336108009452 -0.012313827243004061 0 0.2905745917446767 -0.0093145170178452665 0 0.29851336108009452 -0.012313827243004061 0 0.29166760315996437 -0.016194140631357039 0 0.29490403005316862 -0.016152413965654259 0 0.2905745917446767 -0.0093145170178452665 0 0.29166760315996437 -0.016194140631357039 0 0.2905745917446767 -0.0093145170178452665 0 0.29490403005316862 -0.016152413965654259 0 0.29851336108009452 -0.012313827243004061 0 0.3186642516041831 -0.019941771459701989 0 0.30421077638851429 -0.0062545263384160207 0 0.29851336108009452 -0.012313827243004061 0 0.2905745917446767 -0.0093145170178452665 0 0.30421077638851429 -0.0062545263384160207 0 0.29851336108009452 -0.012313827243004061 0 0.29490403005316862 -0.016152413965654259 0 0.29851336108009452 -0.012313827243004061 0 0.30340928492385921 -0.016042757255205729 0 0.30421077638851429 -0.0062545263384160207 0 0.29851336108009452 -0.012313827243004061 0 0.3186642516041831 -0.019941771459701989 0 0.30421077638851429 -0.0062545263384160207 0 0.3186642516041831 -0.019941771459701989 0 0.29851336108009452 -0.012313827243004061 0 0.3186642516041831 -0.019941771459701989 0 0.30771137009437149 -0.024701976591482419 0 0.30913025320800791 -0.042857925244523323 0 0.3186642516041831 -0.019941771459701989 0 0.29851336108009452 -0.012313827243004061 0 0.30340928492385921 -0.016042757255205729 0 0.29212974019068072 -0.019102919793883909 0 0.30098284681711568 -0.029986846563416311 0 0.2997659788524436 -0.021407626834704329 0 0.30098284681711568 -0.029986846563416311 0 0.2997659788524436 -0.021407626834704329 0 0.30771137009437149 -0.024701976591482419 0 0.29490403005316862 -0.016152413965654259 0 0.30340928492385921 -0.016042757255205729 0 0.2997659788524436 -0.021407626834704329 0 0.30340928492385921 -0.016042757255205729 0 0.2997659788524436 -0.021407626834704329 0 0.30771137009437149 -0.024701976591482419 0 0.29490403005316862 -0.016152413965654259 0 0.30340928492385921 -0.016042757255205729 0 0.3186642516041831 -0.019941771459701989 0 0.30340928492385921 -0.016042757255205729 0 0.30771137009437149 -0.024701976591482419 0 0.30098284681711568 -0.029986846563416311 0 0.30771137009437149 -0.024701976591482419 0 0.30913025320800791 -0.042857925244523323 0 0.30098284681711568 -0.029986846563416311 0 0.30913025320800791 -0.042857925244523323 0 0.29583431910707347 -0.042420250459266097 0 0.29953889802346528 -0.065737581124648475 0 0.30913025320800791 -0.042857925244523323 0 0.30948998068361849 -0.066302038455037474 0 0.29953889802346528 -0.065737581124648475 0 0.30913025320800791 -0.042857925244523323 0 0.29953889802346528 -0.065737581124648475 0 0.29583431910707347 -0.042420250459266097 0 0.29953889802346528 -0.065737581124648475 0 0.30913025320800791 -0.042857925244523323 0 0.29583431910707347 -0.042420250459266097 0 0.2984192425329279 -0.068408458371388203 0 0.28237949976131022 -0.066541835787739603 0 0.27810196502126588 -0.051167499292103333 0 0.2984192425329279 -0.068408458371388203 0 0.27810196502126588 -0.051167499292103333 0 0.2984192425329279 -0.068408458371388203 0 0.29953889802346528 -0.065737581124648475 0 0.27810196502126588 -0.051167499292103333 0 0.29953889802346528 -0.065737581124648475 0 0.27810196502126588 -0.051167499292103333 0 0.29583431910707347 -0.042420250459266097 0 0.27810196502126588 -0.051167499292103333 0 0.27919270149207182 -0.041158845437418892 0 0.29583431910707347 -0.042420250459266097 0 0.27919270149207182 -0.041158845437418892 0 0.28074456418233651 -0.03121125375791203 0 0.29583431910707347 -0.042420250459266097 0 0.29333955001705031 -0.21665328126936781 0 0.29114553567962759 -0.19152036818181181 0 0.3002547503081946 -0.2062732317861985 0 0.29333955001705031 -0.21665328126936781 0 0.29114553567962759 -0.19152036818181181 0 0.27683915405330239 -0.2140224707109184 0 0.29333955001705031 -0.21665328126936781 0 0.29114553567962759 -0.19152036818181181 0 0.29114553567962759 -0.19152036818181181 0 0.27683915405330239 -0.2140224707109184 0 0.29114553567962759 -0.19152036818181181 0 0.27683915405330239 -0.2140224707109184 0 0.27886950995850263 -0.19460032777127231 0 0.29114553567962759 -0.19152036818181181 0 0.27886950995850263 -0.19460032777127231 0 0.28441891254200768 -0.18612551619971099 0 0.29114553567962759 -0.19152036818181181 0 0.29901218131319951 -0.1963449861599291 0 0.2983128208727267 -0.1922029460193993 0 0.29114553567962759 -0.19152036818181181 0 0.2983128208727267 -0.1922029460193993 0 0.29639264413514121 -0.18326733988079241 0 0.29114553567962759 -0.19152036818181181 0 0.29901218131319951 -0.1963449861599291 0 0.3002547503081946 -0.2062732317861985 0 0.30633561839225021 -0.19538339865230681 0 0.29639264413514121 -0.18326733988079241 0 0.32180431566128298 -0.19790946714530711 0 0.29639264413514121 -0.18326733988079241 0 0.31225694122570058 -0.18500124555472369 0 0.32180431566128298 -0.19790946714530711 0 0.29639264413514121 -0.18326733988079241 0 0.32180431566128298 -0.19790946714530711 0 0.29901218131319951 -0.1963449861599291 0 0.30633561839225021 -0.19538339865230681 0 0.3002547503081946 -0.2062732317861985 0 0.2983128208727267 -0.1922029460193993 0 0.30633561839225021 -0.19538339865230681 0 0.29639264413514121 -0.18326733988079241 0 0.29901218131319951 -0.1963449861599291 0 0.2983128208727267 -0.1922029460193993 0 0.30633561839225021 -0.19538339865230681 0 0.30633561839225021 -0.19538339865230681 0 0.31144694552304891 -0.20494256224519569 0 0.3002547503081946 -0.2062732317861985 0 0.31144694552304891 -0.20494256224519569 0 0.3002547503081946 -0.2062732317861985 0 0.30863404331767502 -0.21425010542374101 0 0.29333955001705031 -0.21665328126936781 0 0.3002547503081946 -0.2062732317861985 0 0.30863404331767502 -0.21425010542374101 0 0.29333955001705031 -0.21665328126936781 0 0.30863404331767502 -0.21425010542374101 0 0.30609394213912988 -0.23049255693837839 0 0.30863404331767502 -0.21425010542374101 0 0.30609394213912988 -0.23049255693837839 0 0.31896719687669672 -0.22429015409881439 0 0.30609394213912988 -0.23049255693837839 0 0.28886667570605501 -0.24790102732276209 0 0.31116260676228258 -0.25520978919645698 0 0.30609394213912988 -0.23049255693837839 0 0.28886667570605501 -0.24790102732276209 0 0.28465841464186797 -0.2298781053302576 0 0.29333955001705031 -0.21665328126936781 0 0.30609394213912988 -0.23049255693837839 0 0.28465841464186797 -0.2298781053302576 0 0.29333955001705031 -0.21665328126936781 0 0.28465841464186797 -0.2298781053302576 0 0.27683915405330239 -0.2140224707109184 0 0.26253277242697598 -0.23652457324002391 0 0.26123602946445063 -0.21329805140087149 0 0.27683915405330239 -0.2140224707109184 0 0.28465841464186797 -0.2298781053302576 0 0.26253277242697598 -0.23652457324002391 0 0.27683915405330239 -0.2140224707109184 0 0.26253277242697598 -0.23652457324002391 0 0.27683915405330239 -0.2140224707109184 0 0.28886667570605501 -0.24790102732276209 0 0.28465841464186797 -0.2298781053302576 0 0.26253277242697598 -0.23652457324002391 0 0.28886667570605501 -0.24790102732276209 0 0.26253277242697598 -0.23652457324002391 0 0.27240628394206667 -0.26305032971744569 0 0.26253277242697598 -0.23652457324002391 0 0.24822639080064951 -0.25902667576912952 0 0.26253277242697598 -0.23652457324002391 0 0.26123602946445063 -0.21329805140087149 0 0.24732968082171039 -0.21963088721378529 0 0.26123602946445063 -0.21329805140087149 0 0.25333909334810889 -0.20072535138459779 0 0.24732968082171039 -0.21963088721378529 0 0.26123602946445063 -0.21329805140087149 0 0.26613944667215489 -0.19558697445503201 0 0.25333909334810889 -0.20072535138459779 0 0.26123602946445063 -0.21329805140087149 0 0.27683915405330239 -0.2140224707109184 0 0.26613944667215489 -0.19558697445503201 0 0.27683915405330239 -0.2140224707109184 0 0.27886950995850263 -0.19460032777127231 0 0.26613944667215489 -0.19558697445503201 0 0.27886950995850263 -0.19460032777127231 0 0.26613944667215489 -0.19558697445503201 0 0.27580450084542157 -0.185746309308888 0 0.27886950995850263 -0.19460032777127231 0 0.27580450084542157 -0.185746309308888 0 0.28441891254200768 -0.18612551619971099 0 0.26613944667215489 -0.19558697445503201 0 0.27580450084542157 -0.185746309308888 0 0.26605369026567749 -0.18400718938920441 0 0.26613944667215489 -0.19558697445503201 0 0.25333909334810889 -0.20072535138459779 0 0.25595476691424252 -0.1854888113912414 0 0.26613944667215489 -0.19558697445503201 0 0.25595476691424252 -0.1854888113912414 0 0.26605369026567749 -0.18400718938920441 0 0.25333909334810889 -0.20072535138459779 0 0.25595476691424252 -0.1854888113912414 0 0.24617234226859469 -0.19037293896087859 0 0.25934997631317958 -0.1778472473506052 0 0.26513011087971389 -0.16525396401662781 0 0.23874702685181459 -0.17800668437057801 0 0.25595476691424252 -0.1854888113912414 0 0.25934997631317958 -0.1778472473506052 0 0.23874702685181459 -0.17800668437057801 0 0.25595476691424252 -0.1854888113912414 0 0.25934997631317958 -0.1778472473506052 0 0.26605369026567749 -0.18400718938920441 0 0.25934997631317958 -0.1778472473506052 0 0.26513011087971389 -0.16525396401662781 0 0.27029705667314902 -0.1767724778867201 0 0.25934997631317958 -0.1778472473506052 0 0.26605369026567749 -0.18400718938920441 0 0.27029705667314902 -0.1767724778867201 0 0.25259957891731538 -0.1635399997034708 0 0.26513011087971389 -0.16525396401662781 0 0.23874702685181459 -0.17800668437057801 0 0.26513011087971389 -0.16525396401662781 0 0.23874702685181459 -0.17800668437057801 0 0.26513011087971389 -0.16525396401662781 0 0.28126914090541771 -0.15745288448839359 0 0.2794053870147723 -0.16570988080025251 0 0.25259957891731538 -0.1635399997034708 0 0.28126914090541771 -0.15745288448839359 0 0.268422500879968 -0.15262826127910389 0 0.26513011087971389 -0.16525396401662781 0 0.28126914090541771 -0.15745288448839359 0 0.25259957891731538 -0.1635399997034708 0 0.26513011087971389 -0.16525396401662781 0 0.28126914090541771 -0.15745288448839359 0 0.26513011087971389 -0.16525396401662781 0 0.2794053870147723 -0.16570988080025251 0 0.28239809727786841 -0.17520372486504521 0 0.25259957891731538 -0.1635399997034708 0 0.28126914090541771 -0.15745288448839359 0 0.26513011087971389 -0.16525396401662781 0 0.28239809727786841 -0.17520372486504521 0 0.27580450084542157 -0.185746309308888 0 0.27029705667314902 -0.1767724778867201 0 0.28239809727786841 -0.17520372486504521 0 0.26513011087971389 -0.16525396401662781 0 0.27029705667314902 -0.1767724778867201 0 0.28239809727786841 -0.17520372486504521 0 0.27580450084542157 -0.185746309308888 0 0.28441891254200768 -0.18612551619971099 0 0.28239809727786841 -0.17520372486504521 0 0.27580450084542157 -0.185746309308888 0 0.28239809727786841 -0.17520372486504521 0 0.27580450084542157 -0.185746309308888 0 0.26605369026567749 -0.18400718938920441 0 0.27029705667314902 -0.1767724778867201 0 0.26265347992112259 -0.12251615335900159 0 0.26084971529328721 -0.1389731334530897 0 0.24588425228157709 -0.1352284829746653 0 0.25259957891731538 -0.1635399997034708 0 0.25327638948015557 -0.14878864317275439 0 0.268422500879968 -0.15262826127910389 0 0.26084971529328721 -0.1389731334530897 0 0.25327638948015557 -0.14878864317275439 0 0.268422500879968 -0.15262826127910389 0 0.26084971529328721 -0.1389731334530897 0 0.25327638948015557 -0.14878864317275439 0 0.24588425228157709 -0.1352284829746653 0 0.268422500879968 -0.15262826127910389 0 0.27401195390361249 -0.13570412647992319 0 0.28763659328631991 -0.15132466722585941 0 0.268422500879968 -0.15262826127910389 0 0.28763659328631991 -0.15132466722585941 0 0.26084971529328721 -0.1389731334530897 0 0.268422500879968 -0.15262826127910389 0 0.27401195390361249 -0.13570412647992319 0 0.28126914090541771 -0.15745288448839359 0 0.268422500879968 -0.15262826127910389 0 0.28763659328631991 -0.15132466722585941 0 0.26265347992112259 -0.12251615335900159 0 0.26084971529328721 -0.1389731334530897 0 0.27401195390361249 -0.13570412647992319 0 0.27556184609684181 -0.1203791388481444 0 0.27401195390361249 -0.13570412647992319 0 0.28557040677683038 -0.1276560498062046 0 0.27556184609684181 -0.1203791388481444 0 0.26265347992112259 -0.12251615335900159 0 0.27401195390361249 -0.13570412647992319 0 0.27401195390361249 -0.13570412647992319 0 0.28557040677683038 -0.1276560498062046 0 0.28763659328631991 -0.15132466722585941 0 0.28557040677683038 -0.1276560498062046 0 0.2958143663572515 -0.13772863070888081 0 0.28763659328631991 -0.15132466722585941 0 0.28557040677683038 -0.1276560498062046 0 0.28763659328631991 -0.15132466722585941 0 0.3009645321064674 -0.1233779458503491 0 0.28557040677683038 -0.1276560498062046 0 0.2958143663572515 -0.13772863070888081 0 0.2958143663572515 -0.13772863070888081 0 0.28763659328631991 -0.15132466722585941 0 0.29776231709695822 -0.1506376801402789 0 0.28126914090541771 -0.15745288448839359 0 0.28763659328631991 -0.15132466722585941 0 0.28367308654227202 -0.15629089575271349 0 0.28763659328631991 -0.15132466722585941 0 0.28804595823815088 -0.156014032094591 0 0.28763659328631991 -0.15132466722585941 0 0.28804595823815088 -0.156014032094591 0 0.28367308654227202 -0.15629089575271349 0 0.28763659328631991 -0.15132466722585941 0 0.28804595823815088 -0.156014032094591 0 0.29220440102088818 -0.15310869794901899 0 0.28804595823815088 -0.156014032094591 0 0.29220440102088818 -0.15310869794901899 0 0.29537273546212378 -0.15445841233534779 0 0.28804595823815088 -0.156014032094591 0 0.29537273546212378 -0.15445841233534779 0 0.28763659328631991 -0.15132466722585941 0 0.29220440102088818 -0.15310869794901899 0 0.29776231709695822 -0.1506376801402789 0 0.28763659328631991 -0.15132466722585941 0 0.29776231709695822 -0.1506376801402789 0 0.29220440102088818 -0.15310869794901899 0 0.29537273546212378 -0.15445841233534779 0 0.29776231709695822 -0.1506376801402789 0 0.29537273546212378 -0.15445841233534779 0 0.29776231709695822 -0.1506376801402789 0 0.29776231709695822 -0.1506376801402789 0 0.31315088546769948 -0.14124157660423761 0 0.31879941661251121 -0.14720400105126619 0 0.29776231709695822 -0.1506376801402789 0 0.31879941661251121 -0.14720400105126619 0 0.32016191108809261 -0.1491179634185921 0 0.29776231709695822 -0.1506376801402789 0 0.32016191108809261 -0.1491179634185921 0 0.30198203552455 -0.1530551271722303 0 0.31275586267212913 -0.16108849366463679 0 0.32016191108809261 -0.1491179634185921 0 0.29776231709695822 -0.1506376801402789 0 0.30198203552455 -0.1530551271722303 0 0.32016191108809261 -0.1491179634185921 0 0.29537273546212378 -0.15445841233534779 0 0.30198203552455 -0.1530551271722303 0 0.29537273546212378 -0.15445841233534779 0 0.29776231709695822 -0.1506376801402789 0 0.30198203552455 -0.1530551271722303 0 0.29776231709695822 -0.1506376801402789 0 0.30713798251968177 -0.13564681052171351 0 0.31315088546769948 -0.14124157660423761 0 0.2958143663572515 -0.13772863070888081 0 0.29776231709695822 -0.1506376801402789 0 0.30713798251968177 -0.13564681052171351 0 0.29776231709695822 -0.1506376801402789 0 0.30713798251968177 -0.13564681052171351 0 0.31651364794240328 -0.1206559409031467 0 0.3009645321064674 -0.1233779458503491 0 0.30713798251968177 -0.13564681052171351 0 0.31651364794240328 -0.1206559409031467 0 0.30713798251968177 -0.13564681052171351 0 0.3009645321064674 -0.1233779458503491 0 0.2958143663572515 -0.13772863070888081 0 0.30713798251968177 -0.13564681052171351 0 0.29536171676832518 -0.17231274188055859 0 0.29010900897520048 -0.17964672855654151 0 0.29639264413514121 -0.18326733988079241 0 0.29010900897520048 -0.17964672855654151 0 0.28882419899608952 -0.1649289498309425 0 0.29536171676832518 -0.17231274188055859 0 0.29010900897520048 -0.17964672855654151 0 0.28882419899608952 -0.1649289498309425 0 0.29114553567962759 -0.19152036818181181 0 0.29639264413514121 -0.18326733988079241 0 0.29114553567962759 -0.19152036818181181 0 0.29010900897520048 -0.17964672855654151 0 0.29639264413514121 -0.18326733988079241 0 0.29114553567962759 -0.19152036818181181 0 0.29010900897520048 -0.17964672855654151 0 0.29010900897520048 -0.17964672855654151 0 0.29639264413514121 -0.18326733988079241 0 0.29114553567962759 -0.19152036818181181 0 0.29010900897520048 -0.17964672855654151 0 0.28441891254200768 -0.18612551619971099 0 0.29010900897520048 -0.17964672855654151 0 0.28441891254200768 -0.18612551619971099 0 0.28239809727786841 -0.17520372486504521 0 0.29010900897520048 -0.17964672855654151 0 0.28239809727786841 -0.17520372486504521 0 0.28882419899608952 -0.1649289498309425 0 0.29010900897520048 -0.17964672855654151 0 0.28239809727786841 -0.17520372486504521 0 0.2794053870147723 -0.16570988080025251 0 0.28239809727786841 -0.17520372486504521 0 0.28882419899608952 -0.1649289498309425 0 0.28239809727786841 -0.17520372486504521 0 0.28882419899608952 -0.1649289498309425 0 0.28804595823815088 -0.156014032094591 0 0.28882419899608952 -0.1649289498309425 0 0.28126914090541771 -0.15745288448839359 0 0.28804595823815088 -0.156014032094591 0 0.28882419899608952 -0.1649289498309425 0 0.28126914090541771 -0.15745288448839359 0 0.2794053870147723 -0.16570988080025251 0 0.28882419899608952 -0.1649289498309425 0 0.28126914090541771 -0.15745288448839359 0 0.28804595823815088 -0.156014032094591 0 0.28367308654227202 -0.15629089575271349 0 0.28126914090541771 -0.15745288448839359 0 0.28804595823815088 -0.156014032094591 0 0.28126914090541771 -0.15745288448839359 0 0.28367308654227202 -0.15629089575271349 0 0.29537273546212378 -0.15445841233534779 0 0.28882419899608952 -0.1649289498309425 0 0.29537273546212378 -0.15445841233534779 0 0.28882419899608952 -0.1649289498309425 0 0.29953315256501378 -0.1626456301999071 0 0.28804595823815088 -0.156014032094591 0 0.29537273546212378 -0.15445841233534779 0 0.28882419899608952 -0.1649289498309425 0 0.29536171676832518 -0.17231274188055859 0 0.28882419899608952 -0.1649289498309425 0 0.29953315256501378 -0.1626456301999071 0 0.29536171676832518 -0.17231274188055859 0 0.29953315256501378 -0.1626456301999071 0 0.30354686137501519 -0.17201467417873281 0 0.29537273546212378 -0.15445841233534779 0 0.30198203552455 -0.1530551271722303 0 0.29953315256501378 -0.1626456301999071 0 0.30198203552455 -0.1530551271722303 0 0.29953315256501378 -0.1626456301999071 0 0.31275586267212913 -0.16108849366463679 0 0.30354686137501519 -0.17201467417873281 0 0.31636157619138638 -0.17625174671495741 0 0.31275586267212913 -0.16108849366463679 0 0.29953315256501378 -0.1626456301999071 0 0.30354686137501519 -0.17201467417873281 0 0.31275586267212913 -0.16108849366463679 0 0.30713950573181081 -0.17913375158230149 0 0.30354686137501519 -0.17201467417873281 0 0.31636157619138638 -0.17625174671495741 0 0.29639264413514121 -0.18326733988079241 0 0.30713950573181081 -0.17913375158230149 0 0.31225694122570058 -0.18500124555472369 0 0.29639264413514121 -0.18326733988079241 0 0.30354686137501519 -0.17201467417873281 0 0.29536171676832518 -0.17231274188055859 0 0.29639264413514121 -0.18326733988079241 0 0.30354686137501519 -0.17201467417873281 0 0.29639264413514121 -0.18326733988079241 0 0.30713950573181081 -0.17913375158230149 0 0.30354686137501519 -0.17201467417873281 0 0.30713950573181081 -0.17913375158230149 0 0.31225694122570058 -0.18500124555472369 0 0.31636157619138638 -0.17625174671495741 0 0.31636157619138638 -0.17625174671495741 0 0.33201837337292872 -0.16577331360861899 0 0.32856960232277882 -0.18042740776457919 0 0.31225694122570058 -0.18500124555472369 0 0.32137912159237519 -0.18641800438531819 0 0.31636157619138638 -0.17625174671495741 0 0.32137912159237519 -0.18641800438531819 0 0.32856960232277882 -0.18042740776457919 0 0.32938619088921067 -0.1894185944985344 0 0.32137912159237519 -0.18641800438531819 0 0.31636157619138638 -0.17625174671495741 0 0.32856960232277882 -0.18042740776457919 0 0.31636157619138638 -0.17625174671495741 0 0.31275586267212913 -0.16108849366463679 0 0.33201837337292872 -0.16577331360861899 0 0.33201837337292872 -0.16577331360861899 0 0.32016191108809261 -0.1491179634185921 0 0.31275586267212913 -0.16108849366463679 0 0.33201837337292872 -0.16577331360861899 0 0.32016191108809261 -0.1491179634185921 0 0.33201837337292872 -0.16577331360861899 0 0.34708635936766452 -0.14729125467160339 0 0.35054387777073731 -0.17315549958677659 0 0.33201837337292872 -0.16577331360861899 0 0.32856960232277882 -0.18042740776457919 0 0.34387483565776422 -0.18242866379864631 0 0.33201837337292872 -0.16577331360861899 0 0.34387483565776422 -0.18242866379864631 0 0.35054387777073731 -0.17315549958677659 0 0.33201837337292872 -0.16577331360861899 0 0.34387483565776422 -0.18242866379864631 0 0.32856960232277882 -0.18042740776457919 0 0.34387483565776422 -0.18242866379864631 0 0.32938619088921067 -0.1894185944985344 0 0.31651364794240328 -0.1206559409031467 0 0.31807478240785669 -0.13482884553673641 0 0.32817104058804958 -0.13248690569769581 0 0.31651364794240328 -0.1206559409031467 0 0.30713798251968177 -0.13564681052171351 0 0.31807478240785669 -0.13482884553673641 0 0.31807478240785669 -0.13482884553673641 0 0.32128402161501718 -0.14133323291436839 0 0.31315088546769948 -0.14124157660423761 0 0.30713798251968177 -0.13564681052171351 0 0.31807478240785669 -0.13482884553673641 0 0.31315088546769948 -0.14124157660423761 0 0.32128402161501718 -0.14133323291436839 0 0.32918276172655198 -0.14222154223741529 0 0.32817104058804958 -0.13248690569769581 0 0.31807478240785669 -0.13482884553673641 0 0.32128402161501718 -0.14133323291436839 0 0.32817104058804958 -0.13248690569769581 0 0.32128402161501718 -0.14133323291436839 0 0.32016191108809261 -0.1491179634185921 0 0.32918276172655198 -0.14222154223741529 0 0.32128402161501718 -0.14133323291436839 0 0.31315088546769948 -0.14124157660423761 0 0.31879941661251121 -0.14720400105126619 0 0.32128402161501718 -0.14133323291436839 0 0.31879941661251121 -0.14720400105126619 0 0.32016191108809261 -0.1491179634185921 0 0.31879941661251121 -0.14720400105126619 0 0.32016191108809261 -0.1491179634185921 0 0.32016191108809261 -0.1491179634185921 0 0.32918276172655198 -0.14222154223741529 0 0.34708635936766452 -0.14729125467160339 0 0.32016191108809261 -0.1491179634185921 0 0.34708635936766452 -0.14729125467160339 0 0.32918276172655198 -0.14222154223741529 0 0.33737756269667979 -0.13952179436238829 0 0.34708635936766452 -0.14729125467160339 0 0.33201837337292872 -0.16577331360861899 0 0.32016191108809261 -0.1491179634185921 0 0.34708635936766452 -0.14729125467160339 0 0.33737756269667979 -0.13952179436238829 0 0.34640362207255182 -0.1421839833414614 0 0.34708635936766452 -0.14729125467160339 0 0.32918276172655198 -0.14222154223741529 0 0.33737756269667979 -0.13952179436238829 0 0.32817104058804958 -0.13248690569769581 0 0.33737756269667979 -0.13952179436238829 0 0.3375689484773442 -0.12991599439942211 0 0.32817104058804958 -0.13248690569769581 0 0.34362880439719579 -0.1345610448190187 0 0.33737756269667979 -0.13952179436238829 0 0.3375689484773442 -0.12991599439942211 0 0.34362880439719579 -0.1345610448190187 0 0.33737756269667979 -0.13952179436238829 0 0.34640362207255182 -0.1421839833414614 0 0.34362880439719579 -0.1345610448190187 0 0.3375689484773442 -0.12991599439942211 0 0.34638748672144748 -0.12597683533878179 0 0.33337756916658601 -0.1179945242301995 0 0.3375689484773442 -0.12991599439942211 0 0.32817104058804958 -0.13248690569769581 0 0.34638748672144748 -0.12597683533878179 0 0.35157163599186531 -0.134624356378722 0 0.36291655003088052 -0.12685959863317781 0 0.34362880439719579 -0.1345610448190187 0 0.34638748672144748 -0.12597683533878179 0 0.35157163599186531 -0.134624356378722 0 0.34362880439719579 -0.1345610448190187 0 0.35157163599186531 -0.134624356378722 0 0.34640362207255182 -0.1421839833414614 0 0.35157163599186531 -0.134624356378722 0 0.35102478934221037 -0.14083458750226269 0 0.34640362207255182 -0.1421839833414614 0 0.35157163599186531 -0.134624356378722 0 0.35903753993675991 -0.13923875561726401 0 0.36291655003088052 -0.12685959863317781 0 0.35157163599186531 -0.134624356378722 0 0.35903753993675991 -0.13923875561726401 0 0.35102478934221037 -0.14083458750226269 0 0.35903753993675991 -0.13923875561726401 0 0.34708635936766452 -0.14729125467160339 0 0.37027634611131421 -0.14571791317961211 0 0.34708635936766452 -0.14729125467160339 0 0.37027634611131421 -0.14571791317961211 0 0.34708635936766452 -0.14729125467160339 0 0.37027634611131421 -0.14571791317961211 0 0.36041011194102412 -0.15943670638319321 0 0.35903753993675991 -0.13923875561726401 0 0.35102478934221037 -0.14083458750226269 0 0.34708635936766452 -0.14729125467160339 0 0.35102478934221037 -0.14083458750226269 0 0.34640362207255182 -0.1421839833414614 0 0.34708635936766452 -0.14729125467160339 0 0.34640362207255182 -0.1421839833414614 0 0.34708635936766452 -0.14729125467160339 0 0.37027634611131421 -0.14571791317961211 0 0.36041011194102412 -0.15943670638319321 0 0.3745378201666798 -0.154281555636786 0 0.37027634611131421 -0.14571791317961211 0 0.36041011194102412 -0.15943670638319321 0 0.3745378201666798 -0.154281555636786 0 0.37027634611131421 -0.14571791317961211 0 0.37846883024056138 -0.1451620881442007 0 0.37027634611131421 -0.14571791317961211 0 0.37424821410377163 -0.14019511342845631 0 0.37846883024056138 -0.1451620881442007 0 0.37027634611131421 -0.14571791317961211 0 0.37846883024056138 -0.1451620881442007 0 0.37027634611131421 -0.14571791317961211 0 0.37424821410377163 -0.14019511342845631 0 0.37027634611131421 -0.14571791317961211 0 0.36669110641604108 -0.1389498559087422 0 0.37424821410377163 -0.14019511342845631 0 0.35903753993675991 -0.13923875561726401 0 0.37027634611131421 -0.14571791317961211 0 0.36669110641604108 -0.1389498559087422 0 0.36457778891387421 -0.12454968055256389 0 0.38209816509985928 -0.12927992000057059 0 0.37757069186975689 -0.13557527726723079 0 0.35903753993675991 -0.13923875561726401 0 0.36669110641604108 -0.1389498559087422 0 0.36291655003088052 -0.12685959863317781 0 0.37424821410377163 -0.14019511342845631 0 0.36291655003088052 -0.12685959863317781 0 0.36669110641604108 -0.1389498559087422 0 0.37424821410377163 -0.14019511342845631 0 0.36291655003088052 -0.12685959863317781 0 0.37424821410377163 -0.14019511342845631 0 0.36291655003088052 -0.12685959863317781 0 0.37757069186975689 -0.13557527726723079 0 0.36457778891387421 -0.12454968055256389 0 0.37757069186975689 -0.13557527726723079 0 0.36457778891387421 -0.12454968055256389 0 0.36291655003088052 -0.12685959863317781 0 0.37757069186975689 -0.13557527726723079 0 0.35054387777073731 -0.17315549958677659 0 0.36374431615798009 -0.18277786161494289 0 0.35361201610700599 -0.19610695554786481 0 0.34387483565776422 -0.18242866379864631 0 0.35054387777073731 -0.17315549958677659 0 0.35361201610700599 -0.19610695554786481 0 0.35054387777073731 -0.17315549958677659 0 0.35361201610700599 -0.19610695554786481 0 0.35054387777073731 -0.17315549958677659 0 0.36331903177870212 -0.1709081917649718 0 0.36374431615798009 -0.18277786161494289 0 0.34387483565776422 -0.18242866379864631 0 0.35054387777073731 -0.17315549958677659 0 0.34708635936766452 -0.14729125467160339 0 0.35054387777073731 -0.17315549958677659 0 0.34708635936766452 -0.14729125467160339 0 0.35054387777073731 -0.17315549958677659 0 0.36041011194102412 -0.15943670638319321 0 0.35054387777073731 -0.17315549958677659 0 0.36041011194102412 -0.15943670638319321 0 0.35054387777073731 -0.17315549958677659 0 0.36331903177870212 -0.1709081917649718 0 0.36041011194102412 -0.15943670638319321 0 0.36331903177870212 -0.1709081917649718 0 0.36041011194102412 -0.15943670638319321 0 0.37441454860088041 -0.1633951642406648 0 0.3745378201666798 -0.154281555636786 0 0.36041011194102412 -0.15943670638319321 0 0.37441454860088041 -0.1633951642406648 0 0.36331903177870212 -0.1709081917649718 0 0.37441454860088041 -0.1633951642406648 0 0.37438402626523398 -0.1729639662641283 0 0.36331903177870212 -0.1709081917649718 0 0.37438402626523398 -0.1729639662641283 0 0.36374431615798009 -0.18277786161494289 0 0.37438402626523398 -0.1729639662641283 0 0.36374431615798009 -0.18277786161494289 0 0.37425567076866378 -0.18533855326745499 0 0.36374431615798009 -0.18277786161494289 0 0.37001985463819981 -0.19682690048023091 0 0.35361201610700599 -0.19610695554786481 0 0.37001985463819981 -0.19682690048023091 0 0.36554136733290782 -0.21286469638438299 0 0.35361201610700599 -0.19610695554786481 0 0.36374431615798009 -0.18277786161494289 0 0.37425567076866378 -0.18533855326745499 0 0.37001985463819981 -0.19682690048023091 0 0.37425567076866378 -0.18533855326745499 0 0.37001985463819981 -0.19682690048023091 0 0.37809303991463977 -0.19294214575591639 0 0.37001985463819981 -0.19682690048023091 0 0.36554136733290782 -0.21286469638438299 0 0.37550062820536861 -0.20739925349929511 0 0.36554136733290782 -0.21286469638438299 0 0.35361201610700599 -0.19610695554786481 0 0.36554136733290782 -0.21286469638438299 0 0.37700685555775421 -0.21811638160781691 0 0.37550062820536861 -0.20739925349929511 0 0.36554136733290782 -0.21286469638438299 0 0.36701943389134761 -0.22312731310443981 0 0.37700685555775421 -0.21811638160781691 0 0.36554136733290782 -0.21286469638438299 0 0.35574511412585219 -0.21206376709756231 0 0.36701943389134761 -0.22312731310443981 0 0.35574511412585219 -0.21206376709756231 0 0.35361201610700599 -0.19610695554786481 0 0.36554136733290782 -0.21286469638438299 0 0.35574511412585219 -0.21206376709756231 0 0.35361201610700599 -0.19610695554786481 0 0.35574511412585219 -0.21206376709756231 0 0.34721598718742452 -0.2125515944098226 0 0.34473208129219679 -0.20102922520404909 0 0.35574511412585219 -0.21206376709756231 0 0.34721598718742452 -0.2125515944098226 0 0.34877643536687769 -0.2214071450446666 0 0.34721598718742452 -0.2125515944098226 0 0.33803603477717042 -0.22130283959098371 0 0.34877643536687769 -0.2214071450446666 0 0.34387483565776422 -0.18242866379864631 0 0.35361201610700599 -0.19610695554786481 0 0.34473208129219679 -0.20102922520404909 0 0.35574511412585219 -0.21206376709756231 0 0.35361201610700599 -0.19610695554786481 0 0.34473208129219679 -0.20102922520404909 0 0.34387483565776422 -0.18242866379864631 0 0.35361201610700599 -0.19610695554786481 0 0.34387483565776422 -0.18242866379864631 0 0.32938619088921067 -0.1894185944985344 0 0.33130307921185193 -0.1999094293988212 0 0.34387483565776422 -0.18242866379864631 0 0.34473208129219679 -0.20102922520404909 0 0.33130307921185193 -0.1999094293988212 0 0.34387483565776422 -0.18242866379864631 0 0.33130307921185193 -0.1999094293988212 0 0.34721598718742452 -0.2125515944098226 0 0.34473208129219679 -0.20102922520404909 0 0.33130307921185193 -0.1999094293988212 0 0.34721598718742452 -0.2125515944098226 0 0.33130307921185193 -0.1999094293988212 0 0.32180431566128298 -0.19790946714530711 0 0.34721598718742452 -0.2125515944098226 0 0.32180431566128298 -0.19790946714530711 0 0.34721598718742452 -0.2125515944098226 0 0.33128724488394212 -0.21179867533037591 0 0.33803603477717042 -0.22130283959098371 0 0.34721598718742452 -0.2125515944098226 0 0.33128724488394212 -0.21179867533037591 0 0.32180431566128298 -0.19790946714530711 0 0.33128724488394212 -0.21179867533037591 0 0.3273512393959318 -0.21886579065119341 0 0.33803603477717042 -0.22130283959098371 0 0.33128724488394212 -0.21179867533037591 0 0.32020599993584159 -0.21089660821842521 0 0.32180431566128298 -0.19790946714530711 0 0.33128724488394212 -0.21179867533037591 0 0.32020599993584159 -0.21089660821842521 0 0.3273512393959318 -0.21886579065119341 0 0.32020599993584159 -0.21089660821842521 0 0.31896719687669672 -0.22429015409881439 0 0.3273512393959318 -0.21886579065119341 0 0.30863404331767502 -0.21425010542374101 0 0.32020599993584159 -0.21089660821842521 0 0.31896719687669672 -0.22429015409881439 0 0.31144694552304891 -0.20494256224519569 0 0.32020599993584159 -0.21089660821842521 0 0.32180431566128298 -0.19790946714530711 0 0.31144694552304891 -0.20494256224519569 0 0.30863404331767502 -0.21425010542374101 0 0.32020599993584159 -0.21089660821842521 0 0.30633561839225021 -0.19538339865230681 0 0.31144694552304891 -0.20494256224519569 0 0.32180431566128298 -0.19790946714530711 0 0.31225694122570058 -0.18500124555472369 0 0.32137912159237519 -0.18641800438531819 0 0.32180431566128298 -0.19790946714530711 0 0.32137912159237519 -0.18641800438531819 0 0.32938619088921067 -0.1894185944985344 0 0.32180431566128298 -0.19790946714530711 0 0.32938619088921067 -0.1894185944985344 0 0.33130307921185193 -0.1999094293988212 0 0.32180431566128298 -0.19790946714530711 0 0.32239174967606121 -0.2400385828231702 0 0.33467405686431478 -0.25403352688329378 0 0.31116260676228258 -0.25520978919645698 0 0.30609394213912988 -0.23049255693837839 0 0.32239174967606121 -0.2400385828231702 0 0.31116260676228258 -0.25520978919645698 0 0.30609394213912988 -0.23049255693837839 0 0.32239174967606121 -0.2400385828231702 0 0.31896719687669672 -0.22429015409881439 0 0.32239174967606121 -0.2400385828231702 0 0.31896719687669672 -0.22429015409881439 0 0.32994652978230032 -0.23051567385137589 0 0.31896719687669672 -0.22429015409881439 0 0.3273512393959318 -0.21886579065119341 0 0.32994652978230032 -0.23051567385137589 0 0.3273512393959318 -0.21886579065119341 0 0.32994652978230032 -0.23051567385137589 0 0.33803603477717042 -0.22130283959098371 0 0.33803603477717042 -0.22130283959098371 0 0.34877643536687769 -0.2214071450446666 0 0.34391136146736778 -0.23089615766602689 0 0.32994652978230032 -0.23051567385137589 0 0.33803603477717042 -0.22130283959098371 0 0.34391136146736778 -0.23089615766602689 0 0.32994652978230032 -0.23051567385137589 0 0.33654429324514218 -0.2401333941095169 0 0.34391136146736778 -0.23089615766602689 0 0.33654429324514218 -0.2401333941095169 0 0.34967544245789572 -0.2443134457238238 0 0.34391136146736778 -0.23089615766602689 0 0.32239174967606121 -0.2400385828231702 0 0.32994652978230032 -0.23051567385137589 0 0.33654429324514218 -0.2401333941095169 0 0.32239174967606121 -0.2400385828231702 0 0.33654429324514218 -0.2401333941095169 0 0.33467405686431478 -0.25403352688329378 0 0.33654429324514218 -0.2401333941095169 0 0.34967544245789572 -0.2443134457238238 0 0.33467405686431478 -0.25403352688329378 0 0.34967544245789572 -0.2443134457238238 0 0.36561893428624798 -0.24212901235086301 0 0.35235384180926338 -0.26032904590845918 0 0.34967544245789572 -0.2443134457238238 0 0.35787821214469812 -0.22802057864725991 0 0.36561893428624798 -0.24212901235086301 0 0.34967544245789572 -0.2443134457238238 0 0.34391136146736778 -0.23089615766602689 0 0.35787821214469812 -0.22802057864725991 0 0.35574511412585219 -0.21206376709756231 0 0.35787821214469812 -0.22802057864725991 0 0.35574511412585219 -0.21206376709756231 0 0.34877643536687769 -0.2214071450446666 0 0.35787821214469812 -0.22802057864725991 0 0.34877643536687769 -0.2214071450446666 0 0.34391136146736778 -0.23089615766602689 0 0.35787821214469812 -0.22802057864725991 0 0.35787821214469812 -0.22802057864725991 0 0.36701943389134761 -0.22312731310443981 0 0.36561893428624798 -0.24212901235086301 0 0.36701943389134761 -0.22312731310443981 0 0.36561893428624798 -0.24212901235086301 0 0.37831534243895171 -0.2308091533345768 0 0.35574511412585219 -0.21206376709756231 0 0.35787821214469812 -0.22802057864725991 0 0.36701943389134761 -0.22312731310443981 0 0.36701943389134761 -0.22312731310443981 0 0.37831534243895171 -0.2308091533345768 0 0.37700685555775421 -0.21811638160781691 0 0.36561893428624798 -0.24212901235086301 0 0.37831534243895171 -0.2308091533345768 0 0.38012602394156392 -0.25066493177732307 0 0.39272233904544418 -0.23880463392300411 0 0.37831534243895171 -0.2308091533345768 0 0.38012602394156392 -0.25066493177732307 0 0.39272233904544418 -0.23880463392300411 0 0.40667831507287738 -0.2468677815449665 0 0.40025736077907892 -0.26165138605837213 0 0.39272233904544418 -0.23880463392300411 0 0.40610054579626981 -0.22675815641953101 0 0.40667831507287738 -0.2468677815449665 0 0.40610054579626981 -0.22675815641953101 0 0.39096495313129809 -0.2243054612068959 0 0.40221293993193757 -0.21148607065381059 0 0.39272233904544418 -0.23880463392300411 0 0.40610054579626981 -0.22675815641953101 0 0.39096495313129809 -0.2243054612068959 0 0.39272233904544418 -0.23880463392300411 0 0.39096495313129809 -0.2243054612068959 0 0.37831534243895171 -0.2308091533345768 0 0.39096495313129809 -0.2243054612068959 0 0.37831534243895171 -0.2308091533345768 0 0.37700685555775421 -0.21811638160781691 0 0.37700685555775421 -0.21811638160781691 0 0.37550062820536861 -0.20739925349929511 0 0.38748563112314333 -0.2106393579756142 0 0.37550062820536861 -0.20739925349929511 0 0.38748563112314333 -0.2106393579756142 0 0.38233974262366233 -0.2008910365509482 0 0.38748563112314333 -0.2106393579756142 0 0.38233974262366233 -0.2008910365509482 0 0.39549637669360288 -0.1983333026970848 0 0.39096495313129809 -0.2243054612068959 0 0.37700685555775421 -0.21811638160781691 0 0.38748563112314333 -0.2106393579756142 0 0.37425567076866378 -0.18533855326745499 0 0.37809303991463977 -0.19294214575591639 0 0.3856337888875539 -0.1888290184975176 0 0.37809303991463977 -0.19294214575591639 0 0.38233974262366233 -0.2008910365509482 0 0.3856337888875539 -0.1888290184975176 0 0.37001985463819981 -0.19682690048023091 0 0.37809303991463977 -0.19294214575591639 0 0.38233974262366233 -0.2008910365509482 0 0.37001985463819981 -0.19682690048023091 0 0.37550062820536861 -0.20739925349929511 0 0.38233974262366233 -0.2008910365509482 0 0.38233974262366233 -0.2008910365509482 0 0.3856337888875539 -0.1888290184975176 0 0.39549637669360288 -0.1983333026970848 0 0.3856337888875539 -0.1888290184975176 0 0.39549637669360288 -0.1983333026970848 0 0.3955263843686454 -0.18460178902894189 0 0.39549637669360288 -0.1983333026970848 0 0.40221293993193757 -0.21148607065381059 0 0.40862716156523088 -0.199022532385145 0 0.39549637669360288 -0.1983333026970848 0 0.40551859825046332 -0.18858783670458931 0 0.40862716156523088 -0.199022532385145 0 0.39549637669360288 -0.1983333026970848 0 0.40551859825046332 -0.18858783670458931 0 0.3955263843686454 -0.18460178902894189 0 0.39096495313129809 -0.2243054612068959 0 0.38748563112314333 -0.2106393579756142 0 0.40221293993193757 -0.21148607065381059 0 0.38748563112314333 -0.2106393579756142 0 0.39549637669360288 -0.1983333026970848 0 0.40221293993193757 -0.21148607065381059 0 0.40610054579626981 -0.22675815641953101 0 0.40221293993193757 -0.21148607065381059 0 0.42189656846093321 -0.2063941138303092 0 0.40610054579626981 -0.22675815641953101 0 0.42189656846093321 -0.2063941138303092 0 0.40221293993193757 -0.21148607065381059 0 0.42189656846093321 -0.2063941138303092 0 0.40862716156523088 -0.199022532385145 0 0.42189656846093321 -0.2063941138303092 0 0.40862716156523088 -0.199022532385145 0 0.41801132448921741 -0.19031133803993089 0 0.40551859825046332 -0.18858783670458931 0 0.40862716156523088 -0.199022532385145 0 0.41801132448921741 -0.19031133803993089 0 0.42189656846093321 -0.2063941138303092 0 0.43769259112559661 -0.1860300712410875 0 0.42189656846093321 -0.2063941138303092 0 0.43769259112559661 -0.1860300712410875 0 0.44847705899260831 -0.20022240538491451 0 0.42189656846093321 -0.2063941138303092 0 0.41801132448921741 -0.19031133803993089 0 0.43769259112559661 -0.1860300712410875 0 0.42189656846093321 -0.2063941138303092 0 0.43667764301212852 -0.21837221601266971 0 0.44847705899260831 -0.20022240538491451 0 0.42189656846093321 -0.2063941138303092 0 0.43667764301212852 -0.21837221601266971 0 0.42191264157861019 -0.23069713874237671 0 0.43667764301212852 -0.21837221601266971 0 0.42191264157861019 -0.23069713874237671 0 0.43818789223654148 -0.23372463980076491 0 0.43818789223654148 -0.23372463980076491 0 0.45171449724366902 -0.25415975521038581 0 0.42193488489291092 -0.25206592484601897 0 0.42191264157861019 -0.23069713874237671 0 0.43818789223654148 -0.23372463980076491 0 0.42193488489291092 -0.25206592484601897 0 0.40610054579626981 -0.22675815641953101 0 0.42191264157861019 -0.23069713874237671 0 0.40667831507287738 -0.2468677815449665 0 0.42191264157861019 -0.23069713874237671 0 0.40667831507287738 -0.2468677815449665 0 0.42193488489291092 -0.25206592484601897 0 0.40610054579626981 -0.22675815641953101 0 0.42189656846093321 -0.2063941138303092 0 0.42191264157861019 -0.23069713874237671 0 0.39317968796985858 -0.1218441630815677 0 0.39675438666933732 -0.13278332807507201 0 0.40713859993403051 -0.13340844657761061 0 0.39675438666933732 -0.13278332807507201 0 0.3958246072757593 -0.14606577664041051 0 0.40713859993403051 -0.13340844657761061 0 0.39675438666933732 -0.13278332807507201 0 0.39099256622295991 -0.13104754271958891 0 0.3958246072757593 -0.14606577664041051 0 0.39317968796985858 -0.1218441630815677 0 0.39675438666933732 -0.13278332807507201 0 0.39099256622295991 -0.13104754271958891 0 0.39099256622295991 -0.13104754271958891 0 0.38209816509985928 -0.12927992000057059 0 0.3958246072757593 -0.14606577664041051 0 0.39317968796985858 -0.1218441630815677 0 0.39099256622295991 -0.13104754271958891 0 0.38384258531298943 -0.1268543400121912 0 0.38209816509985928 -0.12927992000057059 0 0.38953656958383881 -0.14492401606392399 0 0.38428896951277419 -0.14127631422259929 0 0.39099256622295991 -0.13104754271958891 0 0.38384258531298943 -0.1268543400121912 0 0.38209816509985928 -0.12927992000057059 0 0.38209816509985928 -0.12927992000057059 0 0.38953656958383881 -0.14492401606392399 0 0.3958246072757593 -0.14606577664041051 0 0.38209816509985928 -0.12927992000057059 0 0.3958246072757593 -0.14606577664041051 0 0.38384258531298943 -0.1268543400121912 0 0.38209816509985928 -0.12927992000057059 0 0.38209816509985928 -0.12927992000057059 0 0.37757069186975689 -0.13557527726723079 0 0.38209816509985928 -0.12927992000057059 0 0.37757069186975689 -0.13557527726723079 0 0.38428896951277419 -0.14127631422259929 0 0.37424821410377163 -0.14019511342845631 0 0.37757069186975689 -0.13557527726723079 0 0.37954458226550769 -0.14141070825570201 0 0.37424821410377163 -0.14019511342845631 0 0.37757069186975689 -0.13557527726723079 0 0.37757069186975689 -0.13557527726723079 0 0.38428896951277419 -0.14127631422259929 0 0.37757069186975689 -0.13557527726723079 0 0.38428896951277419 -0.14127631422259929 0 0.37954458226550769 -0.14141070825570201 0 0.38953656958383881 -0.14492401606392399 0 0.38314620560067458 -0.14484474821602261 0 0.38428896951277419 -0.14127631422259929 0 0.38314620560067458 -0.14484474821602261 0 0.37954458226550769 -0.14141070825570201 0 0.37846883024056138 -0.1451620881442007 0 0.38314620560067458 -0.14484474821602261 0 0.38428896951277419 -0.14127631422259929 0 0.37954458226550769 -0.14141070825570201 0 0.38314620560067458 -0.14484474821602261 0 0.37846883024056138 -0.1451620881442007 0 0.37424821410377163 -0.14019511342845631 0 0.37846883024056138 -0.1451620881442007 0 0.37424821410377163 -0.14019511342845631 0 0.37954458226550769 -0.14141070825570201 0 0.37846883024056138 -0.1451620881442007 0 0.3745378201666798 -0.154281555636786 0 0.37846883024056138 -0.1451620881442007 0 0.38911926393961871 -0.15769590623625809 0 0.37846883024056138 -0.1451620881442007 0 0.38911926393961871 -0.15769590623625809 0 0.38953656958383881 -0.14492401606392399 0 0.38314620560067458 -0.14484474821602261 0 0.38911926393961871 -0.15769590623625809 0 0.38314620560067458 -0.14484474821602261 0 0.37846883024056138 -0.1451620881442007 0 0.38911926393961871 -0.15769590623625809 0 0.3958246072757593 -0.14606577664041051 0 0.39857399731001159 -0.16117956089557561 0 0.38911926393961871 -0.15769590623625809 0 0.3958246072757593 -0.14606577664041051 0 0.40955104945165888 -0.16285163328025071 0 0.40713859993403051 -0.13340844657761061 0 0.3958246072757593 -0.14606577664041051 0 0.40955104945165888 -0.16285163328025071 0 0.38953656958383881 -0.14492401606392399 0 0.3958246072757593 -0.14606577664041051 0 0.38911926393961871 -0.15769590623625809 0 0.3958246072757593 -0.14606577664041051 0 0.39857399731001159 -0.16117956089557561 0 0.40955104945165888 -0.16285163328025071 0 0.39857399731001159 -0.16117956089557561 0 0.40398579080408398 -0.16748848781021569 0 0.40955104945165888 -0.16285163328025071 0 0.40398579080408398 -0.16748848781021569 0 0.39855095189735318 -0.16843309797269451 0 0.40317926663939357 -0.17574786590246219 0 0.40398579080408398 -0.16748848781021569 0 0.40317926663939357 -0.17574786590246219 0 0.41007368872200273 -0.16923028100009571 0 0.39857399731001159 -0.16117956089557561 0 0.40398579080408398 -0.16748848781021569 0 0.39855095189735318 -0.16843309797269451 0 0.39857399731001159 -0.16117956089557561 0 0.39855095189735318 -0.16843309797269451 0 0.3926755329956671 -0.1656548940375448 0 0.39855095189735318 -0.16843309797269451 0 0.3926755329956671 -0.1656548940375448 0 0.39380618019344332 -0.17398228753743439 0 0.39857399731001159 -0.16117956089557561 0 0.3926755329956671 -0.1656548940375448 0 0.38911926393961871 -0.15769590623625809 0 0.3926755329956671 -0.1656548940375448 0 0.38911926393961871 -0.15769590623625809 0 0.38477985413066668 -0.1687907731667784 0 0.3745378201666798 -0.154281555636786 0 0.37441454860088041 -0.1633951642406648 0 0.38911926393961871 -0.15769590623625809 0 0.37441454860088041 -0.1633951642406648 0 0.38911926393961871 -0.15769590623625809 0 0.38477985413066668 -0.1687907731667784 0 0.37441454860088041 -0.1633951642406648 0 0.37438402626523398 -0.1729639662641283 0 0.38477985413066668 -0.1687907731667784 0 0.3926755329956671 -0.1656548940375448 0 0.38477985413066668 -0.1687907731667784 0 0.39380618019344332 -0.17398228753743439 0 0.38477985413066668 -0.1687907731667784 0 0.38409949840948959 -0.17836010087947571 0 0.39380618019344332 -0.17398228753743439 0 0.37438402626523398 -0.1729639662641283 0 0.37425567076866378 -0.18533855326745499 0 0.38409949840948959 -0.17836010087947571 0 0.37438402626523398 -0.1729639662641283 0 0.38477985413066668 -0.1687907731667784 0 0.38409949840948959 -0.17836010087947571 0 0.37425567076866378 -0.18533855326745499 0 0.3856337888875539 -0.1888290184975176 0 0.38409949840948959 -0.17836010087947571 0 0.3856337888875539 -0.1888290184975176 0 0.38409949840948959 -0.17836010087947571 0 0.3955263843686454 -0.18460178902894189 0 0.38409949840948959 -0.17836010087947571 0 0.3955263843686454 -0.18460178902894189 0 0.39380618019344332 -0.17398228753743439 0 0.3955263843686454 -0.18460178902894189 0 0.39380618019344332 -0.17398228753743439 0 0.40317926663939357 -0.17574786590246219 0 0.39855095189735318 -0.16843309797269451 0 0.39380618019344332 -0.17398228753743439 0 0.40317926663939357 -0.17574786590246219 0 0.40551859825046332 -0.18858783670458931 0 0.3955263843686454 -0.18460178902894189 0 0.40317926663939357 -0.17574786590246219 0 0.40551859825046332 -0.18858783670458931 0 0.40317926663939357 -0.17574786590246219 0 0.41191152661829489 -0.18069757159880859 0 0.40551859825046332 -0.18858783670458931 0 0.41801132448921741 -0.19031133803993089 0 0.41191152661829489 -0.18069757159880859 0 0.40317926663939357 -0.17574786590246219 0 0.41191152661829489 -0.18069757159880859 0 0.41007368872200273 -0.16923028100009571 0 0.41191152661829489 -0.18069757159880859 0 0.42327578940386068 -0.17963540829671079 0 0.41007368872200273 -0.16923028100009571 0 0.41801132448921741 -0.19031133803993089 0 0.41191152661829489 -0.18069757159880859 0 0.42327578940386068 -0.17963540829671079 0 0.41801132448921741 -0.19031133803993089 0 0.42327578940386068 -0.17963540829671079 0 0.43769259112559661 -0.1860300712410875 0 0.43518516196992479 -0.1734063857044747 0 0.42327578940386068 -0.17963540829671079 0 0.42697757523339641 -0.16260480327083621 0 0.43518516196992479 -0.1734063857044747 0 0.42327578940386068 -0.17963540829671079 0 0.43769259112559661 -0.1860300712410875 0 0.42327578940386068 -0.17963540829671079 0 0.41007368872200273 -0.16923028100009571 0 0.40955104945165888 -0.16285163328025071 0 0.42327578940386068 -0.17963540829671079 0 0.42697757523339641 -0.16260480327083621 0 0.40955104945165888 -0.16285163328025071 0 0.42697757523339641 -0.16260480327083621 0 0.41907750840102659 -0.15678924335342831 0 0.40955104945165888 -0.16285163328025071 0 0.42327578940386068 -0.17963540829671079 0 0.40955104945165888 -0.16285163328025071 0 0.41007368872200273 -0.16923028100009571 0 0.40955104945165888 -0.16285163328025071 0 0.40398579080408398 -0.16748848781021569 0 0.41007368872200273 -0.16923028100009571 0 0.40955104945165888 -0.16285163328025071 0 0.41907750840102659 -0.15678924335342831 0 0.40955104945165888 -0.16285163328025071 0 0.41751462854716331 -0.14698750229050561 0 0.40955104945165888 -0.16285163328025071 0 0.41751462854716331 -0.14698750229050561 0 0.40713859993403051 -0.13340844657761061 0 0.40955104945165888 -0.16285163328025071 0 0.40713859993403051 -0.13340844657761061 0 0.42697757523339641 -0.16260480327083621 0 0.41907750840102659 -0.15678924335342831 0 0.43235848455481218 -0.14712002538813049 0 0.41907750840102659 -0.15678924335342831 0 0.41751462854716331 -0.14698750229050561 0 0.43235848455481218 -0.14712002538813049 0 0.41751462854716331 -0.14698750229050561 0 0.43235848455481218 -0.14712002538813049 0 0.42558593924295562 -0.13429420064865299 0 0.43145869800402109 -0.116595334878867 0 0.42558593924295562 -0.13429420064865299 0 0.45080130582426631 -0.1338309287863732 0 0.43235848455481218 -0.14712002538813049 0 0.42558593924295562 -0.13429420064865299 0 0.45080130582426631 -0.1338309287863732 0 0.43145869800402109 -0.116595334878867 0 0.42558593924295562 -0.13429420064865299 0 0.40713859993403051 -0.13340844657761061 0 0.41751462854716331 -0.14698750229050561 0 0.42558593924295562 -0.13429420064865299 0 0.40713859993403051 -0.13340844657761061 0 0.43235848455481218 -0.14712002538813049 0 0.45080130582426631 -0.1338309287863732 0 0.45348861379026001 -0.1656660286518658 0 0.45080130582426631 -0.1338309287863732 0 0.45348861379026001 -0.1656660286518658 0 0.4692846364549233 -0.14530198606264411 0 0.45080130582426631 -0.1338309287863732 0 0.4692846364549233 -0.14530198606264411 0 0.47893506117769907 -0.1263546263232769 0 0.45348861379026001 -0.1656660286518658 0 0.4692846364549233 -0.14530198606264411 0 0.45348861379026001 -0.1656660286518658 0 0.47506318347525478 -0.17573853506283271 0 0.4692846364549233 -0.14530198606264411 0 0.42697757523339641 -0.16260480327083621 0 0.43235848455481218 -0.14712002538813049 0 0.45348861379026001 -0.1656660286518658 0 0.43518516196992479 -0.1734063857044747 0 0.42697757523339641 -0.16260480327083621 0 0.45348861379026001 -0.1656660286518658 0 0.45348861379026001 -0.1656660286518658 0 0.43769259112559661 -0.1860300712410875 0 0.45348861379026001 -0.1656660286518658 0 0.43769259112559661 -0.1860300712410875 0 0.45448626647965568 -0.18242954998067451 0 0.43518516196992479 -0.1734063857044747 0 0.45348861379026001 -0.1656660286518658 0 0.43769259112559661 -0.1860300712410875 0 0.45348861379026001 -0.1656660286518658 0 0.45448626647965568 -0.18242954998067451 0 0.47506318347525478 -0.17573853506283271 0 0.45448626647965568 -0.18242954998067451 0 0.47506318347525478 -0.17573853506283271 0 0.46683919931761741 -0.19004236122096579 0 0.47506318347525478 -0.17573853506283271 0 0.46683919931761741 -0.19004236122096579 0 0.48051098480368259 -0.1947095892999354 0 0.47506318347525478 -0.17573853506283271 0 0.48051098480368259 -0.1947095892999354 0 0.5 -0.1915170108439426 0 0.47506318347525478 -0.17573853506283271 0 0.5 -0.1616748929303351 0 0.5 -0.1915170108439426 0 0.47506318347525478 -0.17573853506283271 0 0.5 -0.1616748929303351 0 0.4692846364549233 -0.14530198606264411 0 0.5 -0.1616748929303351 0 0.4692846364549233 -0.14530198606264411 0 0.5 -0.1318327750167276 0 0.4692846364549233 -0.14530198606264411 0 0.5 -0.1318327750167276 0 0.47893506117769907 -0.1263546263232769 0 0.46029907222142907 -0.23570672211869639 0 0.4537090660826294 -0.2165500913215784 0 0.46998551973788988 -0.22177866073311309 0 0.46029907222142907 -0.23570672211869639 0 0.46744699422300939 -0.25482463116619097 0 0.45171449724366902 -0.25415975521038581 0 0.46029907222142907 -0.23570672211869639 0 0.43818789223654148 -0.23372463980076491 0 0.45171449724366902 -0.25415975521038581 0 0.46029907222142907 -0.23570672211869639 0 0.43818789223654148 -0.23372463980076491 0 0.4537090660826294 -0.2165500913215784 0 0.43667764301212852 -0.21837221601266971 0 0.43818789223654148 -0.23372463980076491 0 0.4537090660826294 -0.2165500913215784 0 0.43667764301212852 -0.21837221601266971 0 0.44847705899260831 -0.20022240538491451 0 0.4537090660826294 -0.2165500913215784 0 0.43769259112559661 -0.1860300712410875 0 0.45448626647965568 -0.18242954998067451 0 0.44847705899260831 -0.20022240538491451 0 0.45448626647965568 -0.18242954998067451 0 0.44847705899260831 -0.20022240538491451 0 0.46683919931761741 -0.19004236122096579 0 0.44847705899260831 -0.20022240538491451 0 0.46683919931761741 -0.19004236122096579 0 0.46729258193800699 -0.2058370168345165 0 0.44847705899260831 -0.20022240538491451 0 0.46729258193800699 -0.2058370168345165 0 0.4537090660826294 -0.2165500913215784 0 0.46729258193800699 -0.2058370168345165 0 0.4537090660826294 -0.2165500913215784 0 0.46998551973788988 -0.22177866073311309 0 0.46729258193800699 -0.2058370168345165 0 0.48423366269361462 -0.21171899304659161 0 0.48051098480368259 -0.1947095892999354 0 0.46729258193800699 -0.2058370168345165 0 0.48423366269361462 -0.21171899304659161 0 0.46998551973788988 -0.22177866073311309 0 0.46683919931761741 -0.19004236122096579 0 0.46729258193800699 -0.2058370168345165 0 0.48051098480368259 -0.1947095892999354 0 0.48423366269361462 -0.21171899304659161 0 0.48051098480368259 -0.1947095892999354 0 0.5 -0.1915170108439426 0 0.48423366269361462 -0.21171899304659161 0 0.5 -0.1915170108439426 0 0.5 -0.22135912875755009 0 0.48423366269361462 -0.21171899304659161 0 0.5 -0.22135912875755009 0 0.48073596708074778 -0.2403562919432416 0 0.48423366269361462 -0.21171899304659161 0 0.46998551973788988 -0.22177866073311309 0 0.48073596708074778 -0.2403562919432416 0 0.46029907222142907 -0.23570672211869639 0 0.46998551973788988 -0.22177866073311309 0 0.48073596708074778 -0.2403562919432416 0 0.48423366269361462 -0.21171899304659161 0 0.48073596708074778 -0.2403562919432416 0 0.46029907222142907 -0.23570672211869639 0 0.48073596708074778 -0.2403562919432416 0 0.46744699422300939 -0.25482463116619097 0 0.5 -0.22135912875755009 0 0.48073596708074778 -0.2403562919432416 0 0.5 -0.25120124667115762 0 0.48073596708074778 -0.2403562919432416 0 0.5 -0.25120124667115762 0 0.47723827146788089 -0.26899359083989172 0 0.5 -0.25120124667115762 0 0.5 -0.2810433645847652 0 0.47723827146788089 -0.26899359083989172 0 0.47723827146788089 -0.26899359083989172 0 0.46744699422300939 -0.25482463116619097 0 0.46377431883141951 -0.27760097994591082 0 0.48073596708074778 -0.2403562919432416 0 0.47723827146788089 -0.26899359083989172 0 0.46744699422300939 -0.25482463116619097 0 0.48073596708074778 -0.2403562919432416 0 0.47723827146788089 -0.26899359083989172 0 0.46744699422300939 -0.25482463116619097 0 0.46377431883141951 -0.27760097994591082 0 0.45171449724366902 -0.25415975521038581 0 0.46377431883141951 -0.27760097994591082 0 0.44790449498144519 -0.27572645099439069 0 0.45171449724366902 -0.25415975521038581 0 0.44790449498144519 -0.27572645099439069 0 0.43380520309506071 -0.26856266110690918 0 0.43345618623396032 -0.28463470201609947 0 0.44790449498144519 -0.27572645099439069 0 0.45171449724366902 -0.25415975521038581 0 0.43380520309506071 -0.26856266110690918 0 0.44790449498144519 -0.27572645099439069 0 0.45171449724366902 -0.25415975521038581 0 0.44409449271922152 -0.2972931467783958 0 0.45701253315600449 -0.3082453661494704 0 0.44028449045699702 -0.31885984256240069 0 0.44409449271922152 -0.2972931467783958 0 0.44028449045699702 -0.31885984256240069 0 0.44790449498144519 -0.27572645099439069 0 0.44409449271922152 -0.2972931467783958 0 0.45897016910118771 -0.2928418891441445 0 0.44790449498144519 -0.27572645099439069 0 0.44409449271922152 -0.2972931467783958 0 0.43345618623396032 -0.28463470201609947 0 0.44790449498144519 -0.27572645099439069 0 0.44409449271922152 -0.2972931467783958 0 0.46377431883141951 -0.27760097994591082 0 0.44790449498144519 -0.27572645099439069 0 0.45897016910118771 -0.2928418891441445 0 0.46377431883141951 -0.27760097994591082 0 0.45897016910118771 -0.2928418891441445 0 0.47374057585501322 -0.29763088973654173 0 0.45897016910118771 -0.2928418891441445 0 0.45701253315600449 -0.3082453661494704 0 0.47374057585501322 -0.29763088973654173 0 0.45701253315600449 -0.3082453661494704 0 0.47374057585501322 -0.29763088973654173 0 0.47133228677845551 -0.3173486987595403 0 0.45701253315600449 -0.3082453661494704 0 0.47374057585501322 -0.29763088973654173 0 0.44409449271922152 -0.2972931467783958 0 0.45897016910118771 -0.2928418891441445 0 0.45701253315600449 -0.3082453661494704 0 0.47374057585501322 -0.29763088973654173 0 0.47133228677845551 -0.3173486987595403 0 0.47631882395867092 -0.31077078775378891 0 0.47374057585501322 -0.29763088973654173 0 0.47133228677845551 -0.3173486987595403 0 0.47374057585501322 -0.29763088973654173 0 0.48206798335679929 -0.30702196232580109 0 0.47737438191857351 -0.29532512393686788 0 0.47631882395867092 -0.31077078775378891 0 0.47374057585501322 -0.29763088973654173 0 0.48206798335679929 -0.30702196232580109 0 0.47631882395867092 -0.31077078775378891 0 0.48206798335679929 -0.30702196232580109 0 0.48267629259836742 -0.31462455806082668 0 0.47723827146788089 -0.26899359083989172 0 0.47374057585501322 -0.29763088973654173 0 0.47737438191857351 -0.29532512393686788 0 0.47723827146788089 -0.26899359083989172 0 0.47374057585501322 -0.29763088973654173 0 0.47723827146788089 -0.26899359083989172 0 0.46377431883141951 -0.27760097994591082 0 0.47374057585501322 -0.29763088973654173 0 0.47374057585501322 -0.29763088973654173 0 0.47737438191857351 -0.29532512393686788 0 0.5 -0.2810433645847652 0 0.47723827146788089 -0.26899359083989172 0 0.47737438191857351 -0.29532512393686788 0 0.5 -0.2810433645847652 0 0.47737438191857351 -0.29532512393686788 0 0.5 -0.31088548249837272 0 0.48206798335679929 -0.30702196232580109 0 0.5 -0.31088548249837272 0 0.48267629259836742 -0.31462455806082668 0 0.48206798335679929 -0.30702196232580109 0 0.47737438191857351 -0.29532512393686788 0 0.5 -0.31088548249837272 0 0.5 -0.31088548249837272 0 0.48267629259836742 -0.31462455806082668 0 0.48211301858623817 -0.32520136537368871 0 0.5 -0.31088548249837272 0 0.5 -0.34072760041198019 0 0.48211301858623817 -0.32520136537368871 0 0.5 -0.34072760041198019 0 0.48211301858623817 -0.32520136537368871 0 0.46776736436792182 -0.34653641544881669 0 0.47133228677845551 -0.3173486987595403 0 0.48211301858623817 -0.32520136537368871 0 0.46776736436792182 -0.34653641544881669 0 0.47133228677845551 -0.3173486987595403 0 0.46776736436792182 -0.34653641544881669 0 0.47631882395867092 -0.31077078775378891 0 0.47133228677845551 -0.3173486987595403 0 0.48267629259836742 -0.31462455806082668 0 0.47133228677845551 -0.3173486987595403 0 0.48267629259836742 -0.31462455806082668 0 0.48211301858623817 -0.32520136537368871 0 0.5 -0.34072760041198019 0 0.5 -0.37056971832558772 0 0.46776736436792182 -0.34653641544881669 0 0.5 -0.37056971832558772 0 0.46776736436792182 -0.34653641544881669 0 0.4642024419573928 -0.37572413213809353 0 0.45274079925745758 -0.35843563327128253 0 0.4642024419573928 -0.37572413213809353 0 0.42903771468272589 -0.38252274220936028 0 0.46776736436792182 -0.34653641544881669 0 0.4642024419573928 -0.37572413213809353 0 0.46776736436792182 -0.34653641544881669 0 0.45274079925745758 -0.35843563327128253 0 0.4642024419573928 -0.37572413213809353 0 0.46776736436792182 -0.34653641544881669 0 0.45274079925745758 -0.35843563327128253 0 0.44973819336257359 -0.34143634601891831 0 0.45274079925745758 -0.35843563327128253 0 0.44973819336257359 -0.34143634601891831 0 0.43401830795558782 -0.35432986132718952 0 0.45274079925745758 -0.35843563327128253 0 0.43401830795558782 -0.35432986132718952 0 0.42903771468272589 -0.38252274220936028 0 0.45701253315600449 -0.3082453661494704 0 0.47133228677845551 -0.3173486987595403 0 0.45516559400345319 -0.32174283960228511 0 0.47133228677845551 -0.3173486987595403 0 0.45516559400345319 -0.32174283960228511 0 0.46776736436792182 -0.34653641544881669 0 0.45516559400345319 -0.32174283960228511 0 0.44973819336257359 -0.34143634601891831 0 0.47133228677845551 -0.3173486987595403 0 0.46776736436792182 -0.34653641544881669 0 0.45516559400345319 -0.32174283960228511 0 0.45516559400345319 -0.32174283960228511 0 0.44973819336257359 -0.34143634601891831 0 0.43899890122844792 -0.32613698044501832 0 0.44973819336257359 -0.34143634601891831 0 0.43899890122844792 -0.32613698044501832 0 0.43401830795558782 -0.35432986132718952 0 0.45701253315600449 -0.3082453661494704 0 0.45516559400345319 -0.32174283960228511 0 0.44028449045699702 -0.31885984256240069 0 0.45701253315600449 -0.3082453661494704 0 0.44028449045699702 -0.31885984256240069 0 0.45516559400345319 -0.32174283960228511 0 0.43899890122844792 -0.32613698044501832 0 0.44028449045699702 -0.31885984256240069 0 0.45516559400345319 -0.32174283960228511 0 0.43899890122844792 -0.32613698044501832 0 0.43899890122844792 -0.32613698044501832 0 0.44028449045699702 -0.31885984256240069 0 0.44028449045699702 -0.31885984256240069 0 0.42118566771478899 -0.33097865449751818 0 0.42647603065857492 -0.30300241996458599 0 0.44028449045699702 -0.31885984256240069 0 0.42118566771478899 -0.33097865449751818 0 0.43899890122844792 -0.32613698044501832 0 0.44028449045699702 -0.31885984256240069 0 0.42118566771478899 -0.33097865449751818 0 0.43899890122844792 -0.32613698044501832 0 0.42118566771478899 -0.33097865449751818 0 0.43899890122844792 -0.32613698044501832 0 0.43401830795558782 -0.35432986132718952 0 0.43899890122844792 -0.32613698044501832 0 0.42118566771478899 -0.33097865449751818 0 0.43401830795558782 -0.35432986132718952 0 0.42118566771478899 -0.33097865449751818 0 0.40548290877088478 -0.34094255567992499 0 0.42118566771478899 -0.33097865449751818 0 0.40548290877088478 -0.34094255567992499 0 0.39538544089821442 -0.33799121000186633 0 0.42118566771478899 -0.33097865449751818 0 0.39538544089821442 -0.33799121000186633 0 0.42118566771478899 -0.33097865449751818 0 0.41797768436149391 -0.3464132917208097 0 0.40548290877088478 -0.34094255567992499 0 0.42118566771478899 -0.33097865449751818 0 0.40542315408083762 -0.30591574196159221 0 0.42647603065857492 -0.30300241996458599 0 0.43401830795558782 -0.35432986132718952 0 0.42903771468272589 -0.38252274220936028 0 0.43401830795558782 -0.35432986132718952 0 0.41122385300471381 -0.35940209537860612 0 0.42903771468272589 -0.38252274220936028 0 0.42118566771478899 -0.33097865449751818 0 0.43401830795558782 -0.35432986132718952 0 0.41797768436149391 -0.3464132917208097 0 0.41797768436149391 -0.3464132917208097 0 0.41122385300471381 -0.35940209537860612 0 0.40548290877088478 -0.34094255567992499 0 0.43401830795558782 -0.35432986132718952 0 0.41797768436149391 -0.3464132917208097 0 0.41122385300471381 -0.35940209537860612 0 0.41122385300471381 -0.35940209537860612 0 0.42903771468272589 -0.38252274220936028 0 0.40407500085438769 -0.38092611273875221 0 0.41122385300471381 -0.35940209537860612 0 0.39156612542334812 -0.35975494507046479 0 0.40407500085438769 -0.38092611273875221 0 0.41122385300471381 -0.35940209537860612 0 0.39747951429745748 -0.34957569187324089 0 0.40548290877088478 -0.34094255567992499 0 0.41122385300471381 -0.35940209537860612 0 0.39156612542334812 -0.35975494507046479 0 0.39747951429745748 -0.34957569187324089 0 0.39156612542334812 -0.35975494507046479 0 0.39747951429745748 -0.34957569187324089 0 0.36958521408164052 -0.34500376550621659 0 0.39156612542334812 -0.35975494507046479 0 0.36685353553590039 -0.36133708086115329 0 0.36958521408164052 -0.34500376550621659 0 0.39747951429745748 -0.34957569187324089 0 0.39538544089821442 -0.33799121000186633 0 0.36958521408164052 -0.34500376550621659 0 0.39156612542334812 -0.35975494507046479 0 0.36958521408164052 -0.34500376550621659 0 0.39156612542334812 -0.35975494507046479 0 0.36695763669327452 -0.37819216663504862 0 0.36685353553590039 -0.36133708086115329 0 0.39156612542334812 -0.35975494507046479 0 0.38557257998941108 -0.38465734676092012 0 0.36695763669327452 -0.37819216663504862 0 0.42118566771478899 -0.33097865449751818 0 0.3910141209925585 -0.32074068083138563 0 0.40542315408083762 -0.30591574196159221 0 0.42118566771478899 -0.33097865449751818 0 0.3910141209925585 -0.32074068083138563 0 0.39538544089821442 -0.33799121000186633 0 0.39747951429745748 -0.34957569187324089 0 0.40548290877088478 -0.34094255567992499 0 0.39538544089821442 -0.33799121000186633 0 0.3910141209925585 -0.32074068083138563 0 0.36560850351062069 -0.32578636129799132 0 0.36958521408164052 -0.34500376550621659 0 0.39538544089821442 -0.33799121000186633 0 0.36958521408164052 -0.34500376550621659 0 0.3910141209925585 -0.32074068083138563 0 0.39538544089821442 -0.33799121000186633 0 0.36958521408164052 -0.34500376550621659 0 0.3910141209925585 -0.32074068083138563 0 0.37349573076860731 -0.31192017957886359 0 0.36560850351062069 -0.32578636129799132 0 0.3910141209925585 -0.32074068083138563 0 0.38635984308664167 -0.30167989529436567 0 0.37349573076860731 -0.31192017957886359 0 0.38635984308664167 -0.30167989529436567 0 0.36734954511041812 -0.29666387180185172 0 0.37349573076860731 -0.31192017957886359 0 0.38635984308664167 -0.30167989529436567 0 0.40542315408083762 -0.30591574196159221 0 0.39537643139123518 -0.283367421194131 0 0.3910141209925585 -0.32074068083138563 0 0.38635984308664167 -0.30167989529436567 0 0.40542315408083762 -0.30591574196159221 0 0.40542315408083762 -0.30591574196159221 0 0.39537643139123518 -0.283367421194131 0 0.41598546730767949 -0.28095119000477992 0 0.38635984308664167 -0.30167989529436567 0 0.37814345421661172 -0.28283798652441761 0 0.36734954511041812 -0.29666387180185172 0 0.38635984308664167 -0.30167989529436567 0 0.39537643139123518 -0.283367421194131 0 0.37814345421661172 -0.28283798652441761 0 0.39537643139123518 -0.283367421194131 0 0.37814345421661172 -0.28283798652441761 0 0.38466456719786052 -0.26854075433183361 0 0.37814345421661172 -0.28283798652441761 0 0.38466456719786052 -0.26854075433183361 0 0.36941956566081269 -0.26418204610492407 0 0.38466456719786052 -0.26854075433183361 0 0.38012602394156392 -0.25066493177732307 0 0.40025736077907892 -0.26165138605837213 0 0.38466456719786052 -0.26854075433183361 0 0.38012602394156392 -0.25066493177732307 0 0.36941956566081269 -0.26418204610492407 0 0.39272233904544418 -0.23880463392300411 0 0.38012602394156392 -0.25066493177732307 0 0.40025736077907892 -0.26165138605837213 0 0.39537643139123518 -0.283367421194131 0 0.40025736077907892 -0.26165138605837213 0 0.41598546730767949 -0.28095119000477992 0 0.39537643139123518 -0.283367421194131 0 0.38466456719786052 -0.26854075433183361 0 0.40025736077907892 -0.26165138605837213 0 0.40667831507287738 -0.2468677815449665 0 0.40025736077907892 -0.26165138605837213 0 0.42193488489291092 -0.25206592484601897 0 0.40025736077907892 -0.26165138605837213 0 0.41598546730767949 -0.28095119000477992 0 0.42193488489291092 -0.25206592484601897 0 0.45171449724366902 -0.25415975521038581 0 0.42193488489291092 -0.25206592484601897 0 0.43380520309506071 -0.26856266110690918 0 0.41598546730767949 -0.28095119000477992 0 0.42193488489291092 -0.25206592484601897 0 0.43380520309506071 -0.26856266110690918 0 0.41598546730767949 -0.28095119000477992 0 0.43380520309506071 -0.26856266110690918 0 0.43345618623396032 -0.28463470201609947 0 0.44409449271922152 -0.2972931467783958 0 0.43345618623396032 -0.28463470201609947 0 0.42647603065857492 -0.30300241996458599 0 0.41598546730767949 -0.28095119000477992 0 0.43345618623396032 -0.28463470201609947 0 0.42647603065857492 -0.30300241996458599 0 0.44409449271922152 -0.2972931467783958 0 0.44028449045699702 -0.31885984256240069 0 0.42647603065857492 -0.30300241996458599 0 0.40542315408083762 -0.30591574196159221 0 0.41598546730767949 -0.28095119000477992 0 0.42647603065857492 -0.30300241996458599 0 0.45006768496536831 -0.49145211582056492 0 0.44902366551711043 -0.49999999999999878 0 0.42383252637783292 -0.50000000000000022 0 0.45006768496536831 -0.49145211582056492 0 0.44902366551711043 -0.49999999999999878 0 0.45006768496536831 -0.49145211582056492 0 0.4413399204534747 -0.47492725321573448 0 0.45350767472580578 -0.46328728220592408 0 0.45006768496536831 -0.49145211582056492 0 0.4413399204534747 -0.47492725321573448 0 0.42244963948311892 -0.48223661470101209 0 0.45006768496536831 -0.49145211582056492 0 0.45350767472580578 -0.46328728220592408 0 0.4413399204534747 -0.47492725321573448 0 0.45350767472580578 -0.46328728220592408 0 0.45006768496536831 -0.49145211582056492 0 0.46799534889508132 -0.47827702833074132 0 0.45350767472580578 -0.46328728220592408 0 0.45006768496536831 -0.49145211582056492 0 0.47568494125798932 -0.50000000000000011 0 0.45006768496536831 -0.49145211582056492 0 0.44902366551711043 -0.49999999999999878 0 0.47568494125798932 -0.50000000000000011 0 0.45006768496536831 -0.49145211582056492 0 0.46799534889508132 -0.47827702833074132 0 0.47568494125798932 -0.50000000000000011 0 0.46799534889508132 -0.47827702833074132 0 0.47568494125798932 -0.50000000000000011 0 0.48632163406219459 -0.48387499136282103 0 0.5 -0.5 0 0.48632163406219459 -0.48387499136282103 0 0.5 -0.45282052105360338 0 0.47568494125798932 -0.50000000000000011 0 0.5 -0.5 0 0.48632163406219459 -0.48387499136282103 0 0.46799534889508132 -0.47827702833074132 0 0.48632163406219459 -0.48387499136282103 0 0.48062786463726298 -0.46951711668825602 0 0.46799534889508132 -0.47827702833074132 0 0.48062786463726298 -0.46951711668825602 0 0.47031614025307927 -0.46175689996266028 0 0.47031614025307927 -0.46175689996266028 0 0.48172650950997697 -0.45375327398203907 0 0.47192108812144101 -0.44567256108978232 0 0.48062786463726298 -0.46951711668825602 0 0.47031614025307927 -0.46175689996266028 0 0.48172650950997697 -0.45375327398203907 0 0.48632163406219459 -0.48387499136282103 0 0.48062786463726298 -0.46951711668825602 0 0.5 -0.45282052105360338 0 0.48062786463726298 -0.46951711668825602 0 0.48172650950997697 -0.45375327398203907 0 0.5 -0.45282052105360338 0 0.5 -0.45282052105360338 0 0.48621043885989151 -0.43985380185010697 0 0.49033450151707608 -0.42805783997364061 0 0.48172650950997697 -0.45375327398203907 0 0.5 -0.45282052105360338 0 0.48621043885989151 -0.43985380185010697 0 0.48621043885989151 -0.43985380185010697 0 0.47192108812144101 -0.44567256108978232 0 0.49033450151707608 -0.42805783997364061 0 0.48172650950997697 -0.45375327398203907 0 0.48621043885989151 -0.43985380185010697 0 0.47192108812144101 -0.44567256108978232 0 0.47192108812144101 -0.44567256108978232 0 0.45350767472580578 -0.46328728220592408 0 0.45707259713633502 -0.4340995655166473 0 0.45350767472580578 -0.46328728220592408 0 0.45707259713633502 -0.4340995655166473 0 0.47031614025307927 -0.46175689996266028 0 0.47192108812144101 -0.44567256108978232 0 0.45350767472580578 -0.46328728220592408 0 0.47192108812144101 -0.44567256108978232 0 0.45350767472580578 -0.46328728220592408 0 0.46799534889508132 -0.47827702833074132 0 0.47031614025307927 -0.46175689996266028 0 0.45350767472580578 -0.46328728220592408 0 0.4413399204534747 -0.47492725321573448 0 0.45350767472580578 -0.46328728220592408 0 0.44021544003957619 -0.46157206652326987 0 0.45350767472580578 -0.46328728220592408 0 0.44021544003957619 -0.46157206652326987 0 0.43826435327999719 -0.4483124010580915 0 0.45350767472580578 -0.46328728220592408 0 0.43826435327999719 -0.4483124010580915 0 0.45707259713633502 -0.4340995655166473 0 0.43826435327999719 -0.4483124010580915 0 0.44001395641981361 -0.42268600517101979 0 0.45707259713633502 -0.4340995655166473 0 0.44001395641981361 -0.42268600517101979 0 0.46063751954686383 -0.40491184882737041 0 0.44230935972030572 -0.39924154862443939 0 0.44001395641981361 -0.42268600517101979 0 0.45707259713633502 -0.4340995655166473 0 0.46063751954686383 -0.40491184882737041 0 0.45707259713633502 -0.4340995655166473 0 0.47222264863266028 -0.42441502609964032 0 0.46063751954686383 -0.40491184882737041 0 0.45707259713633502 -0.4340995655166473 0 0.46063751954686383 -0.40491184882737041 0 0.47192108812144101 -0.44567256108978232 0 0.45707259713633502 -0.4340995655166473 0 0.47222264863266028 -0.42441502609964032 0 0.47192108812144101 -0.44567256108978232 0 0.49033450151707608 -0.42805783997364061 0 0.47192108812144101 -0.44567256108978232 0 0.47222264863266028 -0.42441502609964032 0 0.49033450151707608 -0.42805783997364061 0 0.5 -0.45282052105360338 0 0.49033450151707608 -0.42805783997364061 0 0.50000000000000056 -0.41881158798509999 0 0.48621043885989151 -0.43985380185010697 0 0.49033450151707608 -0.42805783997364061 0 0.49033450151707608 -0.42805783997364061 0 0.50000000000000056 -0.41881158798509999 0 0.49033450151707608 -0.42805783997364061 0 0.48114753684158601 -0.40933331509076071 0 0.49999999999999978 -0.40041183623919518 0 0.49033450151707608 -0.42805783997364061 0 0.50000000000000056 -0.41881158798509999 0 0.49999999999999978 -0.40041183623919518 0 0.49033450151707608 -0.42805783997364061 0 0.49999999999999978 -0.40041183623919518 0 0.47222264863266028 -0.42441502609964032 0 0.48114753684158601 -0.40933331509076071 0 0.46063751954686383 -0.40491184882737041 0 0.47222264863266028 -0.42441502609964032 0 0.49033450151707608 -0.42805783997364061 0 0.48114753684158601 -0.40933331509076071 0 0.5 -0.37056971832558772 0 0.48119749966916842 -0.39219017012420149 0 0.4642024419573928 -0.37572413213809353 0 0.48114753684158601 -0.40933331509076071 0 0.48119749966916842 -0.39219017012420149 0 0.46063751954686383 -0.40491184882737041 0 0.48114753684158601 -0.40933331509076071 0 0.48119749966916842 -0.39219017012420149 0 0.49999999999999978 -0.40041183623919518 0 0.5 -0.37056971832558772 0 0.48119749966916842 -0.39219017012420149 0 0.49999999999999978 -0.40041183623919518 0 0.4642024419573928 -0.37572413213809353 0 0.44230935972030572 -0.39924154862443939 0 0.42903771468272589 -0.38252274220936028 0 0.4642024419573928 -0.37572413213809353 0 0.46063751954686383 -0.40491184882737041 0 0.48119749966916842 -0.39219017012420149 0 0.4642024419573928 -0.37572413213809353 0 0.46063751954686383 -0.40491184882737041 0 0.4642024419573928 -0.37572413213809353 0 0.46063751954686383 -0.40491184882737041 0 0.44230935972030572 -0.39924154862443939 0 0.42903771468272589 -0.38252274220936028 0 0.42405712140986401 -0.41071562309153092 0 0.44230935972030572 -0.39924154862443939 0 0.42903771468272589 -0.38252274220936028 0 0.42405712140986401 -0.41071562309153092 0 0.42903771468272589 -0.38252274220936028 0 0.41205766639330021 -0.39756339330285551 0 0.42405712140986401 -0.41071562309153092 0 0.42903771468272589 -0.38252274220936028 0 0.41205766639330021 -0.39756339330285551 0 0.40407500085438769 -0.38092611273875221 0 0.40407500085438769 -0.38092611273875221 0 0.38557257998941108 -0.38465734676092012 0 0.39232908054498578 -0.40252008194595329 0 0.39156612542334812 -0.35975494507046479 0 0.40407500085438769 -0.38092611273875221 0 0.38557257998941108 -0.38465734676092012 0 0.38557257998941108 -0.38465734676092012 0 0.37293505643105918 -0.40189342741438139 0 0.36695763669327452 -0.37819216663504862 0 0.38557257998941108 -0.38465734676092012 0 0.39232908054498578 -0.40252008194595329 0 0.37293505643105918 -0.40189342741438139 0 0.41205766639330021 -0.39756339330285551 0 0.39232908054498578 -0.40252008194595329 0 0.41078941447453748 -0.41113240652868049 0 0.41205766639330021 -0.39756339330285551 0 0.40407500085438769 -0.38092611273875221 0 0.39232908054498578 -0.40252008194595329 0 0.39232908054498578 -0.40252008194595329 0 0.3821006462237943 -0.42159032402315999 0 0.4027737821351472 -0.42566448621328368 0 0.39232908054498578 -0.40252008194595329 0 0.4027737821351472 -0.42566448621328368 0 0.41078941447453748 -0.41113240652868049 0 0.39232908054498578 -0.40252008194595329 0 0.3821006462237943 -0.42159032402315999 0 0.37293505643105918 -0.40189342741438139 0 0.3821006462237943 -0.42159032402315999 0 0.39225118224436217 -0.43792937193440851 0 0.3750388307604704 -0.44979865387140477 0 0.3821006462237943 -0.42159032402315999 0 0.4027737821351472 -0.42566448621328368 0 0.39225118224436217 -0.43792937193440851 0 0.4027737821351472 -0.42566448621328368 0 0.40496290722425599 -0.44368861860320741 0 0.39225118224436217 -0.43792937193440851 0 0.4179067160970924 -0.42388209648387448 0 0.42405712140986401 -0.41071562309153092 0 0.4190765281370018 -0.43890850397370151 0 0.4027737821351472 -0.42566448621328368 0 0.4190765281370018 -0.43890850397370151 0 0.40496290722425599 -0.44368861860320741 0 0.42405712140986401 -0.41071562309153092 0 0.4190765281370018 -0.43890850397370151 0 0.4027737821351472 -0.42566448621328368 0 0.4179067160970924 -0.42388209648387448 0 0.4190765281370018 -0.43890850397370151 0 0.4179067160970924 -0.42388209648387448 0 0.4190765281370018 -0.43890850397370151 0 0.4027737821351472 -0.42566448621328368 0 0.4179067160970924 -0.42388209648387448 0 0.41078941447453748 -0.41113240652868049 0 0.41205766639330021 -0.39756339330285551 0 0.41078941447453748 -0.41113240652868049 0 0.42405712140986401 -0.41071562309153092 0 0.4179067160970924 -0.42388209648387448 0 0.41078941447453748 -0.41113240652868049 0 0.42405712140986401 -0.41071562309153092 0 0.44001395641981361 -0.42268600517101979 0 0.44230935972030572 -0.39924154862443939 0 0.42405712140986401 -0.41071562309153092 0 0.43826435327999719 -0.4483124010580915 0 0.44001395641981361 -0.42268600517101979 0 0.4190765281370018 -0.43890850397370151 0 0.44001395641981361 -0.42268600517101979 0 0.42405712140986401 -0.41071562309153092 0 0.4190765281370018 -0.43890850397370151 0 0.43826435327999719 -0.4483124010580915 0 0.42076308381006061 -0.4605725593373568 0 0.4190765281370018 -0.43890850397370151 0 0.4413399204534747 -0.47492725321573448 0 0.44021544003957619 -0.46157206652326987 0 0.42076308381006061 -0.4605725593373568 0 0.44021544003957619 -0.46157206652326987 0 0.43826435327999719 -0.4483124010580915 0 0.42076308381006061 -0.4605725593373568 0 0.42076308381006061 -0.4605725593373568 0 0.41555625719602712 -0.45883516207940239 0 0.41203598625505239 -0.47876182018510333 0 0.41555625719602712 -0.45883516207940239 0 0.40258919574994972 -0.46141958001256939 0 0.41203598625505239 -0.47876182018510333 0 0.41555625719602712 -0.45883516207940239 0 0.40496290722425599 -0.44368861860320741 0 0.40258919574994972 -0.46141958001256939 0 0.41555625719602712 -0.45883516207940239 0 0.4190765281370018 -0.43890850397370151 0 0.40496290722425599 -0.44368861860320741 0 0.41555625719602712 -0.45883516207940239 0 0.4190765281370018 -0.43890850397370151 0 0.42076308381006061 -0.4605725593373568 0 0.4190765281370018 -0.43890850397370151 0 0.42076308381006061 -0.4605725593373568 0 0.41555625719602712 -0.45883516207940239 0 0.4190765281370018 -0.43890850397370151 0 0.40496290722425599 -0.44368861860320741 0 0.39361088671261241 -0.45158666505325828 0 0.40258919574994972 -0.46141958001256939 0 0.40496290722425599 -0.44368861860320741 0 0.39361088671261241 -0.45158666505325828 0 0.39225118224436217 -0.43792937193440851 0 0.39361088671261241 -0.45158666505325828 0 0.39225118224436217 -0.43792937193440851 0 0.3750388307604704 -0.44979865387140477 0 0.3750388307604704 -0.44979865387140477 0 0.39155366247108991 -0.46270424635703211 0 0.38756374776750269 -0.47489932693570142 0 0.39361088671261241 -0.45158666505325828 0 0.3750388307604704 -0.44979865387140477 0 0.39155366247108991 -0.46270424635703211 0 0.3750388307604704 -0.44979865387140477 0 0.38756374776750269 -0.47489932693570142 0 0.39155366247108991 -0.46270424635703211 0 0.40258919574994972 -0.46141958001256939 0 0.39758158192869247 -0.47393872076129823 0 0.39361088671261241 -0.45158666505325828 0 0.39155366247108991 -0.46270424635703211 0 0.40258919574994972 -0.46141958001256939 0 0.39758158192869247 -0.47393872076129823 0 0.41203598625505239 -0.47876182018510333 0 0.3750388307604704 -0.44979865387140477 0 0.38756374776750269 -0.47489932693570142 0 0.37203456272057489 -0.48185938291261909 0 0.40258919574994972 -0.46141958001256939 0 0.39758158192869247 -0.47393872076129823 0 0.41203598625505239 -0.47876182018510333 0 0.39758158192869247 -0.47393872076129823 0 0.40111080016068301 -0.48551997357642068 0 0.41203598625505239 -0.47876182018510333 0 0.39758158192869247 -0.47393872076129823 0 0.38756374776750269 -0.47489932693570142 0 0.40111080016068301 -0.48551997357642068 0 0.39155366247108991 -0.46270424635703211 0 0.39758158192869247 -0.47393872076129823 0 0.38756374776750269 -0.47489932693570142 0 0.38756374776750269 -0.47489932693570142 0 0.3835035203692414 -0.48929007580863998 0 0.37203456272057489 -0.48185938291261909 0 0.3835035203692414 -0.48929007580863998 0 0.37357110853876252 -0.5 0 0.37203456272057489 -0.48185938291261909 0 0.38756374776750269 -0.47489932693570142 0 0.3835035203692414 -0.48929007580863998 0 0.40008866477453431 -0.49999999999999828 0 0.3835035203692414 -0.48929007580863998 0 0.40008866477453431 -0.49999999999999828 0 0.37357110853876252 -0.5 0 0.38756374776750269 -0.47489932693570142 0 0.40111080016068301 -0.48551997357642068 0 0.40008866477453431 -0.49999999999999828 0 0.38756374776750269 -0.47489932693570142 0 0.40008866477453431 -0.49999999999999828 0 0.40111080016068301 -0.48551997357642068 0 0.40008866477453431 -0.49999999999999828 0 0.40828402007763298 -0.50000000000000067 0 0.40828402007763298 -0.50000000000000067 0 0.41665054304840948 -0.49024960872152912 0 0.41203598625505239 -0.47876182018510333 0 0.40828402007763298 -0.50000000000000067 0 0.41203598625505239 -0.47876182018510333 0 0.41665054304840948 -0.49024960872152912 0 0.42244963948311892 -0.48223661470101209 0 0.42383252637783292 -0.50000000000000022 0 0.40111080016068301 -0.48551997357642068 0 0.40828402007763298 -0.50000000000000067 0 0.41203598625505239 -0.47876182018510333 0 0.40828402007763298 -0.50000000000000067 0 0.41665054304840948 -0.49024960872152912 0 0.42383252637783292 -0.50000000000000022 0 0.42076308381006061 -0.4605725593373568 0 0.42244963948311892 -0.48223661470101209 0 0.42076308381006061 -0.4605725593373568 0 0.41203598625505239 -0.47876182018510333 0 0.42244963948311892 -0.48223661470101209 0 0.41555625719602712 -0.45883516207940239 0 0.41203598625505239 -0.47876182018510333 0 0.41665054304840948 -0.49024960872152912 0 0.41203598625505239 -0.47876182018510333 0 0.42244963948311892 -0.48223661470101209 0 0.41203598625505239 -0.47876182018510333 0 0.42244963948311892 -0.48223661470101209 0 0.4413399204534747 -0.47492725321573448 0 0.42076308381006061 -0.4605725593373568 0 0.42244963948311892 -0.48223661470101209 0 0.45006768496536831 -0.49145211582056492 0 0.42244963948311892 -0.48223661470101209 0 0.42244963948311892 -0.48223661470101209 0 0.42383252637783292 -0.50000000000000022 0 0.45006768496536831 -0.49145211582056492 0 0.42244963948311892 -0.48223661470101209 0 0.42383252637783292 -0.50000000000000022 0 0.32053599606721922 -0.5 0 0.32756558746738867 -0.48163000583685078 0 0.3066468073325056 -0.48460631014136502 0 0.32756558746738867 -0.48163000583685078 0 0.32277234999257942 -0.46747040439178228 0 0.3066468073325056 -0.48460631014136502 0 0.32756558746738867 -0.48163000583685078 0 0.3066468073325056 -0.48460631014136502 0 0.32756558746738867 -0.48163000583685078 0 0.33759371226550761 -0.46591836948919418 0 0.32277234999257942 -0.46747040439178228 0 0.32756558746738867 -0.48163000583685078 0 0.34244467723574579 -0.48012858574810108 0 0.33759371226550761 -0.46591836948919418 0 0.32053599606721922 -0.5 0 0.32756558746738867 -0.48163000583685078 0 0.34705355230299079 -0.5 0 0.32756558746738867 -0.48163000583685078 0 0.34244467723574579 -0.48012858574810108 0 0.34705355230299079 -0.5 0 0.34705355230299079 -0.5 0 0.37203456272057489 -0.48185938291261909 0 0.35756585690709591 -0.47296596766635951 0 0.34705355230299079 -0.5 0 0.37357110853876252 -0.5 0 0.37203456272057489 -0.48185938291261909 0 0.34244467723574579 -0.48012858574810108 0 0.35756585690709591 -0.47296596766635951 0 0.33759371226550761 -0.46591836948919418 0 0.34244467723574579 -0.48012858574810108 0 0.34705355230299079 -0.5 0 0.35756585690709591 -0.47296596766635951 0 0.35756585690709591 -0.47296596766635951 0 0.34930741319273789 -0.44966693568152888 0 0.33759371226550761 -0.46591836948919418 0 0.3750388307604704 -0.44979865387140477 0 0.37203456272057489 -0.48185938291261909 0 0.35756585690709591 -0.47296596766635951 0 0.3750388307604704 -0.44979865387140477 0 0.35756585690709591 -0.47296596766635951 0 0.34930741319273789 -0.44966693568152888 0 0.3750388307604704 -0.44979865387140477 0 0.34930741319273789 -0.44966693568152888 0 0.36251391375343811 -0.42469798080710819 0 0.34930741319273789 -0.44966693568152888 0 0.32534572164003578 -0.45306276402461731 0 0.33422126184491951 -0.43718100953402977 0 0.34930741319273789 -0.44966693568152888 0 0.33759371226550761 -0.46591836948919418 0 0.32534572164003578 -0.45306276402461731 0 0.33759371226550761 -0.46591836948919418 0 0.32277234999257942 -0.46747040439178228 0 0.32534572164003578 -0.45306276402461731 0 0.32277234999257942 -0.46747040439178228 0 0.32534572164003578 -0.45306276402461731 0 0.30674861974397882 -0.46367658623463259 0 0.31299673794008942 -0.4426130041374865 0 0.32534572164003578 -0.45306276402461731 0 0.30674861974397882 -0.46367658623463259 0 0.31299673794008942 -0.4426130041374865 0 0.32534572164003578 -0.45306276402461731 0 0.33422126184491951 -0.43718100953402977 0 0.31299673794008942 -0.4426130041374865 0 0.32548253014170953 -0.42122169365930567 0 0.33422126184491951 -0.43718100953402977 0 0.32548253014170953 -0.42122169365930567 0 0.30329595680996568 -0.42748040447116908 0 0.31299673794008942 -0.4426130041374865 0 0.32548253014170953 -0.42122169365930567 0 0.30329595680996568 -0.42748040447116908 0 0.32548253014170953 -0.42122169365930567 0 0.32745935917048091 -0.40069389881203171 0 0.30764880489700841 -0.40630593238840201 0 0.34352263182166642 -0.42088247131815859 0 0.34998899674640582 -0.39959730774281171 0 0.32745935917048091 -0.40069389881203171 0 0.32548253014170953 -0.42122169365930567 0 0.34352263182166642 -0.42088247131815859 0 0.32745935917048091 -0.40069389881203171 0 0.32548253014170953 -0.42122169365930567 0 0.34352263182166642 -0.42088247131815859 0 0.33422126184491951 -0.43718100953402977 0 0.34930741319273789 -0.44966693568152888 0 0.34352263182166642 -0.42088247131815859 0 0.33422126184491951 -0.43718100953402977 0 0.34930741319273789 -0.44966693568152888 0 0.34352263182166642 -0.42088247131815859 0 0.36251391375343811 -0.42469798080710819 0 0.3750388307604704 -0.44979865387140477 0 0.36251391375343811 -0.42469798080710819 0 0.3821006462237943 -0.42159032402315999 0 0.3750388307604704 -0.44979865387140477 0 0.36251391375343811 -0.42469798080710819 0 0.36251391375343811 -0.42469798080710819 0 0.34998899674640582 -0.39959730774281171 0 0.37293505643105918 -0.40189342741438139 0 0.3821006462237943 -0.42159032402315999 0 0.36251391375343811 -0.42469798080710819 0 0.37293505643105918 -0.40189342741438139 0 0.34352263182166642 -0.42088247131815859 0 0.36251391375343811 -0.42469798080710819 0 0.34998899674640582 -0.39959730774281171 0 0.36251391375343811 -0.42469798080710819 0 0.34998899674640582 -0.39959730774281171 0 0.34998899674640582 -0.39959730774281171 0 0.37293505643105918 -0.40189342741438139 0 0.36695763669327452 -0.37819216663504862 0 0.34998899674640582 -0.39959730774281171 0 0.36695763669327452 -0.37819216663504862 0 0.35055457022257119 -0.37764807999970329 0 0.34998899674640582 -0.39959730774281171 0 0.35055457022257119 -0.37764807999970329 0 0.33471427717752761 -0.37873457774728381 0 0.35055457022257119 -0.37764807999970329 0 0.33471427717752761 -0.37873457774728381 0 0.34523965564666059 -0.36909360110537381 0 0.34998899674640582 -0.39959730774281171 0 0.33471427717752761 -0.37873457774728381 0 0.32745935917048091 -0.40069389881203171 0 0.32745935917048091 -0.40069389881203171 0 0.31776943633306831 -0.38374186464776872 0 0.31237548801909298 -0.39482882133466901 0 0.32745935917048091 -0.40069389881203171 0 0.31237548801909298 -0.39482882133466901 0 0.30764880489700841 -0.40630593238840201 0 0.33471427717752761 -0.37873457774728381 0 0.31776943633306831 -0.38374186464776872 0 0.32251348985286121 -0.37386759494360727 0 0.33471427717752761 -0.37873457774728381 0 0.32745935917048091 -0.40069389881203171 0 0.31776943633306831 -0.38374186464776872 0 0.31776943633306831 -0.38374186464776872 0 0.31565306185085651 -0.37618273431003579 0 0.32251348985286121 -0.37386759494360727 0 0.31776943633306831 -0.38374186464776872 0 0.31565306185085651 -0.37618273431003579 0 0.31092403190228401 -0.37958302565439911 0 0.29918969205750562 -0.37967206755043809 0 0.30499004509240701 -0.38485280788976067 0 0.29337172910848658 -0.39034576286348349 0 0.29918969205750562 -0.37967206755043809 0 0.30623747480848079 -0.37930149886009717 0 0.30499004509240701 -0.38485280788976067 0 0.29918969205750562 -0.37967206755043809 0 0.30623747480848079 -0.37930149886009717 0 0.30997014142660712 -0.37383622256433308 0 0.30623747480848079 -0.37930149886009717 0 0.31092403190228401 -0.37958302565439911 0 0.30499004509240701 -0.38485280788976067 0 0.31776943633306831 -0.38374186464776872 0 0.31092403190228401 -0.37958302565439911 0 0.30499004509240701 -0.38485280788976067 0 0.31565306185085651 -0.37618273431003579 0 0.31092403190228401 -0.37958302565439911 0 0.30997014142660712 -0.37383622256433308 0 0.30623747480848079 -0.37930149886009717 0 0.31092403190228401 -0.37958302565439911 0 0.30997014142660712 -0.37383622256433308 0 0.31776943633306831 -0.38374186464776872 0 0.30499004509240701 -0.38485280788976067 0 0.31237548801909298 -0.39482882133466901 0 0.30499004509240701 -0.38485280788976067 0 0.30593715187545178 -0.39598634197324323 0 0.31237548801909298 -0.39482882133466901 0 0.30593715187545178 -0.39598634197324323 0 0.31237548801909298 -0.39482882133466901 0 0.30764880489700841 -0.40630593238840201 0 0.2987342694932989 -0.39795780628014132 0 0.29549666440552741 -0.40973397137235362 0 0.30764880489700841 -0.40630593238840201 0 0.30593715187545178 -0.39598634197324323 0 0.2987342694932989 -0.39795780628014132 0 0.30764880489700841 -0.40630593238840201 0 0.30499004509240701 -0.38485280788976067 0 0.30593715187545178 -0.39598634197324323 0 0.2987342694932989 -0.39795780628014132 0 0.30499004509240701 -0.38485280788976067 0 0.28680495438119852 -0.40057536085256618 0 0.30499004509240701 -0.38485280788976067 0 0.28680495438119852 -0.40057536085256618 0 0.29337172910848658 -0.39034576286348349 0 0.30499004509240701 -0.38485280788976067 0 0.2987342694932989 -0.39795780628014132 0 0.28680495438119852 -0.40057536085256618 0 0.2987342694932989 -0.39795780628014132 0 0.293559922775811 -0.40286836789170621 0 0.29549666440552741 -0.40973397137235362 0 0.2987342694932989 -0.39795780628014132 0 0.293559922775811 -0.40286836789170621 0 0.28680495438119852 -0.40057536085256618 0 0.293559922775811 -0.40286836789170621 0 0.28680495438119852 -0.40057536085256618 0 0.28631829755167038 -0.40974785020910343 0 0.28680495438119852 -0.40057536085256618 0 0.28282224638058501 -0.39647327125871301 0 0.29337172910848658 -0.39034576286348349 0 0.29918969205750562 -0.37967206755043809 0 0.28282224638058501 -0.39647327125871301 0 0.29918969205750562 -0.37967206755043809 0 0.28282224638058501 -0.39647327125871301 0 0.28711320058817569 -0.3865777823925643 0 0.29918969205750562 -0.37967206755043809 0 0.28282224638058501 -0.39647327125871301 0 0.29337172910848658 -0.39034576286348349 0 0.28282224638058501 -0.39647327125871301 0 0.28711320058817569 -0.3865777823925643 0 0.27916941557062708 -0.38775591674259691 0 0.28711320058817569 -0.3865777823925643 0 0.28727144834398521 -0.38240987401850929 0 0.27916941557062708 -0.38775591674259691 0 0.29918969205750562 -0.37967206755043809 0 0.28711320058817569 -0.3865777823925643 0 0.28727144834398521 -0.38240987401850929 0 0.29918969205750562 -0.37967206755043809 0 0.29221573952856239 -0.37691409734713788 0 0.28727144834398521 -0.38240987401850929 0 0.29918969205750562 -0.37967206755043809 0 0.29221573952856239 -0.37691409734713788 0 0.29677953628994741 -0.37328229009256159 0 0.28727144834398521 -0.38240987401850929 0 0.28051289523917983 -0.37793277748497922 0 0.27916941557062708 -0.38775591674259691 0 0.29221573952856239 -0.37691409734713788 0 0.28727144834398521 -0.38240987401850929 0 0.28051289523917983 -0.37793277748497922 0 0.28051289523917983 -0.37793277748497922 0 0.26859083245597087 -0.38880456958096982 0 0.26084768714352508 -0.37286806244875198 0 0.27916941557062708 -0.38775591674259691 0 0.26859083245597087 -0.38880456958096982 0 0.27521715538838348 -0.39310896940269902 0 0.28051289523917983 -0.37793277748497922 0 0.27916941557062708 -0.38775591674259691 0 0.26859083245597087 -0.38880456958096982 0 0.26859083245597087 -0.38880456958096982 0 0.26084768714352508 -0.37286806244875198 0 0.24755933536825281 -0.38688758237221521 0 0.26084768714352508 -0.37286806244875198 0 0.24842279325543079 -0.37396775914526681 0 0.24755933536825281 -0.38688758237221521 0 0.26084768714352508 -0.37286806244875198 0 0.24755933536825281 -0.38688758237221521 0 0.26859083245597087 -0.38880456958096982 0 0.2570070680359573 -0.4000810286696006 0 0.24755933536825281 -0.38688758237221521 0 0.2570070680359573 -0.4000810286696006 0 0.24755933536825281 -0.38688758237221521 0 0.26859083245597087 -0.38880456958096982 0 0.2570070680359573 -0.4000810286696006 0 0.27028612714635092 -0.39940212002851661 0 0.2570070680359573 -0.4000810286696006 0 0.27028612714635092 -0.39940212002851661 0 0.26645480070366212 -0.41327447496698572 0 0.28680495438119852 -0.40057536085256618 0 0.28282224638058501 -0.39647327125871301 0 0.26645480070366212 -0.41327447496698572 0 0.28282224638058501 -0.39647327125871301 0 0.27028612714635092 -0.39940212002851661 0 0.26645480070366212 -0.41327447496698572 0 0.28282224638058501 -0.39647327125871301 0 0.26645480070366212 -0.41327447496698572 0 0.26859083245597087 -0.38880456958096982 0 0.27028612714635092 -0.39940212002851661 0 0.27521715538838348 -0.39310896940269902 0 0.28282224638058501 -0.39647327125871301 0 0.27916941557062708 -0.38775591674259691 0 0.27521715538838348 -0.39310896940269902 0 0.28282224638058501 -0.39647327125871301 0 0.27028612714635092 -0.39940212002851661 0 0.27521715538838348 -0.39310896940269902 0 0.28680495438119852 -0.40057536085256618 0 0.26861986366998808 -0.41629791381536979 0 0.26645480070366212 -0.41327447496698572 0 0.28680495438119852 -0.40057536085256618 0 0.26861986366998808 -0.41629791381536979 0 0.26861986366998808 -0.41629791381536979 0 0.2871100825258272 -0.4192636371135211 0 0.28631829755167038 -0.40974785020910343 0 0.28680495438119852 -0.40057536085256618 0 0.26861986366998808 -0.41629791381536979 0 0.28631829755167038 -0.40974785020910343 0 0.26861986366998808 -0.41629791381536979 0 0.26645480070366212 -0.41327447496698572 0 0.2570070680359573 -0.4000810286696006 0 0.26645480070366212 -0.41327447496698572 0 0.254241536280572 -0.41322500987920252 0 0.2570070680359573 -0.4000810286696006 0 0.26645480070366212 -0.41327447496698572 0 0.26861986366998808 -0.41629791381536979 0 0.26645480070366212 -0.41327447496698572 0 0.25461036409595073 -0.42543280413966672 0 0.26645480070366212 -0.41327447496698572 0 0.254241536280572 -0.41322500987920252 0 0.25461036409595073 -0.42543280413966672 0 0.26645480070366212 -0.41327447496698572 0 0.25461036409595073 -0.42543280413966672 0 0.2507646469428147 -0.42011770442954421 0 0.254241536280572 -0.41322500987920252 0 0.24529057633248821 -0.41719125275567348 0 0.2507646469428147 -0.42011770442954421 0 0.254241536280572 -0.41322500987920252 0 0.25461036409595073 -0.42543280413966672 0 0.2570070680359573 -0.4000810286696006 0 0.254241536280572 -0.41322500987920252 0 0.24635520515690479 -0.40805365165468149 0 0.26861986366998808 -0.41629791381536979 0 0.25062434725315252 -0.43185656372534281 0 0.26606929398440637 -0.4379818421484587 0 0.26861986366998808 -0.41629791381536979 0 0.25062434725315252 -0.43185656372534281 0 0.26861986366998808 -0.41629791381536979 0 0.25062434725315252 -0.43185656372534281 0 0.25461036409595073 -0.42543280413966672 0 0.25062434725315252 -0.43185656372534281 0 0.26606929398440637 -0.4379818421484587 0 0.25102920449059068 -0.44222456901388479 0 0.2507646469428147 -0.42011770442954421 0 0.25461036409595073 -0.42543280413966672 0 0.24771162834454169 -0.42522020283389139 0 0.26861986366998808 -0.41629791381536979 0 0.28110938347822262 -0.43373911528303433 0 0.26606929398440637 -0.4379818421484587 0 0.26861986366998808 -0.41629791381536979 0 0.28110938347822262 -0.43373911528303433 0 0.2871100825258272 -0.4192636371135211 0 0.26861986366998808 -0.41629791381536979 0 0.28110938347822262 -0.43373911528303433 0 0.28110938347822262 -0.43373911528303433 0 0.26606929398440637 -0.4379818421484587 0 0.28110938347822262 -0.43373911528303433 0 0.2871100825258272 -0.4192636371135211 0 0.30329595680996568 -0.42748040447116908 0 0.28110938347822262 -0.43373911528303433 0 0.30329595680996568 -0.42748040447116908 0 0.28110938347822262 -0.43373911528303433 0 0.30329595680996568 -0.42748040447116908 0 0.29329335181409721 -0.45075362422208493 0 0.2871100825258272 -0.4192636371135211 0 0.29549666440552741 -0.40973397137235362 0 0.30329595680996568 -0.42748040447116908 0 0.293559922775811 -0.40286836789170621 0 0.28631829755167038 -0.40974785020910343 0 0.29549666440552741 -0.40973397137235362 0 0.2871100825258272 -0.4192636371135211 0 0.28631829755167038 -0.40974785020910343 0 0.29549666440552741 -0.40973397137235362 0 0.32548253014170953 -0.42122169365930567 0 0.30764880489700841 -0.40630593238840201 0 0.30329595680996568 -0.42748040447116908 0 0.29549666440552741 -0.40973397137235362 0 0.30764880489700841 -0.40630593238840201 0 0.30329595680996568 -0.42748040447116908 0 0.31299673794008942 -0.4426130041374865 0 0.30674861974397882 -0.46367658623463259 0 0.29329335181409721 -0.45075362422208493 0 0.31299673794008942 -0.4426130041374865 0 0.30329595680996568 -0.42748040447116908 0 0.29329335181409721 -0.45075362422208493 0 0.2864388903447011 -0.46462661425127738 0 0.29329335181409721 -0.45075362422208493 0 0.27705915967164829 -0.45024242965575639 0 0.30674861974397882 -0.46367658623463259 0 0.2864388903447011 -0.46462661425127738 0 0.29480381839785519 -0.47636991885425939 0 0.30674861974397882 -0.46367658623463259 0 0.2864388903447011 -0.46462661425127738 0 0.29329335181409721 -0.45075362422208493 0 0.28110938347822262 -0.43373911528303433 0 0.29329335181409721 -0.45075362422208493 0 0.27705915967164829 -0.45024242965575639 0 0.28110938347822262 -0.43373911528303433 0 0.29329335181409721 -0.45075362422208493 0 0.28110938347822262 -0.43373911528303433 0 0.27705915967164829 -0.45024242965575639 0 0.26606929398440637 -0.4379818421484587 0 0.27705915967164829 -0.45024242965575639 0 0.26606929398440637 -0.4379818421484587 0 0.26563168068936871 -0.4542611371790356 0 0.26606929398440637 -0.4379818421484587 0 0.25102920449059068 -0.44222456901388479 0 0.26563168068936871 -0.4542611371790356 0 0.26606929398440637 -0.4379818421484587 0 0.25102920449059068 -0.44222456901388479 0 0.25102920449059068 -0.44222456901388479 0 0.25824032843333983 -0.46751803126679969 0 0.24274741074966841 -0.45733983911222448 0 0.25102920449059068 -0.44222456901388479 0 0.25824032843333983 -0.46751803126679969 0 0.25102920449059068 -0.44222456901388479 0 0.26563168068936871 -0.4542611371790356 0 0.25824032843333983 -0.46751803126679969 0 0.26563168068936871 -0.4542611371790356 0 0.25824032843333983 -0.46751803126679969 0 0.26699036810843041 -0.46651679681846492 0 0.25824032843333983 -0.46751803126679969 0 0.26699036810843041 -0.46651679681846492 0 0.26699036810843041 -0.46651679681846492 0 0.27440172944779612 -0.46108315417084927 0 0.27674491531956619 -0.46982170292918901 0 0.26563168068936871 -0.4542611371790356 0 0.26699036810843041 -0.46651679681846492 0 0.27440172944779612 -0.46108315417084927 0 0.27705915967164829 -0.45024242965575639 0 0.26563168068936871 -0.4542611371790356 0 0.27440172944779612 -0.46108315417084927 0 0.2864388903447011 -0.46462661425127738 0 0.27705915967164829 -0.45024242965575639 0 0.27440172944779612 -0.46108315417084927 0 0.2864388903447011 -0.46462661425127738 0 0.27440172944779612 -0.46108315417084927 0 0.27674491531956619 -0.46982170292918901 0 0.27674491531956619 -0.46982170292918901 0 0.27284964495664549 -0.47927409074970251 0 0.2833130592432781 -0.4755349882460615 0 0.27284964495664549 -0.47927409074970251 0 0.28572802719762252 -0.48758261444587919 0 0.2833130592432781 -0.4755349882460615 0 0.27284964495664549 -0.47927409074970251 0 0.26206567120129171 -0.48093565710069108 0 0.27284964495664549 -0.47927409074970251 0 0.26206567120129171 -0.48093565710069108 0 0.26480924706273951 -0.4905589187503937 0 0.26699036810843041 -0.46651679681846492 0 0.27284964495664549 -0.47927409074970251 0 0.26206567120129171 -0.48093565710069108 0 0.26699036810843041 -0.46651679681846492 0 0.27674491531956619 -0.46982170292918901 0 0.27284964495664549 -0.47927409074970251 0 0.25824032843333983 -0.46751803126679969 0 0.26206567120129171 -0.48093565710069108 0 0.25824032843333983 -0.46751803126679969 0 0.26699036810843041 -0.46651679681846492 0 0.26206567120129171 -0.48093565710069108 0 0.25824032843333983 -0.46751803126679969 0 0.26206567120129171 -0.48093565710069108 0 0.24830717598121979 -0.47582208519826868 0 0.26480924706273951 -0.4905589187503937 0 0.23532761845034461 -0.49475353705879271 0 0.26480924706273951 -0.4905589187503937 0 0.26750088359567581 -0.499999999999999 0 0.23977752504085109 -0.5 0 0.26206567120129171 -0.48093565710069108 0 0.26480924706273951 -0.4905589187503937 0 0.23787794103592361 -0.48466243903296491 0 0.26206567120129171 -0.48093565710069108 0 0.26480924706273951 -0.4905589187503937 0 0.27284964495664549 -0.47927409074970251 0 0.26480924706273951 -0.4905589187503937 0 0.28572802719762252 -0.48758261444587919 0 0.26480924706273951 -0.4905589187503937 0 0.26750088359567581 -0.499999999999999 0 0.26480924706273951 -0.4905589187503937 0 0.28572802719762252 -0.48758261444587919 0 0.26480924706273951 -0.4905589187503937 0 0.26750088359567581 -0.499999999999999 0 0.28572802719762252 -0.48758261444587919 0 0.26750088359567581 -0.499999999999999 0 0.29401843983144749 -0.5 0 0.28572802719762252 -0.48758261444587919 0 0.29401843983144749 -0.5 0 0.28572802719762252 -0.48758261444587919 0 0.3066468073325056 -0.48460631014136502 0 0.28572802719762252 -0.48758261444587919 0 0.3066468073325056 -0.48460631014136502 0 0.28572802719762252 -0.48758261444587919 0 0.2833130592432781 -0.4755349882460615 0 0.29480381839785519 -0.47636991885425939 0 0.28572802719762252 -0.48758261444587919 0 0.29480381839785519 -0.47636991885425939 0 0.3066468073325056 -0.48460631014136502 0 0.2864388903447011 -0.46462661425127738 0 0.2833130592432781 -0.4755349882460615 0 0.29480381839785519 -0.47636991885425939 0 0.2864388903447011 -0.46462661425127738 0 0.27674491531956619 -0.46982170292918901 0 0.2833130592432781 -0.4755349882460615 0 0.32277234999257942 -0.46747040439178228 0 0.30674861974397882 -0.46367658623463259 0 0.3066468073325056 -0.48460631014136502 0 0.30674861974397882 -0.46367658623463259 0 0.29480381839785519 -0.47636991885425939 0 0.3066468073325056 -0.48460631014136502 0 0.32053599606721922 -0.5 0 0.29401843983144749 -0.5 0 0.3066468073325056 -0.48460631014136502 0 0.32955537803513102 -0.29461205946523572 0 0.31906930309781922 -0.27527763233314539 0 0.34048783567004598 -0.27592254866642518 0 0.32955537803513102 -0.29461205946523572 0 0.34048783567004598 -0.27592254866642518 0 0.35050905701727358 -0.29349674846504531 0 0.32955537803513102 -0.29461205946523572 0 0.34213268829606958 -0.30890168542521268 0 0.32550652154843412 -0.31542297613827341 0 0.32955537803513102 -0.29461205946523572 0 0.34213268829606958 -0.30890168542521268 0 0.35050905701727358 -0.29349674846504531 0 0.32550652154843412 -0.31542297613827341 0 0.30346717528183142 -0.30063258145430122 0 0.32955537803513102 -0.29461205946523572 0 0.32550652154843412 -0.31542297613827341 0 0.30346717528183142 -0.30063258145430122 0 0.32955537803513102 -0.29461205946523572 0 0.31906930309781922 -0.27527763233314539 0 0.30346717528183142 -0.30063258145430122 0 0.31906930309781922 -0.27527763233314539 0 0.33467405686431478 -0.25403352688329378 0 0.31116260676228258 -0.25520978919645698 0 0.33467405686431478 -0.25403352688329378 0 0.34048783567004598 -0.27592254866642518 0 0.35235384180926338 -0.26032904590845918 0 0.31906930309781922 -0.27527763233314539 0 0.33467405686431478 -0.25403352688329378 0 0.34048783567004598 -0.27592254866642518 0 0.34048783567004598 -0.27592254866642518 0 0.3588690719947577 -0.2785856329684781 0 0.35235384180926338 -0.26032904590845918 0 0.34967544245789572 -0.2443134457238238 0 0.33467405686431478 -0.25403352688329378 0 0.35235384180926338 -0.26032904590845918 0 0.36561893428624798 -0.24212901235086301 0 0.38012602394156392 -0.25066493177732307 0 0.36941956566081269 -0.26418204610492407 0 0.36561893428624798 -0.24212901235086301 0 0.35235384180926338 -0.26032904590845918 0 0.36941956566081269 -0.26418204610492407 0 0.37814345421661172 -0.28283798652441761 0 0.3588690719947577 -0.2785856329684781 0 0.36941956566081269 -0.26418204610492407 0 0.3588690719947577 -0.2785856329684781 0 0.35235384180926338 -0.26032904590845918 0 0.36941956566081269 -0.26418204610492407 0 0.37814345421661172 -0.28283798652441761 0 0.3588690719947577 -0.2785856329684781 0 0.36734954511041812 -0.29666387180185172 0 0.34048783567004598 -0.27592254866642518 0 0.3588690719947577 -0.2785856329684781 0 0.35050905701727358 -0.29349674846504531 0 0.3588690719947577 -0.2785856329684781 0 0.36734954511041812 -0.29666387180185172 0 0.35050905701727358 -0.29349674846504531 0 0.34213268829606958 -0.30890168542521268 0 0.35050905701727358 -0.29349674846504531 0 0.35754661706447249 -0.31076327223526318 0 0.36734954511041812 -0.29666387180185172 0 0.35050905701727358 -0.29349674846504531 0 0.35754661706447249 -0.31076327223526318 0 0.36734954511041812 -0.29666387180185172 0 0.35754661706447249 -0.31076327223526318 0 0.37349573076860731 -0.31192017957886359 0 0.35754661706447249 -0.31076327223526318 0 0.37349573076860731 -0.31192017957886359 0 0.36560850351062069 -0.32578636129799132 0 0.36560850351062069 -0.32578636129799132 0 0.34754586781503688 -0.33021337082224572 0 0.36958521408164052 -0.34500376550621659 0 0.34754586781503688 -0.33021337082224572 0 0.36958521408164052 -0.34500376550621659 0 0.34563328297747892 -0.35151395037778083 0 0.34754586781503688 -0.33021337082224572 0 0.36958521408164052 -0.34500376550621659 0 0.35754661706447249 -0.31076327223526318 0 0.36560850351062069 -0.32578636129799132 0 0.34754586781503688 -0.33021337082224572 0 0.34213268829606958 -0.30890168542521268 0 0.35754661706447249 -0.31076327223526318 0 0.34754586781503688 -0.33021337082224572 0 0.36695763669327452 -0.37819216663504862 0 0.36685353553590039 -0.36133708086115329 0 0.35579509090640121 -0.36751143250097762 0 0.36685353553590039 -0.36133708086115329 0 0.36958521408164052 -0.34500376550621659 0 0.35062507219095379 -0.35752226845870688 0 0.36958521408164052 -0.34500376550621659 0 0.34563328297747892 -0.35151395037778083 0 0.36958521408164052 -0.34500376550621659 0 0.34563328297747892 -0.35151395037778083 0 0.35062507219095379 -0.35752226845870688 0 0.36685353553590039 -0.36133708086115329 0 0.35062507219095379 -0.35752226845870688 0 0.35579509090640121 -0.36751143250097762 0 0.36695763669327452 -0.37819216663504862 0 0.35055457022257119 -0.37764807999970329 0 0.35579509090640121 -0.36751143250097762 0 0.35062507219095379 -0.35752226845870688 0 0.34523965564666059 -0.36909360110537381 0 0.35579509090640121 -0.36751143250097762 0 0.35055457022257119 -0.37764807999970329 0 0.34523965564666059 -0.36909360110537381 0 0.35579509090640121 -0.36751143250097762 0 0.35062507219095379 -0.35752226845870688 0 0.33477072935196511 -0.36535082068584268 0 0.32168135187331842 -0.35802413524934851 0 0.35062507219095379 -0.35752226845870688 0 0.34523965564666059 -0.36909360110537381 0 0.33477072935196511 -0.36535082068584268 0 0.33471427717752761 -0.37873457774728381 0 0.32922551800670452 -0.37074164725591457 0 0.33477072935196511 -0.36535082068584268 0 0.33471427717752761 -0.37873457774728381 0 0.32922551800670452 -0.37074164725591457 0 0.32251348985286121 -0.37386759494360727 0 0.32922551800670452 -0.37074164725591457 0 0.33477072935196511 -0.36535082068584268 0 0.32362644265379731 -0.36673383414563271 0 0.33471427717752761 -0.37873457774728381 0 0.34523965564666059 -0.36909360110537381 0 0.33477072935196511 -0.36535082068584268 0 0.35062507219095379 -0.35752226845870688 0 0.32168135187331842 -0.35802413524934851 0 0.34563328297747892 -0.35151395037778083 0 0.35062507219095379 -0.35752226845870688 0 0.32168135187331842 -0.35802413524934851 0 0.34563328297747892 -0.35151395037778083 0 0.32168135187331842 -0.35802413524934851 0 0.33148074352712348 -0.33896617791979938 0 0.34563328297747892 -0.35151395037778083 0 0.32168135187331842 -0.35802413524934851 0 0.32168135187331842 -0.35802413524934851 0 0.33148074352712348 -0.33896617791979938 0 0.31300435557520651 -0.33821267919195769 0 0.32168135187331842 -0.35802413524934851 0 0.31536684859260722 -0.35974043042198989 0 0.33477072935196511 -0.36535082068584268 0 0.32168135187331842 -0.35802413524934851 0 0.32362644265379731 -0.36673383414563271 0 0.32362644265379731 -0.36673383414563271 0 0.31555713773442629 -0.36287086384216338 0 0.31721222098434199 -0.37062309195861343 0 0.32168135187331842 -0.35802413524934851 0 0.32362644265379731 -0.36673383414563271 0 0.31555713773442629 -0.36287086384216338 0 0.32168135187331842 -0.35802413524934851 0 0.31555713773442629 -0.36287086384216338 0 0.31536684859260722 -0.35974043042198989 0 0.31555713773442629 -0.36287086384216338 0 0.31721222098434199 -0.37062309195861343 0 0.30997014142660712 -0.37383622256433308 0 0.31565306185085651 -0.37618273431003579 0 0.31721222098434199 -0.37062309195861343 0 0.30997014142660712 -0.37383622256433308 0 0.31565306185085651 -0.37618273431003579 0 0.31721222098434199 -0.37062309195861343 0 0.32251348985286121 -0.37386759494360727 0 0.32362644265379731 -0.36673383414563271 0 0.31721222098434199 -0.37062309195861343 0 0.32251348985286121 -0.37386759494360727 0 0.32922551800670452 -0.37074164725591457 0 0.32362644265379731 -0.36673383414563271 0 0.32251348985286121 -0.37386759494360727 0 0.34754586781503688 -0.33021337082224572 0 0.32550652154843412 -0.31542297613827341 0 0.34213268829606958 -0.30890168542521268 0 0.34754586781503688 -0.33021337082224572 0 0.32550652154843412 -0.31542297613827341 0 0.34754586781503688 -0.33021337082224572 0 0.34563328297747892 -0.35151395037778083 0 0.33148074352712348 -0.33896617791979938 0 0.34754586781503688 -0.33021337082224572 0 0.33148074352712348 -0.33896617791979938 0 0.32550652154843412 -0.31542297613827341 0 0.33148074352712348 -0.33896617791979938 0 0.31300435557520651 -0.33821267919195769 0 0.32550652154843412 -0.31542297613827341 0 0.31300435557520651 -0.33821267919195769 0 0.32550652154843412 -0.31542297613827341 0 0.30487935252083598 -0.32039670007178672 0 0.30487935252083598 -0.32039670007178672 0 0.28309790884128549 -0.31712192356495711 0 0.30346717528183142 -0.30063258145430122 0 0.31300435557520651 -0.33821267919195769 0 0.30487935252083598 -0.32039670007178672 0 0.29455329966239802 -0.33730785797552421 0 0.29455329966239802 -0.33730785797552421 0 0.28309790884128549 -0.31712192356495711 0 0.27531210764948633 -0.33813009290428842 0 0.30487935252083598 -0.32039670007178672 0 0.29455329966239802 -0.33730785797552421 0 0.28309790884128549 -0.31712192356495711 0 0.29918969205750562 -0.37967206755043809 0 0.31555713773442629 -0.36287086384216338 0 0.30997014142660712 -0.37383622256433308 0 0.29918969205750562 -0.37967206755043809 0 0.31555713773442629 -0.36287086384216338 0 0.29918969205750562 -0.37967206755043809 0 0.31555713773442629 -0.36287086384216338 0 0.30322178079818152 -0.3671233415468329 0 0.31536684859260722 -0.35974043042198989 0 0.30322178079818152 -0.3671233415468329 0 0.29790869539605802 -0.35843633888731929 0 0.30322178079818152 -0.3671233415468329 0 0.29249093277553978 -0.36941965392583759 0 0.29677953628994741 -0.37328229009256159 0 0.29918969205750562 -0.37967206755043809 0 0.30322178079818152 -0.3671233415468329 0 0.29677953628994741 -0.37328229009256159 0 0.31555713773442629 -0.36287086384216338 0 0.31536684859260722 -0.35974043042198989 0 0.30322178079818152 -0.3671233415468329 0 0.30322178079818152 -0.3671233415468329 0 0.29790869539605802 -0.35843633888731929 0 0.29249093277553978 -0.36941965392583759 0 0.32168135187331842 -0.35802413524934851 0 0.31536684859260722 -0.35974043042198989 0 0.29790869539605802 -0.35843633888731929 0 0.32168135187331842 -0.35802413524934851 0 0.29790869539605802 -0.35843633888731929 0 0.32168135187331842 -0.35802413524934851 0 0.31300435557520651 -0.33821267919195769 0 0.29790869539605802 -0.35843633888731929 0 0.31300435557520651 -0.33821267919195769 0 0.29455329966239802 -0.33730785797552421 0 0.29790869539605802 -0.35843633888731929 0 0.29455329966239802 -0.33730785797552421 0 0.29790869539605802 -0.35843633888731929 0 0.27413603891879751 -0.35884854252528881 0 0.29790869539605802 -0.35843633888731929 0 0.27413603891879751 -0.35884854252528881 0 0.29455329966239802 -0.33730785797552421 0 0.27413603891879751 -0.35884854252528881 0 0.29455329966239802 -0.33730785797552421 0 0.27413603891879751 -0.35884854252528881 0 0.27531210764948633 -0.33813009290428842 0 0.29790869539605802 -0.35843633888731929 0 0.28117924989462012 -0.36750107505443541 0 0.27413603891879751 -0.35884854252528881 0 0.29790869539605802 -0.35843633888731929 0 0.29249093277553978 -0.36941965392583759 0 0.28117924989462012 -0.36750107505443541 0 0.29221573952856239 -0.37691409734713788 0 0.28051289523917983 -0.37793277748497922 0 0.29249093277553978 -0.36941965392583759 0 0.28051289523917983 -0.37793277748497922 0 0.29249093277553978 -0.36941965392583759 0 0.28117924989462012 -0.36750107505443541 0 0.29221573952856239 -0.37691409734713788 0 0.29249093277553978 -0.36941965392583759 0 0.29677953628994741 -0.37328229009256159 0 0.28117924989462012 -0.36750107505443541 0 0.27413603891879751 -0.35884854252528881 0 0.26084768714352508 -0.37286806244875198 0 0.28051289523917983 -0.37793277748497922 0 0.28117924989462012 -0.36750107505443541 0 0.26084768714352508 -0.37286806244875198 0 0.27413603891879751 -0.35884854252528881 0 0.26084768714352508 -0.37286806244875198 0 0.27413603891879751 -0.35884854252528881 0 0.26245823916668087 -0.34644250257639431 0 0.27531210764948633 -0.33813009290428842 0 0.27413603891879751 -0.35884854252528881 0 0.26245823916668087 -0.34644250257639431 0 0.2482378061525041 -0.35929760238418412 0 0.27413603891879751 -0.35884854252528881 0 0.2482378061525041 -0.35929760238418412 0 0.26245823916668087 -0.34644250257639431 0 0.25041270466484622 -0.34300512130720279 0 0.2482378061525041 -0.35929760238418412 0 0.27413603891879751 -0.35884854252528881 0 0.26084768714352508 -0.37286806244875198 0 0.2482378061525041 -0.35929760238418412 0 0.26084768714352508 -0.37286806244875198 0 0.24842279325543079 -0.37396775914526681 0 0.2482378061525041 -0.35929760238418412 0 0.28309790884128549 -0.31712192356495711 0 0.27531210764948633 -0.33813009290428842 0 0.26043756486876851 -0.32892812199754778 0 0.28309790884128549 -0.31712192356495711 0 0.26043756486876851 -0.32892812199754778 0 0.26159578616439683 -0.30369375052491221 0 0.26245823916668087 -0.34644250257639431 0 0.27531210764948633 -0.33813009290428842 0 0.26043756486876851 -0.32892812199754778 0 0.26245823916668087 -0.34644250257639431 0 0.26043756486876851 -0.32892812199754778 0 0.25041270466484622 -0.34300512130720279 0 0.26043756486876851 -0.32892812199754778 0 0.25041270466484622 -0.34300512130720279 0 0.23975626206512399 -0.33060637904071288 0 0.26043756486876851 -0.32892812199754778 0 0.26159578616439683 -0.30369375052491221 0 0.24523551865201021 -0.31441032332385888 0 0.28309790884128549 -0.31712192356495711 0 0.26159578616439683 -0.30369375052491221 0 0.28142782901522873 -0.28584218677032902 0 0.26159578616439683 -0.30369375052491221 0 0.2560132557158058 -0.28099947785389928 0 0.24123181443903341 -0.29554239328942228 0 0.26159578616439683 -0.30369375052491221 0 0.28142782901522873 -0.28584218677032902 0 0.2560132557158058 -0.28099947785389928 0 0.28309790884128549 -0.31712192356495711 0 0.28142782901522873 -0.28584218677032902 0 0.30346717528183142 -0.30063258145430122 0 0.28142782901522873 -0.28584218677032902 0 0.30346717528183142 -0.30063258145430122 0 0.29704169670833452 -0.27048659740379533 0 0.28142782901522873 -0.28584218677032902 0 0.30346717528183142 -0.30063258145430122 0 0.31906930309781922 -0.27527763233314539 0 0.30346717528183142 -0.30063258145430122 0 0.29704169670833452 -0.27048659740379533 0 0.32550652154843412 -0.31542297613827341 0 0.30487935252083598 -0.32039670007178672 0 0.30346717528183142 -0.30063258145430122 0 0.28886667570605501 -0.24790102732276209 0 0.31116260676228258 -0.25520978919645698 0 0.29704169670833452 -0.27048659740379533 0 0.31906930309781922 -0.27527763233314539 0 0.31116260676228258 -0.25520978919645698 0 0.29704169670833452 -0.27048659740379533 0 0.28142782901522873 -0.28584218677032902 0 0.29704169670833452 -0.27048659740379533 0 0.27240628394206667 -0.26305032971744569 0 0.28886667570605501 -0.24790102732276209 0 0.29704169670833452 -0.27048659740379533 0 0.27240628394206667 -0.26305032971744569 0 0.28142782901522873 -0.28584218677032902 0 0.27240628394206667 -0.26305032971744569 0 0.2560132557158058 -0.28099947785389928 0 0.27240628394206667 -0.26305032971744569 0 0.2560132557158058 -0.28099947785389928 0 0.24822639080064951 -0.25902667576912952 0 0.26253277242697598 -0.23652457324002391 0 0.27240628394206667 -0.26305032971744569 0 0.24822639080064951 -0.25902667576912952 0 0.2560132557158058 -0.28099947785389928 0 0.24822639080064951 -0.25902667576912952 0 0.23237158725208931 -0.27899916220500098 0 0.23237158725208931 -0.27899916220500098 0 0.21832928801110291 -0.26420276656682568 0 0.2124257277773885 -0.27776980583527461 0 0.24822639080064951 -0.25902667576912952 0 0.23237158725208931 -0.27899916220500098 0 0.21832928801110291 -0.26420276656682568 0 0.24822639080064951 -0.25902667576912952 0 0.21832928801110291 -0.26420276656682568 0 0.22416385264063279 -0.24714339016050391 0 0.21832928801110291 -0.26420276656682568 0 0.22416385264063279 -0.24714339016050391 0 0.20415350105738531 -0.24765143162995981 0 0.21832928801110291 -0.26420276656682568 0 0.1972688013004569 -0.26575360634737422 0 0.20415350105738531 -0.24765143162995981 0 0.21832928801110291 -0.26420276656682568 0 0.2124257277773885 -0.27776980583527461 0 0.1972688013004569 -0.26575360634737422 0 0.2124257277773885 -0.27776980583527461 0 0.1972688013004569 -0.26575360634737422 0 0.19454323686045161 -0.2853761476674711 0 0.1972688013004569 -0.26575360634737422 0 0.20415350105738531 -0.24765143162995981 0 0.1844852906525315 -0.24906604282928491 0 0.2028089127681737 -0.30690837564354162 0 0.1917951857258606 -0.31548157703836249 0 0.1870076674477591 -0.30415884183313918 0 0.2028089127681737 -0.30690837564354162 0 0.19454323686045161 -0.2853761476674711 0 0.1870076674477591 -0.30415884183313918 0 0.2028089127681737 -0.30690837564354162 0 0.19454323686045161 -0.2853761476674711 0 0.21961572546284169 -0.29451734638970101 0 0.19454323686045161 -0.2853761476674711 0 0.21961572546284169 -0.29451734638970101 0 0.2124257277773885 -0.27776980583527461 0 0.19454323686045161 -0.2853761476674711 0 0.21961572546284169 -0.29451734638970101 0 0.2028089127681737 -0.30690837564354162 0 0.21961572546284169 -0.29451734638970101 0 0.22508843486110211 -0.31563510009029239 0 0.24123181443903341 -0.29554239328942228 0 0.22508843486110211 -0.31563510009029239 0 0.21961572546284169 -0.29451734638970101 0 0.24123181443903341 -0.29554239328942228 0 0.22508843486110211 -0.31563510009029239 0 0.23237158725208931 -0.27899916220500098 0 0.21961572546284169 -0.29451734638970101 0 0.24123181443903341 -0.29554239328942228 0 0.23237158725208931 -0.27899916220500098 0 0.2124257277773885 -0.27776980583527461 0 0.21961572546284169 -0.29451734638970101 0 0.2560132557158058 -0.28099947785389928 0 0.23237158725208931 -0.27899916220500098 0 0.24123181443903341 -0.29554239328942228 0 0.24123181443903341 -0.29554239328942228 0 0.24523551865201021 -0.31441032332385888 0 0.22508843486110211 -0.31563510009029239 0 0.26159578616439683 -0.30369375052491221 0 0.24123181443903341 -0.29554239328942228 0 0.24523551865201021 -0.31441032332385888 0 0.24523551865201021 -0.31441032332385888 0 0.23975626206512399 -0.33060637904071288 0 0.22508843486110211 -0.31563510009029239 0 0.26043756486876851 -0.32892812199754778 0 0.24523551865201021 -0.31441032332385888 0 0.23975626206512399 -0.33060637904071288 0 0.25041270466484622 -0.34300512130720279 0 0.23989221908628799 -0.34141259577088789 0 0.23975626206512399 -0.33060637904071288 0 0.23989221908628799 -0.34141259577088789 0 0.23975626206512399 -0.33060637904071288 0 0.23009854403255081 -0.34262830244581732 0 0.2242726708858814 -0.33334666687087089 0 0.22508843486110211 -0.31563510009029239 0 0.20894505528317081 -0.33572780689116238 0 0.23975626206512399 -0.33060637904071288 0 0.23009854403255081 -0.34262830244581732 0 0.2242726708858814 -0.33334666687087089 0 0.23009854403255081 -0.34262830244581732 0 0.2242726708858814 -0.33334666687087089 0 0.21844304222935579 -0.346227641684 0 0.23975626206512399 -0.33060637904071288 0 0.2242726708858814 -0.33334666687087089 0 0.22508843486110211 -0.31563510009029239 0 0.23640941558487971 -0.37131708804769109 0 0.2482378061525041 -0.35929760238418412 0 0.23681155696059461 -0.35135759732171279 0 0.23640941558487971 -0.37131708804769109 0 0.23681155696059461 -0.35135759732171279 0 0.23640941558487971 -0.37131708804769109 0 0.24842279325543079 -0.37396775914526681 0 0.2482378061525041 -0.35929760238418412 0 0.25041270466484622 -0.34300512130720279 0 0.2482378061525041 -0.35929760238418412 0 0.23681155696059461 -0.35135759732171279 0 0.25041270466484622 -0.34300512130720279 0 0.23989221908628799 -0.34141259577088789 0 0.23681155696059461 -0.35135759732171279 0 0.23989221908628799 -0.34141259577088789 0 0.23009854403255081 -0.34262830244581732 0 0.23681155696059461 -0.35135759732171279 0 0.23009854403255081 -0.34262830244581732 0 0.23681155696059461 -0.35135759732171279 0 0.22742622890711719 -0.35877236486584591 0 0.23009854403255081 -0.34262830244581732 0 0.22742622890711719 -0.35877236486584591 0 0.21844304222935579 -0.346227641684 0 0.22742622890711719 -0.35877236486584591 0 0.21664002510210981 -0.3574010117572789 0 0.21844304222935579 -0.346227641684 0 0.22742622890711719 -0.35877236486584591 0 0.21844304222935579 -0.346227641684 0 0.23640941558487971 -0.37131708804769109 0 0.23681155696059461 -0.35135759732171279 0 0.22742622890711719 -0.35877236486584591 0 0.23640941558487971 -0.37131708804769109 0 0.22742622890711719 -0.35877236486584591 0 0.2203741311640571 -0.37046061497377419 0 0.23640941558487971 -0.37131708804769109 0 0.22742622890711719 -0.35877236486584591 0 0.22742622890711719 -0.35877236486584591 0 0.2203741311640571 -0.37046061497377419 0 0.21664002510210981 -0.3574010117572789 0 0.20666064898414069 -0.36352096135625722 0 0.19383993220812751 -0.36990380217594782 0 0.20977471384684471 -0.37640108130586508 0 0.2203741311640571 -0.37046061497377419 0 0.20666064898414069 -0.36352096135625722 0 0.20977471384684471 -0.37640108130586508 0 0.2203741311640571 -0.37046061497377419 0 0.20666064898414069 -0.36352096135625722 0 0.21664002510210981 -0.3574010117572789 0 0.20869808946080329 -0.35173958707614622 0 0.21844304222935579 -0.346227641684 0 0.20894505528317081 -0.33572780689116238 0 0.20869808946080329 -0.35173958707614622 0 0.1928016757052394 -0.35582051369203249 0 0.20894505528317081 -0.33572780689116238 0 0.20666064898414069 -0.36352096135625722 0 0.20869808946080329 -0.35173958707614622 0 0.21664002510210981 -0.3574010117572789 0 0.20869808946080329 -0.35173958707614622 0 0.21664002510210981 -0.3574010117572789 0 0.21844304222935579 -0.346227641684 0 0.20666064898414069 -0.36352096135625722 0 0.20869808946080329 -0.35173958707614622 0 0.1928016757052394 -0.35582051369203249 0 0.1928016757052394 -0.35582051369203249 0 0.20894505528317081 -0.33572780689116238 0 0.1922647667144953 -0.34161145648478569 0 0.1928016757052394 -0.35582051369203249 0 0.19383993220812751 -0.36990380217594782 0 0.17733954140005659 -0.34512730519882562 0 0.1928016757052394 -0.35582051369203249 0 0.20894505528317081 -0.33572780689116238 0 0.20666064898414069 -0.36352096135625722 0 0.1928016757052394 -0.35582051369203249 0 0.19383993220812751 -0.36990380217594782 0 0.22508843486110211 -0.31563510009029239 0 0.20894505528317081 -0.33572780689116238 0 0.2031069675853569 -0.32102765390589411 0 0.2028089127681737 -0.30690837564354162 0 0.22508843486110211 -0.31563510009029239 0 0.2031069675853569 -0.32102765390589411 0 0.22508843486110211 -0.31563510009029239 0 0.20894505528317081 -0.33572780689116238 0 0.2242726708858814 -0.33334666687087089 0 0.21844304222935579 -0.346227641684 0 0.20894505528317081 -0.33572780689116238 0 0.20894505528317081 -0.33572780689116238 0 0.18997279446951459 -0.32977020015712272 0 0.2031069675853569 -0.32102765390589411 0 0.20894505528317081 -0.33572780689116238 0 0.1922647667144953 -0.34161145648478569 0 0.18997279446951459 -0.32977020015712272 0 0.18997279446951459 -0.32977020015712272 0 0.2031069675853569 -0.32102765390589411 0 0.1917951857258606 -0.31548157703836249 0 0.2028089127681737 -0.30690837564354162 0 0.2031069675853569 -0.32102765390589411 0 0.1917951857258606 -0.31548157703836249 0 0.18997279446951459 -0.32977020015712272 0 0.1917951857258606 -0.31548157703836249 0 0.1760795863584986 -0.31554281365211517 0 0.18997279446951459 -0.32977020015712272 0 0.1760795863584986 -0.31554281365211517 0 0.17733954140005659 -0.34512730519882562 0 0.1922647667144953 -0.34161145648478569 0 0.18997279446951459 -0.32977020015712272 0 0.17733954140005659 -0.34512730519882562 0 0.16083915059198581 -0.32035080822170348 0 0.17733954140005659 -0.34512730519882562 0 0.15881899748219769 -0.33938988547688109 0 0.16083915059198581 -0.32035080822170348 0 0.17733954140005659 -0.34512730519882562 0 0.1760795863584986 -0.31554281365211517 0 0.16083915059198581 -0.32035080822170348 0 0.14860046722488171 -0.30670247048434118 0 0.1760795863584986 -0.31554281365211517 0 0.16083915059198581 -0.32035080822170348 0 0.17733954140005659 -0.34512730519882562 0 0.19383993220812751 -0.36990380217594782 0 0.17421872193789259 -0.36508830254489932 0 0.17733954140005659 -0.34512730519882562 0 0.17421872193789259 -0.36508830254489932 0 0.1824232098972863 -0.37404032922430691 0 0.1773093523695819 -0.38505399643968052 0 0.19383993220812751 -0.36990380217594782 0 0.17421872193789259 -0.36508830254489932 0 0.1824232098972863 -0.37404032922430691 0 0.19383993220812751 -0.36990380217594782 0 0.17733954140005659 -0.34512730519882562 0 0.1928016757052394 -0.35582051369203249 0 0.1922647667144953 -0.34161145648478569 0 0.17733954140005659 -0.34512730519882562 0 0.15881899748219769 -0.33938988547688109 0 0.17733954140005659 -0.34512730519882562 0 0.16026334792218419 -0.35666879759702541 0 0.17421872193789259 -0.36508830254489932 0 0.17733954140005659 -0.34512730519882562 0 0.16026334792218419 -0.35666879759702541 0 0.17421872193789259 -0.36508830254489932 0 0.16026334792218419 -0.35666879759702541 0 0.1588088041095771 -0.37754047112377159 0 0.16026334792218419 -0.35666879759702541 0 0.14651911112371699 -0.36504546374083541 0 0.1588088041095771 -0.37754047112377159 0 0.14651911112371699 -0.36504546374083541 0 0.14587491147966461 -0.34782135749693999 0 0.13053505761830031 -0.3611388042573625 0 0.15881899748219769 -0.33938988547688109 0 0.16026334792218419 -0.35666879759702541 0 0.14587491147966461 -0.34782135749693999 0 0.16026334792218419 -0.35666879759702541 0 0.14651911112371699 -0.36504546374083541 0 0.14587491147966461 -0.34782135749693999 0 0.14587491147966461 -0.34782135749693999 0 0.13053505761830031 -0.3611388042573625 0 0.12739182036291541 -0.3393093175555103 0 0.13053505761830031 -0.3611388042573625 0 0.12739182036291541 -0.3393093175555103 0 0.1180482941468379 -0.35379761702933921 0 0.14651911112371699 -0.36504546374083541 0 0.13053505761830031 -0.3611388042573625 0 0.13604401268595689 -0.38347614770530741 0 0.13053505761830031 -0.3611388042573625 0 0.13604401268595689 -0.38347614770530741 0 0.1095676493250143 -0.37262071837569999 0 0.14615032626334401 -0.3188080475135151 0 0.13044263649690241 -0.31800188151664283 0 0.14860046722488171 -0.30670247048434118 0 0.16083915059198581 -0.32035080822170348 0 0.14615032626334401 -0.3188080475135151 0 0.14471905073960581 -0.33017702983137281 0 0.16083915059198581 -0.32035080822170348 0 0.14615032626334401 -0.3188080475135151 0 0.14860046722488171 -0.30670247048434118 0 0.15881899748219769 -0.33938988547688109 0 0.16083915059198581 -0.32035080822170348 0 0.14471905073960581 -0.33017702983137281 0 0.15881899748219769 -0.33938988547688109 0 0.14587491147966461 -0.34782135749693999 0 0.14471905073960581 -0.33017702983137281 0 0.14587491147966461 -0.34782135749693999 0 0.14471905073960581 -0.33017702983137281 0 0.12739182036291541 -0.3393093175555103 0 0.14471905073960581 -0.33017702983137281 0 0.12739182036291541 -0.3393093175555103 0 0.13044263649690241 -0.31800188151664283 0 0.14615032626334401 -0.3188080475135151 0 0.14471905073960581 -0.33017702983137281 0 0.13044263649690241 -0.31800188151664283 0 0.13044263649690241 -0.31800188151664283 0 0.14860046722488171 -0.30670247048434118 0 0.1211213480912648 -0.29786212731656708 0 0.14860046722488171 -0.30670247048434118 0 0.1211213480912648 -0.29786212731656708 0 0.14860046722488171 -0.30670247048434118 0 0.1371947156539374 -0.29523768237882841 0 0.1211213480912648 -0.29786212731656708 0 0.14860046722488171 -0.30670247048434118 0 0.15302505087452889 -0.29422277520106499 0 0.1371947156539374 -0.29523768237882841 0 0.14860046722488171 -0.30670247048434118 0 0.15302505087452889 -0.29422277520106499 0 0.16264801629118941 -0.30308453619818448 0 0.1371947156539374 -0.29523768237882841 0 0.12670454144172449 -0.2808782289544734 0 0.1211213480912648 -0.29786212731656708 0 0.15302505087452889 -0.29422277520106499 0 0.12670454144172449 -0.2808782289544734 0 0.15302505087452889 -0.29422277520106499 0 0.1371947156539374 -0.29523768237882841 0 0.12670454144172449 -0.2808782289544734 0 0.12670454144172449 -0.2808782289544734 0 0.14439825965567141 -0.26709375022301141 0 0.1211469805498851 -0.26613371668915642 0 0.1265600254658609 -0.25575995917907818 0 0.14439825965567141 -0.26709375022301141 0 0.1386845243971537 -0.2497673514512139 0 0.1265600254658609 -0.25575995917907818 0 0.14439825965567141 -0.26709375022301141 0 0.1211469805498851 -0.26613371668915642 0 0.14439825965567141 -0.26709375022301141 0 0.16005888902464069 -0.2483339599913372 0 0.1386845243971537 -0.2497673514512139 0 0.15302505087452889 -0.29422277520106499 0 0.12670454144172449 -0.2808782289544734 0 0.14439825965567141 -0.26709375022301141 0 0.15302505087452889 -0.29422277520106499 0 0.14439825965567141 -0.26709375022301141 0 0.16947074825806141 -0.2762349489452412 0 0.14439825965567141 -0.26709375022301141 0 0.16947074825806141 -0.2762349489452412 0 0.16947074825806141 -0.2762349489452412 0 0.1844852906525315 -0.24906604282928491 0 0.16005888902464069 -0.2483339599913372 0 0.14439825965567141 -0.26709375022301141 0 0.16947074825806141 -0.2762349489452412 0 0.16005888902464069 -0.2483339599913372 0 0.1972688013004569 -0.26575360634737422 0 0.16947074825806141 -0.2762349489452412 0 0.1844852906525315 -0.24906604282928491 0 0.19454323686045161 -0.2853761476674711 0 0.16947074825806141 -0.2762349489452412 0 0.1972688013004569 -0.26575360634737422 0 0.19454323686045161 -0.2853761476674711 0 0.16947074825806141 -0.2762349489452412 0 0.19454323686045161 -0.2853761476674711 0 0.17288696070684831 -0.2958700854552167 0 0.1870076674477591 -0.30415884183313918 0 0.19454323686045161 -0.2853761476674711 0 0.16947074825806141 -0.2762349489452412 0 0.17288696070684831 -0.2958700854552167 0 0.1760795863584986 -0.31554281365211517 0 0.17288696070684831 -0.2958700854552167 0 0.1870076674477591 -0.30415884183313918 0 0.1917951857258606 -0.31548157703836249 0 0.1760795863584986 -0.31554281365211517 0 0.1870076674477591 -0.30415884183313918 0 0.1760795863584986 -0.31554281365211517 0 0.17288696070684831 -0.2958700854552167 0 0.16264801629118941 -0.30308453619818448 0 0.15302505087452889 -0.29422277520106499 0 0.17288696070684831 -0.2958700854552167 0 0.16264801629118941 -0.30308453619818448 0 0.1760795863584986 -0.31554281365211517 0 0.14860046722488171 -0.30670247048434118 0 0.16264801629118941 -0.30308453619818448 0 0.1760795863584986 -0.31554281365211517 0 0.14860046722488171 -0.30670247048434118 0 0.15302505087452889 -0.29422277520106499 0 0.16947074825806141 -0.2762349489452412 0 0.17288696070684831 -0.2958700854552167 0 0.1895024807051876 -0.49211600289751228 0 0.21369021087055559 -0.48838922096523862 0 0.1895024807051876 -0.49211600289751228 0 0.2058459898379498 -0.49894815536719189 0 0.1843308079312018 -0.49999999999999978 0 0.2058459898379498 -0.49894815536719189 0 0.21205416648602651 -0.5 0 0.1843308079312018 -0.49999999999999978 0 0.1895024807051876 -0.49211600289751228 0 0.2058459898379498 -0.49894815536719189 0 0.21369021087055559 -0.48838922096523862 0 0.1895024807051876 -0.49211600289751228 0 0.20092388063683669 -0.48220304925636132 0 0.21369021087055559 -0.48838922096523862 0 0.1895024807051876 -0.49211600289751228 0 0.18865363289629419 -0.47548057764425727 0 0.20092388063683669 -0.48220304925636132 0 0.18865363289629419 -0.47548057764425727 0 0.20697453136391089 -0.46959553093941953 0 0.2118491980753093 -0.47282639551843758 0 0.18865363289629419 -0.47548057764425727 0 0.20092388063683669 -0.48220304925636132 0 0.2118491980753093 -0.47282639551843758 0 0.18865363289629419 -0.47548057764425727 0 0.2118491980753093 -0.47282639551843758 0 0.18865363289629419 -0.47548057764425727 0 0.20697453136391089 -0.46959553093941953 0 0.19964262426377671 -0.46536960514059161 0 0.20092388063683669 -0.48220304925636132 0 0.2118491980753093 -0.47282639551843758 0 0.21369021087055559 -0.48838922096523862 0 0.2118491980753093 -0.47282639551843758 0 0.21369021087055559 -0.48838922096523862 0 0.22461552830902831 -0.47901256722731489 0 0.2058459898379498 -0.49894815536719189 0 0.21205416648602651 -0.5 0 0.23532761845034461 -0.49475353705879271 0 0.2058459898379498 -0.49894815536719189 0 0.21369021087055559 -0.48838922096523862 0 0.23532761845034461 -0.49475353705879271 0 0.21369021087055559 -0.48838922096523862 0 0.23532761845034461 -0.49475353705879271 0 0.23787794103592361 -0.48466243903296491 0 0.21205416648602651 -0.5 0 0.23977752504085109 -0.5 0 0.23532761845034461 -0.49475353705879271 0 0.2058459898379498 -0.49894815536719189 0 0.23532761845034461 -0.49475353705879271 0 0.21369021087055559 -0.48838922096523862 0 0.23787794103592361 -0.48466243903296491 0 0.26480924706273951 -0.4905589187503937 0 0.23532761845034461 -0.49475353705879271 0 0.23787794103592361 -0.48466243903296491 0 0.26480924706273951 -0.4905589187503937 0 0.23977752504085109 -0.5 0 0.23532761845034461 -0.49475353705879271 0 0.25824032843333983 -0.46751803126679969 0 0.24830717598121979 -0.47582208519826868 0 0.23504476325432461 -0.47017221339261878 0 0.26206567120129171 -0.48093565710069108 0 0.23787794103592361 -0.48466243903296491 0 0.24830717598121979 -0.47582208519826868 0 0.25824032843333983 -0.46751803126679969 0 0.23504476325432461 -0.47017221339261878 0 0.26206567120129171 -0.48093565710069108 0 0.23787794103592361 -0.48466243903296491 0 0.23787794103592361 -0.48466243903296491 0 0.24830717598121979 -0.47582208519826868 0 0.23504476325432461 -0.47017221339261878 0 0.21369021087055559 -0.48838922096523862 0 0.23787794103592361 -0.48466243903296491 0 0.22461552830902831 -0.47901256722731489 0 0.2118491980753093 -0.47282639551843758 0 0.23504476325432461 -0.47017221339261878 0 0.22461552830902831 -0.47901256722731489 0 0.2118491980753093 -0.47282639551843758 0 0.23504476325432461 -0.47017221339261878 0 0.23787794103592361 -0.48466243903296491 0 0.23504476325432461 -0.47017221339261878 0 0.22461552830902831 -0.47901256722731489 0 0.2118491980753093 -0.47282639551843758 0 0.23504476325432461 -0.47017221339261878 0 0.21980168110011311 -0.4585053722873666 0 0.21980168110011311 -0.4585053722873666 0 0.23255567148510531 -0.45835815960688081 0 0.23262883083631511 -0.4474152136353135 0 0.23504476325432461 -0.47017221339261878 0 0.21980168110011311 -0.4585053722873666 0 0.23255567148510531 -0.45835815960688081 0 0.25824032843333983 -0.46751803126679969 0 0.23504476325432461 -0.47017221339261878 0 0.24274741074966841 -0.45733983911222448 0 0.23504476325432461 -0.47017221339261878 0 0.23255567148510531 -0.45835815960688081 0 0.24274741074966841 -0.45733983911222448 0 0.23255567148510531 -0.45835815960688081 0 0.24274741074966841 -0.45733983911222448 0 0.23262883083631511 -0.4474152136353135 0 0.25102920449059068 -0.44222456901388479 0 0.24329021789568031 -0.43819754046778198 0 0.23262883083631511 -0.4474152136353135 0 0.25102920449059068 -0.44222456901388479 0 0.23262883083631511 -0.4474152136353135 0 0.25102920449059068 -0.44222456901388479 0 0.24274741074966841 -0.45733983911222448 0 0.23262883083631511 -0.4474152136353135 0 0.24329021789568031 -0.43819754046778198 0 0.2349818180578252 -0.44217306388742611 0 0.23262883083631511 -0.4474152136353135 0 0.24329021789568031 -0.43819754046778198 0 0.23262883083631511 -0.4474152136353135 0 0.2349818180578252 -0.44217306388742611 0 0.22688507127149979 -0.43998126692899447 0 0.23132651709347199 -0.43494104315193483 0 0.23262883083631511 -0.4474152136353135 0 0.2199813248404919 -0.44346206345123368 0 0.21432183153356971 -0.45257951786362471 0 0.2349818180578252 -0.44217306388742611 0 0.22688507127149979 -0.43998126692899447 0 0.23262883083631511 -0.4474152136353135 0 0.21980168110011311 -0.4585053722873666 0 0.23262883083631511 -0.4474152136353135 0 0.21432183153356971 -0.45257951786362471 0 0.23262883083631511 -0.4474152136353135 0 0.21432183153356971 -0.45257951786362471 0 0.21980168110011311 -0.4585053722873666 0 0.23262883083631511 -0.4474152136353135 0 0.22688507127149979 -0.43998126692899447 0 0.23262883083631511 -0.4474152136353135 0 0.2199813248404919 -0.44346206345123368 0 0.22688507127149979 -0.43998126692899447 0 0.2199813248404919 -0.44346206345123368 0 0.21854260991476029 -0.43524763519678772 0 0.21432183153356971 -0.45257951786362471 0 0.19601483223082439 -0.4577438220919362 0 0.20162075937727411 -0.4483954552380186 0 0.2199813248404919 -0.44346206345123368 0 0.20994257071562461 -0.44081112451503268 0 0.21854260991476029 -0.43524763519678772 0 0.20994257071562461 -0.44081112451503268 0 0.21432183153356971 -0.45257951786362471 0 0.20162075937727411 -0.4483954552380186 0 0.2199813248404919 -0.44346206345123368 0 0.20994257071562461 -0.44081112451503268 0 0.21432183153356971 -0.45257951786362471 0 0.21980168110011311 -0.4585053722873666 0 0.21432183153356971 -0.45257951786362471 0 0.2131356400106604 -0.45827727423244241 0 0.21980168110011311 -0.4585053722873666 0 0.2131356400106604 -0.45827727423244241 0 0.20968786496042879 -0.46238088142660733 0 0.21432183153356971 -0.45257951786362471 0 0.20375577467787279 -0.45984542809751461 0 0.19601483223082439 -0.4577438220919362 0 0.21432183153356971 -0.45257951786362471 0 0.19601483223082439 -0.4577438220919362 0 0.21432183153356971 -0.45257951786362471 0 0.2131356400106604 -0.45827727423244241 0 0.20873118244853031 -0.45964332535217117 0 0.20697453136391089 -0.46959553093941953 0 0.2118491980753093 -0.47282639551843758 0 0.21980168110011311 -0.4585053722873666 0 0.20697453136391089 -0.46959553093941953 0 0.21980168110011311 -0.4585053722873666 0 0.20697453136391089 -0.46959553093941953 0 0.21980168110011311 -0.4585053722873666 0 0.20968786496042879 -0.46238088142660733 0 0.20697453136391089 -0.46959553093941953 0 0.20968786496042879 -0.46238088142660733 0 0.20566136787485251 -0.46390940788717228 0 0.20968786496042879 -0.46238088142660733 0 0.20566136787485251 -0.46390940788717228 0 0.20873118244853031 -0.45964332535217117 0 0.20566136787485251 -0.46390940788717228 0 0.20873118244853031 -0.45964332535217117 0 0.20375577467787279 -0.45984542809751461 0 0.20697453136391089 -0.46959553093941953 0 0.20566136787485251 -0.46390940788717228 0 0.19964262426377671 -0.46536960514059161 0 0.21432183153356971 -0.45257951786362471 0 0.20873118244853031 -0.45964332535217117 0 0.20375577467787279 -0.45984542809751461 0 0.2131356400106604 -0.45827727423244241 0 0.20968786496042879 -0.46238088142660733 0 0.20873118244853031 -0.45964332535217117 0 0.19601483223082439 -0.4577438220919362 0 0.19214222559797209 -0.45569298999724528 0 0.20162075937727411 -0.4483954552380186 0 0.18865363289629419 -0.47548057764425727 0 0.19214222559797209 -0.45569298999724528 0 0.18865363289629419 -0.47548057764425727 0 0.19214222559797209 -0.45569298999724528 0 0.18392364625904439 -0.4618198513116904 0 0.18865363289629419 -0.47548057764425727 0 0.19601483223082439 -0.4577438220919362 0 0.19964262426377671 -0.46536960514059161 0 0.18865363289629419 -0.47548057764425727 0 0.19601483223082439 -0.4577438220919362 0 0.19214222559797209 -0.45569298999724528 0 0.20375577467787279 -0.45984542809751461 0 0.19601483223082439 -0.4577438220919362 0 0.19964262426377671 -0.46536960514059161 0 0.20566136787485251 -0.46390940788717228 0 0.20375577467787279 -0.45984542809751461 0 0.19964262426377671 -0.46536960514059161 0 0.19214222559797209 -0.45569298999724528 0 0.19563081829964679 -0.43590540235023267 0 0.19214222559797209 -0.45569298999724528 0 0.20162075937727411 -0.4483954552380186 0 0.19563081829964679 -0.43590540235023267 0 0.19214222559797209 -0.45569298999724528 0 0.19563081829964679 -0.43590540235023267 0 0.1851994960191084 -0.44407616030080282 0 0.19563081829964679 -0.43590540235023267 0 0.18210774281783201 -0.433425102544027 0 0.1851994960191084 -0.44407616030080282 0 0.20994257071562461 -0.44081112451503268 0 0.20162075937727411 -0.4483954552380186 0 0.19563081829964679 -0.43590540235023267 0 0.19563081829964679 -0.43590540235023267 0 0.20202618850408291 -0.4159008516727159 0 0.21041130239999031 -0.42872699132326331 0 0.19563081829964679 -0.43590540235023267 0 0.20202618850408291 -0.4159008516727159 0 0.18631802550287579 -0.41968578833387338 0 0.19563081829964679 -0.43590540235023267 0 0.18631802550287579 -0.41968578833387338 0 0.18210774281783201 -0.433425102544027 0 0.20202618850408291 -0.4159008516727159 0 0.1905542477324734 -0.40095564739681389 0 0.18631802550287579 -0.41968578833387338 0 0.20202618850408291 -0.4159008516727159 0 0.21418182210639711 -0.41730192569184799 0 0.21041130239999031 -0.42872699132326331 0 0.20202618850408291 -0.4159008516727159 0 0.21418182210639711 -0.41730192569184799 0 0.2103403230161984 -0.39468029915307001 0 0.22684071382426929 -0.41945679613019221 0 0.2103403230161984 -0.39468029915307001 0 0.21418182210639711 -0.41730192569184799 0 0.22684071382426929 -0.41945679613019221 0 0.2103403230161984 -0.39468029915307001 0 0.21418182210639711 -0.41730192569184799 0 0.21041130239999031 -0.42872699132326331 0 0.2221438048594303 -0.42719500851296338 0 0.20994257071562461 -0.44081112451503268 0 0.19563081829964679 -0.43590540235023267 0 0.21041130239999031 -0.42872699132326331 0 0.21041130239999031 -0.42872699132326331 0 0.21854260991476029 -0.43524763519678772 0 0.2221438048594303 -0.42719500851296338 0 0.20994257071562461 -0.44081112451503268 0 0.21041130239999031 -0.42872699132326331 0 0.21854260991476029 -0.43524763519678772 0 0.21854260991476029 -0.43524763519678772 0 0.2244166275868435 -0.4336913445437563 0 0.2221438048594303 -0.42719500851296338 0 0.22688507127149979 -0.43998126692899447 0 0.21854260991476029 -0.43524763519678772 0 0.2244166275868435 -0.4336913445437563 0 0.2349818180578252 -0.44217306388742611 0 0.23132651709347199 -0.43494104315193483 0 0.23545768390017721 -0.41855440527418108 0 0.2295341192329195 -0.42564346132623349 0 0.23132651709347199 -0.43494104315193483 0 0.23545768390017721 -0.41855440527418108 0 0.2244166275868435 -0.4336913445437563 0 0.2221438048594303 -0.42719500851296338 0 0.2275359366396805 -0.43050015588259749 0 0.2221438048594303 -0.42719500851296338 0 0.2295341192329195 -0.42564346132623349 0 0.2275359366396805 -0.43050015588259749 0 0.2221438048594303 -0.42719500851296338 0 0.2295341192329195 -0.42564346132623349 0 0.22684071382426929 -0.41945679613019221 0 0.2295341192329195 -0.42564346132623349 0 0.2275359366396805 -0.43050015588259749 0 0.23132651709347199 -0.43494104315193483 0 0.22688507127149979 -0.43998126692899447 0 0.2244166275868435 -0.4336913445437563 0 0.23132651709347199 -0.43494104315193483 0 0.2244166275868435 -0.4336913445437563 0 0.2275359366396805 -0.43050015588259749 0 0.23132651709347199 -0.43494104315193483 0 0.24329021789568031 -0.43819754046778198 0 0.2349818180578252 -0.44217306388742611 0 0.24271766142780521 -0.42696502331274078 0 0.2349818180578252 -0.44217306388742611 0 0.23545768390017721 -0.41855440527418108 0 0.2349818180578252 -0.44217306388742611 0 0.24271766142780521 -0.42696502331274078 0 0.23545768390017721 -0.41855440527418108 0 0.25461036409595073 -0.42543280413966672 0 0.24329021789568031 -0.43819754046778198 0 0.24771162834454169 -0.42522020283389139 0 0.24271766142780521 -0.42696502331274078 0 0.24771162834454169 -0.42522020283389139 0 0.24529057633248821 -0.41719125275567348 0 0.25062434725315252 -0.43185656372534281 0 0.25461036409595073 -0.42543280413966672 0 0.24329021789568031 -0.43819754046778198 0 0.24329021789568031 -0.43819754046778198 0 0.24271766142780521 -0.42696502331274078 0 0.24771162834454169 -0.42522020283389139 0 0.25062434725315252 -0.43185656372534281 0 0.25102920449059068 -0.44222456901388479 0 0.24329021789568031 -0.43819754046778198 0 0.25461036409595073 -0.42543280413966672 0 0.24329021789568031 -0.43819754046778198 0 0.25062434725315252 -0.43185656372534281 0 0.24329021789568031 -0.43819754046778198 0 0.23545768390017721 -0.41855440527418108 0 0.24126970842266271 -0.40798352465312232 0 0.2359335497425292 -0.39493574666093612 0 0.23545768390017721 -0.41855440527418108 0 0.2359335497425292 -0.39493574666093612 0 0.24635520515690479 -0.40805365165468149 0 0.24529057633248821 -0.41719125275567348 0 0.24126970842266271 -0.40798352465312232 0 0.254241536280572 -0.41322500987920252 0 0.24635520515690479 -0.40805365165468149 0 0.24529057633248821 -0.41719125275567348 0 0.2507646469428147 -0.42011770442954421 0 0.24771162834454169 -0.42522020283389139 0 0.24529057633248821 -0.41719125275567348 0 0.24271766142780521 -0.42696502331274078 0 0.24529057633248821 -0.41719125275567348 0 0.23545768390017721 -0.41855440527418108 0 0.24529057633248821 -0.41719125275567348 0 0.23545768390017721 -0.41855440527418108 0 0.24126970842266271 -0.40798352465312232 0 0.23545768390017721 -0.41855440527418108 0 0.22985291804187261 -0.40662735798781069 0 0.2359335497425292 -0.39493574666093612 0 0.22985291804187261 -0.40662735798781069 0 0.22684071382426929 -0.41945679613019221 0 0.2103403230161984 -0.39468029915307001 0 0.2295341192329195 -0.42564346132623349 0 0.23545768390017721 -0.41855440527418108 0 0.22684071382426929 -0.41945679613019221 0 0.23545768390017721 -0.41855440527418108 0 0.22985291804187261 -0.40662735798781069 0 0.22684071382426929 -0.41945679613019221 0 0.21418182210639711 -0.41730192569184799 0 0.2221438048594303 -0.42719500851296338 0 0.22684071382426929 -0.41945679613019221 0 0.22985291804187261 -0.40662735798781069 0 0.2241063302717585 -0.39288800011087222 0 0.2103403230161984 -0.39468029915307001 0 0.22985291804187261 -0.40662735798781069 0 0.2241063302717585 -0.39288800011087222 0 0.2359335497425292 -0.39493574666093612 0 0.24126970842266271 -0.40798352465312232 0 0.2359335497425292 -0.39493574666093612 0 0.243311526981214 -0.40118256692013898 0 0.2359335497425292 -0.39493574666093612 0 0.24205558465715329 -0.39269416727099971 0 0.243311526981214 -0.40118256692013898 0 0.2570070680359573 -0.4000810286696006 0 0.24205558465715329 -0.39269416727099971 0 0.243311526981214 -0.40118256692013898 0 0.2570070680359573 -0.4000810286696006 0 0.24205558465715329 -0.39269416727099971 0 0.24755933536825281 -0.38688758237221521 0 0.2570070680359573 -0.4000810286696006 0 0.24635520515690479 -0.40805365165468149 0 0.243311526981214 -0.40118256692013898 0 0.24635520515690479 -0.40805365165468149 0 0.24126970842266271 -0.40798352465312232 0 0.243311526981214 -0.40118256692013898 0 0.23640941558487971 -0.37131708804769109 0 0.2359335497425292 -0.39493574666093612 0 0.24205558465715329 -0.39269416727099971 0 0.23640941558487971 -0.37131708804769109 0 0.2359335497425292 -0.39493574666093612 0 0.23640941558487971 -0.37131708804769109 0 0.24205558465715329 -0.39269416727099971 0 0.24755933536825281 -0.38688758237221521 0 0.23640941558487971 -0.37131708804769109 0 0.24842279325543079 -0.37396775914526681 0 0.24755933536825281 -0.38688758237221521 0 0.24205558465715329 -0.39269416727099971 0 0.24755933536825281 -0.38688758237221521 0 0.23640941558487971 -0.37131708804769109 0 0.24755933536825281 -0.38688758237221521 0 0.23640941558487971 -0.37131708804769109 0 0.2203741311640571 -0.37046061497377419 0 0.22670832709516539 -0.38343547499037428 0 0.23640941558487971 -0.37131708804769109 0 0.2359335497425292 -0.39493574666093612 0 0.22670832709516539 -0.38343547499037428 0 0.2241063302717585 -0.39288800011087222 0 0.2359335497425292 -0.39493574666093612 0 0.22670832709516539 -0.38343547499037428 0 0.2241063302717585 -0.39288800011087222 0 0.22670832709516539 -0.38343547499037428 0 0.2176585338616997 -0.38343972887027611 0 0.2203741311640571 -0.37046061497377419 0 0.22670832709516539 -0.38343547499037428 0 0.2176585338616997 -0.38343972887027611 0 0.19383993220812751 -0.36990380217594782 0 0.20977471384684471 -0.37640108130586508 0 0.2103403230161984 -0.39468029915307001 0 0.20977471384684471 -0.37640108130586508 0 0.2176585338616997 -0.38343972887027611 0 0.2103403230161984 -0.39468029915307001 0 0.2203741311640571 -0.37046061497377419 0 0.20977471384684471 -0.37640108130586508 0 0.2176585338616997 -0.38343972887027611 0 0.2241063302717585 -0.39288800011087222 0 0.2176585338616997 -0.38343972887027611 0 0.2103403230161984 -0.39468029915307001 0 0.2103403230161984 -0.39468029915307001 0 0.1905542477324734 -0.40095564739681389 0 0.19089341304473351 -0.38492681487796387 0 0.20202618850408291 -0.4159008516727159 0 0.2103403230161984 -0.39468029915307001 0 0.1905542477324734 -0.40095564739681389 0 0.19383993220812751 -0.36990380217594782 0 0.2103403230161984 -0.39468029915307001 0 0.19089341304473351 -0.38492681487796387 0 0.19383993220812751 -0.36990380217594782 0 0.2103403230161984 -0.39468029915307001 0 0.19383993220812751 -0.36990380217594782 0 0.1824232098972863 -0.37404032922430691 0 0.19089341304473351 -0.38492681487796387 0 0.1905542477324734 -0.40095564739681389 0 0.19089341304473351 -0.38492681487796387 0 0.1773093523695819 -0.38505399643968052 0 0.1824232098972863 -0.37404032922430691 0 0.19089341304473351 -0.38492681487796387 0 0.1773093523695819 -0.38505399643968052 0 0.1905542477324734 -0.40095564739681389 0 0.1773093523695819 -0.38505399643968052 0 0.1738008530632156 -0.40703156960976777 0 0.1773093523695819 -0.38505399643968052 0 0.16577682301037289 -0.39479420637582319 0 0.1738008530632156 -0.40703156960976777 0 0.16204141257260571 -0.40392400707548481 0 0.15183313519649649 -0.39732309507877478 0 0.15675483902033779 -0.41654715723757341 0 0.16577682301037289 -0.39479420637582319 0 0.16204141257260571 -0.40392400707548481 0 0.1738008530632156 -0.40703156960976777 0 0.16577682301037289 -0.39479420637582319 0 0.16204141257260571 -0.40392400707548481 0 0.15183313519649649 -0.39732309507877478 0 0.17421872193789259 -0.36508830254489932 0 0.1773093523695819 -0.38505399643968052 0 0.1588088041095771 -0.37754047112377159 0 0.1773093523695819 -0.38505399643968052 0 0.16577682301037289 -0.39479420637582319 0 0.1588088041095771 -0.37754047112377159 0 0.16577682301037289 -0.39479420637582319 0 0.1588088041095771 -0.37754047112377159 0 0.15183313519649649 -0.39732309507877478 0 0.1588088041095771 -0.37754047112377159 0 0.13604401268595689 -0.38347614770530741 0 0.15183313519649649 -0.39732309507877478 0 0.14651911112371699 -0.36504546374083541 0 0.1588088041095771 -0.37754047112377159 0 0.13604401268595689 -0.38347614770530741 0 0.13604401268595689 -0.38347614770530741 0 0.1376677893640311 -0.39744914465913972 0 0.1226664249923597 -0.40014770133818578 0 0.1376677893640311 -0.39744914465913972 0 0.13765097140992111 -0.41011993222527171 0 0.1226664249923597 -0.40014770133818578 0 0.13604401268595689 -0.38347614770530741 0 0.1376677893640311 -0.39744914465913972 0 0.15183313519649649 -0.39732309507877478 0 0.1376677893640311 -0.39744914465913972 0 0.15183313519649649 -0.39732309507877478 0 0.13765097140992111 -0.41011993222527171 0 0.13765097140992111 -0.41011993222527171 0 0.14750468021091889 -0.42525532130861821 0 0.15675483902033779 -0.41654715723757341 0 0.15183313519649649 -0.39732309507877478 0 0.13765097140992111 -0.41011993222527171 0 0.15675483902033779 -0.41654715723757341 0 0.13765097140992111 -0.41011993222527171 0 0.13472620977138661 -0.42990273392592021 0 0.11475239821854601 -0.42320725819124572 0 0.13765097140992111 -0.41011993222527171 0 0.11475239821854601 -0.42320725819124572 0 0.13765097140992111 -0.41011993222527171 0 0.13472620977138661 -0.42990273392592021 0 0.14750468021091889 -0.42525532130861821 0 0.13472620977138661 -0.42990273392592021 0 0.15470002132422639 -0.43659820966059681 0 0.13472620977138661 -0.42990273392592021 0 0.15470002132422639 -0.43659820966059681 0 0.14720939586092349 -0.43844970876346201 0 0.13472620977138661 -0.42990273392592021 0 0.14750468021091889 -0.42525532130861821 0 0.15470002132422639 -0.43659820966059681 0 0.14750468021091889 -0.42525532130861821 0 0.1574085512625556 -0.42674496355153141 0 0.15675483902033779 -0.41654715723757341 0 0.14750468021091889 -0.42525532130861821 0 0.15470002132422639 -0.43659820966059681 0 0.1574085512625556 -0.42674496355153141 0 0.15470002132422639 -0.43659820966059681 0 0.1687233739716657 -0.42790449859440738 0 0.1574085512625556 -0.42674496355153141 0 0.15470002132422639 -0.43659820966059681 0 0.1687233739716657 -0.42790449859440738 0 0.1746738328770662 -0.44329368539527342 0 0.1687233739716657 -0.42790449859440738 0 0.1574085512625556 -0.42674496355153141 0 0.15675483902033779 -0.41654715723757341 0 0.1687233739716657 -0.42790449859440738 0 0.15675483902033779 -0.41654715723757341 0 0.1738008530632156 -0.40703156960976777 0 0.16204141257260571 -0.40392400707548481 0 0.15675483902033779 -0.41654715723757341 0 0.1738008530632156 -0.40703156960976777 0 0.1905542477324734 -0.40095564739681389 0 0.18631802550287579 -0.41968578833387338 0 0.1738008530632156 -0.40703156960976777 0 0.1687233739716657 -0.42790449859440738 0 0.18631802550287579 -0.41968578833387338 0 0.1738008530632156 -0.40703156960976777 0 0.1687233739716657 -0.42790449859440738 0 0.18631802550287579 -0.41968578833387338 0 0.18210774281783201 -0.433425102544027 0 0.1687233739716657 -0.42790449859440738 0 0.18210774281783201 -0.433425102544027 0 0.1746738328770662 -0.44329368539527342 0 0.18210774281783201 -0.433425102544027 0 0.1746738328770662 -0.44329368539527342 0 0.1851994960191084 -0.44407616030080282 0 0.19214222559797209 -0.45569298999724528 0 0.1851994960191084 -0.44407616030080282 0 0.18205723694599951 -0.45371352047465918 0 0.1746738328770662 -0.44329368539527342 0 0.1851994960191084 -0.44407616030080282 0 0.18205723694599951 -0.45371352047465918 0 0.1746738328770662 -0.44329368539527342 0 0.18205723694599951 -0.45371352047465918 0 0.17284148959591211 -0.46239231713060058 0 0.18865363289629419 -0.47548057764425727 0 0.18392364625904439 -0.4618198513116904 0 0.17284148959591211 -0.46239231713060058 0 0.19214222559797209 -0.45569298999724528 0 0.18205723694599951 -0.45371352047465918 0 0.18392364625904439 -0.4618198513116904 0 0.18205723694599951 -0.45371352047465918 0 0.18392364625904439 -0.4618198513116904 0 0.17284148959591211 -0.46239231713060058 0 0.17284148959591211 -0.46239231713060058 0 0.15452904286706109 -0.45198467339190629 0 0.1525559742019173 -0.4692431823520562 0 0.15470002132422639 -0.43659820966059681 0 0.1746738328770662 -0.44329368539527342 0 0.15470002132422639 -0.43659820966059681 0 0.1746738328770662 -0.44329368539527342 0 0.15452904286706109 -0.45198467339190629 0 0.1746738328770662 -0.44329368539527342 0 0.17284148959591211 -0.46239231713060058 0 0.15452904286706109 -0.45198467339190629 0 0.15470002132422639 -0.43659820966059681 0 0.15452904286706109 -0.45198467339190629 0 0.14720939586092349 -0.43844970876346201 0 0.15452904286706109 -0.45198467339190629 0 0.14720939586092349 -0.43844970876346201 0 0.14081674981022321 -0.45896647250897432 0 0.14720939586092349 -0.43844970876346201 0 0.14081674981022321 -0.45896647250897432 0 0.13472620977138661 -0.42990273392592021 0 0.14720939586092349 -0.43844970876346201 0 0.13380965239137951 -0.44474080835658708 0 0.14720939586092349 -0.43844970876346201 0 0.13380965239137951 -0.44474080835658708 0 0.14081674981022321 -0.45896647250897432 0 0.13380965239137951 -0.44474080835658708 0 0.12512198118755941 -0.45574894152044659 0 0.1203968852397459 -0.44333158210724349 0 0.13472620977138661 -0.42990273392592021 0 0.13380965239137951 -0.44474080835658708 0 0.1203968852397459 -0.44333158210724349 0 0.12512198118755941 -0.45574894152044659 0 0.14081674981022321 -0.45896647250897432 0 0.12247882745850321 -0.46970724767731697 0 0.13380965239137951 -0.44474080835658708 0 0.12512198118755941 -0.45574894152044659 0 0.14081674981022321 -0.45896647250897432 0 0.15452904286706109 -0.45198467339190629 0 0.14081674981022321 -0.45896647250897432 0 0.1525559742019173 -0.4692431823520562 0 0.1525559742019173 -0.4692431823520562 0 0.14208479367521459 -0.48080927645917232 0 0.16536921328575441 -0.47814492705171441 0 0.14081674981022321 -0.45896647250897432 0 0.1525559742019173 -0.4692431823520562 0 0.14208479367521459 -0.48080927645917232 0 0.14208479367521459 -0.48080927645917232 0 0.16536921328575441 -0.47814492705171441 0 0.14081674981022321 -0.45896647250897432 0 0.13442410375952291 -0.47948323625448652 0 0.14081674981022321 -0.45896647250897432 0 0.14208479367521459 -0.48080927645917232 0 0.13442410375952291 -0.47948323625448652 0 0.14081674981022321 -0.45896647250897432 0 0.13442410375952291 -0.47948323625448652 0 0.12247882745850321 -0.46970724767731697 0 0.13442410375952291 -0.47948323625448652 0 0.12247882745850321 -0.46970724767731697 0 0.124494395537148 -0.48277840966544022 0 0.13442410375952291 -0.47948323625448652 0 0.12803145770882279 -0.49999999999999889 0 0.124494395537148 -0.48277840966544022 0 0.13442410375952291 -0.47948323625448652 0 0.12803145770882279 -0.49999999999999889 0 0.14208479367521459 -0.48080927645917232 0 0.13442410375952291 -0.47948323625448652 0 0.12803145770882279 -0.49999999999999889 0 0.14208479367521459 -0.48080927645917232 0 0.15618113282001231 -0.5 0 0.16536921328575441 -0.47814492705171441 0 0.14208479367521459 -0.48080927645917232 0 0.12803145770882279 -0.49999999999999889 0 0.15618113282001231 -0.5 0 0.15618113282001231 -0.5 0 0.16536921328575441 -0.47814492705171441 0 0.1843308079312018 -0.49999999999999978 0 0.17284148959591211 -0.46239231713060058 0 0.1525559742019173 -0.4692431823520562 0 0.16536921328575441 -0.47814492705171441 0 0.18865363289629419 -0.47548057764425727 0 0.17284148959591211 -0.46239231713060058 0 0.16536921328575441 -0.47814492705171441 0 0.18865363289629419 -0.47548057764425727 0 0.16536921328575441 -0.47814492705171441 0 0.18865363289629419 -0.47548057764425727 0 0.16536921328575441 -0.47814492705171441 0 0.1843308079312018 -0.49999999999999978 0 0.18865363289629419 -0.47548057764425727 0 0.1843308079312018 -0.49999999999999978 0 0.1895024807051876 -0.49211600289751228 0 0.18865363289629419 -0.47548057764425727 0 0.1843308079312018 -0.49999999999999978 0 0.074703337553383764 -0.5 0 0.082246156740024418 -0.47664853205504032 0 0.056613990014464967 -0.48015623666629648 0 0.082246156740024418 -0.47664853205504032 0 0.063731688336222433 -0.45236735719239829 0 0.056613990014464967 -0.48015623666629648 0 0.082246156740024418 -0.47664853205504032 0 0.100159857406176 -0.47463755269591829 0 0.091714949186813888 -0.45768903535351058 0 0.074703337553383764 -0.5 0 0.082246156740024418 -0.47664853205504032 0 0.1013673976311034 -0.5 0 0.1013673976311034 -0.5 0 0.1130431932217433 -0.48192315472995712 0 0.100159857406176 -0.47463755269591829 0 0.12803145770882279 -0.49999999999999889 0 0.124494395537148 -0.48277840966544022 0 0.1130431932217433 -0.48192315472995712 0 0.12803145770882279 -0.49999999999999889 0 0.1013673976311034 -0.5 0 0.1130431932217433 -0.48192315472995712 0 0.12247882745850321 -0.46970724767731697 0 0.1130431932217433 -0.48192315472995712 0 0.1104404506253665 -0.46069903729665568 0 0.12247882745850321 -0.46970724767731697 0 0.124494395537148 -0.48277840966544022 0 0.1130431932217433 -0.48192315472995712 0 0.1130431932217433 -0.48192315472995712 0 0.100159857406176 -0.47463755269591829 0 0.1104404506253665 -0.46069903729665568 0 0.082246156740024418 -0.47664853205504032 0 0.1013673976311034 -0.5 0 0.100159857406176 -0.47463755269591829 0 0.100159857406176 -0.47463755269591829 0 0.1104404506253665 -0.46069903729665568 0 0.091714949186813888 -0.45768903535351058 0 0.1104404506253665 -0.46069903729665568 0 0.10530934530957139 -0.44454284412809592 0 0.091714949186813888 -0.45768903535351058 0 0.12512198118755941 -0.45574894152044659 0 0.1104404506253665 -0.46069903729665568 0 0.1203968852397459 -0.44333158210724349 0 0.12512198118755941 -0.45574894152044659 0 0.12247882745850321 -0.46970724767731697 0 0.1104404506253665 -0.46069903729665568 0 0.1104404506253665 -0.46069903729665568 0 0.1203968852397459 -0.44333158210724349 0 0.10530934530957139 -0.44454284412809592 0 0.10530934530957139 -0.44454284412809592 0 0.089242043277385025 -0.4377873076918235 0 0.091714949186813888 -0.45768903535351058 0 0.089242043277385025 -0.4377873076918235 0 0.091714949186813888 -0.45768903535351058 0 0.063731688336222433 -0.45236735719239829 0 0.082246156740024418 -0.47664853205504032 0 0.091714949186813888 -0.45768903535351058 0 0.063731688336222433 -0.45236735719239829 0 0.089242043277385025 -0.4377873076918235 0 0.063731688336222433 -0.45236735719239829 0 0.062818570485145761 -0.43582811307719982 0 0.089242043277385025 -0.4377873076918235 0 0.063731688336222433 -0.45236735719239829 0 0.089242043277385025 -0.4377873076918235 0 0.062818570485145761 -0.43582811307719982 0 0.067755799291487978 -0.42035257222093708 0 0.067755799291487978 -0.42035257222093708 0 0.086100063537063981 -0.41360263109770151 0 0.067755799291487978 -0.42035257222093708 0 0.086100063537063981 -0.41360263109770151 0 0.060529421835924059 -0.40503102669574947 0 0.086100063537063981 -0.41360263109770151 0 0.060529421835924059 -0.40503102669574947 0 0.089242043277385025 -0.4377873076918235 0 0.067755799291487978 -0.42035257222093708 0 0.086100063537063981 -0.41360263109770151 0 0.10530934530957139 -0.44454284412809592 0 0.089242043277385025 -0.4377873076918235 0 0.11475239821854601 -0.42320725819124572 0 0.089242043277385025 -0.4377873076918235 0 0.11475239821854601 -0.42320725819124572 0 0.089242043277385025 -0.4377873076918235 0 0.086100063537063981 -0.41360263109770151 0 0.11475239821854601 -0.42320725819124572 0 0.13472620977138661 -0.42990273392592021 0 0.11475239821854601 -0.42320725819124572 0 0.1203968852397459 -0.44333158210724349 0 0.10530934530957139 -0.44454284412809592 0 0.11475239821854601 -0.42320725819124572 0 0.13472620977138661 -0.42990273392592021 0 0.1203968852397459 -0.44333158210724349 0 0.11475239821854601 -0.42320725819124572 0 0.11475239821854601 -0.42320725819124572 0 0.10438324426471179 -0.40687516621794351 0 0.1226664249923597 -0.40014770133818578 0 0.13765097140992111 -0.41011993222527171 0 0.11475239821854601 -0.42320725819124572 0 0.1226664249923597 -0.40014770133818578 0 0.086100063537063981 -0.41360263109770151 0 0.11475239821854601 -0.42320725819124572 0 0.10438324426471179 -0.40687516621794351 0 0.086100063537063981 -0.41360263109770151 0 0.10438324426471179 -0.40687516621794351 0 0.086100063537063981 -0.41360263109770151 0 0.11475239821854601 -0.42320725819124572 0 0.10438324426471179 -0.40687516621794351 0 0.10811068047382261 -0.38931811285133522 0 0.091747886736371465 -0.39671519485079881 0 0.086100063537063981 -0.41360263109770151 0 0.10438324426471179 -0.40687516621794351 0 0.091747886736371465 -0.39671519485079881 0 0.13604401268595689 -0.38347614770530741 0 0.1226664249923597 -0.40014770133818578 0 0.10811068047382261 -0.38931811285133522 0 0.10438324426471179 -0.40687516621794351 0 0.1226664249923597 -0.40014770133818578 0 0.10438324426471179 -0.40687516621794351 0 0.1226664249923597 -0.40014770133818578 0 0.10811068047382261 -0.38931811285133522 0 0.13604401268595689 -0.38347614770530741 0 0.10811068047382261 -0.38931811285133522 0 0.1095676493250143 -0.37262071837569999 0 0.082446609809910754 -0.37754177495080909 0 0.1095676493250143 -0.37262071837569999 0 0.10811068047382261 -0.38931811285133522 0 0.082446609809910754 -0.37754177495080909 0 0.091747886736371465 -0.39671519485079881 0 0.10811068047382261 -0.38931811285133522 0 0.082446609809910754 -0.37754177495080909 0 0.1095676493250143 -0.37262071837569999 0 0.082446609809910754 -0.37754177495080909 0 0.091747886736371465 -0.39671519485079881 0 0.07769883559634827 -0.39623828913620462 0 0.086100063537063981 -0.41360263109770151 0 0.091747886736371465 -0.39671519485079881 0 0.07769883559634827 -0.39623828913620462 0 0.07769883559634827 -0.39623828913620462 0 0.05532557029480719 -0.38246283152591831 0 0.060529421835924059 -0.40503102669574947 0 0.086100063537063981 -0.41360263109770151 0 0.07769883559634827 -0.39623828913620462 0 0.060529421835924059 -0.40503102669574947 0 0.082446609809910754 -0.37754177495080909 0 0.07769883559634827 -0.39623828913620462 0 0.05532557029480719 -0.38246283152591831 0 0.082446609809910754 -0.37754177495080909 0 0.05532557029480719 -0.38246283152591831 0 0.060529421835924059 -0.40503102669574947 0 0.03495878013478429 -0.39645942229379699 0 0.05532557029480719 -0.38246283152591831 0 0.060529421835924059 -0.40503102669574947 0 0.03495878013478429 -0.39645942229379699 0 0.03495878013478429 -0.39645942229379699 0 0.030460405177229151 -0.40968868173691242 0 0.043920964778199893 -0.41237795554836132 0 0.060529421835924059 -0.40503102669574947 0 0.03495878013478429 -0.39645942229379699 0 0.043920964778199893 -0.41237795554836132 0 0.05532557029480719 -0.38246283152591831 0 0.028204530779703509 -0.38738388810102742 0 0.05532557029480719 -0.38246283152591831 0 0.028204530779703509 -0.38738388810102742 0 0.039411102058297877 -0.37373484016718561 0 0.05532557029480719 -0.38246283152591831 0 0.03495878013478429 -0.39645942229379699 0 0.028204530779703509 -0.38738388810102742 0 0.028204530779703509 -0.38738388810102742 0 0.039411102058297877 -0.37373484016718561 0 0.020599217944317589 -0.3742265213985253 0 0.028204530779703509 -0.38738388810102742 0 0.0093881384336444995 -0.38788781789184462 0 0.020599217944317589 -0.3742265213985253 0 0.03495878013478429 -0.39645942229379699 0 0.028204530779703509 -0.38738388810102742 0 0.0093881384336444995 -0.38788781789184462 0 0.0093881384336444995 -0.38788781789184462 0 0.020599217944317589 -0.3742265213985253 0 0.003309102918704366 -0.37262758108984068 0 0.0093881384336444995 -0.38788781789184462 0 0.0001548961855554003 -0.40425103983522143 0 0.018148557930421961 -0.40259418720964463 0 0.03495878013478429 -0.39645942229379699 0 0.018148557930421961 -0.40259418720964463 0 0.030460405177229151 -0.40968868173691242 0 0.03495878013478429 -0.39645942229379699 0 0.0093881384336444995 -0.38788781789184462 0 0.03495878013478429 -0.39645942229379699 0 0.0093881384336444995 -0.38788781789184462 0 0.018148557930421961 -0.40259418720964463 0 0.030460405177229151 -0.40968868173691242 0 0.015780569720896458 -0.41468397429044718 0 0.033528452246145243 -0.42475109823058738 0 0.018148557930421961 -0.40259418720964463 0 0.030460405177229151 -0.40968868173691242 0 0.015780569720896458 -0.41468397429044718 0 0.0001548961855554003 -0.40425103983522143 0 0.018148557930421961 -0.40259418720964463 0 0.015780569720896458 -0.41468397429044718 0 -0.0027692131281891888 -0.43342354364163282 0 0.0001548961855554003 -0.40425103983522143 0 0.015780569720896458 -0.41468397429044718 0 -0.0027692131281891888 -0.43342354364163282 0 0.015780569720896458 -0.41468397429044718 0 0.01764545227991263 -0.44312264952696362 0 0.015780569720896458 -0.41468397429044718 0 0.033528452246145243 -0.42475109823058738 0 0.01764545227991263 -0.44312264952696362 0 0.015780569720896458 -0.41468397429044718 0 0.01764545227991263 -0.44312264952696362 0 0.033528452246145243 -0.42475109823058738 0 0.049411535045912093 -0.42710251334417298 0 0.04395178647472129 -0.44153081493666713 0 0.033528452246145243 -0.42475109823058738 0 0.04395178647472129 -0.44153081493666713 0 0.01764545227991263 -0.44312264952696362 0 0.030460405177229151 -0.40968868173691242 0 0.033528452246145243 -0.42475109823058738 0 0.043920964778199893 -0.41237795554836132 0 0.033528452246145243 -0.42475109823058738 0 0.043920964778199893 -0.41237795554836132 0 0.049411535045912093 -0.42710251334417298 0 0.060529421835924059 -0.40503102669574947 0 0.043920964778199893 -0.41237795554836132 0 0.055404430237880997 -0.4162160169523052 0 0.067755799291487978 -0.42035257222093708 0 0.055404430237880997 -0.4162160169523052 0 0.049411535045912093 -0.42710251334417298 0 0.043920964778199893 -0.41237795554836132 0 0.055404430237880997 -0.4162160169523052 0 0.049411535045912093 -0.42710251334417298 0 0.067755799291487978 -0.42035257222093708 0 0.060529421835924059 -0.40503102669574947 0 0.055404430237880997 -0.4162160169523052 0 0.062818570485145761 -0.43582811307719982 0 0.049411535045912093 -0.42710251334417298 0 0.04395178647472129 -0.44153081493666713 0 0.062818570485145761 -0.43582811307719982 0 0.067755799291487978 -0.42035257222093708 0 0.049411535045912093 -0.42710251334417298 0 0.067755799291487978 -0.42035257222093708 0 0.049411535045912093 -0.42710251334417298 0 0.063731688336222433 -0.45236735719239829 0 0.062818570485145761 -0.43582811307719982 0 0.04395178647472129 -0.44153081493666713 0 0.063731688336222433 -0.45236735719239829 0 0.03822133339505971 -0.46694740669297341 0 0.063731688336222433 -0.45236735719239829 0 0.03822133339505971 -0.46694740669297341 0 0.056613990014464967 -0.48015623666629648 0 0.063731688336222433 -0.45236735719239829 0 0.03822133339505971 -0.46694740669297341 0 0.04395178647472129 -0.44153081493666713 0 0.03822133339505971 -0.46694740669297341 0 0.04395178647472129 -0.44153081493666713 0 0.01764545227991263 -0.44312264952696362 0 -0.0027692131281891888 -0.43342354364163282 0 0.01764545227991263 -0.44312264952696362 0 0.007382801424827435 -0.4580761117798875 0 0.01764545227991263 -0.44312264952696362 0 0.007382801424827435 -0.4580761117798875 0 0.019510334838928792 -0.47156132476348001 0 0.007382801424827435 -0.4580761117798875 0 0.019510334838928792 -0.47156132476348001 0 0.014702212203463299 -0.47466991368832878 0 0.01764545227991263 -0.44312264952696362 0 0.019510334838928792 -0.47156132476348001 0 0.03822133339505971 -0.46694740669297341 0 0.01764545227991263 -0.44312264952696362 0 0.019510334838928792 -0.47156132476348001 0 0.019510334838928792 -0.47156132476348001 0 0.014702212203463299 -0.47466991368832878 0 0.02137521739794471 -0.49999999999999639 0 0.03822133339505971 -0.46694740669297341 0 0.019510334838928792 -0.47156132476348001 0 0.032742146586435303 -0.48497412405736717 0 -0.012960156365352761 -0.47869733803054187 0 0.014702212203463299 -0.47466991368832878 0 0.0028652109536792029 -0.48687931248582872 0 -0.012960156365352761 -0.47869733803054187 0 0.014702212203463299 -0.47466991368832878 0 -0.012960156365352761 -0.47869733803054187 0 0.007382801424827435 -0.4580761117798875 0 0.014702212203463299 -0.47466991368832878 0 -0.0072485533882910569 -0.5 0 0.0028652109536792029 -0.48687931248582872 0 0.02137521739794471 -0.49999999999999639 0 0.014702212203463299 -0.47466991368832878 0 0.0028652109536792029 -0.48687931248582872 0 0.02137521739794471 -0.49999999999999639 0 0.019510334838928792 -0.47156132476348001 0 0.02137521739794471 -0.49999999999999639 0 0.032742146586435303 -0.48497412405736717 0 0.019510334838928792 -0.47156132476348001 0 0.02137521739794471 -0.49999999999999639 0 0.02137521739794471 -0.49999999999999639 0 0.032742146586435303 -0.48497412405736717 0 0.048039277475664277 -0.5 0 0.032742146586435303 -0.48497412405736717 0 0.056613990014464967 -0.48015623666629648 0 0.048039277475664277 -0.5 0 0.03822133339505971 -0.46694740669297341 0 0.032742146586435303 -0.48497412405736717 0 0.056613990014464967 -0.48015623666629648 0 0.074703337553383764 -0.5 0 0.056613990014464967 -0.48015623666629648 0 0.048039277475664277 -0.5 0 0.09364222895764783 -0.28902178414879309 0 0.079441456119940287 -0.30542407451580039 0 0.066163109824030869 -0.28018144098101899 0 0.09364222895764783 -0.28902178414879309 0 0.066163109824030869 -0.28018144098101899 0 0.079441456119940287 -0.30542407451580039 0 0.1011344095744002 -0.30548174397643318 0 0.098239838848499975 -0.32185858159115222 0 0.09364222895764783 -0.28902178414879309 0 0.079441456119940287 -0.30542407451580039 0 0.1011344095744002 -0.30548174397643318 0 0.079441456119940287 -0.30542407451580039 0 0.059012414287070387 -0.31508175476909939 0 0.058170578653031671 -0.29729217350020548 0 0.079441456119940287 -0.30542407451580039 0 0.066163109824030869 -0.28018144098101899 0 0.058170578653031671 -0.29729217350020548 0 0.066163109824030869 -0.28018144098101899 0 0.082160965515870141 -0.27084719573732219 0 0.057964510154616081 -0.26349263491543762 0 0.074063522576115412 -0.25418913646128999 0 0.082160965515870141 -0.27084719573732219 0 0.057964510154616081 -0.26349263491543762 0 0.074063522576115412 -0.25418913646128999 0 0.082160965515870141 -0.27084719573732219 0 0.1003840320089199 -0.26753368270788169 0 0.074063522576115412 -0.25418913646128999 0 0.1003840320089199 -0.26753368270788169 0 0.096223482391782161 -0.25066647691632232 0 0.074063522576115412 -0.25418913646128999 0 0.1003840320089199 -0.26753368270788169 0 0.09364222895764783 -0.28902178414879309 0 0.066163109824030869 -0.28018144098101899 0 0.082160965515870141 -0.27084719573732219 0 0.09364222895764783 -0.28902178414879309 0 0.082160965515870141 -0.27084719573732219 0 0.1003840320089199 -0.26753368270788169 0 0.09364222895764783 -0.28902178414879309 0 0.1003840320089199 -0.26753368270788169 0 0.11046303762488929 -0.28382395578192882 0 0.1003840320089199 -0.26753368270788169 0 0.096223482391782161 -0.25066647691632232 0 0.1128464104435675 -0.2555657971241207 0 0.1265600254658609 -0.25575995917907818 0 0.1128464104435675 -0.2555657971241207 0 0.1219956350411413 -0.2398427023391346 0 0.1003840320089199 -0.26753368270788169 0 0.1128464104435675 -0.2555657971241207 0 0.1211469805498851 -0.26613371668915642 0 0.1265600254658609 -0.25575995917907818 0 0.1128464104435675 -0.2555657971241207 0 0.1211469805498851 -0.26613371668915642 0 0.12670454144172449 -0.2808782289544734 0 0.1003840320089199 -0.26753368270788169 0 0.12670454144172449 -0.2808782289544734 0 0.1003840320089199 -0.26753368270788169 0 0.11046303762488929 -0.28382395578192882 0 0.12670454144172449 -0.2808782289544734 0 0.1003840320089199 -0.26753368270788169 0 0.1211469805498851 -0.26613371668915642 0 0.12670454144172449 -0.2808782289544734 0 0.11046303762488929 -0.28382395578192882 0 0.1211213480912648 -0.29786212731656708 0 0.09364222895764783 -0.28902178414879309 0 0.1211213480912648 -0.29786212731656708 0 0.09364222895764783 -0.28902178414879309 0 0.11046303762488929 -0.28382395578192882 0 0.1211213480912648 -0.29786212731656708 0 0.09364222895764783 -0.28902178414879309 0 0.1011344095744002 -0.30548174397643318 0 0.1211213480912648 -0.29786212731656708 0 0.13044263649690241 -0.31800188151664283 0 0.1211213480912648 -0.29786212731656708 0 0.113227175854648 -0.31324215230985319 0 0.1011344095744002 -0.30548174397643318 0 0.1211213480912648 -0.29786212731656708 0 0.113227175854648 -0.31324215230985319 0 0.13044263649690241 -0.31800188151664283 0 0.113227175854648 -0.31324215230985319 0 0.11469944668599839 -0.32784954085260398 0 0.12739182036291541 -0.3393093175555103 0 0.11469944668599839 -0.32784954085260398 0 0.1046986492811216 -0.34212162792878409 0 0.12739182036291541 -0.3393093175555103 0 0.13044263649690241 -0.31800188151664283 0 0.11469944668599839 -0.32784954085260398 0 0.1046986492811216 -0.34212162792878409 0 0.098239838848499975 -0.32185858159115222 0 0.080798369550145327 -0.32910956090988808 0 0.11469944668599839 -0.32784954085260398 0 0.1046986492811216 -0.34212162792878409 0 0.098239838848499975 -0.32185858159115222 0 0.1011344095744002 -0.30548174397643318 0 0.113227175854648 -0.31324215230985319 0 0.098239838848499975 -0.32185858159115222 0 0.113227175854648 -0.31324215230985319 0 0.11469944668599839 -0.32784954085260398 0 0.098239838848499975 -0.32185858159115222 0 0.13053505761830031 -0.3611388042573625 0 0.1095676493250143 -0.37262071837569999 0 0.1180482941468379 -0.35379761702933921 0 0.1046986492811216 -0.34212162792878409 0 0.1095676493250143 -0.37262071837569999 0 0.1180482941468379 -0.35379761702933921 0 0.12739182036291541 -0.3393093175555103 0 0.1046986492811216 -0.34212162792878409 0 0.1180482941468379 -0.35379761702933921 0 0.1046986492811216 -0.34212162792878409 0 0.1095676493250143 -0.37262071837569999 0 0.084220216417693811 -0.35112440022237013 0 0.082446609809910754 -0.37754177495080909 0 0.1095676493250143 -0.37262071837569999 0 0.084220216417693811 -0.35112440022237013 0 0.084220216417693811 -0.35112440022237013 0 0.061342670302081237 -0.33350472836387701 0 0.057621989123612133 -0.36044043621242822 0 0.082446609809910754 -0.37754177495080909 0 0.05532557029480719 -0.38246283152591831 0 0.057621989123612133 -0.36044043621242822 0 0.082446609809910754 -0.37754177495080909 0 0.084220216417693811 -0.35112440022237013 0 0.057621989123612133 -0.36044043621242822 0 0.079441456119940287 -0.30542407451580039 0 0.098239838848499975 -0.32185858159115222 0 0.080798369550145327 -0.32910956090988808 0 0.1046986492811216 -0.34212162792878409 0 0.084220216417693811 -0.35112440022237013 0 0.080798369550145327 -0.32910956090988808 0 0.084220216417693811 -0.35112440022237013 0 0.080798369550145327 -0.32910956090988808 0 0.061342670302081237 -0.33350472836387701 0 0.079441456119940287 -0.30542407451580039 0 0.080798369550145327 -0.32910956090988808 0 0.059012414287070387 -0.31508175476909939 0 0.080798369550145327 -0.32910956090988808 0 0.059012414287070387 -0.31508175476909939 0 0.061342670302081237 -0.33350472836387701 0 0.059012414287070387 -0.31508175476909939 0 0.061342670302081237 -0.33350472836387701 0 0.038987863132423167 -0.32794697964722219 0 0.061342670302081237 -0.33350472836387701 0 0.038987863132423167 -0.32794697964722219 0 0.044460252229555332 -0.34458552947701299 0 0.038987863132423167 -0.32794697964722219 0 0.044460252229555332 -0.34458552947701299 0 0.02735793523283175 -0.34493812919991912 0 0.038987863132423167 -0.32794697964722219 0 0.026481313254875131 -0.31767806179667218 0 0.041610375347043482 -0.30539665036557229 0 0.059012414287070387 -0.31508175476909939 0 0.038987863132423167 -0.32794697964722219 0 0.041610375347043482 -0.30539665036557229 0 0.05532557029480719 -0.38246283152591831 0 0.057621989123612133 -0.36044043621242822 0 0.039411102058297877 -0.37373484016718561 0 0.061342670302081237 -0.33350472836387701 0 0.057621989123612133 -0.36044043621242822 0 0.044460252229555332 -0.34458552947701299 0 0.044460252229555332 -0.34458552947701299 0 0.033790092491440597 -0.35938515789981212 0 0.02735793523283175 -0.34493812919991912 0 0.057621989123612133 -0.36044043621242822 0 0.044460252229555332 -0.34458552947701299 0 0.033790092491440597 -0.35938515789981212 0 0.057621989123612133 -0.36044043621242822 0 0.039411102058297877 -0.37373484016718561 0 0.033790092491440597 -0.35938515789981212 0 0.033790092491440597 -0.35938515789981212 0 0.020599217944317589 -0.3742265213985253 0 0.0083610369779037602 -0.36029506406098588 0 0.039411102058297877 -0.37373484016718561 0 0.033790092491440597 -0.35938515789981212 0 0.020599217944317589 -0.3742265213985253 0 0.033790092491440597 -0.35938515789981212 0 0.02735793523283175 -0.34493812919991912 0 0.0083610369779037602 -0.36029506406098588 0 0.02735793523283175 -0.34493812919991912 0 0.0083610369779037602 -0.36029506406098588 0 0.0111485868661024 -0.33716895756166398 0 -0.0074167715464010572 -0.35345822621748818 0 0.0083610369779037602 -0.36029506406098588 0 0.0111485868661024 -0.33716895756166398 0 0.0083610369779037602 -0.36029506406098588 0 0.0111485868661024 -0.33716895756166398 0 -0.0074167715464010572 -0.35345822621748818 0 0.0083610369779037602 -0.36029506406098588 0 0.003309102918704366 -0.37262758108984068 0 0.020599217944317589 -0.3742265213985253 0 0.0083610369779037602 -0.36029506406098588 0 0.003309102918704366 -0.37262758108984068 0 0.026481313254875131 -0.31767806179667218 0 0.0111485868661024 -0.33716895756166398 0 0.01393613675430104 -0.3140428510623422 0 0.038987863132423167 -0.32794697964722219 0 0.026481313254875131 -0.31767806179667218 0 0.0111485868661024 -0.33716895756166398 0 0.038987863132423167 -0.32794697964722219 0 0.02735793523283175 -0.34493812919991912 0 0.0111485868661024 -0.33716895756166398 0 -0.0057683781166291059 -0.33491740435489159 0 0.0111485868661024 -0.33716895756166398 0 0.0020100022948757179 -0.32433636602676391 0 0.0111485868661024 -0.33716895756166398 0 0.0020100022948757179 -0.32433636602676391 0 0.01393613675430104 -0.3140428510623422 0 0.0020100022948757179 -0.32433636602676391 0 0.01393613675430104 -0.3140428510623422 0 0.0035157764707993179 -0.30776509704669819 0 0.0111485868661024 -0.33716895756166398 0 0.01393613675430104 -0.3140428510623422 0 0.01393613675430104 -0.3140428510623422 0 0.0035157764707993179 -0.30776509704669819 0 0.01476752904565116 -0.29759670980490988 0 0.01393613675430104 -0.3140428510623422 0 0.01672368664249969 -0.2909167445630203 0 0.01393613675430104 -0.3140428510623422 0 0.01476752904565116 -0.29759670980490988 0 0.01672368664249969 -0.2909167445630203 0 0.0035157764707993179 -0.30776509704669819 0 0.01476752904565116 -0.29759670980490988 0 0.0044325185575511492 -0.29541951845712039 0 -0.0038510574782205579 -0.2997244586383831 0 0.0035157764707993179 -0.30776509704669819 0 0.0044325185575511492 -0.29541951845712039 0 -0.0038510574782205579 -0.2997244586383831 0 0.0044325185575511492 -0.29541951845712039 0 0.00069600354279332824 -0.2758447591784694 0 0.01476752904565116 -0.29759670980490988 0 0.00069600354279332824 -0.2758447591784694 0 0.01476752904565116 -0.29759670980490988 0 0.0044325185575511492 -0.29541951845712039 0 0.00069600354279332824 -0.2758447591784694 0 0.01476752904565116 -0.29759670980490988 0 0.01672368664249969 -0.2909167445630203 0 0.00069600354279332824 -0.2758447591784694 0 0.01672368664249969 -0.2909167445630203 0 0.029912518277450829 -0.28975916805556601 0 0.019511236530698351 -0.26779063806369829 0 0.01672368664249969 -0.2909167445630203 0 0.029912518277450829 -0.28975916805556601 0 0.026723604174505599 -0.3038348703465602 0 0.01393613675430104 -0.3140428510623422 0 0.01672368664249969 -0.2909167445630203 0 0.026723604174505599 -0.3038348703465602 0 0.026481313254875131 -0.31767806179667218 0 0.01393613675430104 -0.3140428510623422 0 0.026723604174505599 -0.3038348703465602 0 0.029912518277450829 -0.28975916805556601 0 0.026723604174505599 -0.3038348703465602 0 0.041610375347043482 -0.30539665036557229 0 0.026481313254875131 -0.31767806179667218 0 0.026723604174505599 -0.3038348703465602 0 0.041610375347043482 -0.30539665036557229 0 0.029912518277450829 -0.28975916805556601 0 0.041610375347043482 -0.30539665036557229 0 0.044993688692507042 -0.28085693693897912 0 0.041610375347043482 -0.30539665036557229 0 0.058170578653031671 -0.29729217350020548 0 0.044993688692507042 -0.28085693693897912 0 0.066163109824030869 -0.28018144098101899 0 0.058170578653031671 -0.29729217350020548 0 0.044993688692507042 -0.28085693693897912 0 0.059012414287070387 -0.31508175476909939 0 0.041610375347043482 -0.30539665036557229 0 0.058170578653031671 -0.29729217350020548 0 0.057964510154616081 -0.26349263491543762 0 0.039600740301934272 -0.2605762602427234 0 0.047743013143310857 -0.2408445902146984 0 0.074063522576115412 -0.25418913646128999 0 0.057964510154616081 -0.26349263491543762 0 0.047743013143310857 -0.2408445902146984 0 0.057964510154616081 -0.26349263491543762 0 0.044993688692507042 -0.28085693693897912 0 0.039600740301934272 -0.2605762602427234 0 0.066163109824030869 -0.28018144098101899 0 0.057964510154616081 -0.26349263491543762 0 0.044993688692507042 -0.28085693693897912 0 0.044993688692507042 -0.28085693693897912 0 0.039600740301934272 -0.2605762602427234 0 0.019511236530698351 -0.26779063806369829 0 0.029912518277450829 -0.28975916805556601 0 0.044993688692507042 -0.28085693693897912 0 0.019511236530698351 -0.26779063806369829 0 0.019511236530698351 -0.26779063806369829 0 0.01444385281763636 -0.24719258640733749 0 0.029531215177569299 -0.24795585691464619 0 0.039600740301934272 -0.2605762602427234 0 0.019511236530698351 -0.26779063806369829 0 0.029531215177569299 -0.24795585691464619 0 0.01672368664249969 -0.2909167445630203 0 0.019511236530698351 -0.26779063806369829 0 0.01672368664249969 -0.2909167445630203 0 0.019511236530698351 -0.26779063806369829 0 0.00069600354279332824 -0.2758447591784694 0 0.019511236530698351 -0.26779063806369829 0 0.00069600354279332824 -0.2758447591784694 0 0.0049407412643659313 -0.25867424517361032 0 0.019511236530698351 -0.26779063806369829 0 0.0049407412643659313 -0.25867424517361032 0 0.01444385281763636 -0.24719258640733749 0 0.0049407412643659313 -0.25867424517361032 0 0.00030022057776212072 -0.24629662869332139 0 0.01444385281763636 -0.24719258640733749 0 0.01444385281763636 -0.24719258640733749 0 0.0046442973170082603 -0.23576555496681531 0 0.021422503710506541 -0.2275000439681068 0 0.00030022057776212072 -0.24629662869332139 0 0.01444385281763636 -0.24719258640733749 0 0.0046442973170082603 -0.23576555496681531 0 -0.0025393444666661361 -0.22566425141104671 0 0.0046442973170082603 -0.23576555496681531 0 0.021422503710506541 -0.2275000439681068 0 -0.0048980057222967749 -0.2141554977215134 0 0.021422503710506541 -0.2275000439681068 0 -0.0025393444666661361 -0.22566425141104671 0 -0.0048980057222967749 -0.2141554977215134 0 0.021422503710506541 -0.2275000439681068 0 0.021422503710506541 -0.2275000439681068 0 0.022558160801513339 -0.21169105364246571 0 0.036181174417918592 -0.2188978712974145 0 0.01444385281763636 -0.24719258640733749 0 0.021422503710506541 -0.2275000439681068 0 0.029531215177569299 -0.24795585691464619 0 0.002640502934626776 -0.19032053178508629 0 0.0092436531184435858 -0.2048405990086179 0 0.023385311959184651 -0.1955257002957235 0 -0.0047882959264406531 -0.20141652287543249 0 0.002640502934626776 -0.19032053178508629 0 0.0092436531184435858 -0.2048405990086179 0 -0.0048980057222967749 -0.2141554977215134 0 0.021422503710506541 -0.2275000439681068 0 0.0092436531184435858 -0.2048405990086179 0 -0.0048980057222967749 -0.2141554977215134 0 0.0092436531184435858 -0.2048405990086179 0 0.022558160801513339 -0.21169105364246571 0 0.023385311959184651 -0.1955257002957235 0 0.036181174417918592 -0.2188978712974145 0 0.0092436531184435858 -0.2048405990086179 0 0.022558160801513339 -0.21169105364246571 0 0.023385311959184651 -0.1955257002957235 0 0.023385311959184651 -0.1955257002957235 0 0.036181174417918592 -0.2188978712974145 0 0.021422503710506541 -0.2275000439681068 0 0.0092436531184435858 -0.2048405990086179 0 0.022558160801513339 -0.21169105364246571 0 0.0092436531184435858 -0.2048405990086179 0 0.023385311959184651 -0.1955257002957235 0 0.038738931659369147 -0.2001139160944633 0 0.052673520202390217 -0.20323904256540909 0 0.042715720057983117 -0.18279305021930611 0 0.023385311959184651 -0.1955257002957235 0 0.038738931659369147 -0.2001139160944633 0 0.042715720057983117 -0.18279305021930611 0 0.023385311959184651 -0.1955257002957235 0 0.042715720057983117 -0.18279305021930611 0 0.023385311959184651 -0.1955257002957235 0 0.038738931659369147 -0.2001139160944633 0 0.036181174417918592 -0.2188978712974145 0 0.038738931659369147 -0.2001139160944633 0 0.052673520202390217 -0.20323904256540909 0 0.036181174417918592 -0.2188978712974145 0 0.052673520202390217 -0.20323904256540909 0 0.036181174417918592 -0.2188978712974145 0 0.055505548603182082 -0.22273634918066779 0 0.052673520202390217 -0.20323904256540909 0 0.055505548603182082 -0.22273634918066779 0 0.073016259408294731 -0.21451009283364311 0 0.052673520202390217 -0.20323904256540909 0 0.068122654445825631 -0.19098658640586441 0 0.042715720057983117 -0.18279305021930611 0 0.039600740301934272 -0.2605762602427234 0 0.029531215177569299 -0.24795585691464619 0 0.047743013143310857 -0.2408445902146984 0 0.021422503710506541 -0.2275000439681068 0 0.029531215177569299 -0.24795585691464619 0 0.047743013143310857 -0.2408445902146984 0 0.021422503710506541 -0.2275000439681068 0 0.036181174417918592 -0.2188978712974145 0 0.047743013143310857 -0.2408445902146984 0 0.021422503710506541 -0.2275000439681068 0 0.047743013143310857 -0.2408445902146984 0 0.036181174417918592 -0.2188978712974145 0 0.055505548603182082 -0.22273634918066779 0 0.047743013143310857 -0.2408445902146984 0 0.055505548603182082 -0.22273634918066779 0 0.047743013143310857 -0.2408445902146984 0 0.066968825383588601 -0.23318199557472871 0 0.074063522576115412 -0.25418913646128999 0 0.047743013143310857 -0.2408445902146984 0 0.074063522576115412 -0.25418913646128999 0 0.047743013143310857 -0.2408445902146984 0 0.066968825383588601 -0.23318199557472871 0 0.074063522576115412 -0.25418913646128999 0 0.084515783187039964 -0.23362980918334439 0 0.066968825383588601 -0.23318199557472871 0 0.074063522576115412 -0.25418913646128999 0 0.096223482391782161 -0.25066647691632232 0 0.084515783187039964 -0.23362980918334439 0 0.084515783187039964 -0.23362980918334439 0 0.073016259408294731 -0.21451009283364311 0 0.089990645524874902 -0.21790024485087839 0 0.055505548603182082 -0.22273634918066779 0 0.066968825383588601 -0.23318199557472871 0 0.073016259408294731 -0.21451009283364311 0 0.084515783187039964 -0.23362980918334439 0 0.066968825383588601 -0.23318199557472871 0 0.073016259408294731 -0.21451009283364311 0 0.052673520202390217 -0.20323904256540909 0 0.073016259408294731 -0.21451009283364311 0 0.068122654445825631 -0.19098658640586441 0 0.068122654445825631 -0.19098658640586441 0 0.094240221730366378 -0.19762914760304409 0 0.084044077119137722 -0.17768778507089489 0 0.073016259408294731 -0.21451009283364311 0 0.068122654445825631 -0.19098658640586441 0 0.094240221730366378 -0.19762914760304409 0 0.073016259408294731 -0.21451009283364311 0 0.089990645524874902 -0.21790024485087839 0 0.094240221730366378 -0.19762914760304409 0 0.094240221730366378 -0.19762914760304409 0 0.12015715315581491 -0.2009973826506419 0 0.10819031777379851 -0.2258319297834821 0 0.089990645524874902 -0.21790024485087839 0 0.094240221730366378 -0.19762914760304409 0 0.10819031777379851 -0.2258319297834821 0 0.094240221730366378 -0.19762914760304409 0 0.12015715315581491 -0.2009973826506419 0 0.1113087637087463 -0.17770296760239079 0 0.12015715315581491 -0.2009973826506419 0 0.10819031777379851 -0.2258319297834821 0 0.13016652006677931 -0.21805271629486039 0 0.12015715315581491 -0.2009973826506419 0 0.10819031777379851 -0.2258319297834821 0 0.1219956350411413 -0.2398427023391346 0 0.10819031777379851 -0.2258319297834821 0 0.13016652006677931 -0.21805271629486039 0 0.096223482391782161 -0.25066647691632232 0 0.1128464104435675 -0.2555657971241207 0 0.1219956350411413 -0.2398427023391346 0 0.096223482391782161 -0.25066647691632232 0 0.084515783187039964 -0.23362980918334439 0 0.10819031777379851 -0.2258319297834821 0 0.096223482391782161 -0.25066647691632232 0 0.1219956350411413 -0.2398427023391346 0 0.10819031777379851 -0.2258319297834821 0 0.096223482391782161 -0.25066647691632232 0 0.10819031777379851 -0.2258319297834821 0 0.084515783187039964 -0.23362980918334439 0 0.089990645524874902 -0.21790024485087839 0 0.10819031777379851 -0.2258319297834821 0 0.100706944354379 -0.14459509999005479 0 0.1056701384857462 -0.15850748947942381 0 0.092375510736758523 -0.16114144253047499 0 0.100706944354379 -0.14459509999005479 0 0.092375510736758523 -0.16114144253047499 0 0.100706944354379 -0.14459509999005479 0 0.1144580304594555 -0.1471050822959285 0 0.1056701384857462 -0.15850748947942381 0 0.100706944354379 -0.14459509999005479 0 0.1099290904545028 -0.1262797901245703 0 0.100706944354379 -0.14459509999005479 0 0.099790326417464506 -0.12875288665758061 0 0.090565026603239743 -0.1346908448953581 0 0.100706944354379 -0.14459509999005479 0 0.099790326417464506 -0.12875288665758061 0 0.1099290904545028 -0.1262797901245703 0 0.100706944354379 -0.14459509999005479 0 0.11435919899648719 -0.13560256448725189 0 0.1099290904545028 -0.1262797901245703 0 0.099790326417464506 -0.12875288665758061 0 0.090565026603239743 -0.1346908448953581 0 0.093050612780599368 -0.122731887022332 0 0.100706944354379 -0.14459509999005479 0 0.11435919899648719 -0.13560256448725189 0 0.11435919899648719 -0.13560256448725189 0 0.1099290904545028 -0.1262797901245703 0 0.1211019425767117 -0.12600779024960501 0 0.11435919899648719 -0.13560256448725189 0 0.1144580304594555 -0.1471050822959285 0 0.12885034326079009 -0.1383964124851868 0 0.11435919899648719 -0.13560256448725189 0 0.1211019425767117 -0.12600779024960501 0 0.12885034326079009 -0.1383964124851868 0 0.1144580304594555 -0.1471050822959285 0 0.1227035271998753 -0.15842384503772541 0 0.12885034326079009 -0.1383964124851868 0 0.1144580304594555 -0.1471050822959285 0 0.1227035271998753 -0.15842384503772541 0 0.1056701384857462 -0.15850748947942381 0 0.100706944354379 -0.14459509999005479 0 0.11435919899648719 -0.13560256448725189 0 0.1144580304594555 -0.1471050822959285 0 0.1227035271998753 -0.15842384503772541 0 0.1113087637087463 -0.17770296760239079 0 0.1056701384857462 -0.15850748947942381 0 0.1227035271998753 -0.15842384503772541 0 0.1113087637087463 -0.17770296760239079 0 0.13212398853783131 -0.17616283551780179 0 0.12015715315581491 -0.2009973826506419 0 0.1113087637087463 -0.17770296760239079 0 0.13212398853783131 -0.17616283551780179 0 0.094240221730366378 -0.19762914760304409 0 0.1113087637087463 -0.17770296760239079 0 0.097010706106607253 -0.17406410444695769 0 0.1113087637087463 -0.17770296760239079 0 0.097010706106607253 -0.17406410444695769 0 0.1056701384857462 -0.15850748947942381 0 0.097010706106607253 -0.17406410444695769 0 0.1056701384857462 -0.15850748947942381 0 0.092375510736758523 -0.16114144253047499 0 0.092375510736758523 -0.16114144253047499 0 0.084044077119137722 -0.17768778507089489 0 0.092375510736758523 -0.16114144253047499 0 0.081376536255580223 -0.15732775006647171 0 0.084044077119137722 -0.17768778507089489 0 0.097010706106607253 -0.17406410444695769 0 0.092375510736758523 -0.16114144253047499 0 0.084044077119137722 -0.17768778507089489 0 0.094240221730366378 -0.19762914760304409 0 0.097010706106607253 -0.17406410444695769 0 0.084044077119137722 -0.17768778507089489 0 0.068122654445825631 -0.19098658640586441 0 0.084044077119137722 -0.17768778507089489 0 0.062046128156781691 -0.1700604001428889 0 0.081376536255580223 -0.15732775006647171 0 0.069718342411558235 -0.15445175909099179 0 0.062046128156781691 -0.1700604001428889 0 0.081376536255580223 -0.15732775006647171 0 0.084044077119137722 -0.17768778507089489 0 0.062046128156781691 -0.1700604001428889 0 0.081376536255580223 -0.15732775006647171 0 0.062046128156781691 -0.1700604001428889 0 0.069718342411558235 -0.15445175909099179 0 0.059434280667925027 -0.15461512160141519 0 0.062046128156781691 -0.1700604001428889 0 0.069718342411558235 -0.15445175909099179 0 0.065908004491436245 -0.1460332173422231 0 0.059434280667925027 -0.15461512160141519 0 0.069718342411558235 -0.15445175909099179 0 0.065908004491436245 -0.1460332173422231 0 0.079826762486067959 -0.14422230630196031 0 0.065908004491436245 -0.1460332173422231 0 0.079826762486067959 -0.14422230630196031 0 0.071357189646504671 -0.13811889369221569 0 0.081376536255580223 -0.15732775006647171 0 0.069718342411558235 -0.15445175909099179 0 0.079826762486067959 -0.14422230630196031 0 0.100706944354379 -0.14459509999005479 0 0.079826762486067959 -0.14422230630196031 0 0.090565026603239743 -0.1346908448953581 0 0.100706944354379 -0.14459509999005479 0 0.081376536255580223 -0.15732775006647171 0 0.079826762486067959 -0.14422230630196031 0 0.100706944354379 -0.14459509999005479 0 0.081376536255580223 -0.15732775006647171 0 0.100706944354379 -0.14459509999005479 0 0.092375510736758523 -0.16114144253047499 0 0.081376536255580223 -0.15732775006647171 0 0.090565026603239743 -0.1346908448953581 0 0.079262881563485155 -0.13020642029344029 0 0.093050612780599368 -0.122731887022332 0 0.079826762486067959 -0.14422230630196031 0 0.090565026603239743 -0.1346908448953581 0 0.079262881563485155 -0.13020642029344029 0 0.079262881563485155 -0.13020642029344029 0 0.071357189646504671 -0.13811889369221569 0 0.06446619459724931 -0.1253099609031437 0 0.079826762486067959 -0.14422230630196031 0 0.079262881563485155 -0.13020642029344029 0 0.071357189646504671 -0.13811889369221569 0 0.071357189646504671 -0.13811889369221569 0 0.06446619459724931 -0.1253099609031437 0 0.061404006531261018 -0.13753046090530119 0 0.065908004491436245 -0.1460332173422231 0 0.071357189646504671 -0.13811889369221569 0 0.061404006531261018 -0.13753046090530119 0 0.06446619459724931 -0.1253099609031437 0 0.051635807288064342 -0.13298545869414549 0 0.048769993123480841 -0.121693477832837 0 0.06446619459724931 -0.1253099609031437 0 0.051635807288064342 -0.13298545869414549 0 0.061404006531261018 -0.13753046090530119 0 0.051635807288064342 -0.13298545869414549 0 0.040626961971112603 -0.12879376081557661 0 0.048769993123480841 -0.121693477832837 0 0.051635807288064342 -0.13298545869414549 0 0.053652836633050517 -0.14520477389477801 0 0.039576389524568101 -0.14066482215687509 0 0.051635807288064342 -0.13298545869414549 0 0.061404006531261018 -0.13753046090530119 0 0.053652836633050517 -0.14520477389477801 0 0.065908004491436245 -0.1460332173422231 0 0.061404006531261018 -0.13753046090530119 0 0.053652836633050517 -0.14520477389477801 0 0.065908004491436245 -0.1460332173422231 0 0.059434280667925027 -0.15461512160141519 0 0.053652836633050517 -0.14520477389477801 0 0.059434280667925027 -0.15461512160141519 0 0.053652836633050517 -0.14520477389477801 0 0.045320776459989623 -0.15544213136031221 0 0.045320776459989623 -0.15544213136031221 0 0.034594214117764442 -0.150220898589248 0 0.028092555491858611 -0.1628725387693227 0 0.053652836633050517 -0.14520477389477801 0 0.039576389524568101 -0.14066482215687509 0 0.045320776459989623 -0.15544213136031221 0 0.039576389524568101 -0.14066482215687509 0 0.045320776459989623 -0.15544213136031221 0 0.034594214117764442 -0.150220898589248 0 0.039576389524568101 -0.14066482215687509 0 0.034594214117764442 -0.150220898589248 0 0.02396816779194013 -0.14390695264698161 0 0.039576389524568101 -0.14066482215687509 0 0.040626961971112603 -0.12879376081557661 0 0.025901929012522879 -0.12957197652078919 0 0.040626961971112603 -0.12879376081557661 0 0.025901929012522879 -0.12957197652078919 0 0.037250690906926807 -0.119053068873236 0 0.051635807288064342 -0.13298545869414549 0 0.039576389524568101 -0.14066482215687509 0 0.040626961971112603 -0.12879376081557661 0 0.068122654445825631 -0.19098658640586441 0 0.062046128156781691 -0.1700604001428889 0 0.042715720057983117 -0.18279305021930611 0 0.062046128156781691 -0.1700604001428889 0 0.042715720057983117 -0.18279305021930611 0 0.059434280667925027 -0.15461512160141519 0 0.045320776459989623 -0.15544213136031221 0 0.062046128156781691 -0.1700604001428889 0 0.045320776459989623 -0.15544213136031221 0 0.062046128156781691 -0.1700604001428889 0 0.042715720057983117 -0.18279305021930611 0 0.045320776459989623 -0.15544213136031221 0 0.042715720057983117 -0.18279305021930611 0 0.028092555491858611 -0.1628725387693227 0 0.042715720057983117 -0.18279305021930611 0 0.025935169566058919 -0.17786022682525049 0 0.028092555491858611 -0.1628725387693227 0 0.023385311959184651 -0.1955257002957235 0 0.0095470907552092765 -0.17024961801664959 0 0.023385311959184651 -0.1955257002957235 0 0.042715720057983117 -0.18279305021930611 0 0.025935169566058919 -0.17786022682525049 0 0.023385311959184651 -0.1955257002957235 0 0.025935169566058919 -0.17786022682525049 0 0.0095470907552092765 -0.17024961801664959 0 0.028092555491858611 -0.1628725387693227 0 0.0095470907552092765 -0.17024961801664959 0 0.012011567451192411 -0.15441501401373781 0 0.025935169566058919 -0.17786022682525049 0 0.028092555491858611 -0.1628725387693227 0 0.0095470907552092765 -0.17024961801664959 0 -0.0042911304487681804 -0.1449735357375769 0 0.0095470907552092765 -0.17024961801664959 0 -0.0042911304487681804 -0.1449735357375769 0 0.0095470907552092765 -0.17024961801664959 0 0.012011567451192411 -0.15441501401373781 0 -0.01004160949427578 -0.1777901312346947 0 0.002640502934626776 -0.19032053178508629 0 0.0095470907552092765 -0.17024961801664959 0 0.002640502934626776 -0.19032053178508629 0 0.023385311959184651 -0.1955257002957235 0 0.0095470907552092765 -0.17024961801664959 0 0.01817616009271945 -0.13462436373369011 0 0.02396816779194013 -0.14390695264698161 0 0.011671393598408131 -0.13979394514381821 0 0.01817616009271945 -0.13462436373369011 0 0.025901929012522879 -0.12957197652078919 0 0.02396816779194013 -0.14390695264698161 0 0.01817616009271945 -0.13462436373369011 0 0.025901929012522879 -0.12957197652078919 0 0.01169385720694522 -0.12698793734381389 0 0.039576389524568101 -0.14066482215687509 0 0.025901929012522879 -0.12957197652078919 0 0.02396816779194013 -0.14390695264698161 0 0.034594214117764442 -0.150220898589248 0 0.028092555491858611 -0.1628725387693227 0 0.02396816779194013 -0.14390695264698161 0 0.028092555491858611 -0.1628725387693227 0 0.02396816779194013 -0.14390695264698161 0 0.012011567451192411 -0.15441501401373781 0 0.02396816779194013 -0.14390695264698161 0 0.012011567451192411 -0.15441501401373781 0 0.011671393598408131 -0.13979394514381821 0 0.012011567451192411 -0.15441501401373781 0 0.0048504143144322458 -0.1426287734379354 0 0.011671393598408131 -0.13979394514381821 0 -0.0042911304487681804 -0.1449735357375769 0 0.012011567451192411 -0.15441501401373781 0 0.0048504143144322458 -0.1426287734379354 0 9.826656896625493e-06 -0.1313325988566085 0 0.0048504143144322458 -0.1426287734379354 0 0.011671393598408131 -0.13979394514381821 0 9.826656896625493e-06 -0.1313325988566085 0 -0.0042911304487681804 -0.1449735357375769 0 0.0048504143144322458 -0.1426287734379354 0 0.01817616009271945 -0.13462436373369011 0 0.011671393598408131 -0.13979394514381821 0 0.01169385720694522 -0.12698793734381389 0 9.826656896625493e-06 -0.1313325988566085 0 0.011671393598408131 -0.13979394514381821 0 0.01169385720694522 -0.12698793734381389 0 9.826656896625493e-06 -0.1313325988566085 0 0.01169385720694522 -0.12698793734381389 0 0.0028017473852785121 -0.12509361147560369 0 0.01169385720694522 -0.12698793734381389 0 0.0028017473852785121 -0.12509361147560369 0 0.0050755095359780464 -0.1176346018525178 0 -0.0045801415063462221 -0.11901338943474531 0 0.0028017473852785121 -0.12509361147560369 0 0.0050755095359780464 -0.1176346018525178 0 -0.0035869806737475439 -0.109254310938091 0 0.0050755095359780464 -0.1176346018525178 0 0.0089923523344080086 -0.10818544093353499 0 0.018171681783115689 -0.1172734277028122 0 0.01924677849589012 -0.1076289805093784 0 0.0089923523344080086 -0.10818544093353499 0 0.0050755095359780464 -0.1176346018525178 0 0.018171681783115689 -0.1172734277028122 0 0.0089923523344080086 -0.10818544093353499 0 0.01169385720694522 -0.12698793734381389 0 0.0050755095359780464 -0.1176346018525178 0 0.018171681783115689 -0.1172734277028122 0 0.025901929012522879 -0.12957197652078919 0 0.01169385720694522 -0.12698793734381389 0 0.018171681783115689 -0.1172734277028122 0 0.018171681783115689 -0.1172734277028122 0 0.028079942048021521 -0.1101536609579184 0 0.01924677849589012 -0.1076289805093784 0 0.018171681783115689 -0.1172734277028122 0 0.028079942048021521 -0.1101536609579184 0 0.027351060937646721 -0.1190130335136889 0 0.028079942048021521 -0.1101536609579184 0 0.027351060937646721 -0.1190130335136889 0 0.037250690906926807 -0.119053068873236 0 0.025901929012522879 -0.12957197652078919 0 0.027351060937646721 -0.1190130335136889 0 0.037250690906926807 -0.119053068873236 0 0.025901929012522879 -0.12957197652078919 0 0.018171681783115689 -0.1172734277028122 0 0.027351060937646721 -0.1190130335136889 0 0.024722631010262831 -0.099798064711494772 0 0.028686338076388571 -0.091884180578159017 0 0.034395834988452188 -0.099044583937690792 0 0.024722631010262831 -0.099798064711494772 0 0.02104958487818015 -0.090640242662177656 0 0.028686338076388571 -0.091884180578159017 0 0.028079942048021521 -0.1101536609579184 0 0.024722631010262831 -0.099798064711494772 0 0.034395834988452188 -0.099044583937690792 0 0.028079942048021521 -0.1101536609579184 0 0.024722631010262831 -0.099798064711494772 0 0.01924677849589012 -0.1076289805093784 0 0.024722631010262831 -0.099798064711494772 0 0.01924677849589012 -0.1076289805093784 0 0.01668386460996488 -0.099094766715347241 0 0.024722631010262831 -0.099798064711494772 0 0.01668386460996488 -0.099094766715347241 0 0.02104958487818015 -0.090640242662177656 0 0.01668386460996488 -0.099094766715347241 0 0.0019506974199720399 -0.09965907405485358 0 0.0097988358855746038 -0.091209614697915914 0 0.01924677849589012 -0.1076289805093784 0 0.01668386460996488 -0.099094766715347241 0 0.0089923523344080086 -0.10818544093353499 0 0.01668386460996488 -0.099094766715347241 0 0.0089923523344080086 -0.10818544093353499 0 0.0019506974199720399 -0.09965907405485358 0 -0.0035869806737475439 -0.109254310938091 0 0.0089923523344080086 -0.10818544093353499 0 0.0019506974199720399 -0.09965907405485358 0 -0.0070486383949544054 -0.087522709136193089 0 0.0019506974199720399 -0.09965907405485358 0 0.0097988358855746038 -0.091209614697915914 0 -0.0070486383949544054 -0.087522709136193089 0 0.0097988358855746038 -0.091209614697915914 0 0.017065173630780351 -0.081386830177449077 0 -0.0070486383949544054 -0.087522709136193089 0 0.017065173630780351 -0.081386830177449077 0 -0.0070486383949544054 -0.087522709136193089 0 0.003715720870280929 -0.075830019088264103 0 0.017065173630780351 -0.081386830177449077 0 0.0036254775754798541 -0.064395336985159243 0 0.003715720870280929 -0.075830019088264103 0 0.01480513117842824 -0.069359283456252141 0 0.003715720870280929 -0.075830019088264103 0 0.01480513117842824 -0.069359283456252141 0 0.017065173630780351 -0.081386830177449077 0 0.0036254775754798541 -0.064395336985159243 0 0.01480513117842824 -0.069359283456252141 0 0.016663983053009999 -0.057941373095140768 0 0.023546103253069141 -0.072910320459944236 0 0.017065173630780351 -0.081386830177449077 0 0.041178985656515128 -0.075250951218705078 0 0.01480513117842824 -0.069359283456252141 0 0.023546103253069141 -0.072910320459944236 0 0.02423959759845962 -0.064187955456294077 0 0.01480513117842824 -0.069359283456252141 0 0.02423959759845962 -0.064187955456294077 0 0.016663983053009999 -0.057941373095140768 0 0.01480513117842824 -0.069359283456252141 0 0.023546103253069141 -0.072910320459944236 0 0.017065173630780351 -0.081386830177449077 0 0.023546103253069141 -0.072910320459944236 0 0.02423959759845962 -0.064187955456294077 0 0.029167657771797761 -0.067239330800239028 0 0.023546103253069141 -0.072910320459944236 0 0.029167657771797761 -0.067239330800239028 0 0.035751306475104258 -0.06876189055478682 0 0.02423959759845962 -0.064187955456294077 0 0.029167657771797761 -0.067239330800239028 0 0.033133623760558013 -0.063097156729930978 0 0.017065173630780351 -0.081386830177449077 0 0.029426398196090591 -0.084964291732488179 0 0.041178985656515128 -0.075250951218705078 0 0.017065173630780351 -0.081386830177449077 0 0.041178985656515128 -0.075250951218705078 0 0.0097988358855746038 -0.091209614697915914 0 0.02104958487818015 -0.090640242662177656 0 0.017065173630780351 -0.081386830177449077 0 0.01668386460996488 -0.099094766715347241 0 0.0097988358855746038 -0.091209614697915914 0 0.02104958487818015 -0.090640242662177656 0 0.02104958487818015 -0.090640242662177656 0 0.017065173630780351 -0.081386830177449077 0 0.029426398196090591 -0.084964291732488179 0 0.029426398196090591 -0.084964291732488179 0 0.028686338076388571 -0.091884180578159017 0 0.03158627363583822 -0.087126662229999582 0 0.02104958487818015 -0.090640242662177656 0 0.029426398196090591 -0.084964291732488179 0 0.028686338076388571 -0.091884180578159017 0 0.028686338076388571 -0.091884180578159017 0 0.036443974206387487 -0.091246577417726696 0 0.03158627363583822 -0.087126662229999582 0 0.036443974206387487 -0.091246577417726696 0 0.03158627363583822 -0.087126662229999582 0 0.036992033298841133 -0.083496883528438676 0 0.029426398196090591 -0.084964291732488179 0 0.036992033298841133 -0.083496883528438676 0 0.041178985656515128 -0.075250951218705078 0 0.029426398196090591 -0.084964291732488179 0 0.03158627363583822 -0.087126662229999582 0 0.036992033298841133 -0.083496883528438676 0 0.036992033298841133 -0.083496883528438676 0 0.042963272109452152 -0.080506823091663238 0 0.041178985656515128 -0.075250951218705078 0 0.036992033298841133 -0.083496883528438676 0 0.042963272109452152 -0.080506823091663238 0 0.044969570209950828 -0.087402791297020166 0 0.036443974206387487 -0.091246577417726696 0 0.044969570209950828 -0.087402791297020166 0 0.044681895593991217 -0.098324829466590602 0 0.036443974206387487 -0.091246577417726696 0 0.036992033298841133 -0.083496883528438676 0 0.044969570209950828 -0.087402791297020166 0 0.023546103253069141 -0.072910320459944236 0 0.043031100112117568 -0.072372093168837831 0 0.023546103253069141 -0.072910320459944236 0 0.035751306475104258 -0.06876189055478682 0 0.043031100112117568 -0.072372093168837831 0 0.023546103253069141 -0.072910320459944236 0 0.041178985656515128 -0.075250951218705078 0 0.043031100112117568 -0.072372093168837831 0 0.033133623760558013 -0.063097156729930978 0 0.035751306475104258 -0.06876189055478682 0 0.041065186070428403 -0.063602818443928705 0 0.029167657771797761 -0.067239330800239028 0 0.033133623760558013 -0.063097156729930978 0 0.035751306475104258 -0.06876189055478682 0 0.042963272109452152 -0.080506823091663238 0 0.041178985656515128 -0.075250951218705078 0 0.044007623679926083 -0.076030266163008342 0 0.041178985656515128 -0.075250951218705078 0 0.044007623679926083 -0.076030266163008342 0 0.043031100112117568 -0.072372093168837831 0 0.042963272109452152 -0.080506823091663238 0 0.044007623679926083 -0.076030266163008342 0 0.047922639523626007 -0.076981536545706136 0 0.044007623679926083 -0.076030266163008342 0 0.043031100112117568 -0.072372093168837831 0 0.047922639523626007 -0.076981536545706136 0 0.043031100112117568 -0.072372093168837831 0 0.044765942646973367 -0.066629269049012549 0 0.052612686629454557 -0.066277618833923926 0 0.035751306475104258 -0.06876189055478682 0 0.043031100112117568 -0.072372093168837831 0 0.041153383826155902 -0.06784151780414148 0 0.035751306475104258 -0.06876189055478682 0 0.041153383826155902 -0.06784151780414148 0 0.041065186070428403 -0.063602818443928705 0 0.043031100112117568 -0.072372093168837831 0 0.041153383826155902 -0.06784151780414148 0 0.044765942646973367 -0.066629269049012549 0 0.044765942646973367 -0.066629269049012549 0 0.041065186070428403 -0.063602818443928705 0 0.047552686955732011 -0.062423421899839862 0 0.041153383826155902 -0.06784151780414148 0 0.044765942646973367 -0.066629269049012549 0 0.041065186070428403 -0.063602818443928705 0 0.043031100112117568 -0.072372093168837831 0 0.047922639523626007 -0.076981536545706136 0 0.06251609697116603 -0.071833865877731523 0 0.043031100112117568 -0.072372093168837831 0 0.06251609697116603 -0.071833865877731523 0 0.043031100112117568 -0.072372093168837831 0 0.052612686629454557 -0.066277618833923926 0 0.06251609697116603 -0.071833865877731523 0 0.044765942646973367 -0.066629269049012549 0 0.052612686629454557 -0.066277618833923926 0 0.047552686955732011 -0.062423421899839862 0 0.052612686629454557 -0.066277618833923926 0 0.047552686955732011 -0.062423421899839862 0 0.05373385076633333 -0.05880892852443001 0 0.047922639523626007 -0.076981536545706136 0 0.06251609697116603 -0.071833865877731523 0 0.053014668458990541 -0.080830234086494396 0 0.052612686629454557 -0.066277618833923926 0 0.06251609697116603 -0.071833865877731523 0 0.05373385076633333 -0.05880892852443001 0 0.06251609697116603 -0.071833865877731523 0 0.060970444829032959 -0.093003564089118557 0 0.06251609697116603 -0.071833865877731523 0 0.053014668458990541 -0.080830234086494396 0 0.060970444829032959 -0.093003564089118557 0 0.044969570209950828 -0.087402791297020166 0 0.060970444829032959 -0.093003564089118557 0 0.044681895593991217 -0.098324829466590602 0 0.044969570209950828 -0.087402791297020166 0 0.053014668458990541 -0.080830234086494396 0 0.060970444829032959 -0.093003564089118557 0 0.042963272109452152 -0.080506823091663238 0 0.047922639523626007 -0.076981536545706136 0 0.053014668458990541 -0.080830234086494396 0 0.042963272109452152 -0.080506823091663238 0 0.044969570209950828 -0.087402791297020166 0 0.053014668458990541 -0.080830234086494396 0 0.060970444829032959 -0.093003564089118557 0 0.054827902623340023 -0.1034406971035006 0 0.06711923445118069 -0.1055865644253966 0 0.060970444829032959 -0.093003564089118557 0 0.054827902623340023 -0.1034406971035006 0 0.044681895593991217 -0.098324829466590602 0 0.054827902623340023 -0.1034406971035006 0 0.046171054302349621 -0.1101163332448488 0 0.044681895593991217 -0.098324829466590602 0 0.054827902623340023 -0.1034406971035006 0 0.05591936818679525 -0.1125590658426243 0 0.046171054302349621 -0.1101163332448488 0 0.054827902623340023 -0.1034406971035006 0 0.05591936818679525 -0.1125590658426243 0 0.06711923445118069 -0.1055865644253966 0 0.06446619459724931 -0.1253099609031437 0 0.05591936818679525 -0.1125590658426243 0 0.048769993123480841 -0.121693477832837 0 0.06446619459724931 -0.1253099609031437 0 0.05591936818679525 -0.1125590658426243 0 0.06711923445118069 -0.1055865644253966 0 0.05591936818679525 -0.1125590658426243 0 0.048769993123480841 -0.121693477832837 0 0.046171054302349621 -0.1101163332448488 0 0.046171054302349621 -0.1101163332448488 0 0.037250690906926807 -0.119053068873236 0 0.037552177598923278 -0.1073525816789718 0 0.048769993123480841 -0.121693477832837 0 0.046171054302349621 -0.1101163332448488 0 0.037250690906926807 -0.119053068873236 0 0.040626961971112603 -0.12879376081557661 0 0.048769993123480841 -0.121693477832837 0 0.037250690906926807 -0.119053068873236 0 0.028079942048021521 -0.1101536609579184 0 0.037250690906926807 -0.119053068873236 0 0.037552177598923278 -0.1073525816789718 0 0.037552177598923278 -0.1073525816789718 0 0.034395834988452188 -0.099044583937690792 0 0.044681895593991217 -0.098324829466590602 0 0.028079942048021521 -0.1101536609579184 0 0.037552177598923278 -0.1073525816789718 0 0.034395834988452188 -0.099044583937690792 0 0.036443974206387487 -0.091246577417726696 0 0.034395834988452188 -0.099044583937690792 0 0.044681895593991217 -0.098324829466590602 0 0.028686338076388571 -0.091884180578159017 0 0.036443974206387487 -0.091246577417726696 0 0.034395834988452188 -0.099044583937690792 0 0.046171054302349621 -0.1101163332448488 0 0.037552177598923278 -0.1073525816789718 0 0.044681895593991217 -0.098324829466590602 0 0.019587949351128071 0.002405934079128156 0 0.0086717366238725311 -0.0095015071444512437 0 0.032717044388414128 -0.00022294767518126881 0 0.023257713098001662 -0.01150505605419477 0 0.0086717366238725311 -0.0095015071444512437 0 0.032717044388414128 -0.00022294767518126881 0 0.023257713098001662 -0.01150505605419477 0 0.031929274908111697 -0.020182732918346581 0 0.032717044388414128 -0.00022294767518126881 0 0.0086717366238725311 -0.0095015071444512437 0 0.032717044388414128 -0.00022294767518126881 0 0.019587949351128071 0.002405934079128156 0 0.01057394725604094 -0.00023765587989192039 0 0.0086717366238725311 -0.0095015071444512437 0 0.0048101977232623471 0.0047236435778324742 0 0.01057394725604094 -0.00023765587989192039 0 0.0024568228245273188 -0.0058992493484748354 0 0.01057394725604094 -0.00023765587989192039 0 0.0024568228245273188 -0.0058992493484748354 0 0.0086717366238725311 -0.0095015071444512437 0 0.023257713098001662 -0.01150505605419477 0 0.0086717366238725311 -0.0095015071444512437 0 0.01458682804792308 -0.016670530511259999 0 0.0086717366238725311 -0.0095015071444512437 0 0.01458682804792308 -0.016670530511259999 0 0.0063899339633831931 -0.018225565178082201 0 0.01092406483339174 -0.02320537209454859 0 0.01458682804792308 -0.016670530511259999 0 0.0063899339633831931 -0.018225565178082201 0 -0.0015370784557240469 -0.02005925164403383 0 0.0086717366238725311 -0.0095015071444512437 0 0.0063899339633831931 -0.018225565178082201 0 -0.0015370784557240469 -0.02005925164403383 0 0.0063899339633831931 -0.018225565178082201 0 0.0023413406826586491 -0.025706590140771781 0 0.01092406483339174 -0.02320537209454859 0 0.0063899339633831931 -0.018225565178082201 0 0.0023413406826586491 -0.025706590140771781 0 0.01092406483339174 -0.02320537209454859 0 0.0023413406826586491 -0.025706590140771781 0 0.009850334754487251 -0.032177477531656472 0 0.0023413406826586491 -0.025706590140771781 0 0.009850334754487251 -0.032177477531656472 0 0.00026944013316385822 -0.035283918163044208 0 0.01092406483339174 -0.02320537209454859 0 0.021817212433368909 -0.026826339691437259 0 0.009850334754487251 -0.032177477531656472 0 0.021817212433368909 -0.026826339691437259 0 0.035378139579201939 -0.036554528672117358 0 0.031929274908111697 -0.020182732918346581 0 0.023257713098001662 -0.01150505605419477 0 0.01458682804792308 -0.016670530511259999 0 0.021817212433368909 -0.026826339691437259 0 0.01092406483339174 -0.02320537209454859 0 0.01458682804792308 -0.016670530511259999 0 0.021817212433368909 -0.026826339691437259 0 0.023257713098001662 -0.01150505605419477 0 0.021817212433368909 -0.026826339691437259 0 0.031929274908111697 -0.020182732918346581 0 0.021817212433368909 -0.026826339691437259 0 0.02379157485757161 -0.040850704057474707 0 0.035378139579201939 -0.036554528672117358 0 0.02379157485757161 -0.040850704057474707 0 0.0231046144986061 -0.049973643310759493 0 0.031537111094982931 -0.047795512364342672 0 0.02379157485757161 -0.040850704057474707 0 0.031537111094982931 -0.047795512364342672 0 0.035378139579201939 -0.036554528672117358 0 0.02379157485757161 -0.040850704057474707 0 0.015379084804312611 -0.038203862857614158 0 0.01574156347782189 -0.046975593310203193 0 0.02379157485757161 -0.040850704057474707 0 0.01574156347782189 -0.046975593310203193 0 0.0231046144986061 -0.049973643310759493 0 0.021817212433368909 -0.026826339691437259 0 0.015379084804312611 -0.038203862857614158 0 0.009850334754487251 -0.032177477531656472 0 0.021817212433368909 -0.026826339691437259 0 0.02379157485757161 -0.040850704057474707 0 0.015379084804312611 -0.038203862857614158 0 0.015379084804312611 -0.038203862857614158 0 0.009850334754487251 -0.032177477531656472 0 0.0080896124782925526 -0.042587576047027807 0 0.009850334754487251 -0.032177477531656472 0 0.00026944013316385822 -0.035283918163044208 0 0.0080896124782925526 -0.042587576047027807 0 -0.00089835853485555409 -0.044715385004938837 0 0.00026944013316385822 -0.035283918163044208 0 0.0080896124782925526 -0.042587576047027807 0 -0.00089835853485555409 -0.044715385004938837 0 0.0080896124782925526 -0.042587576047027807 0 0.0074184355433383701 -0.05274226678376738 0 0.015379084804312611 -0.038203862857614158 0 0.0080896124782925526 -0.042587576047027807 0 0.01574156347782189 -0.046975593310203193 0 0.0080896124782925526 -0.042587576047027807 0 0.0074184355433383701 -0.05274226678376738 0 0.01574156347782189 -0.046975593310203193 0 0.0074184355433383701 -0.05274226678376738 0 0.016663983053009999 -0.057941373095140768 0 0.01574156347782189 -0.046975593310203193 0 -0.00089835853485555409 -0.044715385004938837 0 -0.0021208385016765201 -0.054023033810274658 0 0.0074184355433383701 -0.05274226678376738 0 -0.0021208385016765201 -0.054023033810274658 0 0.0036254775754798541 -0.064395336985159243 0 0.0074184355433383701 -0.05274226678376738 0 0.0036254775754798541 -0.064395336985159243 0 0.0074184355433383701 -0.05274226678376738 0 0.016663983053009999 -0.057941373095140768 0 0.02423959759845962 -0.064187955456294077 0 0.016663983053009999 -0.057941373095140768 0 0.0277888400096441 -0.056305033726636103 0 0.016663983053009999 -0.057941373095140768 0 0.0231046144986061 -0.049973643310759493 0 0.0277888400096441 -0.056305033726636103 0 0.016663983053009999 -0.057941373095140768 0 0.01574156347782189 -0.046975593310203193 0 0.0231046144986061 -0.049973643310759493 0 0.0231046144986061 -0.049973643310759493 0 0.0277888400096441 -0.056305033726636103 0 0.031537111094982931 -0.047795512364342672 0 0.02423959759845962 -0.064187955456294077 0 0.033133623760558013 -0.063097156729930978 0 0.0277888400096441 -0.056305033726636103 0 0.033133623760558013 -0.063097156729930978 0 0.041065186070428403 -0.063602818443928705 0 0.036854597430458269 -0.056081239519049503 0 0.033133623760558013 -0.063097156729930978 0 0.0277888400096441 -0.056305033726636103 0 0.036854597430458269 -0.056081239519049503 0 0.036854597430458269 -0.056081239519049503 0 0.031537111094982931 -0.047795512364342672 0 0.041213060573563449 -0.048183579503298837 0 0.0277888400096441 -0.056305033726636103 0 0.036854597430458269 -0.056081239519049503 0 0.031537111094982931 -0.047795512364342672 0 0.041213060573563449 -0.048183579503298837 0 0.049581897492068303 -0.051441026344531578 0 0.047141321760246338 -0.042027511724600737 0 0.036854597430458269 -0.056081239519049503 0 0.041213060573563449 -0.048183579503298837 0 0.045585768665470407 -0.056798474647904107 0 0.041213060573563449 -0.048183579503298837 0 0.045585768665470407 -0.056798474647904107 0 0.049581897492068303 -0.051441026344531578 0 0.041065186070428403 -0.063602818443928705 0 0.036854597430458269 -0.056081239519049503 0 0.045585768665470407 -0.056798474647904107 0 0.041065186070428403 -0.063602818443928705 0 0.045585768665470407 -0.056798474647904107 0 0.047552686955732011 -0.062423421899839862 0 0.045585768665470407 -0.056798474647904107 0 0.047552686955732011 -0.062423421899839862 0 0.05373385076633333 -0.05880892852443001 0 0.06251609697116603 -0.071833865877731523 0 0.060235485694727989 -0.05138663732242419 0 0.064420031066086347 -0.04575703454865291 0 0.045585768665470407 -0.056798474647904107 0 0.05373385076633333 -0.05880892852443001 0 0.049581897492068303 -0.051441026344531578 0 0.06251609697116603 -0.071833865877731523 0 0.05373385076633333 -0.05880892852443001 0 0.060235485694727989 -0.05138663732242419 0 0.05373385076633333 -0.05880892852443001 0 0.060235485694727989 -0.05138663732242419 0 0.049581897492068303 -0.051441026344531578 0 0.060235485694727989 -0.05138663732242419 0 0.049581897492068303 -0.051441026344531578 0 0.047141321760246338 -0.042027511724600737 0 0.060235485694727989 -0.05138663732242419 0 0.046476265041571853 -0.02580479249880225 0 0.060235485694727989 -0.05138663732242419 0 0.046476265041571853 -0.02580479249880225 0 0.064420031066086347 -0.04575703454865291 0 0.060235485694727989 -0.05138663732242419 0 0.047141321760246338 -0.042027511724600737 0 0.046476265041571853 -0.02580479249880225 0 0.046476265041571853 -0.02580479249880225 0 0.058241665016994688 -0.025483374905415811 0 0.064420031066086347 -0.04575703454865291 0 0.047141321760246338 -0.042027511724600737 0 0.035378139579201939 -0.036554528672117358 0 0.046476265041571853 -0.02580479249880225 0 0.041213060573563449 -0.048183579503298837 0 0.047141321760246338 -0.042027511724600737 0 0.035378139579201939 -0.036554528672117358 0 0.031537111094982931 -0.047795512364342672 0 0.041213060573563449 -0.048183579503298837 0 0.035378139579201939 -0.036554528672117358 0 0.035378139579201939 -0.036554528672117358 0 0.031929274908111697 -0.020182732918346581 0 0.046476265041571853 -0.02580479249880225 0 0.046476265041571853 -0.02580479249880225 0 0.053119615960555977 -0.016645480887284372 0 0.046785098072576803 -0.0084810115611453647 0 0.058241665016994688 -0.025483374905415811 0 0.053119615960555977 -0.016645480887284372 0 0.063543147694140073 -0.017063478311206859 0 0.046476265041571853 -0.02580479249880225 0 0.058241665016994688 -0.025483374905415811 0 0.053119615960555977 -0.016645480887284372 0 0.053119615960555977 -0.016645480887284372 0 0.054587243132687133 -0.005030141054661607 0 0.046785098072576803 -0.0084810115611453647 0 0.053119615960555977 -0.016645480887284372 0 0.059715107624980737 -0.010199898887032099 0 0.063543147694140073 -0.017063478311206859 0 0.053119615960555977 -0.016645480887284372 0 0.059715107624980737 -0.010199898887032099 0 0.054587243132687133 -0.005030141054661607 0 0.058975878380341823 0.001701104691348615 0 0.054587243132687133 -0.005030141054661607 0 0.067610423712539836 -0.0020604952949755742 0 0.059715107624980737 -0.010199898887032099 0 0.054587243132687133 -0.005030141054661607 0 0.067610423712539836 -0.0020604952949755742 0 0.047025321839654959 0.0052983043102026676 0 0.054587243132687133 -0.005030141054661607 0 0.046785098072576803 -0.0084810115611453647 0 0.046476265041571853 -0.02580479249880225 0 0.046785098072576803 -0.0084810115611453647 0 0.032717044388414128 -0.00022294767518126881 0 0.047025321839654959 0.0052983043102026676 0 0.046785098072576803 -0.0084810115611453647 0 0.032717044388414128 -0.00022294767518126881 0 0.031929274908111697 -0.020182732918346581 0 0.046476265041571853 -0.02580479249880225 0 0.032717044388414128 -0.00022294767518126881 0 0.046476265041571853 -0.02580479249880225 0 0.032717044388414128 -0.00022294767518126881 0 0.091567309821212278 -0.00098424470217601612 0 0.090187895611911317 -0.0089075023451387243 0 0.082087524036717277 -0.0047761931783755667 0 0.091567309821212278 -0.00098424470217601612 0 0.090187895611911317 -0.0089075023451387243 0 0.09426652283997719 -0.0054855866211358656 0 0.090187895611911317 -0.0089075023451387243 0 0.086100810963052082 -0.016794659866634171 0 0.094784056893833055 -0.016956172173252401 0 0.090187895611911317 -0.0089075023451387243 0 0.082087524036717277 -0.0047761931783755667 0 0.086100810963052082 -0.016794659866634171 0 0.082087524036717277 -0.0047761931783755667 0 0.075999230663272008 -0.014783584742966101 0 0.086100810963052082 -0.016794659866634171 0 0.082087524036717277 -0.0047761931783755667 0 0.067610423712539836 -0.0020604952949755742 0 0.075999230663272008 -0.014783584742966101 0 0.077845831092297979 0.0053110267895053499 0 0.082087524036717277 -0.0047761931783755667 0 0.067610423712539836 -0.0020604952949755742 0 0.067610423712539836 -0.0020604952949755742 0 0.066323965161006498 -0.0196802032195743 0 0.063543147694140073 -0.017063478311206859 0 0.067610423712539836 -0.0020604952949755742 0 0.066323965161006498 -0.0196802032195743 0 0.067610423712539836 -0.0020604952949755742 0 0.075999230663272008 -0.014783584742966101 0 0.066323965161006498 -0.0196802032195743 0 0.059715107624980737 -0.010199898887032099 0 0.067610423712539836 -0.0020604952949755742 0 0.063543147694140073 -0.017063478311206859 0 0.058241665016994688 -0.025483374905415811 0 0.066323965161006498 -0.0196802032195743 0 0.064420031066086347 -0.04575703454865291 0 0.075999230663272008 -0.014783584742966101 0 0.066323965161006498 -0.0196802032195743 0 0.080802678671223788 -0.033304545965809007 0 0.058241665016994688 -0.025483374905415811 0 0.066323965161006498 -0.0196802032195743 0 0.063543147694140073 -0.017063478311206859 0 0.066323965161006498 -0.0196802032195743 0 0.063543147694140073 -0.017063478311206859 0 0.066323965161006498 -0.0196802032195743 0 0.080802678671223788 -0.033304545965809007 0 0.086100810963052082 -0.016794659866634171 0 0.093414515066320425 -0.028121519986110999 0 0.080802678671223788 -0.033304545965809007 0 0.075999230663272008 -0.014783584742966101 0 0.086100810963052082 -0.016794659866634171 0 0.080802678671223788 -0.033304545965809007 0 0.086100810963052082 -0.016794659866634171 0 0.093414515066320425 -0.028121519986110999 0 0.094784056893833055 -0.016956172173252401 0 0.093414515066320425 -0.028121519986110999 0 0.080802678671223788 -0.033304545965809007 0 0.095281392181443603 -0.046928888712040977 0 0.080802678671223788 -0.033304545965809007 0 0.077090064748152054 -0.05395164358281767 0 0.095281392181443603 -0.046928888712040977 0 0.080802678671223788 -0.033304545965809007 0 0.095281392181443603 -0.046928888712040977 0 0.066323965161006498 -0.0196802032195743 0 0.080802678671223788 -0.033304545965809007 0 0.064420031066086347 -0.04575703454865291 0 0.080802678671223788 -0.033304545965809007 0 0.064420031066086347 -0.04575703454865291 0 0.077090064748152054 -0.05395164358281767 0 0.066323965161006498 -0.0196802032195743 0 0.064420031066086347 -0.04575703454865291 0 0.06251609697116603 -0.071833865877731523 0 0.064420031066086347 -0.04575703454865291 0 0.077090064748152054 -0.05395164358281767 0 0.06251609697116603 -0.071833865877731523 0 0.064420031066086347 -0.04575703454865291 0 0.077090064748152054 -0.05395164358281767 0 0.095281392181443603 -0.046928888712040977 0 0.077506178740453194 -0.071419800062757985 0 0.095281392181443603 -0.046928888712040977 0 0.1020009571097126 -0.053251940523500671 0 0.077506178740453194 -0.071419800062757985 0 0.095281392181443603 -0.046928888712040977 0 0.077506178740453194 -0.071419800062757985 0 0.1020009571097126 -0.053251940523500671 0 0.1003782834275971 -0.070788011870200646 0 0.095281392181443603 -0.046928888712040977 0 0.1020009571097126 -0.053251940523500671 0 0.1177081146228183 -0.050164952916099501 0 0.1200589766458697 -0.070244378926624093 0 0.1272162213160721 -0.059219359834759039 0 0.1020009571097126 -0.053251940523500671 0 0.1200589766458697 -0.070244378926624093 0 0.1020009571097126 -0.053251940523500671 0 0.1177081146228183 -0.050164952916099501 0 0.1200589766458697 -0.070244378926624093 0 0.1177081146228183 -0.050164952916099501 0 0.1284821000579246 -0.047798265165130749 0 0.1272162213160721 -0.059219359834759039 0 0.1177081146228183 -0.050164952916099501 0 0.1248369981728381 -0.035081988839732597 0 0.10365343443449269 -0.035393784206851228 0 0.1177081146228183 -0.050164952916099501 0 0.1248369981728381 -0.035081988839732597 0 0.1284821000579246 -0.047798265165130749 0 0.1020009571097126 -0.053251940523500671 0 0.1177081146228183 -0.050164952916099501 0 0.10365343443449269 -0.035393784206851228 0 0.095281392181443603 -0.046928888712040977 0 0.1020009571097126 -0.053251940523500671 0 0.10365343443449269 -0.035393784206851228 0 0.093414515066320425 -0.028121519986110999 0 0.095281392181443603 -0.046928888712040977 0 0.10365343443449269 -0.035393784206851228 0 0.1020009571097126 -0.053251940523500671 0 0.10365343443449269 -0.035393784206851228 0 0.095281392181443603 -0.046928888712040977 0 0.10365343443449269 -0.035393784206851228 0 0.10365343443449269 -0.035393784206851228 0 0.1033876500926683 -0.01814066792612366 0 0.1053836954224675 -0.016695027662019871 0 0.10365343443449269 -0.035393784206851228 0 0.098438606449605309 -0.02224970348542394 0 0.1033876500926683 -0.01814066792612366 0 0.10365343443449269 -0.035393784206851228 0 0.1053836954224675 -0.016695027662019871 0 0.1092768655393111 -0.018545671374139011 0 0.10365343443449269 -0.035393784206851228 0 0.1053836954224675 -0.016695027662019871 0 0.093414515066320425 -0.028121519986110999 0 0.10365343443449269 -0.035393784206851228 0 0.098438606449605309 -0.02224970348542394 0 0.093414515066320425 -0.028121519986110999 0 0.094784056893833055 -0.016956172173252401 0 0.098438606449605309 -0.02224970348542394 0 0.094784056893833055 -0.016956172173252401 0 0.099213642067155966 -0.018293566119774649 0 0.098438606449605309 -0.02224970348542394 0 0.099213642067155966 -0.018293566119774649 0 0.1002442548325173 -0.015827720894298611 0 0.1033876500926683 -0.01814066792612366 0 0.094784056893833055 -0.016956172173252401 0 0.099213642067155966 -0.018293566119774649 0 0.1002442548325173 -0.015827720894298611 0 0.099213642067155966 -0.018293566119774649 0 0.098438606449605309 -0.02224970348542394 0 0.1033876500926683 -0.01814066792612366 0 0.1002442548325173 -0.015827720894298611 0 0.1033876500926683 -0.01814066792612366 0 0.1053836954224675 -0.016695027662019871 0 0.1033876500926683 -0.01814066792612366 0 0.1053836954224675 -0.016695027662019871 0 0.10365343443449269 -0.035393784206851228 0 0.11594398246420359 -0.018459713443277969 0 0.1248369981728381 -0.035081988839732597 0 0.10365343443449269 -0.035393784206851228 0 0.11594398246420359 -0.018459713443277969 0 0.10365343443449269 -0.035393784206851228 0 0.1092768655393111 -0.018545671374139011 0 0.11594398246420359 -0.018459713443277969 0 0.1092768655393111 -0.018545671374139011 0 0.11594398246420359 -0.018459713443277969 0 0.1053836954224675 -0.016695027662019871 0 0.1092768655393111 -0.018545671374139011 0 0.117865161737724 -0.0076552979569657533 0 0.1053836954224675 -0.016695027662019871 0 0.117865161737724 -0.0076552979569657533 0 0.1133883428256052 -0.0027087516383113128 0 0.1092768655393111 -0.018545671374139011 0 0.11594398246420359 -0.018459713443277969 0 0.117865161737724 -0.0076552979569657533 0 0.109817181641197 0.0076652885519670694 0 0.1053836954224675 -0.016695027662019871 0 0.1133883428256052 -0.0027087516383113128 0 0.1053836954224675 -0.016695027662019871 0 0.117865161737724 -0.0076552979569657533 0 0.13034662805298211 0.001384431748086113 0 0.11594398246420359 -0.018459713443277969 0 0.117865161737724 -0.0076552979569657533 0 0.13034662805298211 0.001384431748086113 0 0.11594398246420359 -0.018459713443277969 0 0.1204873325010313 0.0058500305137734162 0 0.13034662805298211 0.001384431748086113 0 0.117865161737724 -0.0076552979569657533 0 0.1204873325010313 0.0058500305137734162 0 0.117865161737724 -0.0076552979569657533 0 0.1133883428256052 -0.0027087516383113128 0 0.13034662805298211 0.001384431748086113 0 0.117865161737724 -0.0076552979569657533 0 0.1053836954224675 -0.016695027662019871 0 0.098299788400157725 -0.0090148575405829788 0 0.10157561452540199 -0.00040726733682942259 0 0.10812138201279491 0.01289087608560582 0 0.1053836954224675 -0.016695027662019871 0 0.10157561452540199 -0.00040726733682942259 0 0.10812138201279491 0.01289087608560582 0 0.1053836954224675 -0.016695027662019871 0 0.094784056893833055 -0.016956172173252401 0 0.1002442548325173 -0.015827720894298611 0 0.098299788400157725 -0.0090148575405829788 0 0.090187895611911317 -0.0089075023451387243 0 0.098299788400157725 -0.0090148575405829788 0 0.09426652283997719 -0.0054855866211358656 0 0.090187895611911317 -0.0089075023451387243 0 0.094784056893833055 -0.016956172173252401 0 0.098299788400157725 -0.0090148575405829788 0 0.1002442548325173 -0.015827720894298611 0 0.1053836954224675 -0.016695027662019871 0 0.098299788400157725 -0.0090148575405829788 0 0.098299788400157725 -0.0090148575405829788 0 0.09426652283997719 -0.0054855866211358656 0 0.096846041952465156 -0.0024841775821734659 0 0.098299788400157725 -0.0090148575405829788 0 0.096846041952465156 -0.0024841775821734659 0 0.10157561452540199 -0.00040726733682942259 0 0.096890073032441237 0.0023318467723570822 0 0.091567309821212278 -0.00098424470217601612 0 0.096846041952465156 -0.0024841775821734659 0 0.091567309821212278 -0.00098424470217601612 0 0.09426652283997719 -0.0054855866211358656 0 0.096846041952465156 -0.0024841775821734659 0 0.096890073032441237 0.0023318467723570822 0 0.096846041952465156 -0.0024841775821734659 0 0.10157561452540199 -0.00040726733682942259 0 0.080772711985716283 -0.096351267676873339 0 0.080345010836471775 -0.1143318990481081 0 0.097122575387544596 -0.1059721213455999 0 0.080772711985716283 -0.096351267676873339 0 0.098750429407571005 -0.088380066607900293 0 0.097122575387544596 -0.1059721213455999 0 0.079262881563485155 -0.13020642029344029 0 0.080345010836471775 -0.1143318990481081 0 0.093050612780599368 -0.122731887022332 0 0.080345010836471775 -0.1143318990481081 0 0.093050612780599368 -0.122731887022332 0 0.097122575387544596 -0.1059721213455999 0 0.079262881563485155 -0.13020642029344029 0 0.06446619459724931 -0.1253099609031437 0 0.080345010836471775 -0.1143318990481081 0 0.06446619459724931 -0.1253099609031437 0 0.080345010836471775 -0.1143318990481081 0 0.06711923445118069 -0.1055865644253966 0 0.060970444829032959 -0.093003564089118557 0 0.080772711985716283 -0.096351267676873339 0 0.06711923445118069 -0.1055865644253966 0 0.080772711985716283 -0.096351267676873339 0 0.080345010836471775 -0.1143318990481081 0 0.06711923445118069 -0.1055865644253966 0 0.06251609697116603 -0.071833865877731523 0 0.060970444829032959 -0.093003564089118557 0 0.07294490709261725 -0.077704377175965442 0 0.060970444829032959 -0.093003564089118557 0 0.080772711985716283 -0.096351267676873339 0 0.077213899256823162 -0.086463736973477062 0 0.060970444829032959 -0.093003564089118557 0 0.077213899256823162 -0.086463736973477062 0 0.07294490709261725 -0.077704377175965442 0 0.06251609697116603 -0.071833865877731523 0 0.077090064748152054 -0.05395164358281767 0 0.077506178740453194 -0.071419800062757985 0 0.06251609697116603 -0.071833865877731523 0 0.077506178740453194 -0.071419800062757985 0 0.06251609697116603 -0.071833865877731523 0 0.07294490709261725 -0.077704377175965442 0 0.077506178740453194 -0.071419800062757985 0 0.07294490709261725 -0.077704377175965442 0 0.077506178740453194 -0.071419800062757985 0 0.1020009571097126 -0.053251940523500671 0 0.077506178740453194 -0.071419800062757985 0 0.1003782834275971 -0.070788011870200646 0 0.077506178740453194 -0.071419800062757985 0 0.1003782834275971 -0.070788011870200646 0 0.077506178740453194 -0.071419800062757985 0 0.085022539887948806 -0.082022143518405893 0 0.1003782834275971 -0.070788011870200646 0 0.07294490709261725 -0.077704377175965442 0 0.077506178740453194 -0.071419800062757985 0 0.085022539887948806 -0.082022143518405893 0 0.080772711985716283 -0.096351267676873339 0 0.085022539887948806 -0.082022143518405893 0 0.098750429407571005 -0.088380066607900293 0 0.080772711985716283 -0.096351267676873339 0 0.077213899256823162 -0.086463736973477062 0 0.085022539887948806 -0.082022143518405893 0 0.077213899256823162 -0.086463736973477062 0 0.07294490709261725 -0.077704377175965442 0 0.085022539887948806 -0.082022143518405893 0 0.098750429407571005 -0.088380066607900293 0 0.1003782834275971 -0.070788011870200646 0 0.098750429407571005 -0.088380066607900293 0 0.1003782834275971 -0.070788011870200646 0 0.11415778296492959 -0.084196290613444094 0 0.085022539887948806 -0.082022143518405893 0 0.098750429407571005 -0.088380066607900293 0 0.1003782834275971 -0.070788011870200646 0 0.098750429407571005 -0.088380066607900293 0 0.11415778296492959 -0.084196290613444094 0 0.1097792736188721 -0.099016963299914815 0 0.1020009571097126 -0.053251940523500671 0 0.1003782834275971 -0.070788011870200646 0 0.1200589766458697 -0.070244378926624093 0 0.1003782834275971 -0.070788011870200646 0 0.1200589766458697 -0.070244378926624093 0 0.11415778296492959 -0.084196290613444094 0 0.1003782834275971 -0.070788011870200646 0 0.1200589766458697 -0.070244378926624093 0 0.1200589766458697 -0.070244378926624093 0 0.11415778296492959 -0.084196290613444094 0 0.1287248386027865 -0.07839887921487404 0 0.1200589766458697 -0.070244378926624093 0 0.1287248386027865 -0.07839887921487404 0 0.11415778296492959 -0.084196290613444094 0 0.12673999532844599 -0.094192934646620485 0 0.1287248386027865 -0.07839887921487404 0 0.11415778296492959 -0.084196290613444094 0 0.1097792736188721 -0.099016963299914815 0 0.12673999532844599 -0.094192934646620485 0 0.11915123655462639 -0.1079644802590855 0 0.1097792736188721 -0.099016963299914815 0 0.1046999578946016 -0.1154668112555878 0 0.11915123655462639 -0.1079644802590855 0 0.1097792736188721 -0.099016963299914815 0 0.12673999532844599 -0.094192934646620485 0 0.098750429407571005 -0.088380066607900293 0 0.097122575387544596 -0.1059721213455999 0 0.098750429407571005 -0.088380066607900293 0 0.1097792736188721 -0.099016963299914815 0 0.097122575387544596 -0.1059721213455999 0 0.1097792736188721 -0.099016963299914815 0 0.097122575387544596 -0.1059721213455999 0 0.1046999578946016 -0.1154668112555878 0 0.093050612780599368 -0.122731887022332 0 0.097122575387544596 -0.1059721213455999 0 0.1046999578946016 -0.1154668112555878 0 0.099790326417464506 -0.12875288665758061 0 0.093050612780599368 -0.122731887022332 0 0.1046999578946016 -0.1154668112555878 0 0.099790326417464506 -0.12875288665758061 0 0.1099290904545028 -0.1262797901245703 0 0.1046999578946016 -0.1154668112555878 0 0.1211019425767117 -0.12600779024960501 0 0.11915123655462639 -0.1079644802590855 0 0.13321984361715189 -0.1217957038919307 0 0.1099290904545028 -0.1262797901245703 0 0.1211019425767117 -0.12600779024960501 0 0.11915123655462639 -0.1079644802590855 0 0.1099290904545028 -0.1262797901245703 0 0.11915123655462639 -0.1079644802590855 0 0.1046999578946016 -0.1154668112555878 0 0.1099290904545028 -0.1262797901245703 0 0.11915123655462639 -0.1079644802590855 0 0.11915123655462639 -0.1079644802590855 0 0.13321984361715189 -0.1217957038919307 0 0.1415085957521392 -0.10390882509421059 0 0.1415085957521392 -0.10390882509421059 0 0.1666121760167362 -0.098312934844112007 0 0.15605765930186399 -0.12649374125212159 0 0.13321984361715189 -0.1217957038919307 0 0.1415085957521392 -0.10390882509421059 0 0.15605765930186399 -0.12649374125212159 0 0.1415085957521392 -0.10390882509421059 0 0.14970815495822459 -0.087266803899356662 0 0.1666121760167362 -0.098312934844112007 0 0.1415085957521392 -0.10390882509421059 0 0.12673999532844599 -0.094192934646620485 0 0.1374744315731421 -0.088589910750457801 0 0.11915123655462639 -0.1079644802590855 0 0.1415085957521392 -0.10390882509421059 0 0.12673999532844599 -0.094192934646620485 0 0.12673999532844599 -0.094192934646620485 0 0.1287248386027865 -0.07839887921487404 0 0.1374744315731421 -0.088589910750457801 0 0.1287248386027865 -0.07839887921487404 0 0.1374744315731421 -0.088589910750457801 0 0.14069057322411399 -0.079182110897227181 0 0.1200589766458697 -0.070244378926624093 0 0.13464249109747409 -0.069841543579262685 0 0.1200589766458697 -0.070244378926624093 0 0.13464249109747409 -0.069841543579262685 0 0.1272162213160721 -0.059219359834759039 0 0.1200589766458697 -0.070244378926624093 0 0.1287248386027865 -0.07839887921487404 0 0.13464249109747409 -0.069841543579262685 0 0.1287248386027865 -0.07839887921487404 0 0.13464249109747409 -0.069841543579262685 0 0.14069057322411399 -0.079182110897227181 0 0.13464249109747409 -0.069841543579262685 0 0.15185819809677911 -0.069142911538431134 0 0.13988244896142801 -0.056798649230211121 0 0.13464249109747409 -0.069841543579262685 0 0.15185819809677911 -0.069142911538431134 0 0.14069057322411399 -0.079182110897227181 0 0.15185819809677911 -0.069142911538431134 0 0.14069057322411399 -0.079182110897227181 0 0.14970815495822459 -0.087266803899356662 0 0.1415085957521392 -0.10390882509421059 0 0.1374744315731421 -0.088589910750457801 0 0.14970815495822459 -0.087266803899356662 0 0.15185819809677911 -0.069142911538431134 0 0.14970815495822459 -0.087266803899356662 0 0.159758937549182 -0.081583921535531428 0 0.1374744315731421 -0.088589910750457801 0 0.14069057322411399 -0.079182110897227181 0 0.14970815495822459 -0.087266803899356662 0 0.14970815495822459 -0.087266803899356662 0 0.159758937549182 -0.081583921535531428 0 0.1666121760167362 -0.098312934844112007 0 0.17085722112498791 -0.071613035860225882 0 0.1666121760167362 -0.098312934844112007 0 0.159758937549182 -0.081583921535531428 0 0.17085722112498791 -0.071613035860225882 0 0.1666121760167362 -0.098312934844112007 0 0.15185819809677911 -0.069142911538431134 0 0.17085722112498791 -0.071613035860225882 0 0.16325763230781909 -0.05888192041124897 0 0.15185819809677911 -0.069142911538431134 0 0.159758937549182 -0.081583921535531428 0 0.17085722112498791 -0.071613035860225882 0 0.17085722112498791 -0.071613035860225882 0 0.18735351426668609 -0.078465610825437127 0 0.18498799268038579 -0.060293682125138998 0 0.18735351426668609 -0.078465610825437127 0 0.1666121760167362 -0.098312934844112007 0 0.1959548088785408 -0.097417707256057709 0 0.17085722112498791 -0.071613035860225882 0 0.18735351426668609 -0.078465610825437127 0 0.1666121760167362 -0.098312934844112007 0 0.1666121760167362 -0.098312934844112007 0 0.18877606200831551 -0.1208913288245537 0 0.1959548088785408 -0.097417707256057709 0 0.1666121760167362 -0.098312934844112007 0 0.18877606200831551 -0.1208913288245537 0 0.15605765930186399 -0.12649374125212159 0 0.13034662805298211 0.001384431748086113 0 0.1444196249989011 -0.01809258214201314 0 0.1564263838336292 -0.0027420855689384242 0 0.13034662805298211 0.001384431748086113 0 0.11594398246420359 -0.018459713443277969 0 0.1444196249989011 -0.01809258214201314 0 0.11594398246420359 -0.018459713443277969 0 0.1444196249989011 -0.01809258214201314 0 0.1248369981728381 -0.035081988839732597 0 0.11594398246420359 -0.018459713443277969 0 0.1444196249989011 -0.01809258214201314 0 0.1248369981728381 -0.035081988839732597 0 0.1444196249989011 -0.01809258214201314 0 0.14121631612830249 -0.037988446687700891 0 0.1444196249989011 -0.01809258214201314 0 0.14121631612830249 -0.037988446687700891 0 0.15875822583127491 -0.03273202824559799 0 0.14121631612830249 -0.037988446687700891 0 0.15521284377626979 -0.049858597369999119 0 0.15875822583127491 -0.03273202824559799 0 0.1248369981728381 -0.035081988839732597 0 0.14121631612830249 -0.037988446687700891 0 0.1284821000579246 -0.047798265165130749 0 0.14121631612830249 -0.037988446687700891 0 0.1284821000579246 -0.047798265165130749 0 0.13988244896142801 -0.056798649230211121 0 0.1284821000579246 -0.047798265165130749 0 0.1272162213160721 -0.059219359834759039 0 0.13988244896142801 -0.056798649230211121 0 0.13464249109747409 -0.069841543579262685 0 0.1272162213160721 -0.059219359834759039 0 0.13988244896142801 -0.056798649230211121 0 0.15185819809677911 -0.069142911538431134 0 0.13988244896142801 -0.056798649230211121 0 0.15521284377626979 -0.049858597369999119 0 0.14121631612830249 -0.037988446687700891 0 0.13988244896142801 -0.056798649230211121 0 0.15521284377626979 -0.049858597369999119 0 0.15185819809677911 -0.069142911538431134 0 0.15521284377626979 -0.049858597369999119 0 0.16325763230781909 -0.05888192041124897 0 0.15521284377626979 -0.049858597369999119 0 0.16325763230781909 -0.05888192041124897 0 0.1751022662332396 -0.04491313687633975 0 0.17085722112498791 -0.071613035860225882 0 0.16325763230781909 -0.05888192041124897 0 0.1751022662332396 -0.04491313687633975 0 0.17085722112498791 -0.071613035860225882 0 0.1751022662332396 -0.04491313687633975 0 0.18498799268038579 -0.060293682125138998 0 0.1751022662332396 -0.04491313687633975 0 0.1923923637495584 -0.037910681245801527 0 0.17085722112498791 -0.071613035860225882 0 0.18498799268038579 -0.060293682125138998 0 0.1751022662332396 -0.04491313687633975 0 0.1751022662332396 -0.04491313687633975 0 0.17933995112528781 -0.017642360702561768 0 0.1923923637495584 -0.037910681245801527 0 0.1751022662332396 -0.04491313687633975 0 0.17933995112528781 -0.017642360702561768 0 0.15521284377626979 -0.049858597369999119 0 0.1751022662332396 -0.04491313687633975 0 0.15875822583127491 -0.03273202824559799 0 0.1751022662332396 -0.04491313687633975 0 0.15875822583127491 -0.03273202824559799 0 0.17289526753359871 -0.017725450840751129 0 0.1444196249989011 -0.01809258214201314 0 0.17289526753359871 -0.017725450840751129 0 0.1444196249989011 -0.01809258214201314 0 0.15875822583127491 -0.03273202824559799 0 0.17289526753359871 -0.017725450840751129 0 0.1751022662332396 -0.04491313687633975 0 0.17933995112528781 -0.017642360702561768 0 0.17289526753359871 -0.017725450840751129 0 0.17933995112528781 -0.017642360702561768 0 0.17289526753359871 -0.017725450840751129 0 0.17338990426021511 0.0089353632906695613 0 0.17289526753359871 -0.017725450840751129 0 0.19158345893234341 -0.00083487295755481524 0 0.17933995112528781 -0.017642360702561768 0 0.17289526753359871 -0.017725450840751129 0 0.19158345893234341 -0.00083487295755481524 0 0.17338990426021511 0.0089353632906695613 0 0.17289526753359871 -0.017725450840751129 0 0.1564263838336292 -0.0027420855689384242 0 0.1444196249989011 -0.01809258214201314 0 0.17289526753359871 -0.017725450840751129 0 0.1564263838336292 -0.0027420855689384242 0 0.21729458140653729 0.00043280060133069059 0 0.19158345893234341 -0.00083487295755481524 0 0.20137091006829611 -0.01735831953948911 0 0.21729458140653729 0.00043280060133069059 0 0.20137091006829611 -0.01735831953948911 0 0.22984655260299339 -0.016991188238224739 0 0.17933995112528781 -0.017642360702561768 0 0.19158345893234341 -0.00083487295755481524 0 0.20137091006829611 -0.01735831953948911 0 0.20137091006829611 -0.01735831953948911 0 0.21568220649089029 -0.037482662433961679 0 0.1923923637495584 -0.037910681245801527 0 0.17933995112528781 -0.017642360702561768 0 0.20137091006829611 -0.01735831953948911 0 0.17933995112528781 -0.017642360702561768 0 0.20137091006829611 -0.01735831953948911 0 0.1923923637495584 -0.037910681245801527 0 0.20137091006829611 -0.01735831953948911 0 0.21568220649089029 -0.037482662433961679 0 0.22984655260299339 -0.016991188238224739 0 0.20137091006829611 -0.01735831953948911 0 0.22984655260299339 -0.016991188238224739 0 0.21568220649089029 -0.037482662433961679 0 0.1923923637495584 -0.037910681245801527 0 0.20151786037878819 -0.057974136629699413 0 0.18498799268038579 -0.060293682125138998 0 0.1923923637495584 -0.037910681245801527 0 0.20151786037878819 -0.057974136629699413 0 0.21568220649089029 -0.037482662433961679 0 0.20151786037878819 -0.057974136629699413 0 0.22325770377238049 -0.056097645790071239 0 0.21568220649089029 -0.037482662433961679 0 0.20151786037878819 -0.057974136629699413 0 0.22325770377238049 -0.056097645790071239 0 0.2448580173371929 -0.055519512242431797 0 0.23401030084019339 -0.035010456904664533 0 0.22325770377238049 -0.056097645790071239 0 0.2448580173371929 -0.055519512242431797 0 0.2329502774450562 -0.072529031330456281 0 0.25778468750960382 -0.033926540212818643 0 0.2448580173371929 -0.055519512242431797 0 0.23401030084019339 -0.035010456904664533 0 0.21568220649089029 -0.037482662433961679 0 0.22325770377238049 -0.056097645790071239 0 0.23401030084019339 -0.035010456904664533 0 0.23401030084019339 -0.035010456904664533 0 0.22984655260299339 -0.016991188238224739 0 0.23770810395877259 -0.01688983068059904 0 0.21568220649089029 -0.037482662433961679 0 0.23401030084019339 -0.035010456904664533 0 0.22984655260299339 -0.016991188238224739 0 0.21568220649089029 -0.037482662433961679 0 0.22984655260299339 -0.016991188238224739 0 0.22984655260299339 -0.016991188238224739 0 0.23770810395877259 -0.01688983068059904 0 0.25778468750960382 -0.033926540212818643 0 0.25103947100691021 -0.016717951780026191 0 0.23770810395877259 -0.01688983068059904 0 0.25778468750960382 -0.033926540212818643 0 0.23770810395877259 -0.01688983068059904 0 0.25778468750960382 -0.033926540212818643 0 0.23401030084019339 -0.035010456904664533 0 0.23770810395877259 -0.01688983068059904 0 0.25103947100691021 -0.016717951780026191 0 0.23770810395877259 -0.01688983068059904 0 0.25103947100691021 -0.016717951780026191 0 0.23770810395877259 -0.01688983068059904 0 0.2484089677875449 -0.01463295254214088 0 0.23770810395877259 -0.01688983068059904 0 0.23279719935982229 -0.012722505349526649 0 0.24488347523265111 0.00476263714914716 0 0.23279719935982229 -0.012722505349526649 0 0.24488347523265111 0.00476263714914716 0 0.23230624884787579 0.00086340406273482527 0 0.23279719935982229 -0.012722505349526649 0 0.23770810395877259 -0.01688983068059904 0 0.2428440064781324 -0.0088463564238328001 0 0.23279719935982229 -0.012722505349526649 0 0.24488347523265111 0.00476263714914716 0 0.2428440064781324 -0.0088463564238328001 0 0.23279719935982229 -0.012722505349526649 0 0.23770810395877259 -0.01688983068059904 0 0.2428440064781324 -0.0088463564238328001 0 0.2484089677875449 -0.01463295254214088 0 0.25042228605187061 -0.0047491306960444736 0 0.2428440064781324 -0.0088463564238328001 0 0.2484089677875449 -0.01463295254214088 0 0.24488347523265111 0.00476263714914716 0 0.25042228605187061 -0.0047491306960444736 0 0.2428440064781324 -0.0088463564238328001 0 0.23230624884787579 0.00086340406273482527 0 0.21729458140653729 0.00043280060133069059 0 0.23279719935982229 -0.012722505349526649 0 0.21729458140653729 0.00043280060133069059 0 0.22984655260299339 -0.016991188238224739 0 0.23279719935982229 -0.012722505349526649 0 0.22984655260299339 -0.016991188238224739 0 0.23770810395877259 -0.01688983068059904 0 0.23279719935982229 -0.012722505349526649 0 0.22984655260299339 -0.016991188238224739 0 0.23279719935982229 -0.012722505349526649 0 0.21729458140653729 0.00043280060133069059 0 0.23279719935982229 -0.012722505349526649 0 0.21290251098885579 -0.095188760083259397 0 0.2095570298484894 -0.1135775337597703 0 0.1959548088785408 -0.097417707256057709 0 0.2095570298484894 -0.1135775337597703 0 0.18877606200831551 -0.1208913288245537 0 0.2182967846203806 -0.13009891166579521 0 0.2095570298484894 -0.1135775337597703 0 0.18877606200831551 -0.1208913288245537 0 0.1959548088785408 -0.097417707256057709 0 0.18735351426668609 -0.078465610825437127 0 0.1959548088785408 -0.097417707256057709 0 0.21052756014216201 -0.078070075199213759 0 0.18735351426668609 -0.078465610825437127 0 0.18498799268038579 -0.060293682125138998 0 0.20151786037878819 -0.057974136629699413 0 0.18735351426668609 -0.078465610825437127 0 0.20151786037878819 -0.057974136629699413 0 0.21052756014216201 -0.078070075199213759 0 0.18735351426668609 -0.078465610825437127 0 0.20151786037878819 -0.057974136629699413 0 0.20151786037878819 -0.057974136629699413 0 0.22325770377238049 -0.056097645790071239 0 0.21052756014216201 -0.078070075199213759 0 0.21290251098885579 -0.095188760083259397 0 0.1959548088785408 -0.097417707256057709 0 0.21052756014216201 -0.078070075199213759 0 0.21290251098885579 -0.095188760083259397 0 0.21052756014216201 -0.078070075199213759 0 0.23295385143415029 -0.091468306696135093 0 0.21052756014216201 -0.078070075199213759 0 0.23295385143415029 -0.091468306696135093 0 0.2329502774450562 -0.072529031330456281 0 0.22325770377238049 -0.056097645790071239 0 0.21052756014216201 -0.078070075199213759 0 0.2329502774450562 -0.072529031330456281 0 0.25282332103220789 -0.077768968400902472 0 0.2448580173371929 -0.055519512242431797 0 0.2329502774450562 -0.072529031330456281 0 0.25823079780134123 -0.099452363456823706 0 0.25282332103220789 -0.077768968400902472 0 0.23295385143415029 -0.091468306696135093 0 0.25282332103220789 -0.077768968400902472 0 0.23295385143415029 -0.091468306696135093 0 0.2329502774450562 -0.072529031330456281 0 0.25823079780134123 -0.099452363456823706 0 0.23295385143415029 -0.091468306696135093 0 0.2390550231981283 -0.11095140769565939 0 0.21290251098885579 -0.095188760083259397 0 0.23295385143415029 -0.091468306696135093 0 0.2390550231981283 -0.11095140769565939 0 0.21290251098885579 -0.095188760083259397 0 0.2095570298484894 -0.1135775337597703 0 0.2390550231981283 -0.11095140769565939 0 0.2390550231981283 -0.11095140769565939 0 0.2182967846203806 -0.13009891166579521 0 0.2095570298484894 -0.1135775337597703 0 0.2390550231981283 -0.11095140769565939 0 0.2182967846203806 -0.13009891166579521 0 0.26265347992112259 -0.12251615335900159 0 0.2390550231981283 -0.11095140769565939 0 0.24588425228157709 -0.1352284829746653 0 0.2390550231981283 -0.11095140769565939 0 0.24588425228157709 -0.1352284829746653 0 0.2182967846203806 -0.13009891166579521 0 0.25259957891731538 -0.1635399997034708 0 0.25327638948015557 -0.14878864317275439 0 0.23543805993190939 -0.1523696451017347 0 0.25327638948015557 -0.14878864317275439 0 0.24588425228157709 -0.1352284829746653 0 0.23543805993190939 -0.1523696451017347 0 0.23543805993190939 -0.1523696451017347 0 0.2182967846203806 -0.13009891166579521 0 0.21648299656815601 -0.1519926121290005 0 0.24588425228157709 -0.1352284829746653 0 0.23543805993190939 -0.1523696451017347 0 0.2182967846203806 -0.13009891166579521 0 0.2182967846203806 -0.13009891166579521 0 0.19753854604263299 -0.14924641563593111 0 0.2182967846203806 -0.13009891166579521 0 0.21648299656815601 -0.1519926121290005 0 0.19753854604263299 -0.14924641563593111 0 0.18877606200831551 -0.1208913288245537 0 0.2182967846203806 -0.13009891166579521 0 0.19753854604263299 -0.14924641563593111 0 0.21648299656815601 -0.1519926121290005 0 0.19753854604263299 -0.14924641563593111 0 0.19526045494111069 -0.17571423013362381 0 0.19753854604263299 -0.14924641563593111 0 0.19526045494111069 -0.17571423013362381 0 0.17678030746488529 -0.16839391960606701 0 0.21648299656815601 -0.1519926121290005 0 0.19526045494111069 -0.17571423013362381 0 0.22393001692921299 -0.16962711491854729 0 0.19526045494111069 -0.17571423013362381 0 0.22393001692921299 -0.16962711491854729 0 0.21236394282391469 -0.19075940472452729 0 0.19526045494111069 -0.17571423013362381 0 0.22393001692921299 -0.16962711491854729 0 0.22393001692921299 -0.16962711491854729 0 0.23874702685181459 -0.17800668437057801 0 0.21236394282391469 -0.19075940472452729 0 0.23874702685181459 -0.17800668437057801 0 0.21236394282391469 -0.19075940472452729 0 0.23543805993190939 -0.1523696451017347 0 0.21648299656815601 -0.1519926121290005 0 0.22393001692921299 -0.16962711491854729 0 0.25259957891731538 -0.1635399997034708 0 0.22393001692921299 -0.16962711491854729 0 0.23874702685181459 -0.17800668437057801 0 0.25259957891731538 -0.1635399997034708 0 0.23543805993190939 -0.1523696451017347 0 0.22393001692921299 -0.16962711491854729 0 0.25259957891731538 -0.1635399997034708 0 0.22393001692921299 -0.16962711491854729 0 0.25595476691424252 -0.1854888113912414 0 0.23874702685181459 -0.17800668437057801 0 0.24617234226859469 -0.19037293896087859 0 0.25333909334810889 -0.20072535138459779 0 0.24617234226859469 -0.19037293896087859 0 0.2366484819602129 -0.1972709086970971 0 0.23874702685181459 -0.17800668437057801 0 0.24617234226859469 -0.19037293896087859 0 0.2366484819602129 -0.1972709086970971 0 0.25333909334810889 -0.20072535138459779 0 0.2366484819602129 -0.1972709086970971 0 0.24732968082171039 -0.21963088721378529 0 0.2366484819602129 -0.1972709086970971 0 0.22733082426832829 -0.21338517875603111 0 0.24732968082171039 -0.21963088721378529 0 0.23874702685181459 -0.17800668437057801 0 0.2366484819602129 -0.1972709086970971 0 0.21236394282391469 -0.19075940472452729 0 0.2366484819602129 -0.1972709086970971 0 0.22733082426832829 -0.21338517875603111 0 0.21236394282391469 -0.19075940472452729 0 0.24822639080064951 -0.25902667576912952 0 0.23736409612136511 -0.23433725151581519 0 0.22416385264063279 -0.24714339016050391 0 0.26253277242697598 -0.23652457324002391 0 0.24822639080064951 -0.25902667576912952 0 0.23736409612136511 -0.23433725151581519 0 0.22733082426832829 -0.21338517875603111 0 0.24732968082171039 -0.21963088721378529 0 0.23736409612136511 -0.23433725151581519 0 0.26253277242697598 -0.23652457324002391 0 0.24732968082171039 -0.21963088721378529 0 0.23736409612136511 -0.23433725151581519 0 0.22733082426832829 -0.21338517875603111 0 0.23736409612136511 -0.23433725151581519 0 0.21527928727902951 -0.22988856151556919 0 0.23736409612136511 -0.23433725151581519 0 0.22416385264063279 -0.24714339016050391 0 0.21527928727902951 -0.22988856151556919 0 0.20415350105738531 -0.24765143162995981 0 0.21527928727902951 -0.22988856151556919 0 0.1914744066198415 -0.22838958922767399 0 0.22416385264063279 -0.24714339016050391 0 0.20415350105738531 -0.24765143162995981 0 0.21527928727902951 -0.22988856151556919 0 0.21527928727902951 -0.22988856151556919 0 0.1914744066198415 -0.22838958922767399 0 0.2068491759198407 -0.21277305917486969 0 0.20415350105738531 -0.24765143162995981 0 0.1914744066198415 -0.22838958922767399 0 0.1844852906525315 -0.24906604282928491 0 0.22733082426832829 -0.21338517875603111 0 0.21527928727902951 -0.22988856151556919 0 0.2068491759198407 -0.21277305917486969 0 0.22733082426832829 -0.21338517875603111 0 0.21236394282391469 -0.19075940472452729 0 0.2068491759198407 -0.21277305917486969 0 0.1914744066198415 -0.22838958922767399 0 0.2068491759198407 -0.21277305917486969 0 0.18779741860808929 -0.201442561650547 0 0.19526045494111069 -0.17571423013362381 0 0.21236394282391469 -0.19075940472452729 0 0.18779741860808929 -0.201442561650547 0 0.21236394282391469 -0.19075940472452729 0 0.2068491759198407 -0.21277305917486969 0 0.18779741860808929 -0.201442561650547 0 0.19526045494111069 -0.17571423013362381 0 0.18779741860808929 -0.201442561650547 0 0.17400061824703261 -0.1860781812310284 0 0.18779741860808929 -0.201442561650547 0 0.16898968788620461 -0.20358706428711179 0 0.17400061824703261 -0.1860781812310284 0 0.18779741860808929 -0.201442561650547 0 0.16898968788620461 -0.20358706428711179 0 0.1701038461351331 -0.22155677172941771 0 0.1914744066198415 -0.22838958922767399 0 0.18779741860808929 -0.201442561650547 0 0.1701038461351331 -0.22155677172941771 0 0.16898968788620461 -0.20358706428711179 0 0.1701038461351331 -0.22155677172941771 0 0.15115380081450269 -0.21414552930041569 0 0.16898968788620461 -0.20358706428711179 0 0.15806480236796661 -0.1930441893433166 0 0.15115380081450269 -0.21414552930041569 0 0.16898968788620461 -0.20358706428711179 0 0.15806480236796661 -0.1930441893433166 0 0.17400061824703261 -0.1860781812310284 0 0.1914744066198415 -0.22838958922767399 0 0.17269797370768439 -0.23723387719684111 0 0.1844852906525315 -0.24906604282928491 0 0.17269797370768439 -0.23723387719684111 0 0.1844852906525315 -0.24906604282928491 0 0.16005888902464069 -0.2483339599913372 0 0.1914744066198415 -0.22838958922767399 0 0.17269797370768439 -0.23723387719684111 0 0.1701038461351331 -0.22155677172941771 0 0.1701038461351331 -0.22155677172941771 0 0.15876229530358879 -0.23126597759589251 0 0.15115380081450269 -0.21414552930041569 0 0.17269797370768439 -0.23723387719684111 0 0.1701038461351331 -0.22155677172941771 0 0.15876229530358879 -0.23126597759589251 0 0.17269797370768439 -0.23723387719684111 0 0.15876229530358879 -0.23126597759589251 0 0.16005888902464069 -0.2483339599913372 0 0.16005888902464069 -0.2483339599913372 0 0.1386845243971537 -0.2497673514512139 0 0.13989514104750581 -0.23452786317568239 0 0.15876229530358879 -0.23126597759589251 0 0.16005888902464069 -0.2483339599913372 0 0.13989514104750581 -0.23452786317568239 0 0.15876229530358879 -0.23126597759589251 0 0.13989514104750581 -0.23452786317568239 0 0.15115380081450269 -0.21414552930041569 0 0.1219956350411413 -0.2398427023391346 0 0.13989514104750581 -0.23452786317568239 0 0.13016652006677931 -0.21805271629486039 0 0.13989514104750581 -0.23452786317568239 0 0.15115380081450269 -0.21414552930041569 0 0.13016652006677931 -0.21805271629486039 0 0.1265600254658609 -0.25575995917907818 0 0.1219956350411413 -0.2398427023391346 0 0.1386845243971537 -0.2497673514512139 0 0.1219956350411413 -0.2398427023391346 0 0.1386845243971537 -0.2497673514512139 0 0.13989514104750581 -0.23452786317568239 0 0.15806480236796661 -0.1930441893433166 0 0.15115380081450269 -0.21414552930041569 0 0.1391059926745051 -0.19699702535938349 0 0.15806480236796661 -0.1930441893433166 0 0.1391059926745051 -0.19699702535938349 0 0.1551970615847901 -0.17345307827508749 0 0.12015715315581491 -0.2009973826506419 0 0.13016652006677931 -0.21805271629486039 0 0.1391059926745051 -0.19699702535938349 0 0.15115380081450269 -0.21414552930041569 0 0.13016652006677931 -0.21805271629486039 0 0.1391059926745051 -0.19699702535938349 0 0.12015715315581491 -0.2009973826506419 0 0.13212398853783131 -0.17616283551780179 0 0.12015715315581491 -0.2009973826506419 0 0.1391059926745051 -0.19699702535938349 0 0.13212398853783131 -0.17616283551780179 0 0.1391059926745051 -0.19699702535938349 0 0.13212398853783131 -0.17616283551780179 0 0.1551970615847901 -0.17345307827508749 0 0.1551970615847901 -0.17345307827508749 0 0.14409082391984759 -0.15132828838496171 0 0.16238097617644581 -0.15928473725749021 0 0.13212398853783131 -0.17616283551780179 0 0.1551970615847901 -0.17345307827508749 0 0.14409082391984759 -0.15132828838496171 0 0.1227035271998753 -0.15842384503772541 0 0.13212398853783131 -0.17616283551780179 0 0.14409082391984759 -0.15132828838496171 0 0.13212398853783131 -0.17616283551780179 0 0.14409082391984759 -0.15132828838496171 0 0.1227035271998753 -0.15842384503772541 0 0.12885034326079009 -0.1383964124851868 0 0.14409082391984759 -0.15132828838496171 0 0.1211019425767117 -0.12600779024960501 0 0.13321984361715189 -0.1217957038919307 0 0.12885034326079009 -0.1383964124851868 0 0.13321984361715189 -0.1217957038919307 0 0.12885034326079009 -0.1383964124851868 0 0.15605765930186399 -0.12649374125212159 0 0.15605765930186399 -0.12649374125212159 0 0.14409082391984759 -0.15132828838496171 0 0.12885034326079009 -0.1383964124851868 0 0.15605765930186399 -0.12649374125212159 0 0.14409082391984759 -0.15132828838496171 0 0.18877606200831551 -0.1208913288245537 0 0.15605765930186399 -0.12649374125212159 0 0.17345571173626001 -0.14396366276384451 0 0.14409082391984759 -0.15132828838496171 0 0.17345571173626001 -0.14396366276384451 0 0.16238097617644581 -0.15928473725749021 0 0.15605765930186399 -0.12649374125212159 0 0.14409082391984759 -0.15132828838496171 0 0.17345571173626001 -0.14396366276384451 0 0.18877606200831551 -0.1208913288245537 0 0.19753854604263299 -0.14924641563593111 0 0.17345571173626001 -0.14396366276384451 0 0.19753854604263299 -0.14924641563593111 0 0.17345571173626001 -0.14396366276384451 0 0.17678030746488529 -0.16839391960606701 0 0.19753854604263299 -0.14924641563593111 0 0.17678030746488529 -0.16839391960606701 0 0.19526045494111069 -0.17571423013362381 0 0.17678030746488529 -0.16839391960606701 0 0.17400061824703261 -0.1860781812310284 0 0.15806480236796661 -0.1930441893433166 0 0.1551970615847901 -0.17345307827508749 0 0.17400061824703261 -0.1860781812310284 0 0.1551970615847901 -0.17345307827508749 0 0.17678030746488529 -0.16839391960606701 0 0.17400061824703261 -0.1860781812310284 0 0.1551970615847901 -0.17345307827508749 0 0.17678030746488529 -0.16839391960606701 0 0.16238097617644581 -0.15928473725749021 0 0.17345571173626001 -0.14396366276384451 0 0.17678030746488529 -0.16839391960606701 0 0.16238097617644581 -0.15928473725749021 0 
</DataArray>
</Points>
<Cells>
<DataArray type="UInt32" Name="connectivity" format="ascii">
0 1 2 3 4 5 6 7 8 9 10 11 12 13 14 15 16 17 18 19 20 21 22 23 24 25 26 27 28 29 30 31 32 33 34 35 36 37 38 39 40 41 42 43 44 45 46 47 48 49 50 51 52 53 54 55 56 57 58 59 60 61 62 63 64 65 66 67 68 69 70 71 72 73 74 75 76 77 78 79 80 81 82 83 84 85 86 87 88 89 90 91 92 93 94 95 96 97 98 99 100 101 102 103 104 105 106 107 108 109 110 111 112 113 114 115 116 117 118 119 120 121 122 123 124 125 126 127 128 129 130 131 132 133 134 135 136 137 138 139 140 141 142 143 144 145 146 147 148 149 150 151 152 153 154 155 156 157 158 159 160 161 162 163 164 165 166 167 168 169 170 171 172 173 174 175 176 177 178 179 180 181 182 183 184 185 186 187 188 189 190 191 192 193 194 195 196 197 198 199 200 201 202 203 204 205 206 207 208 209 210 211 212 213 214 215 216 217 218 219 220 221 222 223 224 225 226 227 228 229 230 231 232 233 234 235 236 237 238 239 240 241 242 243 244 245 246 247 248 249 250 251 252 253 254 255 256 257 258 259 260 261 262 263 264 265 266 267 268 269 270 271 272 273 274 275 276 277 278 279 280 281 282 283 284 285 286 287 288 289 290 291 292 293 294 295 296 297 298 299 300 301 302 303 304 305 306 307 308 309 310 311 312 313 314 315 316 317 318 319 320 321 322 323 324 325 326 327 328 329 330 331 332 333 334 335 336 337 338 339 340 341 342 343 344 345 346 347 348 349 350 351 352 353 354 355 356 357 358 359 360 361 362 363 364 365 366 367 368 369 370 371 372 373 374 375 376 377 378 379 380 381 382 383 384 385 386 387 388 389 390 391 392 393 394 395 396 397 398 399 400 401 402 403 404 405 406 407 408 409 410 411 412 413 414 415 416 417 418 419 420 421 422 423 424 425 426 427 428 429 430 431 432 433 434 435 436 437 438 439 440 441 442 443 444 445 446 447 448 449 450 451 452 453 454 455 456 457 458 459 460 461 462 463 464 465 466 467 468 469 470 471 472 473 474 475 476 477 478 479 480 481 482 483 484 485 486 487 488 489 490 491 492 493 494 495 496 497 498 499 500 501 502 503 504 505 506 507 508 509 510 511 512 513 514 515 516 517 518 519 520 521 522 523 524 525 526 527 528 529 530 531 532 533 534 535 536 537 538 539 540 541 542 543 544 545 546 547 548 549 550 551 552 553 554 555 556 557 558 559 560 561 562 563 564 565 566 567 568 569 570 571 572 573 574 575 576 577 578 579 580 581 582 583 584 585 586 587 588 589 590 591 592 593 594 595 596 597 598 599 600 601 602 603 604 605 606 607 608 609 610 611 612 613 614 615 616 617 618 619 620 621 622 623 624 625 626 627 628 629 630 631 632 633 634 635 636 637 638 639 640 641 642 643 644 645 646 647 648 649 650 651 652 653 654 655 656 657 658 659 660 661 662 663 664 665 666 667 668 669 670 671 672 673 674 675 676 677 678 679 680 681 682 683 684 685 686 687 688 689 690 691 692 693 694 695 696 697 698 699 700 701 702 703 704 705 706 707 708 709 710 711 712 713 714 715 716 717 718 719 720 721 722 723 724 725 726 727 728 729 730 731 732 733 734 735 736 737 738 739 740 741 742 743 744 745 746 747 748 749 750 751 752 753 754 755 756 757 758 759 760 761 762 763 764 765 766 767 768 769 770 771 772 773 774 775 776 777 778 779 780 781 782 783 784 785 786 787 788 789 790 791 792 793 794 795 796 797 798 799 800 801 802 803 804 805 806 807 808 809 810 811 812 813 814 815 816 817 818 819 820 821 822 823 824 825 826 827 828 829 830 831 832 833 834 835 836 837 838 839 840 841 842 843 844 845 846 847 848 849 850 851 852 853 854 855 856 857 858 859 860 861 862 863 864 865 866 867 868 869 870 871 872 873 874 875 876 877 878 879 880 881 882 883 884 885 886 887 888 889 890 891 892 893 894 895 896 897 898 899 900 901 902 903 904 905 906 907 908 909 910 911 912 913 914 915 916 917 918 919 920 921 922 923 924 925 926 927 928 929 930 931 932 933 934 935 936 937 938 939 940 941 942 943 944 945 946 947 948 949 950 951 952 953 954 955 956 957 958 959 960 961 962 963 964 965 966 967 968 969 970 971 972 973 974 975 976 977 978 979 980 981 982 983 984 985 986 987 988 989 990 991 992 993 994 995 996 997 998 999 1000 1001 1002 1003 1004 1005 1006 1007 1008 1009 1010 1011 1012 1013 1014 1015 1016 1017 1018 1019 1020 1021 1022 1023 1024 1025 1026 1027 1028 1029 1030 1031 1032 1033 1034 1035 1036 1037 1038 1039 1040 1041 1042 1043 1044 1045 1046 1047 1048 1049 1050 1051 1052 1053 1054 1055 1056 1057 1058 1059 1060 1061 1062 1063 1064 1065 1066 1067 1068 1069 1070 1071 1072 1073 1074 1075 1076 1077 1078 1079 1080 1081 1082 1083 1084 1085 1086 1087 1088 1089 1090 1091 1092 1093 1094 1095 1096 1097 1098 1099 1100 1101 1102 1103 1104 1105 1106 1107 1108 1109 1110 1111 1112 1113 1114 1115 1116 1117 1118 1119 1120 1121 1122 1123 1124 1125 1126 1127 1128 1129 1130 1131 1132 1133 1134 1135 1136 1137 1138 1139 1140 1141 1142 1143 1144 1145 1146 1147 1148 1149 1150 1151 1152 1153 1154 1155 1156 1157 1158 1159 1160 1161 1162 1163 1164 1165 1166 1167 1168 1169 1170 1171 1172 1173 1174 1175 1176 1177 1178 1179 1180 1181 1182 1183 1184 1185 1186 1187 1188 1189 1190 1191 1192 1193 1194 1195 1196 1197 1198 1199 1200 1201 1202 1203 1204 1205 1206 1207 1208 1209 1210 1211 1212 1213 1214 1215 1216 1217 1218 1219 1220 1221 1222 1223 1224 1225 1226 1227 1228 1229 1230 1231 1232 1233 1234 1235 1236 1237 1238 1239 1240 1241 1242 1243 1244 1245 1246 1247 1248 1249 1250 1251 1252 1253 1254 1255 1256 1257 1258 1259 1260 1261 1262 1263 1264 1265 1266 1267 1268 1269 1270 1271 1272 1273 1274 1275 1276 1277 1278 1279 1280 1281 1282 1283 1284 1285 1286 1287 1288 1289 1290 1291 1292 1293 1294 1295 1296 1297 1298 1299 1300 1301 1302 1303 1304 1305 1306 1307 1308 1309 1310 1311 1312 1313 1314 1315 1316 1317 1318 1319 1320 1321 1322 1323 1324 1325 1326 1327 1328 1329 1330 1331 1332 1333 1334 1335 1336 1337 1338 1339 1340 1341 1342 1343 1344 1345 1346 1347 1348 1349 1350 1351 1352 1353 1354 1355 1356 1357 1358 1359 1360 1361 1362 1363 1364 1365 1366 1367 1368 1369 1370 1371 1372 1373 1374 1375 1376 1377 1378 1379 1380 1381 1382 1383 1384 1385 1386 1387 1388 1389 1390 1391 1392 1393 1394 1395 1396 1397 1398 1399 1400 1401 1402 1403 1404 1405 1406 1407 1408 1409 1410 1411 1412 1413 1414 1415 1416 1417 1418 1419 1420 1421 1422 1423 1424 1425 1426 1427 1428 1429 1430 1431 1432 1433 1434 1435 1436 1437 1438 1439 1440 1441 1442 1443 1444 1445 1446 1447 1448 1449 1450 1451 1452 1453 1454 1455 1456 1457 1458 1459 1460 1461 1462 1463 1464 1465 1466 1467 1468 1469 1470 1471 1472 1473 1474 1475 1476 1477 1478 1479 1480 1481 1482 1483 1484 1485 1486 1487 1488 1489 1490 1491 1492 1493 1494 1495 1496 1497 1498 1499 1500 1501 1502 1503 1504 1505 1506 1507 1508 1509 1510 1511 1512 1513 1514 1515 1516 1517 1518 1519 1520 1521 1522 1523 1524 1525 1526 1527 1528 1529 1530 1531 1532 1533 1534 1535 1536 1537 1538 1539 1540 1541 1542 1543 1544 1545 1546 1547 1548 1549 1550 1551 1552 1553 1554 1555 1556 1557 1558 1559 1560 1561 1562 1563 1564 1565 1566 1567 1568 1569 1570 1571 1572 1573 1574 1575 1576 1577 1578 1579 1580 1581 1582 1583 1584 1585 1586 1587 1588 1589 1590 1591 1592 1593 1594 1595 1596 1597 1598 1599 1600 1601 1602 1603 1604 1605 1606 1607 1608 1609 1610 1611 1612 1613 1614 1615 1616 1617 1618 1619 1620 1621 1622 1623 1624 1625 1626 1627 1628 1629 1630 1631 1632 1633 1634 1635 1636 1637 1638 1639 1640 1641 1642 1643 1644 1645 1646 1647 1648 1649 1650 1651 1652 1653 1654 1655 1656 1657 1658 1659 1660 1661 1662 1663 1664 1665 1666 1667 1668 1669 1670 1671 1672 1673 1674 1675 1676 1677 1678 1679 1680 1681 1682 1683 1684 1685 1686 1687 1688 1689 1690 1691 1692 1693 1694 1695 1696 1697 1698 1699 1700 1701 1702 1703 1704 1705 1706 1707 1708 1709 1710 1711 1712 1713 1714 1715 1716 1717 1718 1719 1720 1721 1722 1723 1724 1725 1726 1727 1728 1729 1730 1731 1732 1733 1734 1735 1736 1737 1738 1739 1740 1741 1742 1743 1744 1745 1746 1747 1748 1749 1750 1751 1752 1753 1754 1755 1756 1757 1758 1759 1760 1761 1762 1763 1764 1765 1766 1767 1768 1769 1770 1771 1772 1773 1774 1775 1776 1777 1778 1779 1780 1781 1782 1783 1784 1785 1786 1787 1788 1789 1790 1791 1792 1793 1794 1795 1796 1797 1798 1799 1800 1801 1802 1803 1804 1805 1806 1807 1808 1809 1810 1811 1812 1813 1814 1815 1816 1817 1818 1819 1820 1821 1822 1823 1824 1825 1826 1827 1828 1829 1830 1831 1832 1833 1834 1835 1836 1837 1838 1839 1840 1841 1842 1843 1844 1845 1846 1847 1848 1849 1850 1851 1852 1853 1854 1855 1856 1857 1858 1859 1860 1861 1862 1863 1864 1865 1866 1867 1868 1869 1870 1871 1872 1873 1874 1875 1876 1877 1878 1879 1880 1881 1882 1883 1884 1885 1886 1887 1888 1889 1890 1891 1892 1893 1894 1895 1896 1897 1898 1899 1900 1901 1902 1903 1904 1905 1906 1907 1908 1909 1910 1911 1912 1913 1914 1915 1916 1917 1918 1919 1920 1921 1922 1923 1924 1925 1926 1927 1928 1929 1930 1931 1932 1933 1934 1935 1936 1937 1938 1939 1940 1941 1942 1943 1944 1945 1946 1947 1948 1949 1950 1951 1952 1953 1954 1955 1956 1957 1958 1959 1960 1961 1962 1963 1964 1965 1966 1967 1968 1969 1970 1971 1972 1973 1974 1975 1976 1977 1978 1979 1980 1981 1982 1983 1984 1985 1986 1987 1988 1989 1990 1991 1992 1993 1994 1995 1996 1997 1998 1999 2000 2001 2002 2003 2004 2005 2006 2007 2008 2009 2010 2011 2012 2013 2014 2015 2016 2017 2018 2019 2020 2021 2022 2023 2024 2025 2026 2027 2028 2029 2030 2031 2032 2033 2034 2035 2036 2037 2038 2039 2040 2041 2042 2043 2044 2045 2046 2047 2048 2049 2050 2051 2052 2053 2054 2055 2056 2057 2058 2059 2060 2061 2062 2063 2064 2065 2066 2067 2068 2069 2070 2071 2072 2073 2074 2075 2076 2077 2078 2079 2080 2081 2082 2083 2084 2085 2086 2087 2088 2089 2090 2091 2092 2093 2094 2095 2096 2097 2098 2099 2100 2101 2102 2103 2104 2105 2106 2107 2108 2109 2110 2111 2112 2113 2114 2115 2116 2117 2118 2119 2120 2121 2122 2123 2124 2125 2126 2127 2128 2129 2130 2131 2132 2133 2134 2135 2136 2137 2138 2139 2140 2141 2142 2143 2144 2145 2146 2147 2148 2149 2150 2151 2152 2153 2154 2155 2156 2157 2158 2159 2160 2161 2162 2163 2164 2165 2166 2167 2168 2169 2170 2171 2172 2173 2174 2175 2176 2177 2178 2179 2180 2181 2182 2183 2184 2185 2186 2187 2188 2189 2190 2191 2192 2193 2194 2195 2196 2197 2198 2199 2200 2201 2202 2203 2204 2205 2206 2207 2208 2209 2210 2211 2212 2213 2214 2215 2216 2217 2218 2219 2220 2221 2222 2223 2224 2225 2226 2227 2228 2229 2230 2231 2232 2233 2234 2235 2236 2237 2238 2239 2240 2241 2242 2243 2244 2245 2246 2247 2248 2249 2250 2251 2252 2253 2254 2255 2256 2257 2258 2259 2260 2261 2262 2263 2264 2265 2266 2267 2268 2269 2270 2271 2272 2273 2274 2275 2276 2277 2278 2279 2280 2281 2282 2283 2284 2285 2286 2287 2288 2289 2290 2291 2292 2293 2294 2295 2296 2297 2298 2299 2300 2301 2302 2303 2304 2305 2306 2307 2308 2309 2310 2311 2312 2313 2314 2315 2316 2317 2318 2319 2320 2321 2322 2323 2324 2325 2326 2327 2328 2329 2330 2331 2332 2333 2334 2335 2336 2337 2338 2339 2340 2341 2342 2343 2344 2345 2346 2347 2348 2349 2350 2351 2352 2353 2354 2355 2356 2357 2358 2359 2360 2361 2362 2363 2364 2365 2366 2367 2368 2369 2370 2371 2372 2373 2374 2375 2376 2377 2378 2379 2380 2381 2382 2383 2384 2385 2386 2387 2388 2389 2390 2391 2392 2393 2394 2395 2396 2397 2398 2399 2400 2401 2402 2403 2404 2405 2406 2407 2408 2409 2410 2411 2412 2413 2414 2415 2416 2417 2418 2419 2420 2421 2422 2423 2424 2425 2426 2427 2428 2429 2430 2431 2432 2433 2434 2435 2436 2437 2438 2439 2440 2441 2442 2443 2444 2445 2446 2447 2448 2449 2450 2451 2452 2453 2454 2455 2456 2457 2458 2459 2460 2461 2462 2463 2464 2465 2466 2467 2468 2469 2470 2471 2472 2473 2474 2475 2476 2477 2478 2479 2480 2481 2482 2483 2484 2485 2486 2487 2488 2489 2490 2491 2492 2493 2494 2495 2496 2497 2498 2499 2500 2501 2502 2503 2504 2505 2506 2507 2508 2509 2510 2511 2512 2513 2514 2515 2516 2517 2518 2519 2520 2521 2522 2523 2524 2525 2526 2527 2528 2529 2530 2531 2532 2533 2534 2535 2536 2537 2538 2539 2540 2541 2542 2543 2544 2545 2546 2547 2548 2549 2550 2551 2552 2553 2554 2555 2556 2557 2558 2559 2560 2561 2562 2563 2564 2565 2566 2567 2568 2569 2570 2571 2572 2573 2574 2575 2576 2577 2578 2579 2580 2581 2582 2583 2584 2585 2586 2587 2588 2589 2590 2591 2592 2593 2594 2595 2596 2597 2598 2599 2600 2601 2602 2603 2604 2605 2606 2607 2608 2609 2610 2611 2612 2613 2614 2615 2616 2617 2618 2619 2620 2621 2622 2623 2624 2625 2626 2627 2628 2629 2630 2631 2632 2633 2634 2635 2636 2637 2638 2639 2640 2641 2642 2643 2644 2645 2646 2647 2648 2649 2650 2651 2652 2653 2654 2655 2656 2657 2658 2659 2660 2661 2662 2663 2664 2665 2666 2667 2668 2669 2670 2671 2672 2673 2674 2675 2676 2677 2678 2679 2680 2681 2682 2683 2684 2685 2686 2687 2688 2689 2690 2691 2692 2693 2694 2695 2696 2697 2698 2699 2700 2701 2702 2703 2704 2705 2706 2707 2708 2709 2710 2711 2712 2713 2714 2715 2716 2717 2718 2719 2720 2721 2722 2723 2724 2725 2726 2727 2728 2729 2730 2731 2732 2733 2734 2735 2736 2737 2738 2739 2740 2741 2742 2743 2744 2745 2746 2747 2748 2749 2750 2751 2752 2753 2754 2755 2756 2757 2758 2759 2760 2761 2762 2763 2764 2765 2766 2767 2768 2769 2770 2771 2772 2773 2774 2775 2776 2777 2778 2779 2780 2781 2782 2783 2784 2785 2786 2787 2788 2789 2790 2791 2792 2793 2794 2795 2796 2797 2798 2799 2800 2801 2802 2803 2804 2805 2806 2807 2808 2809 2810 2811 2812 2813 2814 2815 2816 2817 2818 2819 2820 2821 2822 2823 2824 2825 2826 2827 2828 2829 2830 2831 2832 2833 2834 2835 2836 2837 2838 2839 2840 2841 2842 2843 2844 2845 2846 2847 2848 2849 2850 2851 2852 2853 2854 2855 2856 2857 2858 2859 2860 2861 2862 2863 2864 2865 2866 2867 2868 2869 2870 2871 2872 2873 2874 2875 2876 2877 2878 2879 2880 2881 2882 2883 2884 2885 2886 2887 2888 2889 2890 2891 2892 2893 2894 2895 2896 2897 2898 2899 2900 2901 2902 2903 2904 2905 2906 2907 2908 2909 2910 2911 2912 2913 2914 2915 2916 2917 2918 2919 2920 2921 2922 2923 2924 2925 2926 2927 2928 2929 2930 2931 2932 2933 2934 2935 2936 2937 2938 2939 2940 2941 2942 2943 2944 2945 2946 2947 2948 2949 2950 2951 2952 2953 2954 2955 2956 2957 2958 2959 2960 2961 2962 2963 2964 2965 2966 2967 2968 2969 2970 2971 2972 2973 2974 2975 2976 2977 2978 2979 2980 2981 2982 2983 2984 2985 2986 2987 2988 2989 2990 2991 2992 2993 2994 2995 2996 2997 2998 2999 3000 3001 3002 3003 3004 3005 3006 3007 3008 3009 3010 3011 3012 3013 3014 3015 3016 3017 3018 3019 3020 3021 3022 3023 3024 3025 3026 3027 3028 3029 3030 3031 3032 3033 3034 3035 3036 3037 3038 3039 3040 3041 3042 3043 3044 3045 3046 3047 3048 3049 3050 3051 3052 3053 3054 3055 3056 3057 3058 3059 3060 3061 3062 3063 3064 3065 3066 3067 3068 3069 3070 3071 3072 3073 3074 3075 3076 3077 3078 3079 3080 3081 3082 3083 3084 3085 3086 3087 3088 3089 3090 3091 3092 3093 3094 3095 3096 3097 3098 3099 3100 3101 3102 3103 3104 3105 3106 3107 3108 3109 3110 3111 3112 3113 3114 3115 3116 3117 3118 3119 3120 3121 3122 3123 3124 3125 3126 3127 3128 3129 3130 3131 3132 3133 3134 3135 3136 3137 3138 3139 3140 3141 3142 3143 3144 3145 3146 3147 3148 3149 3150 3151 3152 3153 3154 3155 3156 3157 3158 3159 3160 3161 3162 3163 3164 3165 3166 3167 3168 3169 3170 3171 3172 3173 3174 3175 3176 3177 3178 3179 3180 3181 3182 3183 3184 3185 3186 3187 3188 3189 3190 3191 3192 3193 3194 3195 3196 3197 3198 3199 3200 3201 3202 3203 3204 3205 3206 3207 3208 3209 3210 3211 3212 3213 3214 3215 3216 3217 3218 3219 3220 3221 3222 3223 3224 3225 3226 3227 3228 3229 3230 3231 3232 3233 3234 3235 3236 3237 3238 3239 3240 3241 3242 3243 3244 3245 3246 3247 3248 3249 3250 3251 3252 3253 3254 3255 3256 3257 3258 3259 3260 3261 3262 3263 3264 3265 3266 3267 3268 3269 3270 3271 3272 3273 3274 3275 3276 3277 3278 3279 3280 3281 3282 3283 3284 3285 3286 3287 3288 3289 3290 3291 3292 3293 3294 3295 3296 3297 3298 3299 3300 3301 3302 3303 3304 3305 3306 3307 3308 3309 3310 3311 3312 3313 3314 3315 3316 3317 3318 3319 3320 3321 3322 3323 3324 3325 3326 3327 3328 3329 3330 3331 3332 3333 3334 3335 3336 3337 3338 3339 3340 3341 3342 3343 3344 3345 3346 3347 3348 3349 3350 3351 3352 3353 3354 3355 3356 3357 3358 3359 3360 3361 3362 3363 3364 3365 3366 3367 3368 3369 3370 3371 3372 3373 3374 3375 3376 3377 3378 3379 3380 3381 3382 3383 3384 3385 3386 3387 3388 3389 3390 3391 3392 3393 3394 3395 3396 3397 3398 3399 3400 3401 3402 3403 3404 3405 3406 3407 3408 3409 3410 3411 3412 3413 3414 3415 3416 3417 3418 3419 3420 3421 3422 3423 3424 3425 3426 3427 3428 3429 3430 3431 3432 3433 3434 3435 3436 3437 3438 3439 3440 3441 3442 3443 3444 3445 3446 3447 3448 3449 3450 3451 3452 3453 3454 3455 3456 3457 3458 3459 3460 3461 3462 3463 3464 3465 3466 3467 3468 3469 3470 3471 3472 3473 3474 3475 3476 3477 3478 3479 3480 3481 3482 3483 3484 3485 3486 3487 3488 3489 3490 3491 3492 3493 3494 3495 3496 3497 3498 3499 3500 3501 3502 3503 3504 3505 3506 3507 3508 3509 3510 3511 3512 3513 3514 3515 3516 3517 3518 3519 3520 3521 3522 3523 3524 3525 3526 3527 3528 3529 3530 3531 3532 3533 3534 3535 3536 3537 3538 3539 3540 3541 3542 3543 3544 3545 3546 3547 3548 3549 3550 3551 3552 3553 3554 3555 3556 3557 3558 3559 3560 3561 3562 3563 3564 3565 3566 3567 3568 3569 3570 3571 3572 3573 3574 3575 3576 3577 3578 3579 3580 3581 3582 3583 3584 3585 3586 3587 3588 3589 3590 3591 3592 3593 3594 3595 3596 3597 3598 3599 3600 3601 3602 3603 3604 3605 3606 3607 3608 3609 3610 3611 3612 3613 3614 3615 3616 3617 3618 3619 3620 3621 3622 3623 3624 3625 3626 3627 3628 3629 3630 3631 3632 3633 3634 3635 3636 3637 3638 3639 3640 3641 3642 3643 3644 3645 3646 3647 3648 3649 3650 3651 3652 3653 3654 3655 3656 3657 3658 3659 3660 3661 3662 3663 3664 3665 3666 3667 3668 3669 3670 3671 3672 3673 3674 3675 3676 3677 3678 3679 3680 3681 3682 3683 3684 3685 3686 3687 3688 3689 3690 3691 3692 3693 3694 3695 3696 3697 3698 3699 3700 3701 3702 3703 3704 3705 3706 3707 3708 3709 3710 3711 3712 3713 3714 3715 3716 3717 3718 3719 3720 3721 3722 3723 3724 3725 3726 3727 3728 3729 3730 3731 3732 3733 3734 3735 3736 3737 3738 3739 3740 3741 3742 3743 3744 3745 3746 3747 3748 3749 3750 3751 3752 3753 3754 3755 3756 3757 3758 3759 3760 3761 3762 3763 3764 3765 3766 3767 3768 3769 3770 3771 3772 3773 3774 3775 3776 3777 3778 3779 3780 3781 3782 3783 3784 3785 3786 3787 3788 3789 3790 3791 3792 3793 3794 3795 3796 3797 3798 3799 3800 3801 3802 3803 3804 3805 3806 3807 3808 3809 3810 3811 3812 3813 3814 3815 3816 3817 3818 3819 3820 3821 3822 3823 3824 3825 3826 3827 3828 3829 3830 3831 3832 3833 3834 3835 3836 3837 3838 3839 3840 3841 3842 3843 3844 3845 3846 3847 3848 3849 3850 3851 3852 3853 3854 3855 3856 3857 3858 3859 3860 3861 3862 3863 3864 3865 3866 3867 3868 3869 3870 3871 3872 3873 3874 3875 3876 3877 3878 3879 3880 3881 3882 3883 3884 3885 3886 3887 3888 3889 3890 3891 3892 3893 3894 3895 3896 3897 3898 3899 3900 3901 3902 3903 3904 3905 3906 3907 3908 3909 3910 3911 3912 3913 3914 3915 3916 3917 3918 3919 3920 3921 3922 3923 3924 3925 3926 3927 3928 3929 3930 3931 3932 3933 3934 3935 3936 3937 3938 3939 3940 3941 3942 3943 3944 3945 3946 3947 3948 3949 3950 3951 3952 3953 3954 3955 3956 3957 3958 3959 3960 3961 3962 3963 3964 3965 3966 3967 3968 3969 3970 3971 3972 3973 3974 3975 3976 3977 3978 3979 3980 3981 3982 3983 3984 3985 3986 3987 3988 3989 3990 3991 3992 3993 3994 3995 3996 3997 3998 3999 4000 4001 4002 4003 4004 4005 4006 4007 4008 4009 4010 4011 4012 4013 4014 4015 4016 4017 4018 4019 4020 4021 4022 4023 4024 4025 4026 4027 4028 4029 4030 4031 4032 4033 4034 4035 4036 4037 4038 4039 4040 4041 4042 4043 4044 4045 4046 4047 4048 4049 4050 4051 4052 4053 4054 4055 4056 4057 4058 4059 4060 4061 4062 4063 4064 4065 4066 4067 4068 4069 4070 4071 4072 4073 4074 4075 4076 4077 4078 4079 4080 4081 4082 4083 4084 4085 4086 4087 4088 4089 4090 4091 4092 4093 4094 4095 4096 4097 4098 4099 4100 4101 4102 4103 4104 4105 4106 4107 4108 4109 4110 4111 4112 4113 4114 4115 4116 4117 4118 4119 4120 4121 4122 4123 4124 4125 4126 4127 4128 4129 4130 4131 4132 4133 4134 4135 4136 4137 4138 4139 4140 4141 4142 4143 4144 4145 4146 4147 4148 4149 4150 4151 4152 4153 4154 4155 4156 4157 4158 4159 4160 4161 4162 4163 4164 4165 4166 4167 4168 4169 4170 4171 4172 4173 4174 4175 4176 4177 4178 4179 4180 4181 4182 4183 4184 4185 4186 4187 4188 4189 4190 4191 4192 4193 4194 4195 4196 4197 4198 4199 4200 4201 4202 4203 4204 4205 4206 4207 4208 4209 4210 4211 4212 4213 4214 4215 4216 4217 4218 4219 4220 4221 4222 4223 4224 4225 4226 4227 4228 4229 4230 4231 4232 4233 4234 4235 4236 4237 4238 4239 4240 4241 4242 4243 4244 4245 4246 4247 4248 4249 4250 4251 4252 4253 4254 4255 4256 4257 4258 4259 4260 4261 4262 4263 4264 4265 4266 4267 4268 4269 4270 4271 4272 4273 4274 4275 4276 4277 4278 4279 4280 4281 4282 4283 4284 4285 4286 4287 4288 4289 4290 4291 4292 4293 4294 4295 4296 4297 4298 4299 4300 4301 4302 4303 4304 4305 4306 4307 4308 4309 4310 4311 4312 4313 4314 4315 4316 4317 4318 4319 4320 4321 4322 4323 4324 4325 4326 4327 4328 4329 4330 4331 4332 4333 4334 4335 4336 4337 4338 4339 4340 4341 4342 4343 4344 4345 4346 4347 4348 4349 4350 4351 4352 4353 4354 4355 4356 4357 4358 4359 4360 4361 4362 4363 4364 4365 4366 4367 4368 4369 4370 4371 4372 4373 4374 4375 4376 4377 4378 4379 4380 4381 4382 4383 4384 4385 4386 4387 4388 4389 4390 4391 4392 4393 4394 4395 4396 4397 4398 4399 4400 4401 4402 4403 4404 4405 4406 4407 4408 4409 4410 4411 4412 4413 4414 4415 4416 4417 4418 4419 4420 4421 4422 4423 4424 4425 4426 4427 4428 4429 4430 4431 4432 4433 4434 4435 4436 4437 4438 4439 4440 4441 4442 4443 4444 4445 4446 4447 4448 4449 4450 4451 4452 4453 4454 4455 4456 4457 4458 4459 4460 4461 4462 4463 4464 4465 4466 4467 4468 4469 4470 4471 4472 4473 4474 4475 4476 4477 4478 4479 4480 4481 4482 4483 4484 4485 4486 4487 4488 4489 4490 4491 4492 4493 4494 4495 4496 4497 4498 4499 4500 4501 4502 4503 4504 4505 4506 4507 4508 4509 4510 4511 4512 4513 4514 4515 4516 4517 4518 4519 4520 4521 4522 4523 4524 4525 4526 4527 4528 4529 4530 4531 4532 4533 4534 4535 4536 4537 4538 4539 4540 4541 4542 4543 4544 4545 4546 4547 4548 4549 4550 4551 4552 4553 4554 4555 4556 4557 4558 4559 4560 4561 4562 4563 4564 4565 4566 4567 4568 4569 4570 4571 4572 4573 4574 4575 4576 4577 4578 4579 4580 4581 4582 4583 4584 4585 4586 4587 4588 4589 4590 4591 4592 4593 4594 4595 4596 4597 4598 4599 4600 4601 4602 4603 4604 4605 4606 4607 4608 4609 4610 4611 4612 4613 4614 4615 4616 4617 4618 4619 4620 4621 4622 4623 4624 4625 4626 4627 4628 4629 4630 4631 4632 4633 4634 4635 4636 4637 4638 4639 4640 4641 4642 4643 4644 4645 4646 4647 4648 4649 4650 4651 4652 4653 4654 4655 4656 4657 4658 4659 4660 4661 4662 4663 4664 4665 4666 4667 4668 4669 4670 4671 4672 4673 4674 4675 4676 4677 4678 4679 4680 4681 4682 4683 4684 4685 4686 4687 4688 4689 4690 4691 4692 4693 4694 4695 4696 4697 4698 4699 4700 4701 4702 4703 4704 4705 4706 4707 4708 4709 4710 4711 4712 4713 4714 4715 4716 4717 4718 4719 4720 4721 4722 4723 4724 4725 4726 4727 4728 4729 4730 4731 4732 4733 4734 4735 4736 4737 4738 4739 4740 4741 4742 4743 4744 4745 4746 4747 4748 4749 4750 4751 4752 4753 4754 4755 4756 4757 4758 4759 4760 4761 4762 4763 4764 4765 4766 4767 4768 4769 4770 4771 4772 4773 4774 4775 4776 4777 4778 4779 4780 4781 4782 4783 4784 4785 4786 4787 4788 4789 4790 4791 4792 4793 4794 4795 4796 4797 4798 4799 4800 4801 4802 4803 4804 4805 4806 4807 4808 4809 4810 4811 4812 4813 4814 4815 4816 4817 4818 4819 4820 4821 4822 4823 4824 4825 4826 4827 4828 4829 4830 4831 4832 4833 4834 4835 4836 4837 4838 4839 4840 4841 4842 4843 4844 4845 4846 4847 4848 4849 4850 4851 4852 4853 4854 4855 4856 4857 4858 4859 4860 4861 4862 4863 4864 4865 4866 4867 4868 4869 4870 4871 4872 4873 4874 4875 4876 4877 4878 4879 4880 4881 4882 4883 4884 4885 4886 4887 4888 4889 4890 4891 4892 4893 4894 4895 4896 4897 4898 4899 4900 4901 4902 4903 4904 4905 4906 4907 4908 4909 4910 4911 4912 4913 4914 4915 4916 4917 4918 4919 4920 4921 4922 4923 4924 4925 4926 4927 4928 4929 4930 4931 4932 4933 4934 4935 4936 4937 4938 4939 4940 4941 4942 4943 4944 4945 4946 4947 4948 4949 4950 4951 4952 4953 4954 4955 4956 4957 4958 4959 4960 4961 4962 4963 4964 4965 4966 4967 4968 4969 4970 4971 4972 4973 4974 4975 4976 4977 4978 4979 4980 4981 4982 4983 4984 4985 4986 4987 4988 4989 4990 4991 4992 4993 4994 4995 4996 4997 4998 4999 5000 5001 5002 5003 5004 5005 5006 5007 5008 5009 5010 5011 5012 5013 5014 5015 5016 5017 5018 5019 5020 5021 5022 5023 5024 5025 5026 5027 5028 5029 5030 5031 5032 5033 5034 5035 5036 5037 5038 5039 5040 5041 5042 5043 5044 5045 5046 5047 5048 5049 5050 5051 5052 5053 5054 5055 5056 5057 5058 5059 5060 5061 5062 5063 5064 5065 5066 5067 5068 5069 5070 5071 5072 5073 5074 5075 5076 5077 5078 5079 5080 5081 5082 5083 5084 5085 5086 5087 5088 5089 5090 5091 5092 5093 5094 5095 5096 5097 5098 5099 5100 5101 5102 5103 5104 5105 5106 5107 5108 5109 5110 5111 5112 5113 5114 5115 5116 5117 5118 5119 5120 5121 5122 5123 5124 5125 5126 5127 5128 5129 5130 5131 5132 5133 5134 5135 5136 5137 5138 5139 5140 5141 5142 5143 5144 5145 5146 5147 5148 5149 5150 5151 5152 5153 5154 5155 5156 5157 5158 5159 5160 5161 5162 5163 5164 5165 5166 5167 5168 5169 5170 5171 5172 5173 5174 5175 5176 5177 5178 5179 5180 5181 5182 5183 5184 5185 5186 5187 5188 5189 5190 5191 5192 5193 5194 5195 5196 5197 5198 5199 5200 5201 5202 5203 5204 5205 5206 5207 5208 5209 5210 5211 5212 5213 5214 5215 5216 5217 5218 5219 5220 5221 5222 5223 5224 5225 5226 5227 5228 5229 5230 5231 5232 5233 5234 5235 5236 5237 5238 5239 5240 5241 5242 5243 5244 5245 5246 5247 5248 5249 5250 5251 5252 5253 5254 5255 5256 5257 5258 5259 5260 5261 5262 5263 5264 5265 5266 5267 5268 5269 5270 5271 5272 5273 5274 5275 5276 5277 5278 5279 5280 5281 5282 5283 5284 5285 5286 5287 5288 5289 5290 5291 5292 5293 5294 5295 5296 5297 5298 5299 5300 5301 5302 5303 5304 5305 5306 5307 5308 5309 5310 5311 5312 5313 5314 5315 5316 5317 5318 5319 5320 5321 5322 5323 5324 5325 5326 5327 5328 5329 5330 5331 5332 5333 5334 5335 5336 5337 5338 5339 5340 5341 5342 5343 5344 5345 5346 5347 5348 5349 5350 5351 5352 5353 5354 5355 5356 5357 5358 5359 5360 5361 5362 5363 5364 5365 5366 5367 5368 5369 5370 5371 5372 5373 5374 5375 5376 5377 5378 5379 5380 5381 5382 5383 5384 5385 5386 5387 5388 5389 5390 5391 5392 5393 5394 5395 5396 5397 5398 5399 5400 5401 5402 5403 5404 5405 5406 5407 5408 5409 5410 5411 5412 5413 5414 5415 5416 5417 5418 5419 5420 5421 5422 5423 5424 5425 5426 5427 5428 5429 5430 5431 5432 5433 5434 5435 5436 5437 5438 5439 5440 5441 5442 5443 5444 5445 5446 5447 5448 5449 5450 5451 5452 5453 5454 5455 5456 5457 5458 5459 5460 5461 5462 5463 5464 5465 5466 5467 5468 5469 5470 5471 5472 5473 5474 5475 5476 5477 5478 5479 5480 5481 5482 5483 5484 5485 5486 5487 5488 5489 5490 5491 5492 5493 5494 5495 5496 5497 5498 5499 5500 5501 5502 5503 5504 5505 5506 5507 5508 5509 5510 5511 5512 5513 5514 5515 5516 5517 5518 5519 5520 5521 5522 5523 5524 5525 5526 5527 5528 5529 5530 5531 5532 5533 5534 5535 5536 5537 5538 5539 5540 5541 5542 5543 5544 5545 5546 5547 5548 5549 5550 5551 5552 5553 5554 5555 5556 5557 5558 5559 5560 5561 5562 5563 5564 5565 5566 5567 5568 5569 5570 5571 5572 5573 5574 5575 5576 5577 5578 5579 5580 5581 5582 5583 5584 5585 5586 5587 5588 5589 5590 5591 5592 5593 5594 5595 5596 5597 5598 5599 5600 5601 5602 5603 5604 5605 5606 5607 5608 5609 5610 5611 5612 5613 5614 5615 5616 5617 5618 5619 5620 5621 5622 5623 5624 5625 5626 5627 5628 5629 5630 5631 5632 5633 5634 5635 5636 5637 5638 5639 5640 5641 5642 5643 5644 5645 5646 5647 5648 5649 5650 5651 5652 5653 5654 5655 5656 5657 5658 5659 5660 5661 5662 5663 5664 5665 5666 5667 5668 5669 5670 5671 5672 5673 5674 5675 5676 5677 5678 5679 5680 5681 5682 5683 5684 5685 5686 5687 5688 5689 5690 5691 5692 5693 5694 5695 5696 5697 5698 5699 5700 5701 5702 5703 5704 5705 5706 5707 5708 5709 5710 5711 5712 5713 5714 5715 5716 5717 5718 5719 5720 5721 5722 5723 5724 5725 5726 5727 5728 5729 5730 5731 5732 5733 5734 5735 5736 5737 5738 5739 5740 5741 5742 5743 5744 5745 5746 5747 5748 5749 5750 5751 5752 5753 5754 5755 5756 5757 5758 5759 5760 5761 5762 5763 5764 5765 5766 5767 5768 5769 5770 5771 5772 5773 5774 5775 5776 5777 5778 5779 5780 5781 5782 5783 5784 5785 5786 5787 5788 5789 5790 5791 5792 5793 5794 5795 5796 5797 5798 5799 5800 5801 5802 5803 5804 5805 5806 5807 5808 5809 5810 5811 5812 5813 5814 5815 5816 5817 5818 5819 5820 5821 5822 5823 5824 5825 5826 5827 5828 5829 5830 5831 5832 5833 5834 5835 5836 5837 5838 5839 5840 5841 5842 5843 5844 5845 5846 5847 5848 5849 5850 5851 5852 5853 5854 5855 5856 5857 5858 5859 5860 5861 5862 5863 5864 5865 5866 5867 5868 5869 5870 5871 5872 5873 5874 5875 5876 5877 5878 5879 5880 5881 5882 5883 5884 5885 5886 5887 5888 5889 5890 5891 5892 5893 5894 5895 5896 5897 5898 5899 5900 5901 5902 5903 5904 5905 5906 5907 5908 5909 5910 5911 5912 5913 5914 5915 5916 5917 5918 5919 5920 5921 5922 5923 5924 5925 5926 5927 5928 5929 5930 5931 5932 5933 5934 5935 5936 5937 5938 5939 5940 5941 5942 5943 5944 5945 5946 5947 5948 5949 5950 5951 5952 5953 5954 5955 5956 5957 5958 5959 5960 5961 5962 5963 5964 5965 5966 5967 5968 5969 5970 5971 5972 5973 5974 5975 5976 5977 5978 5979 5980 5981 5982 5983 5984 5985 5986 5987 5988 5989 5990 5991 5992 5993 5994 5995 5996 5997 5998 5999 6000 6001 6002 6003 6004 6005 6006 6007 6008 6009 6010 6011 6012 6013 6014 6015 6016 6017 6018 6019 6020 6021 6022 6023 6024 6025 6026 6027 6028 6029 6030 6031 6032 6033 6034 6035 6036 6037 6038 6039 6040 6041 6042 6043 6044 6045 6046 6047 6048 6049 6050 6051 6052 6053 6054 6055 6056 6057 6058 6059 6060 6061 6062 6063 6064 6065 6066 6067 6068 6069 6070 6071 6072 6073 6074 6075 6076 6077 6078 6079 6080 6081 6082 6083 6084 6085 6086 6087 6088 6089 6090 6091 6092 6093 6094 6095 6096 6097 6098 6099 6100 6101 6102 6103 6104 6105 6106 6107 6108 6109 6110 6111 6112 6113 6114 6115 6116 6117 6118 6119 6120 6121 6122 6123 6124 6125 6126 6127 6128 6129 6130 6131 6132 6133 6134 6135 6136 6137 6138 6139 6140 6141 6142 6143 6144 6145 6146 6147 6148 6149 6150 6151 6152 6153 6154 6155 6156 6157 6158 6159 6160 6161 6162 6163 6164 6165 6166 6167 6168 6169 6170 6171 6172 6173 6174 6175 6176 6177 6178 6179 6180 6181 6182 6183 6184 6185 6186 6187 6188 6189 6190 6191 6192 6193 6194 6195 6196 6197 6198 6199 6200 6201 6202 6203 6204 6205 6206 6207 6208 6209 6210 6211 6212 6213 6214 6215 6216 6217 6218 6219 6220 6221 6222 6223 6224 6225 6226 6227 6228 6229 6230 6231 6232 6233 6234 6235 6236 6237 6238 6239 6240 6241 6242 6243 6244 6245 6246 6247 6248 6249 6250 6251 6252 6253 6254 6255 6256 6257 6258 6259 6260 6261 6262 6263 6264 6265 6266 6267 6268 6269 6270 6271 6272 6273 6274 6275 6276 6277 6278 6279 6280 6281 6282 6283 6284 6285 6286 6287 6288 6289 6290 6291 6292 6293 6294 6295 6296 6297 6298 6299 6300 6301 6302 6303 6304 6305 6306 6307 6308 6309 6310 6311 6312 6313 6314 6315 6316 6317 6318 6319 6320 6321 6322 6323 6324 6325 6326 6327 6328 6329 6330 6331 6332 6333 6334 6335 6336 6337 6338 6339 6340 6341 6342 6343 6344 6345 6346 6347 6348 6349 6350 6351 6352 6353 6354 6355 6356 6357 6358 6359 6360 6361 6362 6363 6364 6365 6366 6367 6368 6369 6370 6371 6372 6373 6374 6375 6376 6377 6378 6379 6380 6381 6382 6383 6384 6385 6386 6387 6388 6389 6390 6391 6392 6393 6394 6395 6396 6397 6398 6399 6400 6401 6402 6403 6404 6405 6406 6407 6408 6409 6410 6411 6412 6413 6414 6415 6416 6417 6418 6419 6420 6421 6422 6423 6424 6425 6426 6427 6428 6429 6430 6431 6432 6433 6434 6435 6436 6437 6438 6439 6440 6441 6442 6443 6444 6445 6446 6447 6448 6449 6450 6451 6452 6453 6454 6455 6456 6457 6458 6459 6460 6461 6462 6463 6464 6465 6466 6467 6468 6469 6470 6471 6472 6473 6474 6475 6476 6477 6478 6479 6480 6481 6482 6483 6484 6485 6486 6487 6488 6489 6490 6491 6492 6493 6494 6495 6496 6497 6498 6499 6500 6501 6502 6503 6504 6505 6506 6507 6508 6509 6510 6511 6512 6513 6514 6515 6516 6517 6518 6519 6520 6521 6522 6523 6524 6525 6526 6527 6528 6529 6530 6531 6532 6533 6534 6535 6536 6537 6538 6539 6540 6541 6542 6543 6544 6545 6546 6547 6548 6549 6550 6551 6552 6553 6554 6555 6556 6557 6558 6559 6560 6561 6562 6563 6564 6565 6566 6567 6568 6569 6570 6571 6572 6573 6574 6575 6576 6577 6578 6579 6580 6581 6582 6583 6584 6585 6586 6587 6588 6589 6590 6591 6592 6593 6594 6595 6596 6597 6598 6599 6600 6601 6602 6603 6604 6605 6606 6607 6608 6609 6610 6611 6612 6613 6614 6615 6616 6617 6618 6619 6620 6621 6622 6623 6624 6625 6626 6627 6628 6629 6630 6631 6632 6633 6634 6635 6636 6637 6638 6639 6640 6641 6642 6643 6644 6645 6646 6647 6648 6649 6650 6651 6652 6653 6654 6655 6656 6657 6658 6659 6660 6661 6662 6663 6664 6665 6666 6667 6668 6669 6670 6671 6672 6673 6674 6675 6676 6677 6678 6679 6680 6681 6682 6683 6684 6685 6686 6687 6688 6689 6690 6691 6692 6693 6694 6695 6696 6697 6698 6699 6700 6701 6702 6703 6704 6705 6706 6707 6708 6709 6710 6711 6712 6713 6714 6715 6716 6717 6718 6719 6720 6721 6722 6723 6724 6725 6726 6727 6728 6729 6730 6731 6732 6733 6734 6735 6736 6737 6738 6739 6740 6741 6742 6743 6744 6745 6746 6747 6748 6749 6750 6751 6752 6753 6754 6755 6756 6757 6758 6759 6760 6761 6762 6763 6764 6765 6766 6767 6768 6769 6770 6771 6772 6773 6774 6775 6776 6777 6778 6779 6780 6781 6782 6783 6784 6785 6786 6787 6788 6789 6790 6791 6792 6793 6794 6795 6796 6797 6798 6799 6800 6801 6802 6803 6804 6805 6806 6807 6808 6809 6810 6811 6812 6813 6814 6815 6816 6817 6818 6819 6820 6821 6822 6823 6824 6825 6826 6827 6828 6829 6830 6831 6832 6833 6834 6835 6836 6837 6838 6839 6840 6841 6842 6843 6844 6845 6846 6847 6848 6849 6850 6851 6852 6853 6854 6855 6856 6857 6858 6859 6860 6861 6862 6863 6864 6865 6866 6867 6868 6869 6870 6871 6872 6873 6874 6875 6876 6877 6878 6879 6880 6881 6882 6883 6884 6885 6886 6887 6888 6889 6890 6891 6892 6893 6894 6895 6896 6897 6898 6899 6900 6901 6902 6903 6904 6905 6906 6907 6908 6909 6910 6911 6912 6913 6914 6915 6916 6917 6918 6919 6920 6921 6922 6923 6924 6925 6926 6927 6928 6929 6930 6931 6932 6933 6934 6935 6936 6937 6938 6939 6940 6941 6942 6943 6944 6945 6946 6947 6948 6949 6950 6951 6952 6953 6954 6955 6956 6957 6958 6959 6960 6961 6962 6963 6964 6965 6966 6967 6968 6969 6970 6971 6972 6973 6974 6975 6976 6977 6978 6979 6980 6981 6982 6983 6984 6985 6986 6987 6988 6989 6990 6991 6992 6993 6994 6995 6996 6997 6998 6999 7000 7001 7002 7003 7004 7005 7006 7007 7008 7009 7010 7011 7012 7013 7014 7015 7016 7017 7018 7019 7020 7021 7022 7023 7024 7025 7026 7027 7028 7029 7030 7031 7032 7033 7034 7035 7036 7037 7038 7039 7040 7041 7042 7043 7044 7045 7046 7047 7048 7049 7050 7051 7052 7053 7054 7055 7056 7057 7058 7059 7060 7061 7062 7063 7064 7065 7066 7067 7068 7069 7070 7071 7072 7073 7074 7075 7076 7077 7078 7079 7080 7081 7082 7083 7084 7085 7086 7087 7088 7089 7090 7091 7092 7093 7094 7095 7096 7097 7098 7099 7100 7101 7102 7103 7104 7105 7106 7107 7108 7109 7110 7111 7112 7113 7114 7115 7116 7117 7118 7119 7120 7121 7122 7123 7124 7125 7126 7127 7128 7129 7130 7131 7132 7133 7134 7135 7136 7137 7138 7139 7140 7141 7142 7143 7144 7145 7146 7147 7148 7149 7150 7151 7152 7153 7154 7155 7156 7157 7158 7159 7160 7161 7162 7163 7164 7165 7166 7167 7168 7169 7170 7171 7172 7173 7174 7175 7176 7177 7178 7179 7180 7181 7182 7183 7184 7185 7186 7187 7188 7189 7190 7191 7192 7193 7194 7195 7196 7197 7198 7199 7200 7201 7202 7203 7204 7205 7206 7207 7208 7209 7210 7211 7212 7213 7214 7215 7216 7217 7218 7219 7220 7221 7222 7223 7224 7225 7226 7227 7228 7229 7230 7231 7232 7233 7234 7235 7236 7237 7238 7239 7240 7241 7242 7243 7244 7245 7246 7247 7248 7249 7250 7251 7252 7253 7254 7255 7256 7257 7258 7259 7260 7261 7262 7263 7264 7265 7266 7267 7268 7269 7270 7271 7272 7273 7274 7275 7276 7277 7278 7279 7280 7281 7282 7283 7284 7285 7286 7287 7288 7289 7290 7291 7292 7293 7294 7295 7296 7297 7298 7299 7300 7301 7302 7303 7304 7305 7306 7307 7308 7309 7310 7311 7312 7313 7314 7315 7316 7317 7318 7319 7320 7321 7322 7323 7324 7325 7326 7327 7328 7329 7330 7331 7332 7333 7334 7335 7336 7337 7338 7339 7340 7341 7342 7343 7344 7345 7346 7347 7348 7349 7350 7351 7352 7353 7354 7355 7356 7357 7358 7359 7360 7361 7362 7363 7364 7365 7366 7367 7368 7369 7370 7371 7372 7373 7374 7375 7376 7377 7378 7379 7380 7381 7382 7383 7384 7385 7386 7387 7388 7389 7390 7391 7392 7393 7394 7395 7396 7397 7398 7399 7400 7401 7402 7403 7404 7405 7406 7407 7408 7409 7410 7411 7412 7413 7414 7415 7416 7417 7418 7419 7420 7421 7422 7423 7424 7425 7426 7427 7428 7429 7430 7431 7432 7433 7434 7435 7436 7437 7438 7439 7440 7441 7442 7443 7444 7445 7446 7447 7448 7449 7450 7451 7452 7453 7454 7455 7456 7457 7458 7459 7460 7461 7462 7463 7464 7465 7466 7467 7468 7469 7470 7471 7472 7473 7474 7475 7476 7477 7478 7479 7480 7481 7482 7483 7484 7485 7486 7487 7488 7489 7490 7491 7492 7493 7494 7495 7496 7497 7498 7499 7500 7501 7502 7503 7504 7505 7506 7507 7508 7509 7510 7511 7512 7513 7514 7515 7516 7517 7518 7519 7520 7521 7522 7523 7524 7525 7526 7527 7528 7529 7530 7531 7532 7533 7534 7535 7536 7537 7538 7539 7540 7541 7542 7543 7544 7545 7546 7547 7548 7549 7550 7551 7552 7553 7554 7555 7556 7557 7558 7559 7560 7561 7562 7563 7564 7565 7566 7567 7568 7569 7570 7571 7572 7573 7574 7575 7576 7577 7578 7579 7580 7581 7582 7583 7584 7585 7586 7587 7588 7589 7590 7591 7592 7593 7594 7595 7596 7597 7598 7599 7600 7601 7602 7603 7604 7605 7606 7607 7608 7609 7610 7611 7612 7613 7614 7615 7616 7617 7618 7619 7620 7621 7622 7623 7624 7625 7626 7627 7628 7629 7630 7631 7632 7633 7634 7635 7636 7637 7638 7639 7640 7641 7642 7643 7644 7645 7646 7647 7648 7649 7650 7651 7652 7653 7654 7655 7656 7657 7658 7659 7660 7661 7662 7663 7664 7665 7666 7667 7668 7669 7670 7671 7672 7673 7674 7675 7676 7677 7678 7679 7680 7681 7682 7683 7684 7685 7686 7687 7688 7689 7690 7691 7692 7693 7694 7695 7696 7697 7698 7699 7700 7701 7702 7703 7704 7705 7706 7707 7708 7709 7710 7711 7712 7713 7714 7715 7716 7717 7718 7719 7720 7721 7722 7723 7724 7725 7726 7727 7728 7729 7730 7731 7732 7733 7734 7735 7736 7737 7738 7739 7740 7741 7742 7743 7744 7745 7746 7747 7748 7749 7750 7751 7752 7753 7754 7755 7756 7757 7758 7759 7760 7761 7762 7763 7764 7765 7766 7767 7768 7769 7770 7771 7772 7773 7774 7775 7776 7777 7778 7779 7780 7781 7782 7783 7784 7785 7786 7787 7788 7789 7790 7791 7792 7793 7794 7795 7796 7797 7798 7799 7800 7801 7802 7803 7804 7805 7806 7807 7808 7809 7810 7811 7812 7813 7814 7815 7816 7817 7818 7819 7820 7821 7822 7823 7824 7825 7826 7827 7828 7829 7830 7831 7832 7833 7834 7835 7836 7837 7838 7839 7840 7841 7842 7843 7844 7845 7846 7847 7848 7849 7850 7851 7852 7853 7854 7855 7856 7857 7858 7859 7860 7861 7862 7863 7864 7865 7866 7867 7868 7869 7870 7871 7872 7873 7874 7875 7876 7877 7878 7879 7880 7881 7882 7883 7884 7885 7886 7887 7888 7889 7890 7891 7892 7893 7894 7895 7896 7897 7898 7899 7900 7901 7902 7903 7904 7905 7906 7907 7908 7909 7910 7911 7912 7913 7914 7915 7916 7917 7918 7919 7920 7921 7922 7923 7924 7925 7926 7927 7928 7929 7930 7931 7932 7933 7934 7935 7936 7937 7938 7939 7940 7941 7942 7943 7944 7945 7946 7947 7948 7949 7950 7951 7952 7953 7954 7955 7956 7957 7958 7959 7960 7961 7962 7963 7964 7965 7966 7967 7968 7969 7970 7971 7972 7973 7974 7975 7976 7977 7978 7979 7980 7981 7982 7983 7984 7985 7986 7987 7988 7989 7990 7991 7992 7993 7994 7995 7996 7997 7998 7999 8000 8001 8002 8003 8004 8005 8006 8007 8008 8009 8010 8011 8012 8013 8014 8015 8016 8017 8018 8019 8020 8021 8022 8023 8024 8025 8026 8027 8028 8029 8030 8031 8032 8033 8034 8035 8036 8037 8038 8039 8040 8041 8042 8043 8044 8045 8046 8047 8048 8049 8050 8051 8052 8053 8054 8055 8056 8057 8058 8059 8060 8061 8062 8063 8064 8065 8066 8067 8068 8069 8070 8071 8072 8073 8074 8075 8076 8077 8078 8079 8080 8081 8082 8083 8084 8085 8086 8087 8088 8089 8090 8091 8092 8093 8094 8095 8096 8097 8098 8099 8100 8101 8102 8103 8104 8105 8106 8107 8108 8109 8110 8111 8112 8113 8114 8115 8116 8117 8118 8119 8120 8121 8122 8123 8124 8125 8126 8127 8128 8129 8130 8131 8132 8133 8134 8135 8136 8137 8138 8139 8140 8141 8142 8143 8144 8145 8146 8147 8148 8149 8150 8151 8152 8153 8154 8155 8156 8157 8158 8159 8160 8161 8162 8163 8164 8165 8166 8167 8168 8169 8170 8171 8172 8173 8174 8175 8176 8177 8178 8179 8180 8181 8182 8183 8184 8185 8186 8187 8188 8189 8190 8191 8192 8193 8194 8195 8196 8197 8198 8199 8200 8201 8202 8203 8204 8205 8206 8207 8208 8209 8210 8211 8212 8213 8214 8215 8216 8217 8218 8219 8220 8221 8222 8223 8224 8225 8226 8227 8228 8229 8230 8231 8232 8233 8234 8235 8236 8237 8238 8239 8240 8241 8242 8243 8244 8245 8246 8247 8248 8249 8250 8251 8252 8253 8254 8255 8256 8257 8258 8259 8260 8261 8262 8263 8264 8265 8266 8267 8268 8269 8270 8271 8272 8273 8274 8275 8276 8277 8278 8279 8280 8281 8282 8283 8284 8285 8286 8287 8288 8289 8290 8291 8292 8293 8294 8295 8296 8297 8298 8299 8300 8301 8302 8303 8304 8305 8306 8307 8308 8309 8310 8311 8312 8313 8314 8315 8316 8317 8318 8319 8320 8321 8322 8323 8324 8325 8326 8327 8328 8329 8330 8331 8332 8333 8334 8335 8336 8337 8338 8339 8340 8341 8342 8343 8344 8345 8346 8347 8348 8349 8350 8351 8352 8353 8354 8355 8356 8357 8358 8359 8360 8361 8362 8363 8364 8365 8366 8367 8368 8369 8370 8371 8372 8373 8374 8375 8376 8377 8378 8379 8380 8381 8382 8383 8384 8385 8386 8387 8388 8389 8390 8391 8392 8393 8394 8395 8396 8397 8398 8399 8400 8401 8402 8403 8404 8405 8406 8407 8408 8409 8410 8411 8412 8413 8414 8415 8416 8417 8418 8419 8420 8421 8422 8423 8424 8425 8426 8427 8428 8429 8430 8431 8432 8433 8434 8435 8436 8437 8438 8439 8440 8441 8442 8443 8444 8445 8446 8447 8448 8449 8450 8451 8452 8453 8454 8455 8456 8457 8458 8459 8460 8461 8462 8463 8464 8465 8466 8467 8468 8469 8470 8471 8472 8473 8474 8475 8476 8477 8478 8479 8480 8481 8482 8483 8484 8485 8486 8487 8488 8489 8490 8491 8492 8493 8494 8495 8496 8497 8498 8499 8500 8501 8502 8503 8504 8505 8506 8507 8508 8509 8510 8511 8512 8513 8514 8515 8516 8517 8518 8519 8520 8521 8522 8523 8524 8525 8526 8527 8528 8529 8530 8531 8532 8533 8534 8535 8536 8537 8538 8539 8540 8541 8542 8543 8544 8545 8546 8547 8548 8549 8550 8551 8552 8553 8554 8555 8556 8557 8558 8559 8560 8561 8562 8563 8564 8565 8566 8567 8568 8569 8570 8571 8572 8573 8574 8575 8576 8577 8578 8579 8580 8581 8582 8583 8584 8585 8586 8587 8588 8589 8590 8591 8592 8593 8594 8595 8596 8597 8598 8599 8600 8601 8602 8603 8604 8605 8606 8607 8608 8609 8610 8611 8612 8613 8614 8615 8616 8617 8618 8619 8620 8621 8622 8623 8624 8625 8626 8627 8628 8629 8630 8631 8632 8633 8634 8635 8636 8637 8638 8639 8640 8641 8642 8643 8644 8645 8646 8647 8648 8649 8650 8651 8652 8653 8654 8655 8656 8657 8658 8659 8660 8661 8662 8663 8664 8665 8666 8667 8668 8669 8670 8671 8672 8673 8674 8675 8676 8677 8678 8679 8680 8681 8682 8683 8684 8685 8686 8687 8688 8689 8690 8691 8692 8693 8694 8695 8696 8697 8698 8699 8700 8701 8702 8703 8704 8705 8706 8707 8708 8709 8710 8711 8712 8713 8714 8715 8716 8717 8718 8719 8720 8721 8722 8723 8724 8725 8726 8727 8728 8729 8730 8731 8732 8733 8734 8735 8736 8737 8738 8739 8740 8741 8742 8743 8744 8745 8746 8747 8748 8749 8750 8751 8752 8753 8754 8755 8756 8757 8758 8759 8760 8761 8762 8763 8764 8765 8766 8767 8768 8769 8770 8771 8772 8773 8774 8775 8776 8777 8778 8779 8780 8781 8782 8783 8784 8785 8786 8787 8788 8789 8790 8791 8792 8793 8794 8795 8796 8797 8798 8799 8800 8801 8802 8803 8804 8805 8806 8807 8808 8809 8810 8811 8812 8813 8814 8815 8816 8817 8818 8819 8820 8821 8822 8823 8824 8825 8826 8827 8828 8829 8830 8831 8832 8833 8834 8835 8836 8837 8838 8839 8840 8841 8842 8843 8844 8845 8846 8847 8848 8849 8850 8851 8852 8853 8854 8855 8856 8857 8858 8859 8860 8861 8862 8863 8864 8865 8866 8867 8868 8869 8870 8871 8872 8873 8874 8875 8876 8877 8878 8879 8880 8881 8882 8883 8884 8885 8886 8887 8888 8889 8890 8891 8892 8893 8894 8895 8896 8897 8898 8899 8900 8901 8902 8903 8904 8905 8906 8907 8908 8909 8910 8911 8912 8913 8914 8915 8916 8917 8918 8919 8920 8921 8922 8923 8924 8925 8926 8927 8928 8929 8930 8931 8932 8933 8934 8935 8936 8937 8938 8939 8940 8941 8942 8943 8944 8945 8946 8947 8948 8949 8950 8951 8952 8953 8954 8955 8956 8957 8958 8959 8960 8961 8962 8963 8964 8965 8966 8967 8968 8969 8970 8971 8972 8973 8974 8975 8976 8977 8978 8979 8980 8981 8982 8983 8984 8985 8986 8987 8988 8989 8990 8991 8992 8993 8994 8995 8996 8997 8998 8999 9000 9001 9002 9003 9004 9005 9006 9007 9008 9009 9010 9011 9012 9013 9014 9015 9016 9017 9018 9019 9020 9021 9022 9023 9024 9025 9026 9027 9028 9029 9030 9031 9032 9033 9034 9035 9036 9037 9038 9039 9040 9041 9042 9043 9044 9045 9046 9047 9048 9049 9050 9051 9052 9053 9054 9055 9056 9057 9058 9059 9060 9061 9062 9063 9064 9065 9066 9067 9068 9069 9070 9071 9072 9073 9074 9075 9076 9077 9078 9079 9080 9081 9082 9083 9084 9085 9086 9087 9088 9089 9090 9091 9092 9093 9094 9095 9096 9097 9098 9099 9100 9101 9102 9103 9104 9105 9106 9107 9108 9109 9110 9111 9112 9113 9114 9115 9116 9117 9118 9119 9120 9121 9122 9123 9124 9125 9126 9127 9128 9129 9130 9131 9132 9133 9134 9135 9136 9137 9138 9139 9140 9141 9142 9143 9144 9145 9146 9147 9148 9149 9150 9151 9152 9153 9154 9155 9156 9157 9158 9159 9160 9161 9162 9163 9164 9165 9166 9167 9168 9169 9170 9171 9172 9173 9174 9175 9176 9177 9178 9179 9180 9181 9182 9183 9184 9185 9186 9187 9188 9189 9190 9191 9192 9193 9194 9195 9196 9197 9198 9199 9200 9201 9202 9203 9204 9205 9206 9207 9208 9209 9210 9211 9212 9213 9214 9215 9216 9217 9218 9219 9220 9221 9222 9223 9224 9225 9226 9227 9228 9229 9230 9231 9232 9233 9234 9235 9236 9237 9238 9239 9240 9241 9242 9243 9244 9245 9246 9247 9248 9249 9250 9251 9252 9253 9254 9255 9256 9257 9258 9259 9260 9261 9262 9263 9264 9265 9266 9267 9268 9269 9270 9271 9272 9273 9274 9275 9276 9277 9278 9279 9280 9281 9282 9283 9284 9285 9286 9287 9288 9289 9290 9291 9292 9293 9294 9295 9296 9297 9298 9299 9300 9301 9302 9303 9304 9305 9306 9307 9308 9309 9310 9311 9312 9313 9314 9315 9316 9317 9318 9319 9320 9321 9322 9323 9324 9325 9326 9327 9328 9329 9330 9331 9332 9333 9334 9335 9336 9337 9338 9339 9340 9341 9342 9343 9344 9345 9346 9347 9348 9349 9350 9351 9352 9353 9354 9355 9356 9357 9358 9359 9360 9361 9362 9363 9364 9365 9366 9367 9368 9369 9370 9371 9372 9373 9374 9375 9376 9377 9378 9379 9380 9381 9382 9383 9384 9385 9386 9387 9388 9389 9390 9391 9392 9393 9394 9395 9396 9397 9398 9399 9400 9401 9402 9403 9404 9405 9406 9407 9408 9409 9410 9411 9412 9413 9414 9415 9416 9417 9418 9419 9420 9421 9422 9423 9424 9425 9426 9427 9428 9429 9430 9431 9432 9433 9434 9435 9436 9437 9438 9439 9440 9441 9442 9443 9444 9445 9446 9447 9448 9449 9450 9451 9452 9453 9454 9455 9456 9457 9458 9459 9460 9461 9462 9463 9464 9465 9466 9467 9468 9469 9470 9471 9472 9473 9474 9475 9476 9477 9478 9479 9480 9481 9482 9483 9484 9485 9486 9487 9488 9489 9490 9491 9492 9493 9494 9495 9496 9497 9498 9499 9500 9501 9502 9503 9504 9505 9506 9507 9508 9509 9510 9511 9512 9513 9514 9515 9516 9517 9518 9519 9520 9521 9522 9523 9524 9525 9526 9527 9528 9529 9530 9531 9532 9533 9534 9535 9536 9537 9538 9539 9540 9541 9542 9543 9544 9545 9546 9547 9548 9549 9550 9551 9552 9553 9554 9555 9556 9557 9558 9559 9560 9561 9562 9563 9564 9565 9566 9567 9568 9569 9570 9571 9572 9573 9574 9575 9576 9577 9578 9579 9580 9581 9582 9583 9584 9585 9586 9587 9588 9589 9590 9591 9592 9593 9594 9595 9596 9597 9598 9599 9600 9601 9602 9603 9604 9605 9606 9607 9608 9609 9610 9611 9612 9613 9614 9615 9616 9617 9618 9619 9620 9621 9622 9623 9624 9625 9626 9627 9628 9629 9630 9631 9632 9633 9634 9635 9636 9637 9638 9639 9640 9641 9642 9643 9644 9645 9646 9647 9648 9649 9650 9651 9652 9653 9654 9655 9656 9657 9658 9659 9660 9661 9662 9663 9664 9665 9666 9667 9668 9669 9670 9671 9672 9673 9674 9675 9676 9677 9678 9679 9680 9681 9682 9683 9684 9685 9686 9687 9688 9689 9690 9691 9692 9693 9694 9695 9696 9697 9698 9699 9700 9701 9702 9703 9704 9705 9706 9707 9708 9709 9710 9711 9712 9713 9714 9715 9716 9717 9718 9719 9720 9721 9722 9723 9724 9725 9726 9727 9728 9729 9730 9731 9732 9733 9734 9735 9736 9737 9738 9739 9740 9741 9742 9743 9744 9745 9746 9747 9748 9749 9750 9751 9752 9753 9754 9755 9756 9757 9758 9759 9760 9761 9762 9763 9764 9765 9766 9767 9768 9769 9770 9771 9772 9773 9774 9775 9776 9777 9778 9779 9780 9781 9782 9783 9784 9785 9786 9787 9788 9789 9790 9791 9792 9793 9794 9795 9796 9797 9798 9799 9800 9801 9802 9803 9804 9805 9806 9807 9808 9809 9810 9811 9812 9813 9814 9815 9816 9817 9818 9819 9820 9821 9822 9823 9824 9825 9826 9827 9828 9829 9830 9831 9832 9833 9834 9835 9836 9837 9838 9839 9840 9841 9842 9843 9844 9845 9846 9847 9848 9849 9850 9851 9852 9853 9854 9855 9856 9857 9858 9859 9860 9861 9862 9863 9864 9865 9866 9867 9868 9869 9870 9871 9872 9873 9874 9875 9876 9877 9878 9879 9880 9881 9882 9883 9884 9885 9886 9887 9888 9889 9890 9891 9892 9893 9894 9895 9896 9897 9898 9899 9900 9901 9902 9903 9904 9905 9906 9907 9908 9909 9910 9911 9912 9913 9914 9915 9916 9917 9918 9919 9920 9921 9922 9923 9924 9925 9926 9927 9928 9929 9930 9931 9932 9933 9934 9935 9936 9937 9938 9939 9940 9941 9942 9943 9944 9945 9946 9947 9948 9949 9950 9951 9952 9953 9954 9955 9956 9957 9958 9959 9960 9961 9962 9963 9964 9965 9966 9967 9968 9969 9970 9971 9972 9973 9974 9975 9976 9977 9978 9979 9980 9981 9982 9983 9984 9985 9986 9987 9988 9989 9990 9991 9992 9993 9994 9995 9996 9997 9998 9999 10000 10001 10002 10003 10004 10005 10006 10007 10008 10009 10010 10011 10012 10013 10014 10015 10016 10017 10018 10019 10020 10021 10022 10023 10024 10025 10026 10027 10028 10029 10030 10031 10032 10033 10034 10035 10036 10037 10038 10039 10040 10041 10042 10043 10044 10045 10046 10047 10048 10049 10050 10051 10052 10053 10054 10055 10056 10057 10058 10059 10060 10061 10062 10063 10064 10065 10066 10067 10068 10069 10070 10071 10072 10073 10074 10075 10076 10077 10078 10079 10080 10081 10082 10083 10084 10085 10086 10087 10088 10089 10090 10091 10092 10093 10094 10095 10096 10097 10098 10099 10100 10101 10102 10103 10104 10105 10106 10107 10108 10109 10110 10111 10112 10113 10114 10115 10116 10117 10118 10119 10120 10121 10122 10123 10124 10125 10126 10127 10128 10129 10130 10131 10132 10133 10134 10135 10136 10137 10138 10139 10140 10141 10142 10143 10144 10145 10146 10147 10148 10149 10150 10151 10152 10153 10154 10155 10156 10157 10158 10159 10160 10161 10162 10163 10164 10165 10166 10167 10168 10169 10170 10171 10172 10173 10174 10175 10176 10177 10178 10179 10180 10181 10182 10183 10184 10185 10186 10187 10188 10189 10190 10191 10192 10193 10194 10195 10196 10197 10198 10199 10200 10201 10202 10203 10204 10205 10206 10207 10208 10209 10210 10211 10212 10213 10214 10215 10216 10217 10218 10219 10220 10221 10222 10223 10224 10225 10226 10227 10228 10229 10230 10231 10232 10233 10234 10235 10236 10237 10238 10239 10240 10241 10242 10243 10244 10245 10246 10247 10248 10249 10250 10251 10252 10253 10254 10255 10256 10257 10258 10259 10260 10261 10262 10263 10264 10265 10266 10267 10268 10269 10270 10271 10272 10273 10274 10275 10276 10277 10278 10279 10280 10281 10282 10283 10284 10285 10286 10287 10288 10289 10290 10291 10292 10293 10294 10295 10296 10297 10298 10299 10300 10301 10302 10303 10304 10305 10306 10307 10308 10309 10310 10311 10312 10313 10314 10315 10316 10317 10318 10319 10320 10321 10322 10323 10324 10325 10326 10327 10328 10329 10330 10331 10332 10333 10334 10335 10336 10337 10338 10339 10340 10341 10342 10343 10344 10345 10346 10347 10348 10349 10350 10351 10352 10353 10354 10355 10356 10357 10358 10359 10360 10361 10362 10363 10364 10365 10366 10367 10368 10369 10370 10371 10372 10373 10374 10375 10376 10377 10378 10379 10380 10381 10382 10383 10384 10385 10386 10387 10388 10389 10390 10391 10392 10393 10394 10395 10396 10397 10398 10399 10400 10401 10402 10403 10404 10405 10406 10407 10408 10409 10410 10411 10412 10413 10414 10415 10416 10417 10418 10419 10420 10421 10422 10423 10424 10425 10426 10427 10428 10429 10430 10431 10432 10433 10434 10435 10436 10437 10438 10439 10440 10441 10442 10443 10444 10445 10446 10447 10448 10449 10450 10451 10452 10453 10454 10455 10456 10457 10458 10459 10460 10461 10462 10463 10464 10465 10466 10467 10468 10469 10470 10471 10472 10473 10474 10475 10476 10477 10478 10479 10480 10481 10482 10483 10484 10485 10486 10487 10488 10489 10490 10491 10492 10493 10494 10495 10496 10497 10498 10499 10500 10501 10502 10503 10504 10505 10506 10507 10508 10509 10510 10511 10512 10513 10514 10515 10516 10517 10518 10519 10520 10521 10522 10523 10524 10525 10526 10527 10528 10529 10530 10531 10532 10533 10534 10535 10536 10537 10538 10539 10540 10541 10542 10543 10544 10545 10546 10547 10548 10549 10550 10551 10552 10553 10554 10555 10556 10557 10558 10559 10560 10561 10562 10563 10564 10565 10566 10567 10568 10569 10570 10571 10572 10573 10574 10575 10576 10577 10578 10579 10580 10581 10582 10583 10584 10585 10586 10587 10588 10589 10590 10591 10592 10593 10594 10595 10596 10597 10598 10599 10600 10601 10602 10603 10604 10605 10606 10607 10608 10609 10610 10611 10612 10613 10614 10615 10616 10617 10618 10619 10620 10621 10622 10623 10624 10625 10626 10627 10628 10629 10630 10631 10632 10633 10634 10635 10636 10637 10638 10639 10640 10641 10642 10643 10644 10645 10646 10647 10648 10649 10650 10651 10652 10653 10654 10655 10656 10657 10658 10659 10660 10661 10662 10663 10664 10665 10666 10667 10668 10669 10670 10671 10672 10673 10674 10675 10676 10677 10678 10679 10680 10681 10682 10683 10684 10685 10686 10687 10688 10689 10690 10691 10692 10693 10694 10695 10696 10697 10698 10699 10700 10701 10702 10703 10704 10705 10706 10707 10708 10709 10710 10711 10712 10713 10714 10715 10716 10717 10718 10719 10720 10721 10722 10723 10724 10725 10726 10727 10728 10729 10730 10731 10732 10733 10734 10735 10736 10737 10738 10739 10740 10741 10742 10743 10744 10745 10746 10747 10748 10749 10750 10751 10752 10753 10754 10755 10756 10757 10758 10759 10760 10761 10762 10763 10764 10765 10766 10767 10768 10769 10770 10771 10772 10773 10774 10775 10776 10777 10778 10779 10780 10781 10782 10783 10784 10785 10786 10787 10788 10789 10790 10791 10792 10793 10794 10795 10796 10797 10798 10799 10800 10801 10802 10803 10804 10805 10806 10807 10808 10809 10810 10811 10812 10813 10814 10815 10816 10817 10818 10819 10820 10821 10822 10823 10824 10825 10826 10827 10828 10829 10830 10831 10832 10833 10834 10835 10836 10837 10838 10839 10840 10841 10842 10843 10844 10845 10846 10847 10848 10849 10850 10851 10852 10853 10854 10855 10856 10857 10858 10859 10860 10861 10862 10863 10864 10865 10866 10867 10868 10869 10870 10871 10872 10873 10874 10875 10876 10877 10878 10879 10880 10881 10882 10883 10884 10885 10886 10887 10888 10889 10890 10891 10892 10893 10894 10895 10896 10897 10898 10899 10900 10901 10902 10903 10904 10905 10906 10907 10908 10909 10910 10911 10912 10913 10914 10915 10916 10917 10918 10919 10920 10921 10922 10923 10924 10925 10926 10927 10928 10929 10930 10931 10932 10933 10934 10935 10936 10937 10938 10939 10940 10941 10942 10943 10944 10945 10946 10947 10948 10949 10950 10951 10952 10953 10954 10955 10956 10957 10958 10959 10960 10961 10962 10963 10964 10965 10966 10967 10968 10969 10970 10971 10972 10973 10974 10975 10976 10977 10978 10979 10980 10981 10982 10983 10984 10985 10986 10987 10988 10989 10990 10991 10992 10993 10994 10995 10996 10997 10998 10999 11000 11001 11002 11003 11004 11005 11006 11007 11008 11009 11010 11011 11012 11013 11014 11015 11016 11017 11018 11019 11020 11021 11022 11023 11024 11025 11026 11027 11028 11029 11030 11031 11032 11033 11034 11035 11036 11037 11038 11039 11040 11041 11042 11043 11044 11045 11046 11047 11048 11049 11050 11051 11052 11053 11054 11055 11056 11057 11058 11059 11060 11061 11062 11063 11064 11065 11066 11067 11068 11069 11070 11071 11072 11073 11074 11075 11076 11077 11078 11079 11080 11081 11082 11083 11084 11085 11086 11087 11088 11089 11090 11091 11092 11093 11094 11095 11096 11097 11098 11099 11100 11101 11102 11103 11104 11105 11106 11107 11108 11109 11110 11111 11112 11113 11114 11115 11116 11117 11118 11119 11120 11121 11122 11123 11124 11125 11126 11127 11128 11129 11130 11131 11132 11133 11134 11135 11136 11137 11138 11139 11140 11141 11142 11143 11144 11145 11146 11147 11148 11149 11150 11151 11152 11153 11154 11155 11156 11157 11158 11159 11160 11161 11162 11163 11164 11165 11166 11167 11168 11169 11170 11171 11172 11173 11174 11175 11176 11177 11178 11179 11180 11181 11182 11183 11184 11185 11186 11187 11188 11189 11190 11191 11192 11193 11194 11195 11196 11197 11198 11199 11200 11201 11202 11203 11204 11205 11206 11207 11208 11209 11210 11211 11212 11213 11214 11215 11216 11217 11218 11219 11220 11221 11222 11223 11224 11225 11226 11227 11228 11229 11230 11231 11232 11233 11234 11235 11236 11237 11238 11239 11240 11241 11242 11243 11244 11245 11246 11247 11248 11249 11250 11251 11252 11253 11254 11255 11256 11257 11258 11259 11260 11261 11262 11263 11264 11265 11266 11267 11268 11269 11270 11271 11272 11273 11274 11275 11276 11277 11278 11279 11280 11281 11282 11283 11284 11285 11286 11287 11288 11289 11290 11291 11292 11293 11294 11295 11296 11297 11298 11299 11300 11301 11302 11303 11304 11305 11306 11307 11308 11309 11310 11311 11312 11313 11314 11315 11316 11317 11318 11319 11320 11321 11322 11323 11324 11325 11326 11327 11328 11329 11330 11331 11332 11333 11334 11335 11336 11337 11338 11339 11340 11341 11342 11343 11344 11345 11346 11347 11348 11349 11350 11351 11352 11353 11354 11355 11356 11357 11358 11359 11360 11361 11362 11363 11364 11365 11366 11367 11368 11369 11370 11371 11372 11373 11374 11375 11376 11377 11378 11379 11380 11381 11382 11383 11384 11385 11386 11387 11388 11389 11390 11391 11392 11393 11394 11395 11396 11397 11398 11399 11400 11401 11402 11403 11404 11405 11406 11407 11408 11409 11410 11411 11412 11413 11414 11415 11416 11417 11418 11419 11420 11421 11422 11423 11424 11425 11426 11427 11428 11429 11430 11431 11432 11433 11434 11435 11436 11437 11438 11439 11440 11441 11442 11443 11444 11445 11446 11447 11448 11449 11450 11451 11452 11453 11454 11455 11456 11457 11458 11459 11460 11461 11462 11463 11464 11465 11466 11467 11468 11469 11470 11471 11472 11473 11474 11475 11476 11477 11478 11479 11480 11481 11482 11483 11484 11485 11486 11487 11488 11489 11490 11491 11492 11493 11494 11495 11496 11497 11498 11499 11500 11501 11502 11503 11504 11505 11506 11507 11508 11509 11510 11511 11512 11513 11514 11515 11516 11517 11518 11519 11520 11521 11522 11523 11524 11525 11526 11527 11528 11529 11530 11531 11532 11533 11534 11535 11536 11537 11538 11539 11540 11541 11542 11543 11544 11545 11546 11547 11548 11549 11550 11551 11552 11553 11554 11555 11556 11557 11558 11559 11560 11561 11562 11563 11564 11565 11566 11567 11568 11569 11570 11571 11572 11573 11574 11575 11576 11577 11578 11579 11580 11581 11582 11583 11584 11585 11586 11587 11588 11589 11590 11591 11592 11593 11594 11595 11596 11597 11598 11599 11600 11601 11602 11603 11604 11605 11606 11607 11608 11609 11610 11611 11612 11613 11614 11615 11616 11617 11618 11619 11620 11621 11622 11623 11624 11625 11626 11627 11628 11629 11630 11631 11632 11633 11634 11635 11636 11637 11638 11639 11640 11641 11642 11643 11644 11645 11646 11647 11648 11649 11650 11651 11652 11653 11654 11655 11656 11657 11658 11659 11660 11661 11662 11663 11664 11665 11666 11667 11668 11669 11670 11671 11672 11673 11674 11675 11676 11677 11678 11679 11680 11681 11682 11683 11684 11685 11686 11687 11688 11689 11690 11691 11692 11693 11694 11695 11696 11697 11698 11699 11700 11701 11702 11703 11704 11705 11706 11707 11708 11709 11710 11711 11712 11713 11714 11715 11716 11717 11718 11719 11720 11721 11722 11723 11724 11725 11726 11727 11728 11729 11730 11731 11732 11733 11734 11735 11736 11737 11738 11739 11740 11741 11742 11743 11744 11745 11746 11747 11748 11749 11750 11751 11752 11753 11754 11755 11756 11757 11758 11759 11760 11761 11762 11763 11764 11765 11766 11767 11768 11769 11770 11771 11772 11773 11774 11775 11776 11777 11778 11779 11780 11781 11782 11783 11784 11785 11786 11787 11788 11789 11790 11791 11792 11793 11794 11795 11796 11797 11798 11799 11800 11801 11802 11803 11804 11805 11806 11807 11808 11809 11810 11811 11812 11813 11814 11815 11816 11817 11818 11819 11820 11821 11822 11823 11824 11825 11826 11827 11828 11829 11830 11831 11832 11833 11834 11835 11836 11837 11838 11839 11840 11841 11842 11843 11844 11845 11846 11847 11848 11849 11850 11851 11852 11853 11854 11855 11856 11857 11858 11859 11860 11861 11862 11863 11864 11865 11866 11867 11868 11869 11870 11871 11872 11873 11874 11875 11876 11877 11878 11879 11880 11881 11882 11883 11884 11885 11886 11887 11888 11889 11890 11891 11892 11893 11894 11895 11896 11897 11898 11899 11900 11901 11902 11903 11904 11905 11906 11907 11908 11909 11910 11911 11912 11913 11914 11915 11916 11917 11918 11919 11920 11921 11922 11923 11924 11925 11926 11927 11928 11929 11930 11931 11932 11933 11934 11935 11936 11937 11938 11939 11940 11941 11942 11943 11944 11945 11946 11947 11948 11949 11950 11951 11952 11953 11954 11955 11956 11957 11958 11959 11960 11961 11962 11963 11964 11965 11966 11967 11968 11969 11970 11971 11972 11973 11974 11975 11976 11977 11978 11979 11980 11981 11982 11983 11984 11985 11986 11987 11988 11989 11990 11991 11992 11993 11994 11995 11996 11997 11998 11999 12000 12001 12002 12003 12004 12005 12006 12007 12008 12009 12010 12011 12012 12013 12014 12015 12016 12017 12018 12019 12020 12021 12022 12023 12024 12025 12026 12027 12028 12029 12030 12031 12032 12033 12034 12035 12036 12037 12038 12039 12040 12041 12042 12043 12044 12045 12046 12047 12048 12049 12050 12051 12052 12053 12054 12055 12056 12057 12058 12059 12060 12061 12062 12063 12064 12065 12066 12067 12068 12069 12070 12071 12072 12073 12074 12075 12076 12077 12078 12079 12080 12081 12082 12083 12084 12085 12086 12087 12088 12089 12090 12091 12092 12093 12094 12095 12096 12097 12098 12099 12100 12101 12102 12103 12104 12105 12106 12107 12108 12109 12110 12111 12112 12113 12114 12115 12116 12117 12118 12119 12120 12121 12122 12123 12124 12125 12126 12127 12128 12129 12130 12131 12132 12133 12134 12135 12136 12137 12138 12139 12140 12141 12142 12143 12144 12145 12146 12147 12148 12149 12150 12151 12152 12153 12154 12155 12156 12157 12158 12159 12160 12161 12162 12163 12164 12165 12166 12167 12168 12169 12170 12171 12172 12173 12174 12175 12176 12177 12178 12179 12180 12181 12182 12183 12184 12185 12186 12187 12188 12189 12190 12191 12192 12193 12194 12195 12196 12197 12198 12199 12200 12201 12202 12203 12204 12205 12206 12207 12208 12209 12210 12211 12212 12213 12214 12215 12216 12217 12218 12219 12220 12221 12222 12223 12224 12225 12226 12227 12228 12229 12230 12231 12232 12233 12234 12235 12236 12237 12238 12239 12240 12241 12242 12243 12244 12245 12246 12247 12248 12249 12250 12251 12252 12253 12254 12255 12256 12257 12258 12259 12260 12261 12262 12263 12264 12265 12266 12267 12268 12269 12270 12271 12272 12273 12274 12275 12276 12277 12278 12279 12280 12281 12282 12283 12284 12285 12286 12287 12288 12289 12290 12291 12292 12293 12294 12295 12296 12297 12298 12299 12300 12301 12302 12303 12304 12305 12306 12307 12308 12309 12310 12311 12312 12313 12314 12315 12316 12317 12318 12319 12320 12321 12322 12323 12324 12325 12326 12327 12328 12329 12330 12331 12332 12333 12334 12335 12336 12337 12338 12339 12340 12341 12342 12343 12344 12345 12346 12347 12348 12349 12350 12351 12352 12353 12354 12355 12356 12357 12358 12359 12360 12361 12362 12363 12364 12365 12366 12367 12368 12369 12370 12371 12372 12373 12374 12375 12376 12377 12378 12379 12380 12381 12382 12383 12384 12385 12386 12387 12388 12389 12390 12391 12392 12393 12394 12395 12396 12397 12398 12399 12400 12401 12402 12403 12404 12405 12406 12407 12408 12409 12410 12411 12412 12413 12414 12415 12416 12417 12418 12419 12420 12421 12422 12423 12424 12425 12426 12427 12428 12429 12430 12431 12432 12433 12434 12435 12436 12437 12438 12439 12440 12441 12442 12443 12444 12445 12446 12447 12448 12449 12450 12451 12452 12453 12454 12455 12456 12457 12458 12459 12460 12461 12462 12463 12464 12465 12466 12467 12468 12469 12470 12471 12472 12473 12474 12475 12476 12477 12478 12479 12480 12481 12482 12483 12484 12485 12486 12487 12488 12489 12490 12491 12492 12493 12494 12495 12496 12497 12498 12499 12500 12501 12502 12503 12504 12505 12506 12507 12508 12509 12510 12511 12512 12513 12514 12515 12516 12517 12518 12519 12520 12521 12522 12523 12524 12525 12526 12527 12528 12529 12530 12531 12532 12533 12534 12535 12536 12537 12538 12539 12540 12541 12542 12543 12544 12545 12546 12547 12548 12549 12550 12551 12552 12553 12554 12555 12556 12557 12558 12559 12560 12561 12562 12563 12564 12565 12566 12567 12568 12569 12570 12571 12572 12573 12574 12575 12576 12577 12578 12579 12580 12581 12582 12583 12584 12585 12586 12587 12588 12589 12590 12591 12592 12593 12594 12595 12596 12597 12598 12599 12600 12601 12602 12603 12604 12605 12606 12607 12608 12609 12610 12611 12612 12613 12614 12615 12616 12617 12618 12619 12620 12621 12622 12623 12624 12625 12626 12627 12628 12629 12630 12631 12632 12633 12634 12635 12636 12637 12638 12639 12640 12641 12642 12643 12644 12645 12646 12647 12648 12649 12650 12651 12652 12653 12654 12655 12656 12657 12658 12659 12660 12661 12662 12663 12664 12665 12666 12667 12668 12669 12670 12671 12672 12673 12674 12675 12676 12677 12678 12679 12680 12681 12682 12683 12684 12685 12686 12687 12688 12689 12690 12691 12692 12693 12694 12695 12696 12697 12698 12699 12700 12701 12702 12703 12704 12705 12706 12707 12708 12709 12710 12711 12712 12713 12714 12715 12716 12717 12718 12719 12720 12721 12722 12723 12724 12725 12726 12727 12728 12729 12730 12731 12732 12733 12734 12735 12736 12737 12738 12739 12740 12741 12742 12743 12744 12745 12746 12747 12748 12749 12750 12751 12752 12753 12754 12755 12756 12757 12758 12759 12760 12761 12762 12763 12764 12765 12766 12767 12768 12769 12770 12771 12772 12773 12774 12775 12776 12777 12778 12779 12780 12781 12782 12783 12784 12785 12786 12787 12788 12789 12790 12791 12792 12793 12794 12795 12796 12797 12798 12799 12800 12801 12802 12803 12804 12805 12806 12807 12808 12809 12810 12811 12812 12813 12814 12815 12816 12817 12818 12819 12820 12821 12822 12823 12824 12825 12826 12827 12828 12829 12830 12831 12832 12833 12834 12835 12836 12837 12838 12839 12840 12841 12842 12843 12844 12845 12846 12847 12848 12849 12850 12851 12852 12853 12854 12855 12856 12857 12858 12859 12860 12861 12862 12863 12864 12865 12866 12867 12868 12869 12870 12871 12872 12873 12874 12875 12876 12877 12878 12879 12880 12881 12882 12883 12884 12885 12886 12887 12888 12889 12890 12891 12892 12893 12894 12895 12896 12897 12898 12899 12900 12901 12902 12903 12904 12905 12906 12907 12908 12909 12910 12911 12912 12913 12914 12915 12916 12917 12918 12919 12920 12921 12922 12923 12924 12925 12926 12927 12928 12929 12930 12931 12932 12933 12934 12935 12936 12937 12938 12939 12940 12941 12942 12943 12944 12945 12946 12947 12948 12949 12950 12951 12952 12953 12954 12955 12956 12957 12958 12959 12960 12961 12962 12963 12964 12965 12966 12967 12968 12969 12970 12971 12972 12973 12974 12975 12976 12977 12978 12979 12980 12981 12982 12983 12984 12985 12986 12987 12988 12989 12990 12991 12992 12993 12994 12995 12996 12997 12998 12999 13000 13001 13002 13003 13004 13005 13006 13007 13008 13009 13010 13011 13012 13013 13014 13015 13016 13017 13018 13019 13020 13021 13022 13023 13024 13025 13026 13027 13028 13029 13030 13031 13032 13033 13034 13035 13036 13037 13038 13039 13040 13041 13042 13043 13044 13045 13046 13047 13048 13049 13050 13051 13052 13053 13054 13055 13056 13057 13058 13059 13060 13061 13062 13063 13064 13065 13066 13067 13068 13069 13070 13071 13072 13073 13074 13075 13076 13077 13078 13079 13080 13081 13082 13083 13084 13085 13086 13087 13088 13089 13090 13091 13092 13093 13094 13095 13096 13097 13098 13099 13100 13101 13102 13103 13104 13105 13106 13107 13108 13109 13110 13111 13112 13113 13114 13115 13116 13117 13118 13119 13120 13121 13122 13123 13124 13125 13126 13127 13128 13129 13130 13131 13132 13133 13134 13135 13136 13137 13138 13139 13140 13141 13142 13143 13144 13145 13146 13147 13148 13149 13150 13151 13152 13153 13154 13155 13156 13157 13158 13159 13160 13161 13162 13163 13164 13165 13166 13167 13168 13169 13170 13171 13172 13173 13174 13175 13176 13177 13178 13179 13180 13181 13182 13183 13184 13185 13186 13187 13188 13189 13190 13191 13192 13193 13194 13195 13196 13197 13198 13199 13200 13201 13202 13203 13204 13205 13206 13207 13208 13209 13210 13211 13212 13213 13214 13215 13216 13217 13218 13219 13220 13221 13222 13223 13224 13225 13226 13227 13228 13229 13230 13231 13232 13233 13234 13235 13236 13237 13238 13239 13240 13241 13242 13243 13244 13245 13246 13247 13248 13249 13250 13251 13252 13253 13254 13255 13256 13257 13258 13259 13260 13261 13262 13263 13264 13265 13266 13267 13268 13269 13270 13271 13272 13273 13274 13275 13276 13277 13278 13279 13280 13281 13282 13283 13284 13285 13286 13287 13288 13289 13290 13291 13292 13293 13294 13295 13296 13297 13298 13299 13300 13301 13302 13303 13304 13305 13306 13307 13308 13309 13310 13311 13312 13313 13314 13315 13316 13317 13318 13319 13320 13321 13322 13323 13324 13325 13326 13327 13328 13329 13330 13331 13332 13333 13334 13335 13336 13337 13338 13339 13340 13341 13342 13343 13344 13345 13346 13347 13348 13349 13350 13351 13352 13353 13354 13355 13356 13357 13358 13359 13360 13361 13362 13363 13364 13365 13366 13367 13368 13369 13370 13371 13372 13373 13374 13375 13376 13377 13378 13379 13380 13381 13382 13383 13384 13385 13386 13387 13388 13389 13390 13391 13392 13393 13394 13395 13396 13397 13398 13399 13400 13401 13402 13403 13404 13405 13406 13407 13408 13409 13410 13411 13412 13413 13414 13415 13416 13417 13418 13419 13420 13421 13422 13423 13424 13425 13426 13427 13428 13429 13430 13431 13432 13433 13434 13435 13436 13437 13438 13439 13440 13441 13442 13443 13444 13445 13446 13447 13448 13449 13450 13451 13452 13453 13454 13455 13456 13457 13458 13459 13460 13461 13462 13463 13464 13465 13466 13467 13468 13469 13470 13471 13472 13473 13474 13475 13476 13477 13478 13479 13480 13481 13482 13483 13484 13485 13486 13487 13488 13489 13490 13491 13492 13493 13494 13495 13496 13497 13498 13499 13500 13501 13502 13503 13504 13505 13506 13507 13508 13509 13510 13511 13512 13513 13514 13515 13516 13517 13518 13519 13520 13521 13522 13523 13524 13525 13526 13527 13528 13529 13530 13531 13532 13533 13534 13535 13536 13537 13538 13539 13540 13541 13542 13543 13544 13545 13546 13547 13548 13549 13550 13551 13552 13553 13554 13555 13556 13557 13558 13559 13560 13561 13562 13563 13564 13565 13566 13567 13568 13569 13570 13571 13572 13573 13574 13575 13576 13577 13578 13579 13580 13581 13582 13583 13584 13585 13586 13587 13588 13589 13590 13591 13592 13593 13594 13595 13596 13597 13598 13599 13600 13601 13602 13603 13604 13605 13606 13607 13608 13609 13610 13611 13612 13613 13614 13615 13616 13617 13618 13619 13620 13621 13622 13623 13624 13625 13626 13627 13628 13629 13630 13631 13632 13633 13634 13635 13636 13637 13638 13639 13640 13641 13642 13643 13644 13645 13646 13647 13648 13649 13650 13651 13652 13653 13654 13655 13656 13657 13658 13659 13660 13661 13662 13663 13664 13665 13666 13667 13668 13669 13670 13671 13672 13673 13674 13675 13676 13677 13678 13679 13680 13681 13682 13683 13684 13685 13686 13687 13688 13689 13690 13691 13692 13693 13694 13695 13696 13697 13698 13699 13700 13701 13702 13703 13704 13705 13706 13707 13708 13709 13710 13711 13712 13713 13714 13715 13716 13717 13718 13719 13720 13721 13722 13723 13724 13725 13726 13727 13728 13729 13730 13731 13732 13733 13734 13735 13736 13737 13738 13739 13740 13741 13742 13743 13744 13745 13746 13747 13748 13749 13750 13751 13752 13753 13754 13755 13756 13757 13758 13759 13760 13761 13762 13763 13764 13765 13766 13767 13768 13769 13770 13771 13772 13773 13774 13775 13776 13777 13778 13779 13780 13781 13782 13783 13784 13785 13786 13787 13788 13789 13790 13791 13792 13793 13794 13795 13796 13797 13798 13799 13800 13801 13802 13803 13804 13805 13806 13807 13808 13809 13810 13811 13812 13813 13814 13815 13816 13817 13818 13819 13820 13821 13822 13823 13824 13825 13826 13827 13828 13829 13830 13831 13832 13833 13834 13835 13836 13837 13838 13839 13840 13841 13842 13843 13844 13845 13846 13847 13848 13849 13850 13851 13852 13853 13854 13855 13856 13857 13858 13859 13860 13861 13862 13863 13864 13865 13866 13867 13868 13869 13870 13871 13872 13873 13874 13875 13876 13877 13878 13879 13880 13881 13882 13883 13884 13885 13886 13887 13888 13889 13890 13891 13892 13893 13894 13895 13896 13897 13898 13899 13900 13901 13902 13903 13904 13905 13906 13907 13908 13909 13910 13911 13912 13913 13914 13915 13916 13917 13918 13919 13920 13921 13922 13923 13924 13925 13926 13927 13928 13929 13930 13931 13932 13933 13934 13935 13936 13937 13938 13939 13940 13941 13942 13943 13944 13945 13946 13947 13948 13949 13950 13951 13952 13953 13954 13955 13956 13957 13958 13959 13960 13961 13962 13963 13964 13965 13966 13967 13968 13969 13970 13971 13972 13973 13974 13975 13976 13977 13978 13979 13980 13981 13982 13983 13984 13985 13986 13987 13988 13989 13990 13991 13992 13993 13994 13995 13996 13997 13998 13999 14000 14001 14002 14003 14004 14005 14006 14007 14008 14009 14010 14011 14012 14013 14014 14015 14016 14017 14018 14019 14020 14021 14022 14023 14024 14025 14026 14027 14028 14029 14030 14031 14032 14033 14034 14035 14036 14037 14038 14039 14040 14041 14042 14043 14044 14045 14046 14047 14048 14049 14050 14051 14052 14053 14054 14055 14056 14057 14058 14059 14060 14061 14062 14063 14064 14065 14066 14067 14068 14069 14070 14071 14072 14073 14074 14075 14076 14077 14078 14079 14080 14081 14082 14083 14084 14085 14086 14087 14088 14089 14090 14091 14092 14093 14094 14095 14096 14097 14098 14099 14100 14101 14102 14103 14104 14105 14106 14107 14108 14109 14110 14111 14112 14113 14114 14115 14116 14117 14118 14119 14120 14121 14122 14123 14124 14125 14126 14127 14128 14129 14130 14131 14132 14133 14134 14135 14136 14137 14138 14139 14140 14141 14142 14143 14144 14145 14146 14147 14148 14149 14150 14151 14152 14153 14154 14155 14156 14157 14158 14159 14160 14161 14162 14163 14164 14165 14166 14167 14168 14169 14170 14171 14172 14173 14174 14175 14176 14177 14178 14179 14180 14181 14182 14183 14184 14185 14186 14187 14188 14189 14190 14191 14192 14193 14194 14195 14196 14197 14198 14199 14200 14201 14202 14203 14204 14205 14206 14207 14208 14209 14210 14211 14212 14213 14214 14215 14216 14217 14218 14219 14220 14221 14222 14223 14224 14225 14226 14227 14228 14229 14230 14231 14232 14233 14234 14235 14236 14237 14238 14239 14240 14241 14242 14243 14244 14245 14246 14247 14248 14249 14250 14251 14252 14253 14254 14255 14256 14257 14258 14259 14260 14261 14262 14263 14264 14265 14266 14267 14268 14269 14270 14271 14272 14273 14274 14275 14276 14277 14278 14279 14280 14281 14282 14283 14284 14285 14286 14287 14288 14289 14290 14291 14292 14293 14294 14295 14296 14297 14298 14299 14300 14301 14302 14303 14304 14305 14306 14307 14308 14309 14310 14311 14312 14313 14314 14315 14316 14317 14318 14319 14320 14321 14322 14323 14324 14325 14326 14327 14328 14329 14330 14331 14332 14333 14334 14335 14336 14337 14338 14339 14340 14341 14342 14343 14344 14345 14346 14347 14348 14349 14350 14351 14352 14353 14354 14355 14356 14357 14358 14359 14360 14361 14362 14363 14364 14365 14366 14367 14368 14369 14370 14371 14372 14373 14374 14375 14376 14377 14378 14379 14380 14381 14382 14383 14384 14385 14386 14387 14388 14389 14390 14391 14392 14393 14394 14395 14396 14397 14398 14399 14400 14401 14402 14403 14404 14405 14406 14407 14408 14409 14410 14411 14412 14413 14414 14415 14416 14417 14418 14419 14420 14421 14422 14423 14424 14425 14426 14427 14428 14429 14430 14431 14432 14433 14434 14435 14436 14437 14438 14439 14440 14441 14442 14443 14444 14445 14446 14447 14448 14449 14450 14451 14452 14453 14454 14455 14456 14457 14458 14459 14460 14461 14462 14463 14464 14465 14466 14467 14468 14469 14470 14471 14472 14473 14474 14475 14476 14477 14478 14479 14480 14481 14482 14483 14484 14485 14486 14487 14488 14489 14490 14491 14492 14493 14494 14495 14496 14497 14498 14499 14500 14501 14502 14503 14504 14505 14506 14507 14508 14509 14510 14511 14512 14513 14514 14515 14516 14517 14518 14519 14520 14521 14522 14523 14524 14525 14526 14527 14528 14529 14530 14531 14532 14533 14534 14535 14536 14537 14538 14539 14540 14541 14542 14543 14544 14545 14546 14547 14548 14549 14550 14551 14552 14553 14554 14555 14556 14557 14558 14559 14560 14561 14562 14563 14564 14565 14566 14567 14568 14569 14570 14571 14572 14573 14574 14575 14576 14577 14578 14579 14580 14581 14582 14583 14584 14585 14586 14587 14588 14589 14590 14591 14592 14593 14594 14595 14596 14597 14598 14599 14600 14601 14602 14603 14604 14605 14606 14607 14608 14609 14610 14611 14612 14613 14614 14615 14616 14617 14618 14619 14620 14621 14622 14623 14624 14625 14626 14627 14628 14629 14630 14631 14632 14633 14634 14635 14636 14637 14638 14639 14640 14641 14642 14643 14644 14645 14646 14647 14648 14649 14650 14651 14652 14653 14654 14655 14656 14657 14658 14659 14660 14661 14662 14663 14664 14665 14666 14667 14668 14669 14670 14671 14672 14673 14674 14675 14676 14677 14678 14679 14680 14681 14682 14683 14684 14685 14686 14687 14688 14689 14690 14691 14692 14693 14694 14695 14696 14697 14698 14699 14700 14701 14702 14703 14704 14705 14706 14707 14708 14709 14710 14711 14712 14713 14714 14715 14716 14717 14718 14719 14720 14721 14722 14723 14724 14725 14726 14727 14728 14729 14730 14731 14732 14733 14734 14735 14736 14737 14738 14739 14740 14741 14742 14743 14744 14745 14746 14747 14748 14749 14750 14751 14752 14753 14754 14755 14756 14757 14758 14759 14760 14761 14762 14763 14764 14765 14766 14767 14768 14769 14770 14771 14772 14773 14774 14775 14776 14777 14778 14779 14780 14781 14782 14783 14784 14785 14786 14787 14788 14789 14790 14791 14792 14793 14794 14795 14796 14797 14798 14799 14800 14801 14802 14803 14804 14805 14806 14807 14808 14809 14810 14811 14812 14813 14814 14815 14816 14817 14818 14819 14820 14821 14822 14823 14824 14825 14826 14827 14828 14829 14830 14831 14832 14833 14834 14835 14836 14837 14838 14839 14840 14841 14842 14843 14844 14845 14846 14847 14848 14849 14850 14851 14852 14853 14854 14855 14856 14857 14858 14859 14860 14861 14862 14863 14864 14865 14866 14867 14868 14869 14870 14871 14872 14873 14874 14875 14876 14877 14878 14879 14880 14881 14882 14883 14884 14885 14886 14887 14888 14889 14890 14891 14892 14893 14894 14895 14896 14897 14898 14899 14900 14901 14902 14903 14904 14905 14906 14907 14908 14909 14910 14911 14912 14913 14914 14915 14916 14917 14918 14919 14920 14921 14922 14923 14924 14925 14926 14927 14928 14929 14930 14931 14932 14933 14934 14935 14936 14937 14938 14939 14940 14941 14942 14943 14944 14945 14946 14947 14948 14949 14950 14951 14952 14953 14954 14955 14956 14957 14958 14959 14960 14961 14962 14963 14964 14965 14966 14967 14968 14969 14970 14971 14972 14973 14974 14975 14976 14977 14978 14979 14980 14981 14982 14983 14984 14985 14986 14987 14988 14989 14990 14991 14992 14993 14994 14995 14996 14997 14998 14999 15000 15001 15002 15003 15004 15005 15006 15007 15008 15009 15010 15011 15012 15013 15014 15015 15016 15017 15018 15019 15020 15021 15022 15023 15024 15025 15026 15027 15028 15029 15030 15031 15032 15033 15034 15035 15036 15037 15038 15039 15040 15041 15042 15043 15044 15045 15046 15047 15048 15049 15050 15051 15052 15053 15054 15055 15056 15057 15058 15059 15060 15061 15062 15063 15064 15065 15066 15067 15068 15069 15070 15071 15072 15073 15074 15075 15076 15077 15078 15079 15080 15081 15082 15083 15084 15085 15086 15087 15088 15089 15090 15091 15092 15093 15094 15095 15096 15097 15098 15099 15100 15101 15102 15103 15104 15105 15106 15107 15108 15109 15110 15111 15112 15113 15114 15115 15116 15117 15118 15119 15120 15121 15122 15123 15124 15125 15126 15127 15128 15129 15130 15131 15132 15133 15134 15135 15136 15137 15138 15139 15140 15141 15142 15143 15144 15145 15146 15147 15148 15149 15150 15151 15152 15153 15154 15155 15156 15157 15158 15159 15160 15161 15162 15163 15164 15165 15166 15167 15168 15169 15170 15171 15172 15173 15174 15175 15176 15177 15178 15179 15180 15181 15182 15183 15184 15185 15186 15187 15188 15189 15190 15191 15192 15193 15194 15195 15196 15197 15198 15199 15200 15201 15202 15203 15204 15205 15206 15207 15208 15209 15210 15211 15212 15213 15214 15215 15216 15217 15218 15219 15220 15221 15222 15223 15224 15225 15226 15227 15228 15229 15230 15231 15232 15233 15234 15235 15236 15237 15238 15239 15240 15241 15242 15243 15244 15245 15246 15247 15248 15249 15250 15251 15252 15253 15254 15255 15256 15257 15258 15259 15260 15261 15262 15263 15264 15265 15266 15267 15268 15269 15270 15271 15272 15273 15274 15275 15276 15277 15278 15279 15280 15281 15282 15283 15284 15285 15286 15287 15288 15289 15290 15291 15292 15293 15294 15295 15296 15297 15298 15299 15300 15301 15302 15303 15304 15305 15306 15307 15308 15309 15310 15311 15312 15313 15314 15315 15316 15317 15318 15319 15320 15321 15322 15323 15324 15325 15326 15327 15328 15329 15330 15331 15332 15333 15334 15335 15336 15337 15338 15339 15340 15341 15342 15343 15344 15345 15346 15347 15348 15349 15350 15351 15352 15353 15354 15355 15356 15357 15358 15359 15360 15361 15362 15363 15364 15365 15366 15367 15368 15369 15370 15371 15372 15373 15374 15375 15376 15377 15378 15379 15380 15381 15382 15383 15384 15385 15386 15387 15388 15389 15390 15391 15392 15393 15394 15395 15396 15397 15398 15399 15400 15401 15402 15403 15404 15405 15406 15407 15408 15409 15410 15411 15412 15413 15414 15415 15416 15417 15418 15419 15420 15421 15422 15423 15424 15425 15426 15427 15428 15429 15430 15431 15432 15433 15434 15435 15436 15437 15438 15439 15440 15441 15442 15443 15444 15445 15446 15447 15448 15449 15450 15451 15452 15453 15454 15455 15456 15457 15458 15459 15460 15461 15462 15463 15464 15465 15466 15467 15468 15469 15470 15471 15472 15473 15474 15475 15476 15477 15478 15479 15480 15481 15482 15483 15484 15485 15486 15487 15488 15489 15490 15491 15492 15493 15494 15495 15496 15497 15498 15499 15500 15501 15502 15503 15504 15505 15506 15507 15508 15509 15510 15511 15512 15513 15514 15515 15516 15517 15518 15519 15520 15521 15522 15523 15524 15525 15526 15527 15528 15529 15530 15531 15532 15533 15534 15535 15536 15537 15538 15539 15540 15541 15542 15543 15544 15545 15546 15547 15548 15549 15550 15551 15552 15553 15554 15555 15556 15557 15558 15559 15560 15561 15562 15563 15564 15565 15566 15567 15568 15569 15570 15571 15572 15573 15574 15575 15576 15577 15578 15579 15580 15581 15582 15583 15584 15585 15586 15587 15588 15589 15590 15591 15592 15593 15594 15595 15596 15597 15598 15599 15600 15601 15602 15603 15604 15605 15606 15607 15608 15609 15610 15611 15612 15613 15614 15615 15616 15617 15618 15619 15620 15621 15622 15623 15624 15625 15626 15627 15628 15629 15630 15631 15632 15633 15634 15635 15636 15637 15638 15639 15640 15641 15642 15643 15644 15645 15646 15647 15648 15649 15650 15651 15652 15653 15654 15655 15656 15657 15658 15659 15660 15661 15662 15663 15664 15665 15666 15667 15668 15669 15670 15671 15672 15673 15674 15675 15676 15677 15678 15679 15680 15681 15682 15683 15684 15685 15686 15687 15688 15689 15690 15691 15692 15693 15694 15695 15696 15697 15698 15699 15700 15701 15702 15703 15704 15705 15706 15707 15708 15709 15710 15711 15712 15713 15714 15715 15716 15717 15718 15719 15720 15721 15722 15723 15724 15725 15726 15727 15728 15729 15730 15731 15732 15733 15734 15735 15736 15737 15738 15739 15740 15741 15742 15743 15744 15745 15746 15747 15748 15749 15750 15751 15752 15753 15754 15755 15756 15757 15758 15759 15760 15761 15762 15763 15764 15765 15766 15767 15768 15769 15770 15771 15772 15773 15774 15775 15776 15777 15778 15779 15780 15781 15782 15783 15784 15785 15786 15787 15788 15789 15790 15791 15792 15793 15794 15795 15796 15797 15798 15799 15800 15801 15802 15803 15804 15805 15806 15807 15808 15809 15810 15811 15812 15813 15814 15815 15816 15817 15818 15819 15820 15821 15822 15823 15824 15825 15826 15827 15828 15829 15830 15831 15832 15833 15834 15835 15836 15837 15838 15839 15840 15841 15842 15843 15844 15845 15846 15847 15848 15849 15850 15851 15852 15853 15854 15855 15856 15857 15858 15859 15860 15861 15862 15863 15864 15865 15866 15867 15868 15869 15870 15871 15872 15873 15874 15875 15876 15877 15878 15879 15880 15881 15882 15883 15884 15885 15886 15887 15888 15889 15890 15891 15892 15893 15894 15895 15896 15897 15898 15899 15900 15901 15902 15903 15904 15905 15906 15907 15908 15909 15910 15911 15912 15913 15914 15915 15916 15917 15918 15919 15920 15921 15922 15923 15924 15925 15926 15927 15928 15929 15930 15931 15932 15933 15934 15935 15936 15937 15938 15939 15940 15941 15942 15943 15944 15945 15946 15947 15948 15949 15950 15951 15952 15953 15954 15955 15956 15957 15958 15959 15960 15961 15962 15963 15964 15965 15966 15967 15968 15969 15970 15971 15972 15973 15974 15975 15976 15977 15978 15979 15980 15981 15982 15983 15984 15985 15986 15987 15988 15989 15990 15991 15992 15993 15994 15995 15996 15997 15998 15999 16000 16001 16002 16003 16004 16005 16006 16007 16008 16009 16010 16011 16012 16013 16014 16015 16016 16017 16018 16019 16020 16021 16022 16023 16024 16025 16026 16027 16028 16029 16030 16031 16032 16033 16034 16035 16036 16037 16038 16039 16040 16041 16042 16043 16044 16045 16046 16047 16048 16049 16050 16051 16052 16053 16054 16055 16056 16057 16058 16059 16060 16061 16062 16063 16064 16065 16066 16067 16068 16069 16070 16071 16072 16073 16074 16075 16076 16077 16078 16079 16080 16081 16082 16083 16084 16085 16086 16087 16088 16089 16090 16091 16092 16093 16094 16095 16096 16097 16098 16099 16100 16101 16102 16103 16104 16105 16106 16107 16108 16109 16110 16111 16112 16113 16114 16115 16116 16117 16118 16119 16120 16121 16122 16123 16124 16125 16126 16127 16128 16129 16130 16131 16132 16133 16134 16135 16136 16137 16138 16139 16140 16141 16142 16143 16144 16145 16146 16147 16148 16149 16150 16151 16152 16153 16154 16155 16156 16157 16158 16159 16160 16161 16162 16163 16164 16165 16166 16167 16168 16169 16170 16171 16172 16173 16174 16175 16176 16177 16178 16179 16180 16181 16182 16183 16184 16185 16186 16187 16188 16189 16190 16191 16192 16193 16194 16195 16196 16197 16198 16199 16200 16201 16202 16203 16204 16205 16206 16207 16208 16209 16210 16211 16212 16213 16214 16215 16216 16217 16218 16219 16220 16221 16222 16223 16224 16225 16226 16227 16228 16229 16230 16231 16232 16233 16234 16235 16236 16237 16238 16239 16240 16241 16242 16243 16244 16245 16246 16247 16248 16249 16250 16251 16252 16253 16254 16255 16256 16257 16258 16259 16260 16261 16262 16263 16264 16265 16266 16267 16268 16269 16270 16271 16272 16273 16274 16275 16276 16277 16278 16279 16280 16281 16282 16283 16284 16285 16286 16287 16288 16289 16290 16291 16292 16293 16294 16295 16296 16297 16298 16299 16300 16301 16302 16303 16304 16305 16306 16307 16308 16309 16310 16311 16312 16313 16314 16315 16316 16317 16318 16319 16320 16321 16322 16323 16324 16325 16326 16327 16328 16329 16330 16331 16332 16333 16334 16335 16336 16337 16338 16339 16340 16341 16342 16343 16344 16345 16346 16347 16348 16349 16350 16351 16352 16353 16354 16355 16356 16357 16358 16359 16360 16361 16362 16363 16364 16365 16366 16367 16368 16369 16370 16371 16372 16373 16374 16375 16376 16377 16378 16379 16380 16381 16382 16383 16384 16385 16386 16387 16388 16389 16390 16391 16392 16393 16394 16395 16396 16397 16398 16399 16400 16401 16402 16403 16404 16405 16406 16407 16408 16409 16410 16411 16412 16413 16414 16415 16416 16417 16418 16419 16420 16421 16422 16423 16424 16425 16426 16427 16428 16429 16430 16431 16432 16433 16434 16435 16436 16437 16438 16439 16440 16441 16442 16443 16444 16445 16446 16447 16448 16449 16450 16451 16452 16453 16454 16455 16456 16457 16458 16459 16460 16461 16462 16463 16464 16465 16466 16467 16468 16469 16470 16471 16472 16473 16474 16475 16476 16477 16478 16479 16480 16481 16482 16483 16484 16485 16486 16487 16488 16489 16490 16491 16492 16493 16494 16495 16496 16497 16498 16499 16500 16501 16502 16503 16504 16505 16506 16507 16508 16509 16510 16511 16512 16513 16514 16515 16516 16517 16518 16519 16520 16521 16522 16523 16524 16525 16526 16527 16528 16529 16530 16531 16532 16533 16534 16535 16536 16537 16538 16539 16540 16541 16542 16543 16544 16545 16546 16547 16548 16549 16550 16551 16552 16553 16554 16555 16556 16557 16558 16559 16560 16561 16562 16563 16564 16565 16566 16567 16568 16569 16570 16571 16572 16573 16574 16575 16576 16577 16578 16579 16580 16581 16582 16583 16584 16585 16586 16587 16588 16589 16590 16591 16592 16593 16594 16595 16596 16597 16598 16599 16600 16601 16602 16603 16604 16605 16606 16607 16608 16609 16610 16611 16612 16613 16614 16615 16616 16617 16618 16619 16620 16621 16622 16623 16624 16625 16626 16627 16628 16629 16630 16631 16632 16633 16634 16635 16636 16637 16638 16639 16640 16641 16642 16643 16644 16645 16646 16647 16648 16649 16650 16651 16652 16653 16654 16655 16656 16657 16658 16659 16660 16661 16662 16663 16664 16665 16666 16667 16668 16669 16670 16671 16672 16673 16674 16675 16676 16677 16678 16679 16680 16681 16682 16683 16684 16685 16686 16687 16688 16689 16690 16691 16692 16693 16694 16695 16696 16697 16698 16699 16700 16701 16702 16703 16704 16705 16706 16707 16708 16709 16710 16711 16712 16713 16714 16715 16716 16717 16718 16719 16720 16721 16722 16723 16724 16725 16726 16727 16728 16729 16730 16731 16732 16733 16734 16735 16736 16737 16738 16739 16740 16741 16742 16743 16744 16745 16746 16747 16748 16749 16750 16751 16752 16753 16754 16755 16756 16757 16758 16759 16760 16761 16762 16763 16764 16765 16766 16767 16768 16769 16770 16771 16772 16773 16774 16775 16776 16777 16778 16779 16780 16781 16782 16783 16784 16785 16786 16787 16788 16789 16790 16791 16792 16793 16794 16795 16796 16797 16798 16799 16800 16801 16802 16803 16804 16805 16806 16807 16808 16809 16810 16811 16812 16813 16814 16815 16816 16817 16818 16819 16820 16821 16822 16823 16824 16825 16826 16827 16828 16829 16830 16831 16832 16833 16834 16835 16836 16837 16838 16839 16840 16841 16842 16843 16844 16845 16846 16847 16848 16849 16850 16851 16852 16853 16854 16855 16856 16857 16858 16859 16860 16861 16862 16863 16864 16865 16866 16867 16868 16869 16870 16871 16872 16873 16874 16875 16876 16877 16878 16879 16880 16881 16882 16883 16884 16885 16886 16887 16888 16889 16890 16891 16892 16893 16894 16895 16896 16897 16898 16899 16900 16901 16902 16903 16904 16905 16906 16907 16908 16909 16910 16911 16912 16913 16914 16915 16916 16917 16918 16919 16920 16921 16922 16923 16924 16925 16926 16927 16928 16929 16930 16931 16932 16933 16934 16935 16936 16937 16938 16939 16940 16941 16942 16943 16944 16945 16946 16947 16948 16949 16950 16951 16952 16953 16954 16955 16956 16957 16958 16959 16960 16961 16962 16963 16964 16965 16966 16967 16968 16969 16970 16971 16972 16973 16974 16975 16976 16977 16978 16979 16980 16981 16982 16983 16984 16985 16986 16987 16988 16989 16990 16991 16992 16993 16994 16995 16996 16997 16998 16999 17000 17001 17002 17003 17004 17005 17006 17007 17008 17009 17010 17011 17012 17013 17014 17015 17016 17017 17018 17019 17020 17021 17022 17023 17024 17025 17026 17027 17028 17029 17030 17031 17032 17033 17034 17035 17036 17037 17038 17039 17040 17041 17042 17043 17044 17045 17046 17047 17048 17049 17050 17051 17052 17053 17054 17055 17056 17057 17058 17059 17060 17061 17062 17063 17064 17065 17066 17067 17068 17069 17070 17071 17072 17073 17074 17075 17076 17077 17078 17079 17080 17081 17082 17083 17084 17085 17086 17087 17088 17089 17090 17091 17092 17093 17094 17095 17096 17097 17098 17099 17100 17101 17102 17103 17104 17105 17106 17107 17108 17109 17110 17111 17112 17113 17114 17115 17116 17117 17118 17119 17120 17121 17122 17123 17124 17125 17126 17127 17128 17129 17130 17131 17132 17133 17134 17135 17136 17137 17138 17139 17140 17141 17142 17143 17144 17145 17146 17147 17148 17149 17150 17151 17152 17153 17154 17155 17156 17157 17158 17159 17160 17161 17162 17163 17164 17165 17166 17167 17168 17169 17170 17171 17172 17173 17174 17175 17176 17177 17178 17179 17180 17181 17182 17183 17184 17185 17186 17187 17188 17189 17190 17191 17192 17193 17194 17195 17196 17197 17198 17199 17200 17201 17202 17203 17204 17205 17206 17207 17208 17209 17210 17211 17212 17213 17214 17215 17216 17217 17218 17219 17220 17221 17222 17223 17224 17225 17226 17227 17228 17229 17230 17231 17232 17233 17234 17235 17236 17237 17238 17239 17240 17241 17242 17243 17244 17245 17246 17247 17248 17249 17250 17251 17252 17253 17254 17255 17256 17257 17258 17259 17260 17261 17262 17263 17264 17265 17266 17267 17268 17269 17270 17271 17272 17273 17274 17275 17276 17277 17278 17279 17280 17281 17282 17283 17284 17285 17286 17287 17288 17289 17290 17291 17292 17293 17294 17295 17296 17297 17298 17299 17300 17301 17302 17303 17304 17305 17306 17307 17308 17309 17310 17311 17312 17313 17314 17315 17316 17317 17318 17319 17320 17321 17322 17323 17324 17325 17326 17327 17328 17329 17330 17331 17332 17333 17334 17335 17336 17337 17338 17339 17340 17341 17342 17343 17344 17345 17346 17347 17348 17349 17350 17351 17352 17353 17354 17355 17356 17357 17358 17359 17360 17361 17362 17363 17364 17365 17366 17367 17368 17369 17370 17371 17372 17373 17374 17375 17376 17377 17378 17379 17380 17381 17382 17383 17384 17385 17386 17387 17388 17389 17390 17391 17392 17393 17394 17395 17396 17397 17398 17399 17400 17401 17402 17403 17404 17405 17406 17407 17408 17409 17410 17411 17412 17413 17414 17415 17416 17417 17418 17419 17420 17421 17422 17423 17424 17425 17426 17427 17428 17429 17430 17431 17432 17433 17434 17435 17436 17437 17438 17439 17440 17441 17442 17443 17444 17445 17446 17447 17448 17449 17450 17451 17452 17453 17454 17455 17456 17457 17458 17459 17460 17461 17462 17463 17464 17465 17466 17467 17468 17469 17470 17471 17472 17473 17474 17475 17476 17477 17478 17479 17480 17481 17482 17483 17484 17485 17486 17487 17488 17489 17490 17491 17492 17493 17494 17495 17496 17497 17498 17499 17500 17501 17502 17503 17504 17505 17506 17507 17508 17509 17510 17511 17512 17513 17514 17515 17516 17517 17518 17519 17520 17521 17522 17523 17524 17525 17526 17527 17528 17529 17530 17531 17532 17533 17534 17535 17536 17537 17538 17539 17540 17541 17542 17543 17544 17545 17546 17547 17548 17549 17550 17551 17552 17553 17554 17555 17556 17557 17558 17559 17560 17561 17562 17563 17564 17565 17566 17567 17568 17569 17570 17571 17572 17573 17574 17575 17576 17577 17578 17579 17580 17581 17582 17583 17584 17585 17586 17587 17588 17589 17590 17591 17592 17593 17594 17595 17596 17597 17598 17599 17600 17601 17602 17603 17604 17605 17606 17607 17608 17609 17610 17611 17612 17613 17614 17615 17616 17617 17618 17619 17620 17621 17622 17623 17624 17625 17626 17627 17628 17629 17630 17631 17632 17633 17634 17635 17636 17637 17638 17639 17640 17641 17642 17643 17644 17645 17646 17647 17648 17649 17650 17651 17652 17653 17654 17655 17656 17657 17658 17659 17660 17661 17662 17663 17664 17665 17666 17667 17668 17669 17670 17671 17672 17673 17674 17675 17676 17677 17678 17679 17680 17681 17682 17683 17684 17685 17686 17687 17688 17689 17690 17691 17692 17693 17694 17695 17696 17697 17698 17699 17700 17701 17702 17703 17704 17705 17706 17707 17708 17709 17710 17711 17712 17713 17714 17715 17716 17717 17718 17719 17720 17721 17722 17723 17724 17725 17726 17727 17728 17729 17730 17731 17732 17733 17734 17735 17736 17737 17738 17739 17740 17741 17742 17743 17744 17745 17746 17747 17748 17749 17750 17751 17752 17753 17754 17755 17756 17757 17758 17759 17760 17761 17762 17763 17764 17765 17766 17767 17768 17769 17770 17771 17772 17773 17774 17775 17776 17777 17778 17779 17780 17781 17782 17783 17784 17785 17786 17787 17788 17789 17790 17791 17792 17793 17794 17795 17796 17797 17798 17799 17800 17801 17802 17803 17804 17805 17806 17807 17808 17809 17810 17811 17812 17813 17814 17815 17816 17817 17818 17819 17820 17821 17822 17823 17824 17825 17826 17827 17828 17829 17830 17831 17832 17833 17834 17835 17836 17837 17838 17839 17840 17841 17842 17843 17844 17845 17846 17847 17848 17849 17850 17851 17852 17853 17854 17855 17856 17857 17858 17859 17860 17861 17862 17863 17864 17865 17866 17867 17868 17869 17870 17871 17872 17873 17874 17875 17876 17877 17878 17879 17880 17881 17882 17883 17884 17885 17886 17887 17888 17889 17890 17891 17892 17893 17894 17895 17896 17897 17898 17899 17900 17901 17902 17903 17904 17905 17906 17907 17908 17909 17910 17911 17912 17913 17914 17915 17916 17917 17918 17919 17920 17921 17922 17923 17924 17925 17926 17927 17928 17929 17930 17931 17932 17933 17934 17935 17936 17937 17938 17939 17940 17941 17942 17943 17944 17945 17946 17947 17948 17949 17950 17951 17952 17953 17954 17955 17956 17957 17958 17959 17960 17961 17962 17963 17964 17965 17966 17967 17968 17969 17970 17971 17972 17973 17974 17975 17976 17977 17978 17979 17980 17981 17982 17983 17984 17985 17986 17987 17988 17989 17990 17991 17992 17993 17994 17995 17996 17997 17998 17999 18000 18001 18002 18003 18004 18005 18006 18007 18008 18009 18010 18011 18012 18013 18014 18015 18016 18017 18018 18019 18020 18021 18022 18023 18024 18025 18026 18027 18028 18029 18030 18031 18032 18033 18034 18035 18036 18037 18038 18039 18040 18041 18042 18043 18044 18045 18046 18047 18048 18049 18050 18051 18052 18053 18054 18055 18056 18057 18058 18059 18060 18061 18062 18063 18064 18065 18066 18067 18068 18069 18070 18071 18072 18073 18074 18075 18076 18077 18078 18079 18080 18081 18082 18083 18084 18085 18086 18087 18088 18089 18090 18091 18092 18093 18094 18095 18096 18097 18098 18099 18100 18101 18102 18103 18104 18105 18106 18107 18108 18109 18110 18111 18112 18113 18114 18115 18116 18117 18118 18119 18120 18121 18122 18123 18124 18125 18126 18127 18128 18129 18130 18131 18132 18133 18134 18135 18136 18137 18138 18139 18140 18141 18142 18143 18144 18145 18146 18147 18148 18149 18150 18151 18152 18153 18154 18155 18156 18157 18158 18159 18160 18161 18162 18163 18164 18165 18166 18167 18168 18169 18170 18171 18172 18173 18174 18175 18176 18177 18178 18179 18180 18181 18182 18183 18184 18185 18186 18187 18188 18189 18190 18191 18192 18193 18194 18195 18196 18197 18198 18199 18200 18201 18202 18203 18204 18205 18206 18207 18208 18209 18210 18211 18212 18213 18214 18215 18216 18217 18218 18219 18220 18221 18222 18223 18224 18225 18226 18227 18228 18229 18230 18231 18232 18233 18234 18235 18236 18237 18238 18239 18240 18241 18242 18243 18244 18245 18246 18247 18248 18249 18250 18251 18252 18253 18254 18255 18256 18257 18258 18259 18260 18261 18262 18263 18264 18265 18266 18267 18268 18269 18270 18271 18272 18273 18274 18275 18276 18277 18278 18279 18280 18281 18282 18283 18284 18285 18286 18287 18288 18289 18290 18291 18292 18293 18294 18295 18296 18297 18298 18299 18300 18301 18302 18303 18304 18305 18306 18307 18308 18309 18310 18311 18312 18313 18314 18315 18316 18317 18318 18319 18320 18321 18322 18323 18324 18325 18326 18327 18328 18329 18330 18331 18332 18333 18334 18335 18336 18337 18338 18339 18340 18341 18342 18343 18344 18345 18346 18347 18348 18349 18350 18351 18352 18353 18354 18355 18356 18357 18358 18359 18360 18361 18362 18363 18364 18365 18366 18367 18368 18369 18370 18371 18372 18373 18374 18375 18376 18377 18378 18379 18380 18381 18382 18383 18384 18385 18386 18387 18388 18389 18390 18391 18392 18393 18394 18395 18396 18397 18398 18399 18400 18401 18402 18403 18404 18405 18406 18407 18408 18409 18410 18411 18412 18413 18414 18415 18416 18417 18418 18419 18420 18421 18422 18423 18424 18425 18426 18427 18428 18429 18430 18431 18432 18433 18434 18435 18436 18437 18438 18439 18440 18441 18442 18443 18444 18445 18446 18447 18448 18449 18450 18451 18452 18453 18454 18455 18456 18457 18458 18459 18460 18461 18462 18463 18464 18465 18466 18467 18468 18469 18470 18471 18472 18473 18474 18475 18476 18477 18478 18479 18480 18481 18482 18483 18484 18485 18486 18487 18488 18489 18490 18491 18492 18493 18494 18495 18496 18497 18498 18499 18500 18501 18502 18503 18504 18505 18506 18507 18508 18509 18510 18511 18512 18513 18514 18515 18516 18517 18518 18519 18520 18521 18522 18523 18524 18525 18526 18527 18528 18529 18530 18531 18532 18533 18534 18535 18536 18537 18538 18539 18540 18541 18542 18543 18544 18545 18546 18547 18548 18549 18550 18551 18552 18553 18554 18555 18556 18557 18558 18559 18560 18561 18562 18563 18564 18565 18566 18567 18568 18569 18570 18571 18572 18573 18574 18575 18576 18577 18578 18579 18580 18581 18582 18583 18584 18585 18586 18587 18588 18589 18590 18591 18592 18593 18594 18595 18596 18597 18598 18599 18600 18601 18602 18603 18604 18605 18606 18607 18608 18609 18610 18611 18612 18613 18614 18615 18616 18617 18618 18619 18620 18621 18622 18623 18624 18625 18626 18627 18628 18629 18630 18631 18632 18633 18634 18635 18636 18637 18638 18639 18640 18641 18642 18643 18644 18645 18646 18647 18648 18649 18650 18651 18652 18653 18654 18655 18656 18657 18658 18659 18660 18661 18662 18663 18664 18665 18666 18667 18668 18669 18670 18671 18672 18673 18674 18675 18676 18677 18678 18679 18680 18681 18682 18683 18684 18685 18686 18687 18688 18689 18690 18691 18692 18693 18694 18695 18696 18697 18698 18699 18700 18701 18702 18703 18704 18705 18706 18707 18708 18709 18710 18711 18712 18713 18714 18715 18716 18717 18718 18719 18720 18721 18722 18723 18724 18725 18726 18727 18728 18729 18730 18731 18732 18733 18734 18735 18736 18737 18738 18739 18740 18741 18742 18743 18744 18745 18746 18747 18748 18749 18750 18751 18752 18753 18754 18755 18756 18757 18758 18759 18760 18761 18762 18763 18764 18765 18766 18767 18768 18769 18770 18771 18772 18773 18774 18775 18776 18777 18778 18779 18780 18781 18782 18783 18784 18785 18786 18787 18788 18789 18790 18791 18792 18793 18794 18795 18796 18797 18798 18799 18800 18801 18802 18803 18804 18805 18806 18807 18808 18809 18810 18811 18812 18813 18814 18815 18816 18817 18818 18819 18820 18821 18822 18823 18824 18825 18826 18827 18828 18829 18830 18831 18832 18833 18834 18835 18836 18837 18838 18839 18840 18841 18842 18843 18844 18845 18846 18847 18848 18849 18850 18851 18852 18853 18854 18855 18856 18857 18858 18859 18860 18861 18862 18863 18864 18865 18866 18867 18868 18869 18870 18871 18872 18873 18874 18875 18876 18877 18878 18879 18880 18881 18882 18883 18884 18885 18886 18887 18888 18889 18890 18891 18892 18893 18894 18895 18896 18897 18898 18899 18900 18901 18902 18903 18904 18905 18906 18907 18908 18909 18910 18911 18912 18913 18914 18915 18916 18917 18918 18919 18920 18921 18922 18923 18924 18925 18926 18927 18928 18929 18930 18931 18932 18933 18934 18935 18936 18937 18938 18939 18940 18941 18942 18943 18944 18945 18946 18947 18948 18949 18950 18951 18952 18953 18954 18955 18956 18957 18958 18959 18960 18961 18962 18963 18964 18965 18966 18967 18968 18969 18970 18971 18972 18973 18974 18975 18976 18977 18978 18979 18980 18981 18982 18983 18984 18985 18986 18987 18988 18989 18990 18991 18992 18993 18994 18995 18996 18997 18998 18999 19000 19001 19002 19003 19004 19005 19006 19007 19008 19009 19010 19011 19012 19013 19014 19015 19016 19017 19018 19019 19020 19021 19022 19023 19024 19025 19026 19027 19028 19029 19030 19031 19032 19033 19034 19035 19036 19037 19038 19039 19040 19041 19042 19043 19044 19045 19046 19047 19048 19049 19050 19051 19052 19053 19054 19055 19056 19057 19058 19059 19060 19061 19062 19063 19064 19065 19066 19067 19068 19069 19070 19071 19072 19073 19074 19075 19076 19077 19078 19079 19080 19081 19082 19083 19084 19085 19086 19087 19088 19089 19090 19091 19092 19093 19094 19095 19096 19097 19098 19099 19100 19101 19102 19103 19104 19105 19106 19107 19108 19109 19110 19111 19112 19113 19114 19115 19116 19117 19118 19119 19120 19121 19122 19123 19124 19125 19126 19127 19128 19129 19130 19131 19132 19133 19134 19135 19136 19137 19138 19139 19140 19141 19142 19143 19144 19145 19146 19147 19148 19149 19150 19151 19152 19153 19154 19155 19156 19157 19158 19159 19160 19161 19162 19163 19164 19165 19166 19167 19168 19169 19170 19171 19172 19173 19174 19175 19176 19177 19178 19179 19180 19181 19182 19183 19184 19185 19186 19187 19188 19189 19190 19191 19192 19193 19194 19195 19196 19197 19198 19199 19200 19201 19202 19203 19204 19205 19206 19207 19208 19209 19210 19211 19212 19213 19214 19215 19216 19217 19218 19219 19220 19221 19222 19223 19224 19225 19226 19227 19228 19229 19230 19231 19232 19233 19234 19235 19236 19237 19238 19239 19240 19241 19242 19243 19244 19245 19246 19247 19248 19249 19250 19251 19252 19253 19254 19255 19256 19257 19258 19259 19260 19261 19262 19263 19264 19265 19266 19267 19268 19269 19270 19271 19272 19273 19274 19275 19276 19277 19278 19279 19280 19281 19282 19283 19284 19285 19286 19287 19288 19289 19290 19291 19292 19293 19294 19295 19296 19297 19298 19299 19300 19301 19302 19303 19304 19305 19306 19307 19308 19309 19310 19311 19312 19313 19314 19315 19316 19317 19318 19319 19320 19321 19322 19323 19324 19325 19326 19327 19328 19329 19330 19331 19332 19333 19334 19335 19336 19337 19338 19339 19340 19341 19342 19343 19344 19345 19346 19347 19348 19349 19350 19351 19352 19353 19354 19355 19356 19357 19358 19359 19360 19361 19362 19363 19364 19365 19366 19367 19368 19369 19370 19371 19372 19373 19374 19375 19376 19377 19378 19379 19380 19381 19382 19383 19384 19385 19386 19387 19388 19389 19390 19391 19392 19393 19394 19395 19396 19397 19398 19399 19400 19401 19402 19403 19404 19405 19406 19407 19408 19409 19410 19411 19412 19413 19414 19415 19416 19417 19418 19419 19420 19421 19422 19423 19424 19425 19426 19427 19428 19429 19430 19431 19432 19433 19434 19435 19436 19437 19438 19439 19440 19441 19442 19443 19444 19445 19446 19447 19448 19449 19450 19451 19452 19453 19454 19455 19456 19457 19458 19459 19460 19461 19462 19463 19464 19465 19466 19467 19468 19469 19470 19471 19472 19473 19474 19475 19476 19477 19478 19479 19480 19481 19482 19483 19484 19485 19486 19487 19488 19489 19490 19491 19492 19493 19494 19495 19496 19497 19498 19499 19500 19501 19502 19503 19504 19505 19506 19507 19508 19509 19510 19511 19512 19513 19514 19515 19516 19517 19518 19519 19520 19521 19522 19523 19524 19525 19526 19527 19528 19529 19530 19531 19532 19533 19534 19535 19536 19537 19538 19539 19540 19541 19542 19543 19544 19545 19546 19547 19548 19549 19550 19551 19552 19553 19554 19555 19556 19557 19558 19559 19560 19561 19562 19563 19564 19565 19566 19567 19568 19569 19570 19571 19572 19573 19574 19575 19576 19577 19578 19579 19580 19581 19582 19583 19584 19585 19586 19587 19588 19589 19590 19591 19592 19593 19594 19595 19596 19597 19598 19599 19600 19601 19602 19603 19604 19605 19606 19607 19608 19609 19610 19611 19612 19613 19614 19615 19616 19617 19618 19619 19620 19621 19622 19623 19624 19625 19626 19627 19628 19629 19630 19631 19632 19633 19634 19635 19636 19637 19638 19639 19640 19641 19642 19643 19644 19645 19646 19647 19648 19649 19650 19651 19652 19653 19654 19655 19656 19657 19658 19659 19660 19661 19662 19663 19664 19665 19666 19667 19668 19669 19670 19671 19672 19673 19674 19675 19676 19677 19678 19679 19680 19681 19682 19683 19684 19685 19686 19687 19688 19689 19690 19691 19692 19693 19694 19695 19696 19697 19698 19699 19700 19701 19702 19703 19704 19705 19706 19707 19708 19709 19710 19711 19712 19713 19714 19715 19716 19717 19718 19719 19720 19721 19722 19723 19724 19725 19726 19727 19728 19729 19730 19731 19732 19733 19734 19735 19736 19737 19738 19739 19740 19741 19742 19743 19744 19745 19746 19747 19748 19749 19750 19751 19752 19753 19754 19755 19756 19757 19758 19759 19760 19761 19762 19763 19764 19765 19766 19767 19768 19769 19770 19771 19772 19773 19774 19775 19776 19777 19778 19779 19780 19781 19782 19783 19784 19785 19786 19787 19788 19789 19790 19791 19792 19793 19794 19795 19796 19797 19798 19799 19800 19801 19802 19803 19804 19805 19806 19807 19808 19809 19810 19811 19812 19813 19814 19815 19816 19817 19818 19819 19820 19821 19822 19823 19824 19825 19826 19827 19828 19829 19830 19831 19832 19833 19834 19835 19836 19837 19838 19839 19840 19841 19842 19843 19844 19845 19846 19847 19848 19849 19850 19851 19852 19853 19854 19855 19856 19857 19858 19859 19860 19861 19862 19863 19864 19865 19866 19867 19868 19869 19870 19871 19872 19873 19874 19875 19876 19877 19878 19879 19880 19881 19882 19883 19884 19885 19886 19887 19888 19889 19890 19891 19892 19893 19894 19895 19896 19897 19898 19899 19900 19901 19902 19903 19904 19905 19906 19907 19908 19909 19910 19911 19912 19913 19914 19915 19916 19917 19918 19919 19920 19921 19922 19923 19924 19925 19926 19927 19928 19929 19930 19931 19932 19933 19934 19935 19936 19937 19938 19939 19940 19941 19942 19943 19944 19945 19946 19947 19948 19949 19950 19951 19952 19953 19954 19955 19956 19957 19958 19959 19960 19961 19962 19963 19964 19965 19966 19967 19968 19969 19970 19971 19972 19973 19974 19975 19976 19977 19978 19979 19980 19981 19982 19983 19984 19985 19986 19987 19988 19989 19990 19991 19992 19993 19994 19995 19996 19997 19998 19999 20000 20001 20002 20003 20004 20005 20006 20007 20008 20009 20010 20011 20012 20013 20014 20015 20016 20017 20018 20019 20020 20021 20022 20023 20024 20025 20026 20027 20028 20029 20030 20031 20032 20033 20034 20035 20036 20037 20038 20039 20040 20041 20042 20043 20044 20045 20046 20047 20048 20049 20050 20051 20052 20053 20054 20055 20056 20057 20058 20059 20060 20061 20062 20063 20064 20065 20066 20067 20068 20069 20070 20071 20072 20073 20074 20075 20076 20077 20078 20079 20080 20081 20082 20083 20084 20085 20086 20087 20088 20089 20090 20091 20092 20093 20094 20095 20096 20097 20098 20099 20100 20101 20102 20103 20104 20105 20106 20107 20108 20109 20110 20111 20112 20113 20114 20115 20116 20117 20118 20119 20120 20121 20122 20123 20124 20125 20126 20127 20128 20129 20130 20131 20132 20133 20134 20135 20136 20137 20138 20139 20140 20141 20142 20143 20144 20145 20146 20147 20148 20149 20150 20151 20152 20153 20154 20155 20156 20157 20158 20159 20160 20161 20162 20163 20164 20165 20166 20167 20168 20169 20170 20171 20172 20173 20174 20175 20176 20177 20178 20179 20180 20181 20182 20183 20184 20185 20186 20187 20188 20189 20190 20191 20192 20193 20194 20195 20196 20197 20198 20199 20200 20201 20202 20203 20204 20205 20206 20207 20208 20209 20210 20211 20212 20213 20214 20215 20216 20217 20218 20219 20220 20221 20222 20223 20224 20225 20226 20227 20228 20229 20230 20231 20232 20233 20234 20235 20236 20237 20238 20239 20240 20241 20242 20243 20244 20245 20246 20247 20248 20249 20250 20251 20252 20253 20254 20255 20256 20257 20258 20259 20260 20261 20262 20263 20264 20265 20266 20267 20268 20269 20270 20271 20272 20273 20274 20275 20276 20277 20278 20279 20280 20281 20282 20283 20284 20285 20286 20287 20288 20289 20290 20291 20292 20293 20294 20295 20296 20297 20298 20299 20300 20301 20302 20303 20304 20305 20306 20307 20308 20309 20310 20311 20312 20313 20314 20315 20316 20317 20318 20319 20320 20321 20322 20323 20324 20325 20326 20327 20328 20329 20330 20331 20332 20333 20334 20335 20336 20337 20338 20339 20340 20341 20342 20343 20344 20345 20346 20347 20348 20349 20350 20351 20352 20353 20354 20355 20356 20357 20358 20359 20360 20361 20362 20363 20364 20365 20366 20367 20368 20369 20370 20371 20372 20373 20374 20375 20376 20377 20378 20379 20380 20381 20382 20383 20384 20385 20386 20387 20388 20389 20390 20391 20392 20393 20394 20395 20396 20397 20398 20399 20400 20401 20402 20403 20404 20405 20406 20407 20408 20409 20410 20411 20412 20413 20414 20415 20416 20417 20418 20419 20420 20421 20422 20423 20424 20425 20426 20427 20428 20429 20430 20431 20432 20433 20434 20435 20436 20437 20438 20439 20440 20441 20442 20443 20444 20445 20446 20447 20448 20449 20450 20451 20452 20453 20454 20455 20456 20457 20458 20459 20460 20461 20462 20463 20464 20465 20466 20467 20468 20469 20470 20471 20472 20473 20474 20475 20476 20477 20478 20479 20480 20481 20482 20483 20484 20485 20486 20487 20488 20489 20490 20491 20492 20493 20494 20495 20496 20497 20498 20499 20500 20501 20502 20503 20504 20505 20506 20507 20508 20509 20510 20511 20512 20513 20514 20515 20516 20517 20518 20519 20520 20521 20522 20523 20524 20525 20526 20527 20528 20529 20530 20531 20532 20533 20534 20535 20536 20537 20538 20539 20540 20541 20542 20543 20544 20545 20546 20547 20548 20549 20550 20551 20552 20553 20554 20555 20556 20557 20558 20559 20560 20561 20562 20563 20564 20565 20566 20567 20568 20569 20570 20571 20572 20573 20574 20575 20576 20577 20578 20579 20580 20581 20582 20583 20584 20585 20586 20587 20588 20589 20590 20591 20592 20593 20594 20595 20596 20597 20598 20599 20600 20601 20602 20603 20604 20605 20606 20607 20608 20609 20610 20611 20612 20613 20614 20615 20616 20617 20618 20619 20620 20621 20622 20623 20624 20625 20626 20627 20628 20629 20630 20631 20632 20633 20634 20635 20636 20637 20638 20639 20640 20641 20642 20643 20644 20645 20646 20647 20648 20649 20650 20651 20652 20653 20654 20655 20656 20657 20658 20659 20660 20661 20662 20663 20664 20665 20666 20667 20668 20669 20670 20671 20672 20673 20674 20675 20676 20677 20678 20679 20680 20681 20682 20683 20684 20685 20686 20687 20688 20689 20690 20691 20692 20693 20694 20695 20696 20697 20698 20699 20700 20701 20702 20703 20704 20705 20706 20707 20708 20709 20710 20711 20712 20713 20714 20715 20716 20717 20718 20719 20720 20721 20722 20723 20724 20725 20726 20727 20728 20729 20730 20731 20732 20733 20734 20735 20736 20737 20738 20739 20740 20741 20742 20743 20744 20745 20746 20747 20748 20749 20750 20751 20752 20753 20754 20755 20756 20757 20758 20759 20760 20761 20762 20763 20764 20765 20766 20767 20768 20769 20770 20771 20772 20773 20774 20775 20776 20777 20778 20779 20780 20781 20782 20783 20784 20785 20786 20787 20788 20789 20790 20791 20792 20793 20794 20795 20796 20797 20798 20799 20800 20801 20802 20803 20804 20805 20806 20807 20808 20809 20810 20811 20812 20813 20814 20815 20816 20817 20818 20819 20820 20821 20822 20823 20824 20825 20826 20827 20828 20829 20830 20831 20832 20833 20834 20835 20836 20837 20838 20839 20840 20841 20842 20843 20844 20845 20846 20847 20848 20849 20850 20851 20852 20853 20854 20855 20856 20857 20858 20859 20860 20861 20862 20863 20864 20865 20866 20867 20868 20869 20870 20871 20872 20873 20874 20875 20876 20877 20878 20879 20880 20881 20882 20883 20884 20885 20886 20887 20888 20889 20890 20891 20892 20893 20894 20895 20896 20897 20898 20899 20900 20901 20902 20903 20904 20905 20906 20907 20908 20909 20910 20911 20912 20913 20914 20915 20916 20917 20918 20919 20920 20921 20922 20923 20924 20925 20926 20927 20928 20929 20930 20931 20932 20933 20934 20935 20936 20937 20938 20939 20940 20941 20942 20943 20944 20945 20946 20947 20948 20949 20950 20951 20952 20953 20954 20955 20956 20957 20958 20959 20960 20961 20962 20963 20964 20965 20966 20967 20968 20969 20970 20971 20972 20973 20974 20975 20976 20977 20978 20979 20980 20981 20982 20983 20984 20985 20986 20987 20988 20989 20990 20991 20992 20993 20994 20995 20996 20997 20998 20999 21000 21001 21002 21003 21004 21005 21006 21007 21008 21009 21010 21011 21012 21013 21014 21015 21016 21017 21018 21019 21020 21021 21022 21023 21024 21025 21026 21027 21028 21029 21030 21031 21032 21033 21034 21035 21036 21037 21038 21039 21040 21041 21042 21043 21044 21045 21046 21047 21048 21049 21050 21051 21052 21053 21054 21055 21056 21057 21058 21059 21060 21061 21062 21063 21064 21065 21066 21067 21068 21069 21070 21071 21072 21073 21074 21075 21076 21077 21078 21079 21080 21081 21082 21083 21084 21085 21086 21087 21088 21089 21090 21091 21092 21093 21094 21095 21096 21097 21098 21099 21100 21101 21102 21103 21104 21105 21106 21107 21108 21109 21110 21111 21112 21113 21114 21115 21116 21117 21118 21119 21120 21121 21122 21123 21124 21125 21126 21127 21128 21129 21130 21131 21132 21133 21134 21135 21136 21137 21138 21139 21140 21141 21142 21143 21144 21145 21146 21147 21148 21149 21150 21151 21152 21153 21154 21155 21156 21157 21158 21159 21160 21161 21162 21163 21164 21165 21166 21167 21168 21169 21170 21171 21172 21173 21174 21175 21176 21177 21178 21179 21180 21181 21182 21183 21184 21185 21186 21187 21188 21189 21190 21191 21192 21193 21194 21195 21196 21197 21198 21199 21200 21201 21202 21203 21204 21205 21206 21207 21208 21209 21210 21211 21212 21213 21214 21215 21216 21217 21218 21219 21220 21221 21222 21223 21224 21225 21226 21227 21228 21229 21230 21231 21232 21233 21234 21235 21236 21237 21238 21239 21240 21241 21242 21243 21244 21245 21246 21247 21248 21249 21250 21251 21252 21253 21254 21255 21256 21257 21258 21259 21260 21261 21262 21263 21264 21265 21266 21267 21268 21269 21270 21271 21272 21273 21274 21275 21276 21277 21278 21279 21280 21281 21282 21283 21284 21285 21286 21287 21288 21289 21290 21291 21292 21293 21294 21295 21296 21297 21298 21299 21300 21301 21302 21303 21304 21305 21306 21307 21308 21309 21310 21311 21312 21313 21314 21315 21316 21317 21318 21319 21320 21321 21322 21323 21324 21325 21326 21327 21328 21329 21330 21331 21332 21333 21334 21335 21336 21337 21338 21339 21340 21341 21342 21343 21344 21345 21346 21347 21348 21349 21350 21351 21352 21353 21354 21355 21356 21357 21358 21359 21360 21361 21362 21363 21364 21365 21366 21367 21368 21369 21370 21371 21372 21373 21374 21375 21376 21377 21378 21379 21380 21381 21382 21383 21384 21385 21386 21387 21388 21389 21390 21391 21392 21393 21394 21395 21396 21397 21398 21399 21400 21401 21402 21403 21404 21405 21406 21407 21408 21409 21410 21411 21412 21413 21414 21415 21416 21417 21418 21419 21420 21421 21422 21423 21424 21425 21426 21427 21428 21429 21430 21431 21432 21433 21434 21435 21436 21437 21438 21439 21440 21441 21442 21443 21444 21445 21446 21447 21448 21449 21450 21451 21452 21453 21454 21455 21456 21457 21458 21459 21460 21461 21462 21463 21464 21465 21466 21467 21468 21469 21470 21471 21472 21473 21474 21475 21476 21477 21478 21479 21480 21481 21482 21483 21484 21485 21486 21487 21488 21489 21490 21491 21492 21493 21494 21495 21496 21497 21498 21499 21500 21501 21502 21503 21504 21505 21506 21507 21508 21509 21510 21511 21512 21513 21514 21515 21516 21517 21518 21519 21520 21521 21522 21523 21524 21525 21526 21527 21528 21529 21530 21531 21532 21533 21534 21535 21536 21537 21538 21539 21540 21541 21542 21543 21544 21545 21546 21547 21548 21549 21550 21551 21552 21553 21554 21555 21556 21557 21558 21559 21560 21561 21562 21563 21564 21565 21566 21567 21568 21569 21570 21571 21572 21573 21574 21575 21576 21577 21578 21579 21580 21581 21582 21583 21584 21585 21586 21587 21588 21589 21590 21591 21592 21593 21594 21595 21596 21597 21598 21599 21600 21601 21602 21603 21604 21605 21606 21607 21608 21609 21610 21611 21612 21613 21614 21615 21616 21617 21618 21619 21620 21621 21622 21623 21624 21625 21626 21627 21628 21629 21630 21631 21632 21633 21634 21635 21636 21637 21638 21639 21640 21641 21642 21643 21644 21645 21646 21647 21648 21649 21650 21651 21652 21653 21654 21655 21656 21657 21658 21659 21660 21661 21662 21663 21664 21665 21666 21667 21668 21669 21670 21671 21672 21673 21674 21675 21676 21677 21678 21679 21680 21681 21682 21683 21684 21685 21686 21687 21688 21689 21690 21691 21692 21693 21694 21695 21696 21697 21698 21699 21700 21701 21702 21703 21704 21705 21706 21707 21708 21709 21710 21711 21712 21713 21714 21715 21716 21717 21718 21719 21720 21721 21722 21723 21724 21725 21726 21727 21728 21729 21730 21731 21732 21733 21734 21735 21736 21737 21738 21739 21740 21741 21742 21743 21744 21745 21746 21747 21748 21749 21750 21751 21752 21753 21754 21755 21756 21757 21758 21759 21760 21761 21762 21763 21764 21765 21766 21767 21768 21769 21770 21771 21772 21773 21774 21775 21776 21777 21778 21779 21780 21781 21782 21783 21784 21785 21786 21787 21788 21789 21790 21791 21792 21793 21794 21795 21796 21797 21798 21799 21800 21801 21802 21803 21804 21805 21806 21807 21808 21809 21810 21811 21812 21813 21814 21815 21816 21817 21818 21819 21820 21821 21822 21823 21824 21825 21826 21827 21828 21829 21830 21831 21832 21833 21834 21835 21836 21837 21838 21839 21840 21841 21842 21843 21844 21845 21846 21847 21848 21849 21850 21851 21852 21853 21854 21855 21856 21857 21858 21859 21860 21861 21862 21863 21864 21865 21866 21867 21868 21869 21870 21871 21872 21873 21874 21875 21876 21877 21878 21879 21880 21881 21882 21883 21884 21885 21886 21887 21888 21889 21890 21891 21892 21893 21894 21895 21896 21897 21898 21899 21900 21901 21902 21903 21904 21905 21906 21907 21908 21909 21910 21911 21912 21913 21914 21915 21916 21917 21918 21919 21920 21921 21922 21923 21924 21925 21926 21927 21928 21929 21930 21931 21932 21933 21934 21935 21936 21937 21938 21939 21940 21941 21942 21943 21944 21945 21946 21947 21948 21949 21950 21951 21952 21953 21954 21955 21956 21957 21958 21959 21960 21961 21962 21963 21964 21965 21966 21967 21968 21969 21970 21971 21972 21973 21974 21975 21976 21977 21978 21979 21980 21981 21982 21983 21984 21985 21986 21987 21988 21989 21990 21991 21992 21993 21994 21995 21996 21997 21998 21999 22000 22001 22002 22003 22004 22005 22006 22007 22008 22009 22010 22011 22012 22013 22014 22015 22016 22017 22018 22019 22020 22021 22022 22023 22024 22025 22026 22027 22028 22029 22030 22031 22032 22033 22034 22035 22036 22037 22038 22039 22040 22041 22042 22043 22044 22045 22046 22047 22048 22049 22050 22051 22052 22053 22054 22055 22056 22057 22058 22059 22060 22061 22062 22063 22064 22065 22066 22067 22068 22069 22070 22071 22072 22073 22074 22075 22076 22077 22078 22079 22080 22081 22082 22083 22084 22085 22086 22087 22088 22089 22090 22091 22092 22093 22094 22095 22096 22097 22098 22099 22100 22101 22102 22103 22104 22105 22106 22107 22108 22109 22110 22111 22112 22113 22114 22115 22116 22117 22118 22119 22120 22121 22122 22123 22124 22125 22126 22127 22128 22129 22130 22131 22132 22133 22134 22135 22136 22137 22138 22139 22140 22141 22142 22143 22144 22145 22146 22147 22148 22149 22150 22151 22152 22153 22154 22155 22156 22157 22158 22159 22160 22161 22162 22163 22164 22165 22166 22167 22168 22169 22170 22171 22172 22173 22174 22175 22176 22177 22178 22179 22180 22181 22182 22183 22184 22185 22186 22187 22188 22189 22190 22191 22192 22193 22194 22195 22196 22197 22198 22199 22200 22201 22202 22203 22204 22205 22206 22207 22208 22209 22210 22211 22212 22213 22214 22215 22216 22217 22218 22219 22220 22221 22222 22223 22224 22225 22226 22227 22228 22229 22230 22231 22232 22233 22234 22235 22236 22237 22238 22239 22240 22241 22242 22243 22244 22245 22246 22247 22248 22249 22250 22251 22252 22253 22254 22255 22256 22257 22258 22259 22260 22261 22262 22263 22264 22265 22266 22267 22268 22269 22270 22271 22272 22273 22274 22275 22276 22277 22278 22279 22280 22281 22282 22283 22284 22285 22286 22287 22288 22289 22290 22291 22292 22293 22294 22295 22296 22297 22298 22299 22300 22301 22302 22303 22304 22305 22306 22307 22308 22309 22310 22311 22312 22313 22314 22315 22316 22317 22318 22319 22320 22321 22322 22323 22324 22325 22326 22327 22328 22329 22330 22331 22332 22333 22334 22335 22336 22337 22338 22339 22340 22341 22342 22343 22344 22345 22346 22347 22348 22349 22350 22351 22352 22353 22354 22355 22356 22357 22358 22359 22360 22361 22362 22363 22364 22365 22366 22367 22368 22369 22370 22371 22372 22373 22374 22375 22376 22377 22378 22379 22380 22381 22382 22383 22384 22385 22386 22387 22388 22389 22390 22391 22392 22393 22394 22395 22396 22397 22398 22399 22400 22401 22402 22403 22404 22405 22406 22407 22408 22409 22410 22411 22412 22413 22414 22415 22416 22417 22418 22419 22420 22421 22422 22423 22424 22425 22426 22427 22428 22429 22430 22431 22432 22433 22434 22435 22436 22437 22438 22439 22440 22441 22442 22443 22444 22445 22446 22447 22448 22449 22450 22451 22452 22453 22454 22455 22456 22457 22458 22459 22460 22461 22462 22463 22464 22465 22466 22467 22468 22469 22470 22471 22472 22473 22474 22475 22476 22477 22478 22479 22480 22481 22482 22483 22484 22485 22486 22487 22488 22489 22490 22491 22492 22493 22494 22495 22496 22497 22498 22499 22500 22501 22502 22503 22504 22505 22506 22507 22508 22509 22510 22511 22512 22513 22514 22515 22516 22517 22518 22519 22520 22521 22522 22523 22524 22525 22526 22527 22528 22529 22530 22531 22532 22533 22534 22535 22536 22537 22538 22539 22540 22541 22542 22543 22544 22545 22546 22547 22548 22549 22550 22551 22552 22553 22554 22555 22556 22557 22558 22559 22560 22561 22562 22563 22564 22565 22566 22567 22568 22569 22570 22571 22572 22573 22574 22575 22576 22577 22578 22579 22580 22581 22582 22583 22584 22585 22586 22587 22588 22589 22590 22591 22592 22593 22594 22595 22596 22597 22598 22599 22600 22601 22602 22603 22604 22605 22606 22607 22608 22609 22610 22611 22612 22613 22614 22615 22616 22617 22618 22619 22620 22621 22622 22623 22624 22625 22626 22627 22628 22629 22630 22631 22632 22633 22634 22635 22636 22637 22638 22639 22640 22641 22642 22643 22644 22645 22646 22647 22648 22649 22650 22651 22652 22653 22654 22655 22656 22657 22658 22659 22660 22661 22662 22663 22664 22665 22666 22667 22668 22669 22670 22671 22672 22673 22674 22675 22676 22677 22678 22679 22680 22681 22682 22683 22684 22685 22686 22687 22688 22689 22690 22691 22692 22693 22694 22695 22696 22697 22698 22699 22700 22701 22702 22703 22704 22705 22706 22707 22708 22709 22710 22711 22712 22713 22714 22715 22716 22717 22718 22719 22720 22721 22722 22723 22724 22725 22726 22727 22728 22729 22730 22731 22732 22733 22734 22735 22736 22737 22738 22739 22740 22741 22742 22743 22744 22745 22746 22747 22748 22749 22750 22751 22752 22753 22754 22755 22756 22757 22758 22759 22760 22761 22762 22763 22764 22765 22766 22767 22768 22769 22770 22771 22772 22773 22774 22775 22776 22777 22778 22779 22780 22781 22782 22783 22784 22785 22786 22787 22788 22789 22790 22791 22792 22793 22794 22795 22796 22797 22798 22799 22800 22801 22802 22803 22804 22805 22806 22807 22808 22809 22810 22811 22812 22813 22814 22815 22816 22817 22818 22819 22820 22821 22822 22823 22824 22825 22826 22827 22828 22829 22830 22831 22832 22833 22834 22835 22836 22837 22838 22839 22840 22841 22842 22843 22844 22845 22846 22847 22848 22849 22850 22851 22852 22853 22854 22855 22856 22857 22858 22859 22860 22861 22862 22863 22864 22865 22866 22867 22868 22869 22870 22871 22872 22873 22874 22875 22876 22877 22878 22879 22880 22881 22882 22883 22884 22885 22886 22887 22888 22889 22890 22891 22892 22893 22894 22895 22896 22897 22898 22899 22900 22901 22902 22903 22904 22905 22906 22907 22908 22909 22910 22911 22912 22913 22914 22915 22916 22917 22918 22919 22920 22921 22922 22923 22924 22925 22926 22927 22928 22929 22930 22931 22932 22933 22934 22935 22936 22937 22938 22939 22940 22941 22942 22943 22944 22945 22946 22947 22948 22949 22950 22951 22952 22953 22954 22955 22956 22957 22958 22959 22960 22961 22962 22963 22964 22965 22966 22967 22968 22969 22970 22971 22972 22973 22974 22975 22976 22977 22978 22979 22980 22981 22982 22983 22984 22985 22986 22987 22988 22989 22990 22991 22992 22993 22994 22995 22996 22997 22998 22999 23000 23001 23002 23003 23004 23005 23006 23007 23008 23009 23010 23011 23012 23013 23014 23015 23016 23017 23018 23019 23020 23021 23022 23023 23024 23025 23026 23027 23028 23029 23030 23031 23032 23033 23034 23035 23036 23037 23038 23039 23040 23041 23042 23043 23044 23045 23046 23047 23048 23049 23050 23051 23052 23053 23054 23055 23056 23057 23058 23059 23060 23061 23062 23063 23064 23065 23066 23067 23068 23069 23070 23071 23072 23073 23074 23075 23076 23077 23078 23079 23080 23081 23082 23083 23084 23085 23086 23087 23088 23089 23090 23091 23092 23093 23094 23095 23096 23097 23098 23099 23100 23101 23102 23103 23104 23105 23106 23107 23108 23109 23110 23111 23112 23113 23114 23115 23116 23117 23118 23119 23120 23121 23122 23123 23124 23125 23126 23127 23128 23129 23130 23131 23132 23133 23134 23135 23136 23137 23138 23139 23140 23141 23142 23143 23144 23145 23146 23147 23148 23149 23150 23151 23152 23153 23154 23155 23156 23157 23158 23159 23160 23161 23162 23163 23164 23165 23166 23167 23168 23169 23170 23171 23172 23173 23174 23175 23176 23177 23178 23179 23180 23181 23182 23183 23184 23185 23186 23187 23188 23189 23190 23191 23192 23193 23194 23195 23196 23197 23198 23199 23200 23201 23202 23203 23204 23205 23206 23207 23208 23209 23210 23211 23212 23213 23214 23215 23216 23217 23218 23219 23220 23221 23222 23223 23224 23225 23226 23227 23228 23229 23230 23231 23232 23233 23234 23235 23236 23237 23238 23239 23240 23241 23242 23243 23244 23245 23246 23247 23248 23249 23250 23251 23252 23253 23254 23255 23256 23257 23258 23259 23260 23261 23262 23263 23264 23265 23266 23267 23268 23269 23270 23271 23272 23273 23274 23275 23276 23277 23278 23279 23280 23281 23282 23283 23284 23285 23286 23287 23288 23289 23290 23291 23292 23293 23294 23295 23296 23297 23298 23299 23300 23301 23302 23303 23304 23305 23306 23307 23308 23309 23310 23311 23312 23313 23314 23315 23316 23317 23318 23319 23320 23321 23322 23323 23324 23325 23326 23327 23328 23329 23330 23331 23332 23333 23334 23335 23336 23337 23338 23339 23340 23341 23342 23343 23344 23345 23346 23347 23348 23349 23350 23351 23352 23353 23354 23355 23356 23357 23358 23359 23360 23361 23362 23363 23364 23365 23366 23367 23368 23369 23370 23371 23372 23373 23374 23375 23376 23377 23378 23379 23380 23381 23382 23383 23384 23385 23386 23387 23388 23389 23390 23391 23392 23393 23394 23395 23396 23397 23398 23399 23400 23401 23402 23403 23404 23405 23406 23407 23408 23409 23410 23411 23412 23413 23414 23415 23416 23417 23418 23419 23420 23421 23422 23423 23424 23425 23426 23427 23428 23429 23430 23431 23432 23433 23434 23435 23436 23437 23438 23439 23440 23441 23442 23443 23444 23445 23446 23447 23448 23449 23450 23451 23452 23453 23454 23455 23456 23457 23458 23459 23460 23461 23462 23463 23464 23465 23466 23467 23468 23469 23470 23471 23472 23473 23474 23475 23476 23477 23478 23479 23480 23481 23482 23483 23484 23485 23486 23487 23488 23489 23490 23491 23492 23493 23494 23495 23496 23497 23498 23499 23500 23501 23502 23503 23504 23505 23506 23507 23508 23509 23510 23511 23512 23513 23514 23515 23516 23517 23518 23519 23520 23521 23522 23523 23524 23525 23526 23527 23528 23529 23530 23531 23532 23533 23534 23535 23536 23537 23538 23539 23540 23541 23542 23543 23544 23545 23546 23547 23548 23549 23550 23551 23552 23553 23554 23555 23556 23557 23558 23559 23560 23561 23562 23563 23564 23565 23566 23567 23568 23569 23570 23571 23572 23573 23574 23575 23576 23577 23578 23579 23580 23581 23582 23583 23584 23585 23586 23587 23588 23589 23590 23591 23592 23593 23594 23595 23596 23597 23598 23599 23600 23601 23602 23603 23604 23605 23606 23607 23608 23609 23610 23611 23612 23613 23614 23615 23616 23617 23618 23619 23620 23621 23622 23623 23624 23625 23626 23627 23628 23629 23630 23631 23632 23633 23634 23635 23636 23637 23638 23639 23640 23641 23642 23643 23644 23645 23646 23647 23648 23649 23650 23651 23652 23653 23654 23655 23656 23657 23658 23659 23660 23661 23662 23663 23664 23665 23666 23667 23668 23669 23670 23671 23672 23673 23674 23675 23676 23677 23678 23679 23680 23681 23682 23683 23684 23685 23686 23687 23688 23689 23690 23691 23692 23693 23694 23695 23696 23697 23698 23699 23700 23701 23702 23703 23704 23705 23706 23707 23708 23709 23710 23711 23712 23713 23714 23715 23716 23717 23718 23719 23720 23721 23722 23723 23724 23725 23726 23727 23728 23729 23730 23731 23732 23733 23734 23735 23736 23737 23738 23739 23740 23741 23742 23743 23744 23745 23746 23747 23748 23749 23750 23751 23752 23753 23754 23755 23756 23757 23758 23759 23760 23761 23762 23763 23764 23765 23766 23767 23768 23769 23770 23771 23772 23773 23774 23775 23776 23777 23778 23779 23780 23781 23782 23783 23784 23785 23786 23787 23788 23789 23790 23791 23792 23793 23794 23795 23796 23797 23798 23799 23800 23801 23802 23803 23804 23805 23806 23807 23808 23809 23810 23811 23812 23813 23814 23815 23816 23817 23818 23819 23820 23821 23822 23823 23824 23825 23826 23827 23828 23829 23830 23831 23832 23833 23834 23835 23836 23837 23838 23839 23840 23841 23842 23843 23844 23845 23846 23847 23848 23849 23850 23851 23852 23853 23854 23855 23856 23857 23858 23859 23860 23861 23862 23863 23864 23865 23866 23867 23868 23869 23870 23871 23872 23873 23874 23875 23876 23877 23878 23879 23880 23881 23882 23883 23884 23885 23886 23887 23888 23889 23890 23891 23892 23893 23894 23895 23896 23897 23898 23899 23900 23901 23902 23903 23904 23905 23906 23907 23908 23909 23910 23911 23912 23913 23914 23915 23916 23917 23918 23919 23920 23921 23922 23923 23924 23925 23926 23927 23928 23929 23930 23931 23932 23933 23934 23935 23936 23937 23938 23939 23940 23941 23942 23943 23944 23945 23946 23947 23948 23949 23950 23951 23952 23953 23954 23955 23956 23957 23958 23959 23960 23961 23962 23963 23964 23965 23966 23967 23968 23969 23970 23971 23972 23973 23974 23975 23976 23977 23978 23979 23980 23981 23982 23983 23984 23985 23986 23987 23988 23989 23990 23991 23992 23993 23994 23995 23996 23997 23998 23999 24000 24001 24002 24003 24004 24005 24006 24007 24008 24009 24010 24011 24012 24013 24014 24015 24016 24017 24018 24019 24020 24021 24022 24023 24024 24025 24026 24027 24028 24029 24030 24031 24032 24033 24034 24035 24036 24037 24038 24039 24040 24041 24042 24043 24044 24045 24046 24047 24048 24049 24050 24051 24052 24053 24054 24055 24056 24057 24058 24059 24060 24061 24062 24063 24064 24065 24066 24067 24068 24069 24070 24071 24072 24073 24074 24075 24076 24077 24078 24079 24080 24081 24082 24083 24084 24085 24086 24087 24088 24089 24090 24091 24092 24093 24094 24095 24096 24097 24098 24099 24100 24101 24102 24103 24104 24105 24106 24107 24108 24109 24110 24111 24112 24113 24114 24115 24116 24117 24118 24119 24120 24121 24122 24123 24124 24125 24126 24127 24128 24129 24130 24131 24132 24133 24134 24135 24136 24137 24138 24139 24140 24141 24142 24143 24144 24145 24146 24147 24148 24149 24150 24151 24152 24153 24154 24155 24156 24157 24158 24159 24160 24161 24162 24163 24164 24165 24166 24167 24168 24169 24170 24171 24172 24173 24174 24175 24176 24177 24178 24179 24180 24181 24182 24183 24184 24185 24186 24187 24188 24189 24190 24191 24192 24193 24194 24195 24196 24197 24198 24199 24200 24201 24202 24203 24204 24205 24206 24207 24208 24209 24210 24211 24212 24213 24214 24215 24216 24217 24218 24219 24220 24221 24222 24223 24224 24225 24226 24227 24228 24229 24230 24231 24232 24233 24234 24235 24236 24237 24238 24239 24240 24241 24242 24243 24244 24245 24246 24247 24248 24249 24250 24251 24252 24253 24254 24255 24256 24257 24258 24259 24260 24261 24262 24263 24264 24265 24266 24267 24268 24269 24270 24271 24272 24273 24274 24275 24276 24277 24278 24279 24280 24281 24282 24283 24284 24285 24286 24287 24288 24289 24290 24291 24292 24293 24294 24295 24296 24297 24298 24299 24300 24301 24302 24303 24304 24305 24306 24307 24308 24309 24310 24311 24312 24313 24314 24315 24316 24317 24318 24319 24320 24321 24322 24323 24324 24325 24326 24327 24328 24329 24330 24331 24332 24333 24334 24335 24336 24337 24338 24339 24340 24341 24342 24343 24344 24345 24346 24347 24348 24349 24350 24351 24352 24353 24354 24355 24356 24357 24358 24359 24360 24361 24362 24363 24364 24365 24366 24367 24368 24369 24370 24371 24372 24373 24374 24375 24376 24377 24378 24379 24380 24381 24382 24383 24384 24385 24386 24387 24388 24389 24390 24391 24392 24393 24394 24395 24396 24397 24398 24399 24400 24401 24402 24403 24404 24405 24406 24407 24408 24409 24410 24411 24412 24413 24414 24415 24416 24417 24418 24419 24420 24421 24422 24423 24424 24425 24426 24427 24428 24429 24430 24431 24432 24433 24434 24435 24436 24437 24438 24439 24440 24441 24442 24443 24444 24445 24446 24447 24448 24449 24450 24451 24452 24453 24454 24455 24456 24457 24458 24459 24460 24461 24462 24463 24464 24465 24466 24467 24468 24469 24470 24471 24472 24473 24474 24475 24476 24477 24478 24479 24480 24481 24482 24483 24484 24485 24486 24487 24488 24489 24490 24491 24492 24493 24494 24495 24496 24497 24498 24499 24500 24501 24502 24503 24504 24505 24506 24507 24508 24509 24510 24511 24512 24513 24514 24515 24516 24517 24518 24519 24520 24521 24522 24523 24524 24525 24526 24527 24528 24529 24530 24531 24532 24533 24534 24535 24536 24537 24538 24539 24540 24541 24542 24543 24544 24545 24546 24547 24548 24549 24550 24551 24552 24553 24554 24555 24556 24557 24558 24559 24560 24561 24562 24563 24564 24565 24566 24567 24568 24569 24570 24571 24572 24573 24574 24575 24576 24577 24578 24579 24580 24581 24582 24583 24584 24585 24586 24587 24588 24589 24590 24591 24592 24593 24594 24595 24596 24597 24598 24599 24600 24601 24602 24603 24604 24605 24606 24607 24608 24609 24610 24611 24612 24613 24614 24615 24616 24617 24618 24619 24620 24621 24622 24623 24624 24625 24626 24627 24628 24629 24630 24631 24632 24633 24634 24635 24636 24637 24638 24639 24640 24641 24642 24643 24644 24645 24646 24647 24648 24649 24650 24651 24652 24653 24654 24655 24656 24657 24658 24659 24660 24661 24662 24663 24664 24665 24666 24667 24668 24669 24670 24671 24672 24673 24674 24675 24676 24677 24678 24679 24680 24681 24682 24683 24684 24685 24686 24687 24688 24689 24690 24691 24692 24693 24694 24695 24696 24697 24698 24699 24700 24701 24702 24703 24704 24705 24706 24707 24708 24709 24710 24711 24712 24713 24714 24715 24716 24717 24718 24719 24720 24721 24722 24723 24724 24725 24726 24727 24728 24729 24730 24731 24732 24733 24734 24735 24736 24737 24738 24739 24740 24741 24742 24743 24744 24745 24746 24747 24748 24749 24750 24751 24752 24753 24754 24755 24756 24757 24758 24759 24760 24761 24762 24763 24764 24765 24766 24767 24768 24769 24770 24771 24772 24773 24774 24775 24776 24777 24778 24779 24780 24781 24782 24783 24784 24785 24786 24787 24788 24789 24790 24791 24792 24793 24794 24795 24796 24797 24798 24799 24800 24801 24802 24803 24804 24805 24806 24807 24808 24809 24810 24811 24812 24813 24814 24815 24816 24817 24818 24819 24820 24821 24822 24823 24824 24825 24826 24827 24828 24829 24830 24831 24832 24833 24834 24835 24836 24837 24838 24839 24840 24841 24842 24843 24844 24845 24846 24847 24848 24849 24850 24851 24852 24853 24854 24855 24856 24857 24858 24859 24860 24861 24862 24863 24864 24865 24866 24867 24868 24869 24870 24871 24872 24873 24874 24875 24876 24877 24878 24879 24880 24881 24882 24883 24884 24885 24886 24887 24888 24889 24890 24891 24892 24893 24894 24895 24896 24897 24898 24899 24900 24901 24902 24903 24904 24905 24906 24907 24908 24909 24910 24911 24912 24913 24914 24915 24916 24917 24918 24919 24920 24921 24922 24923 24924 24925 24926 24927 24928 24929 24930 24931 24932 24933 24934 24935 24936 24937 24938 24939 24940 24941 24942 24943 24944 24945 24946 24947 24948 24949 24950 24951 24952 24953 24954 24955 24956 24957 24958 24959 24960 24961 24962 24963 24964 24965 24966 24967 24968 24969 24970 24971 24972 24973 24974 24975 24976 24977 24978 24979 24980 24981 24982 24983 24984 24985 24986 24987 24988 24989 24990 24991 24992 24993 24994 24995 24996 24997 24998 24999 25000 25001 25002 25003 25004 25005 25006 25007 25008 25009 25010 25011 25012 25013 25014 25015 25016 25017 25018 25019 25020 25021 25022 25023 25024 25025 25026 25027 25028 25029 25030 25031 25032 25033 25034 25035 25036 25037 25038 25039 25040 25041 25042 25043 25044 25045 25046 25047 25048 25049 25050 25051 25052 25053 25054 25055 25056 25057 25058 25059 25060 25061 25062 25063 25064 25065 25066 25067 25068 25069 25070 25071 25072 25073 25074 25075 25076 25077 25078 25079 25080 25081 25082 25083 25084 25085 25086 25087 25088 25089 25090 25091 25092 25093 25094 25095 25096 25097 25098 25099 25100 25101 25102 25103 25104 25105 25106 25107 25108 25109 25110 25111 25112 25113 25114 25115 25116 25117 25118 25119 25120 25121 25122 25123 25124 25125 25126 25127 25128 25129 25130 25131 25132 25133 25134 25135 25136 25137 25138 25139 25140 25141 25142 25143 25144 25145 25146 25147 25148 25149 25150 25151 25152 25153 25154 25155 25156 25157 25158 25159 25160 25161 25162 25163 25164 25165 25166 25167 25168 25169 25170 25171 25172 25173 25174 25175 25176 25177 25178 25179 25180 25181 25182 25183 25184 25185 25186 25187 25188 25189 25190 25191 25192 25193 25194 25195 25196 25197 25198 25199 25200 25201 25202 25203 25204 25205 25206 25207 25208 25209 25210 25211 25212 25213 25214 25215 25216 25217 25218 25219 25220 25221 25222 25223 25224 25225 25226 25227 25228 25229 25230 25231 25232 25233 25234 25235 25236 25237 25238 25239 25240 25241 25242 25243 25244 25245 25246 25247 25248 25249 25250 25251 25252 25253 25254 25255 25256 25257 25258 25259 25260 25261 25262 25263 25264 25265 25266 25267 25268 25269 25270 25271 25272 25273 25274 25275 25276 25277 25278 25279 25280 25281 25282 25283 25284 25285 25286 25287 25288 25289 25290 25291 25292 25293 25294 25295 25296 25297 25298 25299 25300 25301 25302 25303 25304 25305 25306 25307 25308 25309 25310 25311 25312 25313 25314 25315 25316 25317 25318 25319 25320 25321 25322 25323 25324 25325 25326 25327 25328 25329 25330 25331 25332 25333 25334 25335 25336 25337 25338 25339 25340 25341 25342 25343 25344 25345 25346 25347 25348 25349 25350 25351 25352 25353 25354 25355 25356 25357 25358 25359 25360 25361 25362 25363 25364 25365 25366 25367 25368 25369 25370 25371 25372 25373 25374 25375 25376 25377 25378 25379 25380 25381 25382 25383 25384 25385 25386 25387 25388 25389 25390 25391 25392 25393 25394 25395 25396 25397 25398 25399 25400 25401 25402 25403 25404 25405 25406 25407 25408 25409 25410 25411 25412 25413 25414 25415 25416 25417 25418 25419 25420 25421 25422 25423 25424 25425 25426 25427 25428 25429 25430 25431 25432 25433 25434 25435 25436 25437 25438 25439 25440 25441 25442 25443 25444 25445 25446 25447 25448 25449 25450 25451 25452 25453 25454 25455 25456 25457 25458 25459 25460 25461 25462 25463 25464 25465 25466 25467 25468 25469 25470 25471 25472 25473 25474 25475 25476 25477 25478 25479 25480 25481 25482 25483 25484 25485 25486 25487 25488 25489 25490 25491 25492 25493 25494 25495 25496 25497 25498 25499 25500 25501 25502 25503 25504 25505 25506 25507 25508 25509 25510 25511 25512 25513 25514 25515 25516 25517 25518 25519 25520 25521 25522 25523 25524 25525 25526 25527 25528 25529 25530 25531 25532 25533 25534 25535 25536 25537 25538 25539 25540 25541 25542 25543 25544 25545 25546 25547 25548 25549 25550 25551 25552 25553 25554 25555 25556 25557 25558 25559 25560 25561 25562 25563 25564 25565 25566 25567 25568 25569 25570 25571 25572 25573 25574 25575 25576 25577 25578 25579 25580 25581 25582 25583 25584 25585 25586 25587 25588 25589 25590 25591 25592 25593 25594 25595 25596 25597 25598 25599 25600 25601 25602 25603 25604 25605 25606 25607 25608 25609 25610 25611 25612 25613 25614 25615 25616 25617 25618 25619 25620 25621 25622 25623 25624 25625 25626 25627 25628 25629 25630 25631 25632 25633 25634 25635 25636 25637 25638 25639 25640 25641 25642 25643 25644 25645 25646 25647 25648 25649 25650 25651 25652 25653 25654 25655 25656 25657 25658 25659 25660 25661 25662 25663 25664 25665 25666 25667 25668 25669 25670 25671 25672 25673 25674 25675 25676 25677 25678 25679 25680 25681 25682 25683 25684 25685 25686 25687 25688 25689 25690 25691 25692 25693 25694 25695 25696 25697 25698 25699 25700 25701 25702 25703 25704 25705 25706 25707 25708 25709 25710 25711 25712 25713 25714 25715 25716 25717 25718 25719 25720 25721 25722 25723 25724 25725 25726 25727 25728 25729 25730 25731 25732 25733 25734 25735 25736 25737 25738 25739 25740 25741 25742 25743 25744 25745 25746 25747 25748 25749 25750 25751 25752 25753 25754 25755 25756 25757 25758 25759 25760 25761 25762 25763 25764 25765 25766 25767 25768 25769 25770 25771 25772 25773 25774 25775 25776 25777 25778 25779 25780 25781 25782 25783 25784 25785 25786 25787 25788 25789 25790 25791 25792 25793 25794 25795 25796 25797 25798 25799 25800 25801 25802 25803 25804 25805 25806 25807 25808 25809 25810 25811 25812 25813 25814 25815 25816 25817 25818 25819 25820 25821 25822 25823 25824 25825 25826 25827 25828 25829 25830 25831 25832 25833 25834 25835 25836 25837 25838 25839 25840 25841 25842 25843 25844 25845 25846 25847 25848 25849 25850 25851 25852 25853 25854 25855 25856 25857 25858 25859 25860 25861 25862 25863 25864 25865 25866 25867 25868 25869 25870 25871 25872 25873 25874 25875 25876 25877 25878 25879 25880 25881 25882 25883 25884 25885 25886 25887 25888 25889 25890 25891 25892 25893 25894 25895 25896 25897 25898 25899 25900 25901 25902 25903 25904 25905 25906 25907 25908 25909 25910 25911 25912 25913 25914 25915 25916 25917 25918 25919 25920 25921 25922 25923 25924 25925 25926 25927 25928 25929 25930 25931 25932 25933 25934 25935 25936 25937 25938 25939 25940 25941 25942 25943 25944 25945 25946 25947 25948 25949 25950 25951 25952 25953 25954 25955 25956 25957 25958 25959 25960 25961 25962 25963 25964 25965 25966 25967 25968 25969 25970 25971 25972 25973 25974 25975 25976 25977 25978 25979 25980 25981 25982 25983 25984 25985 25986 25987 25988 25989 25990 25991 25992 25993 25994 25995 25996 25997 25998 25999 26000 26001 26002 26003 26004 26005 26006 26007 26008 26009 26010 26011 26012 26013 26014 26015 26016 26017 26018 26019 26020 26021 26022 26023 26024 26025 26026 26027 26028 26029 26030 26031 26032 26033 26034 26035 26036 26037 26038 26039 26040 26041 26042 26043 26044 26045 26046 26047 26048 26049 26050 26051 26052 26053 26054 26055 26056 26057 26058 26059 26060 26061 26062 26063 26064 26065 26066 26067 26068 26069 26070 26071 26072 26073 26074 26075 26076 26077 26078 26079 26080 26081 26082 26083 26084 26085 26086 26087 26088 26089 26090 26091 26092 26093 26094 26095 26096 26097 26098 26099 26100 26101 26102 26103 26104 26105 26106 26107 26108 26109 26110 26111 26112 26113 26114 26115 26116 26117 26118 26119 26120 26121 26122 26123 26124 26125 26126 26127 26128 26129 26130 26131 26132 26133 26134 26135 26136 26137 26138 26139 26140 26141 26142 26143 26144 26145 26146 26147 26148 26149 26150 26151 26152 26153 26154 26155 26156 26157 26158 26159 26160 26161 26162 26163 26164 26165 26166 26167 26168 26169 26170 26171 26172 26173 26174 26175 26176 26177 26178 26179 26180 26181 26182 26183 26184 26185 26186 26187 26188 26189 26190 26191 26192 26193 26194 26195 26196 26197 26198 26199 26200 26201 26202 26203 26204 26205 26206 26207 26208 26209 26210 26211 26212 26213 26214 26215 26216 26217 26218 26219 26220 26221 26222 26223 26224 26225 26226 26227 26228 26229 26230 26231 26232 26233 26234 26235 26236 26237 26238 26239 26240 26241 26242 26243 26244 26245 26246 26247 26248 26249 26250 26251 26252 26253 26254 26255 26256 26257 26258 26259 26260 26261 26262 26263 26264 26265 26266 26267 26268 26269 26270 26271 26272 26273 26274 26275 26276 26277 26278 26279 26280 26281 26282 26283 26284 26285 26286 26287 26288 26289 26290 26291 26292 26293 26294 26295 26296 26297 26298 26299 26300 26301 26302 26303 26304 26305 26306 26307 26308 26309 26310 26311 26312 26313 26314 26315 26316 26317 26318 26319 26320 26321 26322 26323 26324 26325 26326 26327 26328 26329 26330 26331 26332 26333 26334 26335 26336 26337 26338 26339 26340 26341 26342 26343 26344 26345 26346 26347 26348 26349 26350 26351 26352 26353 26354 26355 26356 26357 26358 26359 26360 26361 26362 26363 26364 26365 26366 26367 26368 26369 26370 26371 26372 26373 26374 26375 26376 26377 26378 26379 26380 26381 26382 26383 26384 26385 26386 26387 26388 26389 26390 26391 26392 26393 26394 26395 26396 26397 26398 26399 26400 26401 26402 26403 26404 26405 26406 26407 26408 26409 26410 26411 26412 26413 26414 26415 26416 26417 26418 26419 26420 26421 26422 26423 26424 26425 26426 26427 26428 26429 26430 26431 26432 26433 26434 26435 26436 26437 26438 26439 26440 26441 26442 26443 26444 26445 26446 26447 26448 26449 26450 26451 26452 26453 26454 26455 26456 26457 26458 26459 26460 26461 26462 26463 26464 26465 26466 26467 26468 26469 26470 26471 26472 26473 26474 26475 26476 26477 26478 26479 26480 26481 26482 26483 26484 26485 26486 26487 26488 26489 26490 26491 26492 26493 26494 26495 26496 26497 26498 26499 26500 26501 26502 26503 26504 26505 26506 26507 26508 26509 26510 26511 26512 26513 26514 26515 26516 26517 26518 26519 26520 26521 26522 26523 26524 26525 26526 26527 26528 26529 26530 26531 26532 26533 26534 26535 26536 26537 26538 26539 26540 26541 26542 26543 26544 26545 26546 26547 26548 26549 26550 26551 26552 26553 26554 26555 26556 26557 26558 26559 26560 26561 26562 26563 26564 26565 26566 26567 26568 26569 26570 26571 26572 26573 26574 26575 26576 26577 26578 26579 26580 26581 26582 26583 26584 26585 26586 26587 26588 26589 26590 26591 26592 26593 26594 26595 26596 26597 26598 26599 26600 26601 26602 26603 26604 26605 26606 26607 26608 26609 26610 26611 26612 26613 26614 26615 26616 26617 26618 26619 26620 26621 26622 26623 26624 26625 26626 26627 26628 26629 26630 26631 26632 26633 26634 26635 26636 26637 26638 26639 26640 26641 26642 26643 26644 26645 26646 26647 26648 26649 26650 26651 26652 26653 26654 26655 26656 26657 26658 26659 26660 26661 26662 26663 26664 26665 26666 26667 26668 26669 26670 26671 26672 26673 26674 26675 26676 26677 26678 26679 26680 26681 26682 26683 26684 26685 26686 26687 26688 26689 26690 26691 26692 26693 26694 26695 26696 26697 26698 26699 26700 26701 26702 26703 26704 26705 26706 26707 26708 26709 26710 26711 26712 26713 26714 26715 26716 26717 26718 26719 26720 26721 26722 26723 26724 26725 26726 26727 26728 26729 26730 26731 26732 26733 26734 26735 26736 26737 26738 26739 26740 26741 26742 26743 26744 26745 26746 26747 26748 26749 26750 26751 26752 26753 26754 26755 26756 26757 26758 26759 26760 26761 26762 26763 26764 26765 26766 26767 26768 26769 26770 26771 26772 26773 26774 26775 26776 26777 26778 26779 26780 26781 26782 26783 26784 26785 26786 26787 26788 26789 26790 26791 26792 26793 26794 26795 26796 26797 26798 26799 26800 26801 26802 26803 26804 26805 26806 26807 26808 26809 26810 26811 26812 26813 26814 26815 26816 26817 26818 26819 26820 26821 26822 26823 26824 26825 26826 26827 26828 26829 26830 26831 26832 26833 26834 26835 26836 26837 26838 26839 26840 26841 26842 26843 26844 26845 26846 26847 26848 26849 26850 26851 26852 26853 26854 26855 26856 26857 26858 26859 26860 26861 26862 26863 26864 26865 26866 26867 26868 26869 26870 26871 26872 26873 26874 26875 26876 26877 26878 26879 26880 26881 26882 26883 26884 26885 26886 26887 26888 26889 26890 26891 26892 26893 26894 26895 26896 26897 26898 26899 26900 26901 26902 26903 26904 26905 26906 26907 26908 26909 26910 26911 26912 26913 26914 26915 26916 26917 26918 26919 26920 26921 26922 26923 26924 26925 26926 26927 26928 26929 26930 26931 26932 26933 26934 26935 26936 26937 26938 26939 26940 26941 26942 26943 26944 26945 26946 26947 26948 26949 26950 26951 26952 26953 26954 26955 26956 26957 26958 26959 26960 26961 26962 26963 26964 26965 26966 26967 26968 26969 26970 26971 26972 26973 26974 26975 26976 26977 26978 26979 26980 26981 26982 26983 26984 26985 26986 26987 26988 26989 26990 26991 26992 26993 26994 26995 26996 26997 26998 26999 27000 27001 27002 27003 27004 27005 27006 27007 27008 27009 27010 27011 27012 27013 27014 27015 27016 27017 27018 27019 27020 27021 27022 27023 27024 27025 27026 27027 27028 27029 27030 27031 27032 27033 27034 27035 27036 27037 27038 27039 27040 27041 27042 27043 27044 27045 27046 27047 27048 27049 27050 27051 27052 27053 27054 27055 27056 27057 27058 27059 27060 27061 27062 27063 27064 27065 27066 27067 27068 27069 27070 27071 27072 27073 27074 27075 27076 27077 27078 27079 27080 27081 27082 27083 27084 27085 27086 27087 27088 27089 27090 27091 27092 27093 27094 27095 27096 27097 27098 27099 27100 27101 27102 27103 27104 27105 27106 27107 27108 27109 27110 27111 27112 27113 27114 27115 27116 27117 27118 27119 27120 27121 27122 27123 27124 27125 27126 27127 27128 27129 27130 27131 27132 27133 27134 27135 27136 27137 27138 27139 27140 27141 27142 27143 27144 27145 27146 27147 27148 27149 27150 27151 27152 27153 27154 27155 27156 27157 27158 27159 27160 27161 27162 27163 27164 27165 27166 27167 27168 27169 27170 27171 27172 27173 27174 27175 27176 27177 27178 27179 27180 27181 27182 27183 27184 27185 27186 27187 27188 27189 27190 27191 27192 27193 27194 27195 27196 27197 27198 27199 27200 27201 27202 27203 27204 27205 27206 27207 27208 27209 27210 27211 27212 27213 27214 27215 27216 27217 27218 27219 27220 27221 27222 27223 27224 27225 27226 27227 27228 27229 27230 27231 27232 27233 27234 27235 27236 27237 27238 27239 27240 27241 27242 27243 27244 27245 27246 27247 27248 27249 27250 27251 27252 27253 27254 27255 27256 27257 27258 27259 27260 27261 27262 27263 27264 27265 27266 27267 27268 27269 27270 27271 27272 27273 27274 27275 27276 27277 27278 27279 27280 27281 27282 27283 27284 27285 27286 27287 27288 27289 27290 27291 27292 27293 27294 27295 27296 27297 27298 27299 27300 27301 27302 27303 27304 27305 27306 27307 27308 27309 27310 27311 27312 27313 27314 27315 27316 27317 27318 27319 27320 27321 27322 27323 27324 27325 27326 27327 27328 27329 27330 27331 27332 27333 27334 27335 27336 27337 27338 27339 27340 27341 27342 27343 27344 27345 27346 27347 27348 27349 27350 27351 27352 27353 27354 27355 27356 27357 27358 27359 27360 27361 27362 27363 27364 27365 27366 27367 27368 27369 27370 27371 27372 27373 27374 27375 27376 27377 27378 27379 27380 27381 27382 27383 27384 27385 27386 27387 27388 27389 27390 27391 27392 27393 27394 27395 27396 27397 27398 27399 27400 27401 27402 27403 27404 27405 27406 27407 27408 27409 27410 27411 27412 27413 27414 27415 27416 27417 27418 27419 27420 27421 27422 27423 27424 27425 27426 27427 27428 27429 27430 27431 27432 27433 27434 27435 27436 27437 27438 27439 27440 27441 27442 27443 27444 27445 27446 27447 27448 27449 27450 27451 27452 27453 27454 27455 27456 27457 27458 27459 27460 27461 27462 27463 27464 27465 27466 27467 27468 27469 27470 27471 27472 27473 27474 27475 27476 27477 27478 27479 27480 27481 27482 27483 27484 27485 27486 27487 27488 27489 27490 27491 27492 27493 27494 27495 27496 27497 27498 27499 27500 27501 27502 27503 27504 27505 27506 27507 27508 27509 27510 27511 27512 27513 27514 27515 27516 27517 27518 27519 27520 27521 27522 27523 27524 27525 27526 27527 27528 27529 27530 27531 27532 27533 27534 27535 27536 27537 27538 27539 27540 27541 27542 27543 27544 27545 27546 27547 27548 27549 27550 27551 27552 27553 27554 27555 27556 27557 27558 27559 27560 27561 27562 27563 27564 27565 27566 27567 27568 27569 27570 27571 27572 27573 27574 27575 27576 27577 27578 27579 27580 27581 27582 27583 27584 27585 27586 27587 27588 27589 27590 27591 27592 27593 27594 27595 27596 27597 27598 27599 27600 27601 27602 27603 27604 27605 27606 27607 27608 27609 27610 27611 27612 27613 27614 27615 27616 27617 27618 27619 27620 27621 27622 27623 27624 27625 27626 27627 27628 27629 27630 27631 27632 27633 27634 27635 27636 27637 27638 27639 27640 27641 27642 27643 27644 27645 27646 27647 27648 27649 27650 27651 27652 27653 27654 27655 27656 27657 27658 27659 27660 27661 27662 27663 27664 27665 27666 27667 27668 27669 27670 27671 27672 27673 27674 27675 27676 27677 27678 27679 27680 27681 27682 27683 27684 27685 27686 27687 27688 27689 27690 27691 27692 27693 27694 27695 27696 27697 27698 27699 27700 27701 27702 27703 27704 27705 27706 27707 27708 27709 27710 27711 27712 27713 27714 27715 27716 27717 27718 27719 27720 27721 27722 27723 27724 27725 27726 27727 27728 27729 27730 27731 27732 27733 27734 27735 27736 27737 27738 27739 27740 27741 27742 27743 27744 27745 27746 27747 27748 27749 27750 27751 27752 27753 27754 27755 27756 27757 27758 27759 27760 27761 27762 27763 27764 27765 27766 27767 27768 27769 27770 27771 27772 27773 27774 27775 27776 27777 27778 27779 27780 27781 27782 27783 27784 27785 27786 27787 27788 27789 27790 27791 27792 27793 27794 27795 27796 27797 27798 27799 27800 27801 27802 27803 27804 27805 27806 27807 27808 27809 27810 27811 27812 27813 27814 27815 27816 27817 27818 27819 27820 27821 27822 27823 27824 27825 27826 27827 27828 27829 27830 27831 27832 27833 27834 27835 27836 27837 27838 27839 27840 27841 27842 27843 27844 27845 27846 27847 27848 27849 27850 27851 27852 27853 27854 27855 27856 27857 27858 27859 27860 27861 27862 27863 27864 27865 27866 27867 27868 27869 27870 27871 27872 27873 27874 27875 27876 27877 27878 27879 27880 27881 27882 27883 27884 27885 27886 27887 27888 27889 27890 27891 27892 27893 27894 27895 27896 27897 27898 27899 27900 27901 27902 27903 27904 27905 27906 27907 27908 27909 27910 27911 27912 27913 27914 27915 27916 27917 27918 27919 27920 27921 27922 27923 27924 27925 27926 27927 27928 27929 27930 27931 27932 27933 27934 27935 27936 27937 27938 27939 27940 27941 27942 27943 27944 27945 27946 27947 27948 27949 27950 27951 27952 27953 27954 27955 27956 27957 27958 27959 27960 27961 27962 27963 27964 27965 27966 27967 27968 27969 27970 27971 27972 27973 27974 27975 27976 27977 27978 27979 27980 27981 27982 27983 27984 27985 27986 27987 27988 27989 27990 27991 27992 27993 27994 27995 27996 27997 27998 27999 28000 28001 28002 28003 28004 28005 28006 28007 28008 28009 28010 28011 28012 28013 28014 28015 28016 28017 28018 28019 28020 28021 28022 28023 28024 28025 28026 28027 28028 28029 28030 28031 28032 28033 28034 28035 28036 28037 28038 28039 28040 28041 28042 28043 28044 28045 28046 28047 28048 28049 28050 28051 28052 28053 28054 28055 28056 28057 28058 28059 28060 28061 28062 28063 28064 28065 28066 28067 28068 28069 28070 28071 28072 28073 28074 28075 28076 28077 28078 28079 28080 28081 28082 28083 28084 28085 28086 28087 28088 28089 28090 28091 28092 28093 28094 28095 28096 28097 28098 28099 28100 28101 28102 28103 28104 28105 28106 28107 28108 28109 28110 28111 28112 28113 28114 28115 28116 28117 28118 28119 28120 28121 28122 28123 28124 28125 28126 28127 28128 28129 28130 28131 28132 28133 28134 28135 28136 28137 28138 28139 28140 28141 28142 28143 28144 28145 28146 28147 28148 28149 28150 28151 28152 28153 28154 28155 28156 28157 28158 28159 28160 28161 28162 28163 28164 28165 28166 28167 28168 28169 28170 28171 28172 28173 28174 28175 28176 28177 28178 28179 28180 28181 28182 28183 28184 28185 28186 28187 28188 28189 28190 28191 28192 28193 28194 28195 28196 28197 28198 28199 28200 28201 28202 28203 28204 28205 28206 28207 28208 28209 28210 28211 28212 28213 28214 28215 28216 28217 28218 28219 28220 28221 28222 28223 28224 28225 28226 28227 28228 28229 28230 28231 28232 28233 28234 28235 28236 28237 28238 28239 28240 28241 28242 28243 28244 28245 28246 28247 28248 28249 28250 28251 28252 28253 28254 28255 28256 28257 28258 28259 28260 28261 28262 28263 28264 28265 28266 28267 28268 28269 28270 28271 28272 28273 28274 28275 28276 28277 28278 28279 28280 28281 28282 28283 28284 28285 28286 28287 28288 28289 28290 28291 28292 28293 28294 28295 28296 28297 28298 28299 28300 28301 28302 28303 28304 28305 28306 28307 28308 28309 28310 28311 28312 28313 28314 28315 28316 28317 28318 28319 28320 28321 28322 28323 28324 28325 28326 28327 28328 28329 28330 28331 28332 28333 28334 28335 28336 28337 28338 28339 28340 28341 28342 28343 28344 28345 28346 28347 28348 28349 28350 28351 28352 28353 28354 28355 28356 28357 28358 28359 28360 28361 28362 28363 28364 28365 28366 28367 28368 28369 28370 28371 28372 28373 28374 28375 28376 28377 28378 28379 28380 28381 28382 28383 28384 28385 28386 28387 28388 28389 28390 28391 28392 28393 28394 28395 28396 28397 28398 28399 28400 28401 28402 28403 28404 28405 28406 28407 28408 28409 28410 28411 28412 28413 28414 28415 28416 28417 28418 28419 28420 28421 28422 28423 28424 28425 28426 28427 28428 28429 28430 28431 28432 28433 28434 28435 28436 28437 28438 28439 28440 28441 28442 28443 28444 28445 28446 28447 28448 28449 28450 28451 28452 28453 28454 28455 28456 28457 28458 28459 28460 28461 28462 28463 28464 28465 28466 28467 28468 28469 28470 28471 28472 28473 28474 28475 28476 28477 28478 28479 28480 28481 28482 28483 28484 28485 28486 28487 28488 28489 28490 28491 28492 28493 28494 28495 28496 28497 28498 28499 28500 28501 28502 28503 28504 28505 28506 28507 28508 28509 28510 28511 28512 28513 28514 28515 28516 28517 28518 28519 28520 28521 28522 28523 28524 28525 28526 28527 28528 28529 28530 28531 28532 28533 28534 28535 28536 28537 28538 28539 28540 28541 28542 28543 28544 28545 28546 28547 28548 28549 28550 28551 28552 28553 28554 28555 28556 28557 28558 28559 28560 28561 28562 28563 28564 28565 28566 28567 28568 28569 28570 28571 28572 28573 28574 28575 28576 28577 28578 28579 28580 28581 28582 28583 28584 28585 28586 28587 28588 28589 28590 28591 28592 28593 28594 28595 28596 28597 28598 28599 28600 28601 28602 28603 28604 28605 28606 28607 28608 28609 28610 28611 28612 28613 28614 28615 28616 28617 28618 28619 28620 28621 28622 28623 28624 28625 28626 28627 28628 28629 28630 28631 28632 28633 28634 28635 28636 28637 28638 28639 28640 28641 28642 28643 28644 28645 28646 28647 28648 28649 28650 28651 28652 28653 28654 28655 28656 28657 28658 28659 28660 28661 28662 28663 28664 28665 28666 28667 28668 28669 28670 28671 28672 28673 28674 28675 28676 28677 28678 28679 28680 28681 28682 28683 28684 28685 28686 28687 28688 28689 28690 28691 28692 28693 28694 28695 28696 28697 28698 28699 28700 28701 28702 28703 28704 28705 28706 28707 28708 28709 28710 28711 28712 28713 28714 28715 28716 28717 28718 28719 28720 28721 28722 28723 28724 28725 28726 28727 28728 28729 28730 28731 28732 28733 28734 28735 28736 28737 28738 28739 28740 28741 28742 28743 28744 28745 28746 28747 28748 28749 28750 28751 28752 28753 28754 28755 28756 28757 28758 28759 28760 28761 28762 28763 28764 28765 28766 28767 28768 28769 28770 28771 28772 28773 28774 28775 28776 28777 28778 28779 28780 28781 28782 28783 28784 28785 28786 28787 28788 28789 28790 28791 28792 28793 28794 28795 28796 28797 28798 28799 28800 28801 28802 28803 28804 28805 28806 28807 28808 28809 28810 28811 28812 28813 28814 28815 28816 28817 28818 28819 28820 28821 28822 28823 28824 28825 28826 28827 28828 28829 28830 28831 28832 28833 28834 28835 28836 28837 28838 28839 28840 28841 28842 28843 28844 28845 28846 28847 28848 28849 28850 28851 28852 28853 28854 28855 28856 28857 28858 28859 28860 28861 28862 28863 28864 28865 28866 28867 28868 28869 28870 28871 28872 28873 28874 28875 28876 28877 28878 28879 28880 28881 28882 28883 28884 28885 28886 28887 28888 28889 28890 28891 28892 28893 28894 28895 28896 28897 28898 28899 28900 28901 28902 28903 28904 28905 28906 28907 28908 28909 28910 28911 28912 28913 28914 28915 28916 28917 28918 28919 28920 28921 28922 28923 28924 28925 28926 28927 28928 28929 28930 28931 28932 28933 28934 28935 28936 28937 28938 28939 28940 28941 28942 28943 28944 28945 28946 28947 28948 28949 28950 28951 28952 28953 28954 28955 28956 28957 28958 28959 28960 28961 28962 28963 28964 28965 28966 28967 28968 28969 28970 28971 28972 28973 28974 28975 28976 28977 28978 28979 28980 28981 28982 28983 28984 28985 28986 28987 28988 28989 28990 28991 28992 28993 28994 28995 28996 28997 28998 28999 29000 29001 29002 29003 29004 29005 29006 29007 29008 29009 29010 29011 29012 29013 29014 29015 29016 29017 29018 29019 29020 29021 29022 29023 29024 29025 29026 29027 29028 29029 29030 29031 29032 29033 29034 29035 29036 29037 29038 29039 29040 29041 29042 29043 29044 29045 29046 29047 29048 29049 29050 29051 29052 29053 29054 29055 29056 29057 29058 29059 29060 29061 29062 29063 29064 29065 29066 29067 29068 29069 29070 29071 29072 29073 29074 29075 29076 29077 29078 29079 29080 29081 29082 29083 29084 29085 29086 29087 29088 29089 29090 29091 29092 29093 29094 29095 29096 29097 29098 29099 29100 29101 29102 29103 29104 29105 29106 29107 29108 29109 29110 29111 29112 29113 29114 29115 29116 29117 29118 29119 29120 29121 29122 29123 29124 29125 29126 29127 29128 29129 29130 29131 29132 29133 29134 29135 29136 29137 29138 29139 29140 29141 29142 29143 29144 29145 29146 29147 29148 29149 29150 29151 29152 29153 29154 29155 29156 29157 29158 29159 29160 29161 29162 29163 29164 29165 29166 29167 29168 29169 29170 29171 29172 29173 29174 29175 29176 29177 29178 29179 29180 29181 29182 29183 29184 29185 29186 29187 29188 29189 29190 29191 29192 29193 29194 29195 29196 29197 29198 29199 29200 29201 29202 29203 29204 29205 29206 29207 29208 29209 29210 29211 29212 29213 29214 29215 29216 29217 29218 29219 29220 29221 29222 29223 29224 29225 29226 29227 29228 29229 29230 29231 29232 29233 29234 29235 29236 29237 29238 29239 29240 29241 29242 29243 29244 29245 29246 29247 29248 29249 29250 29251 29252 29253 29254 29255 29256 29257 29258 29259 29260 29261 29262 29263 29264 29265 29266 29267 29268 29269 29270 29271 29272 29273 29274 29275 29276 29277 29278 29279 29280 29281 29282 29283 29284 29285 29286 29287 29288 29289 29290 29291 29292 29293 29294 29295 29296 29297 29298 29299 29300 29301 29302 29303 29304 29305 29306 29307 29308 29309 29310 29311 29312 29313 29314 29315 29316 29317 29318 29319 29320 29321 29322 29323 29324 29325 29326 29327 29328 29329 29330 29331 29332 29333 29334 29335 29336 29337 29338 29339 29340 29341 29342 29343 29344 29345 29346 29347 29348 29349 29350 29351 29352 29353 29354 29355 29356 29357 29358 29359 29360 29361 29362 29363 29364 29365 29366 29367 29368 29369 29370 29371 29372 29373 29374 29375 29376 29377 29378 29379 29380 29381 29382 29383 29384 29385 29386 29387 29388 29389 29390 29391 29392 29393 29394 29395 29396 29397 29398 29399 29400 29401 29402 29403 29404 29405 29406 29407 29408 29409 29410 29411 29412 29413 29414 29415 29416 29417 29418 29419 29420 29421 29422 29423 29424 29425 29426 29427 29428 29429 29430 29431 29432 29433 29434 29435 29436 29437 29438 29439 29440 29441 29442 29443 29444 29445 29446 29447 29448 29449 29450 29451 29452 29453 29454 29455 29456 29457 29458 29459 29460 29461 29462 29463 29464 29465 29466 29467 29468 29469 29470 29471 29472 29473 29474 29475 29476 29477 29478 29479 29480 29481 29482 29483 29484 29485 29486 29487 29488 29489 29490 29491 29492 29493 29494 29495 29496 29497 29498 29499 29500 29501 29502 29503 29504 29505 29506 29507 29508 29509 29510 29511 29512 29513 29514 29515 29516 29517 29518 29519 29520 29521 29522 29523 29524 29525 29526 29527 29528 29529 29530 29531 29532 29533 29534 29535 29536 29537 29538 29539 29540 29541 29542 29543 29544 29545 29546 29547 29548 29549 29550 29551 29552 29553 29554 29555 29556 29557 29558 29559 29560 29561 29562 29563 29564 29565 29566 29567 29568 29569 29570 29571 29572 29573 29574 29575 29576 29577 29578 29579 29580 29581 29582 29583 29584 29585 29586 29587 29588 29589 29590 29591 29592 29593 29594 29595 29596 29597 29598 29599 29600 29601 29602 29603 29604 29605 29606 29607 29608 29609 29610 29611 29612 29613 29614 29615 29616 29617 29618 29619 29620 29621 29622 29623 29624 29625 29626 29627 29628 29629 29630 29631 29632 29633 29634 29635 29636 29637 29638 29639 29640 29641 29642 29643 29644 29645 29646 29647 29648 29649 29650 29651 29652 29653 29654 29655 29656 29657 29658 29659 29660 29661 29662 29663 29664 29665 29666 29667 29668 29669 29670 29671 29672 29673 29674 29675 29676 29677 29678 29679 29680 29681 29682 29683 29684 29685 29686 29687 29688 29689 29690 29691 29692 29693 29694 29695 29696 29697 29698 29699 29700 29701 29702 29703 29704 29705 29706 29707 29708 29709 29710 29711 29712 29713 29714 29715 29716 29717 29718 29719 29720 29721 29722 29723 29724 29725 29726 29727 29728 29729 29730 29731 29732 29733 29734 29735 29736 29737 29738 29739 29740 29741 29742 29743 29744 29745 29746 29747 29748 29749 29750 29751 29752 29753 29754 29755 29756 29757 29758 29759 29760 29761 29762 29763 29764 29765 29766 29767 29768 29769 29770 29771 29772 29773 29774 29775 29776 29777 29778 29779 29780 29781 29782 29783 29784 29785 29786 29787 29788 29789 29790 29791 29792 29793 29794 29795 29796 29797 29798 29799 29800 29801 29802 29803 29804 29805 29806 29807 29808 29809 29810 29811 29812 29813 29814 29815 29816 29817 29818 29819 29820 29821 29822 29823 29824 29825 29826 29827 29828 29829 29830 29831 29832 29833 29834 29835 29836 29837 29838 29839 29840 29841 29842 29843 29844 29845 29846 29847 29848 29849 29850 29851 29852 29853 29854 29855 29856 29857 29858 29859 29860 29861 29862 29863 29864 29865 29866 29867 29868 29869 29870 29871 29872 29873 29874 29875 29876 29877 29878 29879 29880 29881 29882 29883 29884 29885 29886 29887 29888 29889 29890 29891 29892 29893 29894 29895 29896 29897 29898 29899 29900 29901 29902 29903 29904 29905 29906 29907 29908 29909 29910 29911 29912 29913 29914 29915 29916 29917 29918 29919 29920 29921 29922 29923 29924 29925 29926 29927 29928 29929 29930 29931 29932 29933 29934 29935 29936 29937 29938 29939 29940 29941 29942 29943 29944 29945 29946 29947 29948 29949 29950 29951 29952 29953 29954 29955 29956 29957 29958 29959 29960 29961 29962 29963 29964 29965 29966 29967 29968 29969 29970 29971 29972 29973 29974 29975 29976 29977 29978 29979 29980 29981 29982 29983 29984 29985 29986 29987 29988 29989 29990 29991 29992 29993 29994 29995 29996 29997 29998 29999 30000 30001 30002 30003 30004 30005 30006 30007 30008 30009 30010 30011 30012 30013 30014 30015 30016 30017 30018 30019 30020 30021 30022 30023 30024 30025 30026 30027 30028 30029 30030 30031 30032 30033 30034 30035 30036 30037 30038 30039 30040 30041 30042 30043 30044 30045 30046 30047 30048 30049 30050 30051 30052 30053 30054 30055 30056 30057 30058 30059 30060 30061 30062 30063 30064 30065 30066 30067 30068 30069 30070 30071 30072 30073 30074 30075 30076 30077 30078 30079 30080 30081 30082 30083 30084 30085 30086 30087 30088 30089 30090 30091 30092 30093 30094 30095 30096 30097 30098 30099 30100 30101 30102 30103 30104 30105 30106 30107 30108 30109 30110 30111 30112 30113 30114 30115 30116 30117 30118 30119 30120 30121 30122 30123 30124 30125 30126 30127 30128 30129 30130 30131 30132 30133 30134 30135 30136 30137 30138 30139 30140 30141 30142 30143 30144 30145 30146 30147 30148 30149 30150 30151 30152 30153 30154 30155 30156 30157 30158 30159 30160 30161 30162 30163 30164 30165 30166 30167 30168 30169 30170 30171 30172 30173 30174 30175 30176 30177 30178 30179 30180 30181 30182 30183 30184 30185 30186 30187 30188 30189 30190 30191 30192 30193 30194 30195 30196 30197 30198 30199 30200 30201 30202 30203 30204 30205 30206 30207 30208 30209 30210 30211 30212 30213 30214 30215 30216 30217 30218 30219 30220 30221 30222 30223 30224 30225 30226 30227 30228 30229 30230 30231 30232 30233 30234 30235 30236 30237 30238 30239 30240 30241 30242 30243 30244 30245 30246 30247 30248 30249 30250 30251 30252 30253 30254 30255 30256 30257 30258 30259 30260 30261 30262 30263 30264 30265 30266 30267 30268 30269 30270 30271 30272 30273 30274 30275 30276 30277 30278 30279 30280 30281 30282 30283 30284 30285 30286 30287 30288 30289 30290 30291 30292 30293 30294 30295 30296 30297 30298 30299 30300 30301 30302 30303 30304 30305 30306 30307 30308 30309 30310 30311 30312 30313 30314 30315 30316 30317 30318 30319 30320 30321 30322 30323 30324 30325 30326 30327 30328 30329 30330 30331 30332 30333 30334 30335 30336 30337 30338 30339 30340 30341 30342 30343 30344 30345 30346 30347 30348 30349 30350 30351 30352 30353 30354 30355 30356 30357 30358 30359 30360 30361 30362 30363 30364 30365 30366 30367 30368 30369 30370 30371 30372 30373 30374 30375 30376 30377 30378 30379 30380 30381 30382 30383 30384 30385 30386 30387 30388 30389 30390 30391 30392 30393 30394 30395 30396 30397 30398 30399 30400 30401 30402 30403 30404 30405 30406 30407 30408 30409 30410 30411 30412 30413 30414 30415 30416 30417 30418 30419 30420 30421 30422 30423 30424 30425 30426 30427 30428 30429 30430 30431 30432 30433 30434 30435 30436 30437 30438 30439 30440 30441 30442 30443 30444 30445 30446 30447 30448 30449 30450 30451 30452 30453 30454 30455 30456 30457 30458 30459 30460 30461 30462 30463 30464 30465 30466 30467 30468 30469 30470 30471 30472 30473 30474 30475 30476 30477 30478 30479 30480 30481 30482 30483 30484 30485 30486 30487 30488 30489 30490 30491 30492 30493 30494 30495 30496 30497 30498 30499 30500 30501 30502 30503 30504 30505 30506 30507 30508 30509 30510 30511 30512 30513 30514 30515 30516 30517 30518 30519 30520 30521 30522 30523 30524 30525 30526 30527 30528 30529 30530 30531 30532 30533 30534 30535 30536 30537 30538 30539 30540 30541 30542 30543 30544 30545 30546 30547 30548 30549 30550 30551 30552 30553 30554 30555 30556 30557 30558 30559 30560 30561 30562 30563 30564 30565 30566 30567 30568 30569 30570 30571 30572 30573 30574 30575 30576 30577 30578 30579 30580 30581 30582 30583 30584 30585 30586 30587 30588 30589 30590 30591 30592 30593 30594 30595 30596 30597 30598 30599 30600 30601 30602 30603 30604 30605 30606 30607 30608 30609 30610 30611 30612 30613 30614 30615 30616 30617 30618 30619 30620 30621 30622 30623 30624 30625 30626 30627 30628 30629 30630 30631 30632 30633 30634 30635 30636 30637 30638 30639 30640 30641 30642 30643 30644 30645 30646 30647 30648 30649 30650 30651 30652 30653 30654 30655 30656 30657 30658 30659 30660 30661 30662 30663 30664 30665 30666 30667 30668 30669 30670 30671 30672 30673 30674 30675 30676 30677 30678 30679 30680 30681 30682 30683 30684 30685 30686 30687 30688 30689 30690 30691 30692 30693 30694 30695 30696 30697 30698 30699 30700 30701 30702 30703 30704 30705 30706 30707 30708 30709 30710 30711 30712 30713 30714 30715 30716 30717 30718 30719 30720 30721 30722 30723 30724 30725 30726 30727 30728 30729 30730 30731 30732 30733 30734 30735 30736 30737 30738 30739 30740 30741 30742 30743 30744 30745 30746 30747 30748 30749 30750 30751 30752 30753 30754 30755 30756 30757 30758 30759 30760 30761 30762 30763 30764 30765 30766 30767 30768 30769 30770 30771 30772 30773 30774 30775 30776 30777 30778 30779 30780 30781 30782 30783 30784 30785 30786 30787 30788 30789 30790 30791 30792 30793 30794 30795 30796 30797 30798 30799 30800 30801 30802 30803 30804 30805 30806 30807 30808 30809 30810 30811 30812 30813 30814 30815 30816 30817 30818 30819 30820 30821 30822 30823 30824 30825 30826 30827 30828 30829 30830 30831 30832 30833 30834 30835 30836 30837 30838 30839 30840 30841 30842 30843 30844 30845 30846 30847 30848 30849 30850 30851 30852 30853 30854 30855 30856 30857 30858 30859 30860 30861 30862 30863 30864 30865 30866 30867 30868 30869 30870 30871 30872 30873 30874 30875 30876 30877 30878 30879 30880 30881 30882 30883 30884 30885 30886 30887 30888 30889 30890 30891 30892 30893 30894 30895 30896 30897 30898 30899 30900 30901 30902 30903 30904 30905 30906 30907 30908 30909 30910 30911 30912 30913 30914 30915 30916 30917 30918 30919 30920 30921 30922 30923 30924 30925 30926 30927 30928 30929 30930 30931 30932 30933 30934 30935 30936 30937 30938 30939 30940 30941 30942 30943 30944 30945 30946 30947 30948 30949 30950 30951 30952 30953 30954 30955 30956 
</DataArray>
<DataArray type="UInt32" Name="offsets" format="ascii">
3 6 9 12 15 18 21 24 27 30 33 36 39 42 44 47 50 53 56 59 62 64 67 69 72 75 78 81 84 87 90 93 96 99 102 105 108 111 114 117 120 123 126 129 132 135 137 140 143 146 149 152 155 157 160 162 165 168 171 174 177 180 183 186 189 192 195 198 201 204 206 209 212 215 218 221 224 227 230 233 236 239 241 244 246 249 252 255 257 260 263 266 269 272 274 276 279 282 285 288 291 294 297 300 303 306 308 311 314 317 319 322 325 328 331 334 337 340 343 346 349 351 354 356 359 362 364 367 370 373 376 379 382 385 387 390 393 396 399 402 405 408 411 413 416 419 421 424 427 429 432 435 437 440 443 446 449 452 455 458 461 464 467 470 473 476 478 481 484 486 489 491 493 496 499 502 505 508 511 514 517 520 522 525 528 531 534 537 540 543 546 549 552 555 558 561 564 567 570 573 576 579 582 585 588 591 594 597 600 603 606 609 612 615 617 619 622 625 627 629 632 635 637 640 642 645 648 650 653 655 658 661 664 667 670 673 676 679 681 684 687 690 692 695 698 700 703 705 708 711 713 715 718 721 724 726 729 732 734 736 739 742 745 748 750 752 754 757 760 763 765 768 771 773 776 779 782 785 788 791 794 796 799 802 804 807 810 813 816 818 821 824 827 830 833 836 839 842 844 847 850 852 855 857 860 863 866 868 871 874 877 880 883 886 889 892 895 898 901 904 906 909 912 915 918 920 923 925 927 930 933 936 939 942 945 948 951 954 957 959 961 964 967 970 973 976 979 982 985 988 991 994 997 1000 1003 1006 1009 1012 1015 1018 1021 1024 1027 1030 1033 1036 1039 1042 1045 1048 1051 1054 1057 1060 1063 1066 1069 1072 1075 1078 1081 1084 1087 1090 1093 1096 1099 1102 1105 1108 1111 1114 1117 1120 1123 1126 1129 1132 1135 1137 1140 1143 1145 1148 1151 1154 1157 1160 1163 1166 1169 1172 1175 1178 1181 1183 1186 1189 1192 1195 1198 1201 1203 1205 1208 1211 1214 1217 1220 1222 1224 1227 1230 1233 1236 1238 1241 1243 1246 1249 1252 1255 1258 1260 1263 1265 1268 1271 1273 1275 1277 1280 1283 1286 1288 1291 1294 1297 1299 1302 1305 1307 1310 1313 1316 1319 1322 1325 1328 1331 1334 1337 1340 1343 1346 1349 1352 1355 1358 1361 1364 1367 1370 1373 1376 1379 1382 1385 1387 1390 1393 1396 1399 1402 1405 1408 1411 1414 1417 1420 1423 1426 1429 1432 1435 1438 1441 1444 1447 1450 1453 1456 1459 1462 1465 1468 1471 1474 1477 1480 1483 1486 1489 1492 1495 1497 1500 1503 1506 1509 1512 1515 1518 1521 1524 1527 1530 1533 1536 1539 1542 1545 1548 1550 1553 1555 1558 1561 1564 1567 1569 1572 1575 1577 1580 1583 1586 1589 1592 1595 1597 1600 1603 1606 1609 1612 1615 1618 1621 1624 1627 1630 1632 1635 1638 1641 1644 1647 1650 1653 1656 1659 1662 1665 1668 1671 1674 1677 1680 1683 1686 1689 1692 1695 1698 1701 1704 1707 1710 1713 1716 1719 1722 1725 1728 1731 1734 1737 1740 1743 1746 1749 1752 1755 1758 1761 1763 1766 1769 1772 1775 1778 1781 1784 1787 1790 1793 1796 1799 1801 1804 1807 1810 1812 1815 1818 1821 1823 1825 1828 1831 1833 1836 1839 1842 1845 1848 1851 1854 1857 1860 1863 1866 1869 1872 1875 1878 1881 1884 1887 1890 1893 1896 1899 1902 1905 1908 1911 1914 1917 1920 1923 1926 1929 1932 1934 1937 1940 1943 1946 1949 1952 1955 1958 1961 1963 1966 1969 1971 1973 1976 1979 1982 1985 1988 1990 1993 1996 1998 2000 2003 2006 2008 2011 2013 2016 2019 2022 2025 2028 2030 2033 2036 2039 2041 2044 2047 2050 2053 2056 2059 2062 2065 2068 2071 2074 2077 2079 2081 2084 2087 2089 2092 2095 2098 2101 2104 2107 2110 2113 2116 2119 2122 2125 2128 2131 2134 2137 2140 2143 2146 2149 2152 2155 2157 2160 2163 2166 2169 2171 2174 2177 2180 2183 2186 2189 2192 2195 2197 2200 2202 2205 2208 2211 2214 2217 2220 2223 2226 2229 2232 2235 2237 2240 2243 2246 2249 2251 2254 2257 2260 2263 2266 2269 2271 2274 2277 2280 2283 2285 2287 2290 2292 2295 2298 2300 2303 2306 2309 2312 2315 2318 2321 2324 2327 2330 2333 2336 2339 2342 2345 2348 2351 2353 2356 2358 2361 2364 2367 2370 2373 2375 2378 2381 2384 2387 2390 2393 2396 2399 2402 2405 2408 2411 2414 2417 2420 2423 2426 2429 2432 2435 2438 2441 2444 2447 2450 2453 2456 2459 2462 2465 2468 2471 2474 2477 2480 2483 2486 2489 2492 2495 2498 2501 2504 2507 2510 2513 2516 2519 2522 2525 2528 2531 2534 2537 2540 2543 2546 2549 2552 2555 2558 2561 2564 2567 2570 2573 2576 2578 2581 2583 2586 2589 2592 2595 2598 2601 2604 2607 2610 2613 2616 2619 2622 2625 2628 2631 2634 2637 2640 2643 2646 2649 2652 2655 2658 2661 2664 2667 2670 2673 2676 2679 2682 2685 2688 2691 2694 2697 2700 2703 2706 2708 2711 2714 2717 2720 2723 2726 2729 2732 2735 2738 2741 2744 2747 2750 2753 2755 2758 2761 2764 2767 2770 2773 2775 2778 2781 2784 2787 2790 2793 2796 2799 2802 2805 2808 2811 2814 2817 2820 2823 2826 2829 2832 2834 2837 2840 2842 2845 2848 2850 2853 2856 2859 2862 2864 2867 2869 2872 2875 2878 2881 2884 2887 2890 2893 2896 2899 2902 2905 2908 2911 2914 2917 2920 2923 2926 2929 2932 2935 2938 2941 2944 2946 2949 2951 2954 2957 2960 2963 2966 2969 2972 2975 2978 2981 2984 2986 2989 2992 2995 2997 3000 3003 3005 3008 3010 3013 3016 3019 3022 3025 3028 3031 3034 3037 3040 3043 3046 3049 3052 3054 3057 3060 3063 3066 3069 3072 3074 3077 3080 3083 3086 3089 3092 3095 3098 3100 3103 3106 3109 3112 3115 3118 3121 3124 3127 3130 3133 3136 3139 3142 3145 3148 3151 3154 3157 3159 3162 3165 3168 3171 3174 3177 3180 3183 3186 3189 3192 3195 3198 3201 3204 3207 3210 3213 3216 3219 3222 3225 3228 3231 3234 3237 3239 3242 3245 3248 3251 3253 3256 3259 3262 3264 3267 3270 3273 3276 3279 3282 3285 3288 3291 3294 3297 3300 3303 3306 3308 3311 3314 3317 3319 3322 3325 3328 3331 3334 3336 3339 3342 3345 3348 3351 3354 3357 3360 3363 3366 3369 3372 3375 3378 3381 3384 3386 3389 3391 3394 3396 3399 3402 3405 3407 3410 3413 3416 3419 3422 3425 3428 3431 3434 3437 3440 3443 3446 3449 3451 3454 3457 3460 3463 3466 3469 3472 3475 3478 3481 3484 3487 3490 3493 3495 3497 3500 3503 3506 3509 3512 3515 3518 3521 3524 3527 3530 3533 3536 3539 3542 3545 3548 3551 3554 3557 3560 3563 3566 3569 3572 3575 3578 3581 3583 3586 3589 3592 3595 3597 3600 3603 3606 3608 3611 3614 3617 3620 3623 3626 3629 3632 3634 3637 3640 3643 3645 3648 3651 3653 3656 3659 3661 3663 3666 3669 3672 3675 3678 3681 3683 3686 3689 3692 3695 3698 3701 3704 3707 3710 3713 3716 3719 3722 3724 3727 3730 3733 3736 3738 3741 3744 3747 3750 3753 3756 3759 3762 3765 3768 3771 3774 3777 3780 3783 3786 3789 3792 3795 3798 3801 3804 3807 3810 3813 3816 3819 3822 3825 3828 3831 3834 3837 3840 3843 3846 3849 3852 3855 3858 3861 3864 3867 3870 3873 3876 3879 3882 3885 3888 3891 3894 3897 3900 3903 3906 3909 3912 3915 3918 3921 3924 3927 3930 3933 3936 3939 3942 3945 3948 3950 3953 3956 3959 3962 3965 3968 3971 3974 3977 3980 3983 3985 3988 3991 3994 3997 3999 4002 4005 4008 4011 4014 4016 4019 4022 4025 4027 4030 4033 4036 4038 4041 4044 4047 4050 4053 4056 4059 4062 4064 4067 4070 4073 4075 4078 4080 4083 4086 4088 4091 4094 4097 4100 4103 4105 4108 4111 4114 4117 4120 4123 4125 4128 4131 4134 4137 4140 4143 4146 4149 4152 4155 4158 4160 4162 4165 4168 4171 4174 4177 4180 4183 4186 4189 4192 4195 4198 4201 4204 4207 4210 4213 4216 4219 4222 4225 4228 4231 4234 4237 4240 4243 4246 4249 4251 4254 4257 4260 4263 4265 4268 4271 4274 4277 4280 4283 4286 4289 4291 4294 4297 4300 4303 4305 4307 4310 4313 4316 4319 4322 4325 4328 4331 4334 4337 4339 4342 4345 4348 4351 4354 4357 4360 4363 4366 4368 4371 4374 4377 4380 4383 4386 4389 4392 4395 4398 4401 4404 4407 4410 4413 4416 4419 4422 4425 4428 4431 4434 4437 4440 4443 4446 4449 4451 4454 4457 4460 4463 4466 4469 4472 4475 4478 4481 4484 4487 4490 4493 4496 4499 4502 4505 4508 4511 4514 4517 4520 4523 4526 4529 4532 4535 4538 4541 4544 4547 4550 4553 4556 4559 4562 4565 4568 4571 4574 4577 4580 4583 4586 4589 4592 4595 4598 4600 4603 4606 4609 4612 4614 4616 4619 4622 4625 4628 4631 4634 4637 4640 4643 4646 4649 4652 4655 4658 4661 4664 4667 4670 4672 4675 4678 4681 4684 4687 4690 4693 4696 4699 4702 4705 4708 4711 4714 4717 4719 4722 4725 4728 4731 4734 4737 4740 4743 4746 4749 4752 4755 4758 4761 4764 4767 4770 4773 4776 4779 4782 4785 4788 4791 4794 4797 4800 4803 4806 4809 4812 4814 4817 4820 4822 4825 4828 4830 4833 4836 4839 4842 4844 4846 4849 4852 4855 4858 4861 4864 4867 4869 4872 4875 4878 4881 4884 4887 4889 4892 4895 4898 4901 4904 4907 4910 4913 4916 4919 4922 4925 4928 4930 4933 4935 4938 4941 4944 4947 4950 4953 4955 4958 4961 4964 4967 4970 4973 4976 4979 4982 4985 4988 4991 4994 4997 5000 5003 5006 5009 5012 5015 5018 5021 5023 5025 5028 5030 5033 5036 5039 5042 5045 5047 5050 5052 5055 5058 5061 5063 5066 5068 5071 5074 5077 5080 5082 5085 5088 5090 5093 5096 5099 5101 5104 5107 5110 5112 5115 5118 5121 5123 5126 5129 5132 5135 5138 5141 5144 5147 5150 5152 5155 5158 5161 5164 5166 5169 5171 5174 5177 5179 5182 5185 5188 5190 5193 5195 5198 5201 5204 5207 5210 5213 5215 5218 5221 5223 5226 5228 5231 5234 5237 5240 5243 5246 5249 5252 5255 5258 5261 5264 5267 5270 5272 5275 5278 5281 5284 5287 5289 5291 5294 5297 5300 5302 5305 5308 5311 5314 5316 5319 5322 5324 5327 5330 5333 5336 5339 5342 5345 5347 5350 5353 5356 5359 5362 5365 5368 5371 5374 5377 5380 5383 5386 5389 5392 5394 5397 5400 5403 5406 5409 5412 5415 5418 5420 5423 5425 5428 5431 5434 5436 5439 5441 5444 5447 5450 5453 5456 5459 5462 5465 5468 5471 5474 5477 5480 5483 5486 5489 5492 5495 5498 5501 5504 5507 5510 5513 5516 5519 5522 5524 5527 5530 5533 5535 5538 5541 5544 5547 5550 5553 5555 5558 5561 5564 5566 5569 5571 5574 5577 5580 5583 5586 5589 5592 5595 5597 5599 5602 5605 5608 5611 5614 5617 5619 5622 5625 5628 5630 5633 5636 5639 5641 5644 5647 5650 5653 5656 5659 5662 5665 5668 5671 5674 5677 5679 5682 5684 5687 5690 5693 5696 5699 5702 5705 5708 5711 5714 5716 5719 5721 5723 5726 5729 5732 5735 5738 5741 5744 5747 5750 5753 5756 5759 5762 5764 5767 5770 5772 5775 5777 5780 5783 5786 5789 5792 5795 5797 5800 5803 5806 5808 5811 5813 5816 5819 5822 5824 5827 5830 5832 5834 5837 5839 5842 5845 5847 5850 5853 5856 5859 5862 5865 5868 5871 5874 5877 5880 5883 5886 5888 5890 5893 5896 5899 5902 5905 5908 5911 5914 5917 5920 5923 5926 5929 5932 5935 5938 5941 5944 5947 5950 5952 5955 5957 5959 5962 5965 5968 5970 5973 5975 5977 5980 5983 5986 5989 5991 5994 5997 6000 6003 6006 6009 6011 6014 6017 6020 6023 6026 6029 6032 6035 6038 6041 6044 6047 6049 6052 6055 6058 6061 6064 6067 6070 6073 6076 6079 6082 6085 6088 6090 6093 6095 6098 6101 6104 6107 6110 6113 6116 6119 6121 6124 6126 6129 6132 6135 6137 6140 6143 6146 6149 6152 6154 6157 6159 6161 6164 6167 6169 6172 6175 6178 6181 6183 6186 6188 6191 6194 6196 6199 6202 6204 6207 6210 6213 6216 6219 6222 6224 6226 6229 6232 6234 6237 6240 6242 6245 6248 6250 6252 6255 6258 6261 6263 6266 6269 6272 6274 6277 6279 6282 6284 6287 6290 6292 6295 6298 6300 6303 6306 6309 6311 6314 6317 6320 6322 6325 6328 6331 6333 6336 6338 6341 6344 6347 6349 6352 6355 6358 6361 6364 6367 6370 6373 6376 6379 6382 6385 6388 6391 6394 6397 6400 6403 6406 6409 6412 6415 6418 6421 6424 6427 6430 6433 6436 6439 6442 6445 6448 6451 6454 6457 6460 6463 6466 6469 6472 6475 6478 6480 6483 6486 6489 6492 6495 6498 6500 6502 6505 6508 6511 6514 6517 6520 6523 6526 6529 6532 6535 6538 6541 6544 6547 6550 6553 6556 6559 6562 6565 6568 6571 6574 6577 6580 6583 6586 6589 6592 6595 6598 6601 6604 6607 6610 6613 6616 6619 6622 6624 6627 6630 6633 6635 6638 6641 6643 6645 6648 6651 6653 6656 6658 6661 6663 6665 6668 6671 6674 6677 6680 6682 6685 6687 6690 6693 6695 6698 6701 6704 6707 6710 6712 6715 6718 6721 6724 6727 6730 6733 6736 6739 6742 6745 6748 6750 6753 6755 6758 6760 6763 6766 6769 6772 6775 6777 6779 6781 6784 6787 6789 6791 6794 6797 6800 6802 6805 6807 6810 6812 6814 6817 6819 6822 6825 6828 6830 6833 6836 6839 6842 6845 6848 6851 6853 6855 6858 6861 6863 6866 6869 6871 6874 6876 6879 6882 6884 6887 6890 6892 6895 6897 6900 6903 6906 6908 6911 6913 6916 6919 6921 6924 6926 6928 6931 6933 6935 6937 6940 6943 6946 6949 6951 6954 6957 6959 6962 6965 6968 6971 6973 6976 6979 6982 6985 6988 6991 6993 6996 6998 7001 7004 7007 7009 7011 7014 7017 7020 7023 7026 7029 7031 7034 7037 7039 7042 7044 7047 7050 7052 7055 7058 7060 7063 7066 7069 7072 7074 7076 7079 7082 7085 7088 7090 7093 7096 7099 7102 7105 7108 7111 7114 7117 7119 7122 7125 7128 7131 7134 7137 7140 7142 7145 7147 7150 7152 7155 7158 7160 7163 7166 7169 7172 7174 7176 7179 7182 7185 7187 7189 7191 7194 7197 7200 7203 7205 7207 7209 7211 7214 7217 7219 7222 7225 7227 7230 7233 7236 7238 7241 7244 7247 7249 7252 7254 7257 7260 7263 7266 7269 7272 7275 7277 7279 7282 7285 7287 7290 7293 7296 7299 7302 7305 7308 7310 7313 7316 7319 7322 7325 7328 7331 7333 7336 7339 7342 7345 7348 7351 7354 7357 7360 7363 7366 7369 7372 7375 7377 7380 7383 7386 7389 7392 7395 7398 7401 7404 7407 7409 7412 7415 7417 7420 7422 7425 7428 7431 7433 7436 7438 7441 7444 7447 7450 7453 7456 7459 7461 7464 7467 7470 7473 7476 7479 7482 7485 7488 7491 7494 7497 7500 7503 7506 7509 7511 7514 7517 7519 7522 7524 7527 7529 7532 7534 7537 7540 7543 7545 7547 7550 7553 7556 7559 7562 7565 7567 7570 7573 7576 7579 7582 7585 7588 7590 7593 7596 7598 7601 7604 7607 7610 7613 7616 7619 7622 7625 7628 7631 7634 7637 7640 7643 7646 7649 7651 7654 7657 7660 7662 7665 7668 7671 7674 7677 7680 7683 7686 7689 7692 7695 7698 7701 7704 7707 7710 7713 7716 7719 7722 7725 7728 7731 7734 7736 7739 7742 7745 7748 7751 7754 7757 7760 7763 7766 7769 7771 7774 7777 7780 7783 7786 7789 7791 7794 7797 7800 7803 7806 7809 7812 7815 7818 7821 7823 7826 7829 7831 7833 7836 7838 7841 7844 7847 7849 7852 7855 7858 7860 7863 7866 7869 7872 7875 7878 7881 7884 7887 7890 7892 7895 7898 7901 7904 7907 7910 7913 7916 7919 7922 7925 7928 7930 7933 7936 7938 7941 7944 7947 7950 7952 7955 7958 7960 7963 7966 7969 7971 7974 7977 7980 7982 7984 7987 7990 7993 7995 7998 8000 8003 8006 8009 8012 8015 8018 8021 8024 8027 8030 8033 8035 8038 8041 8043 8046 8049 8052 8055 8057 8060 8063 8065 8068 8071 8074 8077 8080 8082 8084 8087 8090 8093 8096 8098 8101 8104 8107 8110 8113 8116 8119 8121 8124 8127 8130 8133 8135 8138 8141 8144 8147 8150 8153 8155 8158 8161 8163 8166 8169 8171 8174 8177 8179 8181 8184 8186 8189 8192 8195 8197 8199 8202 8205 8207 8210 8213 8215 8218 8220 8223 8226 8229 8232 8235 8238 8241 8243 8246 8249 8252 8255 8257 8260 8263 8266 8269 8272 8275 8278 8281 8284 8287 8290 8293 8296 8299 8302 8305 8308 8310 8313 8316 8319 8322 8325 8328 8331 8334 8337 8340 8343 8346 8349 8352 8354 8357 8360 8363 8366 8369 8371 8374 8377 8379 8382 8385 8388 8391 8393 8396 8399 8402 8404 8407 8410 8413 8415 8418 8421 8424 8427 8430 8433 8436 8439 8442 8445 8448 8451 8454 8457 8460 8463 8466 8469 8472 8474 8477 8480 8483 8485 8488 8491 8493 8496 8499 8502 8505 8507 8510 8513 8516 8519 8522 8524 8527 8530 8533 8536 8539 8542 8545 8548 8551 8554 8557 8559 8562 8565 8568 8571 8574 8577 8580 8583 8586 8589 8592 8594 8597 8600 8603 8606 8608 8611 8613 8616 8619 8622 8625 8628 8631 8634 8637 8640 8643 8645 8648 8650 8652 8655 8657 8660 8663 8666 8669 8671 8673 8676 8679 8681 8684 8687 8689 8692 8695 8698 8700 8703 8706 8708 8711 8714 8717 8720 8722 8725 8728 8731 8734 8736 8738 8741 8744 8747 8750 8753 8756 8759 8761 8764 8767 8770 8773 8776 8779 8782 8785 8788 8791 8794 8797 8800 8803 8806 8809 8812 8815 8818 8820 8822 8825 8828 8831 8834 8836 8839 8842 8845 8847 8850 8853 8856 8859 8862 8865 8868 8871 8874 8877 8880 8882 8885 8888 8890 8893 8896 8899 8902 8905 8908 8910 8913 8915 8918 8921 8924 8927 8929 8932 8934 8937 8940 8942 8945 8948 8950 8953 8956 8959 8961 8964 8967 8970 8972 8975 8978 8980 8983 8986 8989 8992 8995 8998 9000 9003 9006 9008 9011 9014 9017 9020 9023 9025 9028 9030 9033 9036 9038 9041 9044 9046 9049 9051 9054 9057 9060 9063 9066 9068 9070 9073 9076 9079 9082 9085 9087 9090 9093 9096 9099 9102 9105 9108 9111 9114 9117 9120 9123 9126 9129 9132 9135 9138 9141 9144 9147 9149 9152 9155 9158 9161 9163 9166 9169 9172 9174 9176 9179 9182 9185 9188 9191 9193 9196 9199 9202 9205 9208 9211 9214 9216 9219 9222 9225 9228 9231 9234 9237 9240 9242 9245 9248 9250 9253 9256 9259 9262 9264 9267 9270 9273 9276 9278 9281 9283 9286 9289 9291 9294 9297 9300 9303 9306 9308 9311 9314 9317 9320 9322 9325 9328 9331 9334 9337 9339 9342 9345 9348 9351 9354 9357 9359 9362 9365 9367 9370 9373 9375 9378 9381 9384 9386 9389 9391 9394 9397 9399 9402 9405 9408 9411 9414 9417 9420 9422 9425 9428 9431 9434 9437 9439 9442 9445 9448 9450 9453 9456 9459 9462 9465 9468 9471 9474 9477 9480 9483 9486 9489 9492 9495 9498 9501 9503 9506 9509 9512 9515 9517 9520 9523 9526 9529 9532 9535 9538 9541 9544 9547 9550 9553 9556 9559 9562 9565 9568 9570 9573 9576 9579 9582 9585 9587 9589 9592 9595 9598 9600 9603 9606 9609 9612 9614 9617 9620 9623 9626 9629 9632 9634 9636 9639 9642 9645 9648 9651 9654 9656 9658 9661 9664 9667 9670 9672 9675 9678 9681 9684 9687 9690 9692 9695 9698 9701 9704 9707 9710 9713 9716 9719 9722 9724 9727 9730 9732 9735 9738 9741 9744 9747 9750 9753 9756 9759 9762 9765 9768 9771 9774 9777 9780 9783 9786 9789 9792 9795 9798 9801 9804 9807 9810 9813 9816 9819 9822 9825 9828 9831 9834 9837 9840 9843 9846 9849 9852 9855 9857 9860 9863 9866 9868 9871 9874 9877 9880 9883 9886 9888 9891 9894 9897 9900 9903 9906 9909 9912 9915 9917 9920 9923 9926 9929 9932 9935 9938 9941 9944 9947 9950 9953 9956 9959 9961 9964 9967 9969 9971 9974 9977 9980 9983 9986 9989 9992 9995 9998 10001 10004 10007 10010 10013 10016 10019 10022 10025 10028 10031 10034 10036 10039 10042 10045 10048 10050 10053 10056 10059 10062 10065 10068 10070 10073 10076 10078 10081 10084 10086 10089 10092 10095 10097 10100 10103 10106 10109 10112 10115 10118 10121 10123 10126 10129 10132 10135 10138 10141 10144 10147 10150 10153 10155 10158 10160 10163 10166 10169 10172 10174 10177 10180 10182 10185 10188 10191 10194 10197 10200 10203 10206 10209 10212 10214 10217 10220 10223 10226 10229 10232 10235 10238 10241 10244 10247 10249 10252 10254 10257 10260 10263 10266 10269 10272 10275 10278 10281 10284 10287 10290 10293 10296 10299 10302 10305 10308 10311 10314 10316 10319 10322 10325 10327 10330 10332 10335 10337 10340 10343 10345 10348 10350 10352 10355 10358 10361 10363 10365 10368 10371 10373 10376 10379 10382 10385 10388 10391 10394 10397 10400 10403 10406 10409 10412 10415 10417 10419 10422 10425 10427 10430 10432 10435 10438 10441 10444 10446 10449 10452 10455 10458 10461 10464 10467 10470 10472 10475 10478 10481 10484 10487 10490 10493 10496 10499 10502 10505 10508 10511 10514 10517 10520 10523 10526 10529 10532 10535 10537 10540 10542 10545 10548 10551 10554 10556 10558 10561 10563 10566 10569 10572 10575 10578 10580 10583 10586 10589 10591 10594 10596 10599 10601 10604 10607 10610 10613 10616 10619 10622 10625 10628 10631 10633 10636 10639 10641 10644 10647 10650 10652 10655 10658 10661 10664 10667 10670 10673 10676 10679 10682 10685 10688 10691 10694 10696 10698 10701 10704 10707 10710 10712 10715 10717 10720 10722 10725 10728 10731 10734 10737 10740 10742 10745 10747 10749 10752 10755 10758 10761 10763 10765 10768 10770 10773 10776 10779 10782 10785 10787 10790 10793 10796 10799 10802 10805 10808 10810 10813 10816 10819 10822 10825 10828 10830 10832 10835 10838 10841 10844 10847 10849 10852 10855 10858 10861 10864 10866 10868 10871 10874 10877 10879 10882 10885 10888 10890 10893 10896 10899 10902 10905 10908 10911 10914 10917 10920 10923 10926 10929 10932 10935 10938 10941 10944 10947 10950 10953 10956 10959 10962 10965 10968 10971 10974 10977 10979 10982 10985 10988 10991 10993 10995 10998 11001 11004 11007 11010 11013 11016 11019 11022 11025 11028 11031 11034 11037 11040 11043 11045 11048 11051 11054 11057 11060 11063 11066 11069 11072 11075 11078 11081 11084 11087 11090 11092 11095 11098 11101 11104 11107 11110 11113 11116 11119 11122 11124 11127 11130 11133 11136 11139 11142 11144 11147 11150 11153 11156 11159 11162 11165 11168 11171 11174 11177 11180 11183 11186 11189 11192 11195 11198 11201 11204 11207 11210 11213 11216 11219 11222 11225 11228 11231 11234 11237 11240 11243 11246 11249 11252 11255 11258 11261 11264 11267 11270 11273 11276 11279 11282 11285 11288 11291 11294 11297 11300 11302 11305 11308 11311 11314 11317 11320 11323 11326 11329 11332 11335 11338 11341 11344 11347 11350 11353 11356 11359 11362 11365 11368 11371 11374 11377 11380 11383 11386 11388 11391 11394 11397 11400 11403 11406 11409 11412 11415 11418 11421 11424 11427 11430 11433 11436 11439 11442 11445 11448 11451 11454 11457 11460 11463 11466 11469 11472 11475 11478 11481 11484 11487 11490 11493 11496 11499 11502 11505 11508 11511 11514 11517 11520 11523 11526 11529 11532 11535 11538 11541 11544 11547 11550 11553 11556 11559 11562 11565 11568 11571 11574 11577 11580 11583 11586 11589 11592 11594 11597 11600 11603 11606 11609 11612 11615 11618 11621 11624 11627 11630 11633 11636 11638 11641 11644 11646 11649 11652 11655 11658 11661 11664 11667 11670 11673 11676 11679 11682 11684 11686 11689 11692 11695 11698 11701 11704 11707 11710 11713 11716 11719 11722 11725 11727 11730 11732 11735 11738 11741 11744 11746 11749 11752 11755 11758 11761 11764 11767 11770 11773 11776 11779 11781 11784 11787 11790 11793 11796 11799 11802 11805 11808 11810 11813 11815 11818 11821 11823 11826 11829 11831 11833 11836 11839 11842 11844 11846 11849 11852 11855 11858 11861 11864 11867 11869 11872 11874 11876 11879 11882 11884 11887 11890 11893 11896 11899 11902 11905 11907 11910 11913 11915 11918 11921 11923 11926 11928 11931 11933 11936 11939 11942 11945 11948 11950 11952 11954 11957 11960 11963 11966 11969 11972 11975 11977 11980 11983 11986 11988 11990 11993 11996 11999 12002 12005 12007 12010 12013 12016 12019 12022 12025 12028 12031 12034 12037 12040 12043 12046 12049 12052 12055 12058 12061 12064 12067 12070 12073 12076 12079 12082 12085 12088 12091 12094 12097 12100 12103 12106 12109 12112 12115 12118 12121 12123 12126 12129 12132 12134 12137 12139 12142 12145 12148 12150 12153 12156 12158 12161 12163 12165 12167 12170 12173 12176 12179 12182 12185 12187 12190 12193 12196 12199 12202 12205 12207 12210 12213 12216 12219 12222 12225 12228 12231 12234 12237 12240 12243 12246 12249 12252 12255 12258 12261 12264 12267 12269 12272 12275 12278 12281 12284 12287 12289 12292 12295 12298 12301 12304 12307 12310 12312 12315 12317 12320 12323 12326 12329 12331 12334 12337 12340 12343 12346 12348 12350 12353 12356 12358 12361 12364 12367 12369 12372 12375 12378 12381 12384 12387 12390 12392 12395 12398 12401 12404 12407 12410 12413 12416 12419 12422 12425 12428 12431 12434 12437 12440 12443 12445 12447 12450 12453 12456 12459 12462 12465 12468 12471 12474 12477 12480 12483 12486 12489 12492 12495 12498 12501 12504 12507 12510 12513 12516 12519 12522 12525 12528 12531 12534 12537 12540 12543 12546 12549 12551 12553 12556 12559 12562 12565 12568 12570 12573 12576 12579 12582 12585 12588 12591 12594 12597 12600 12603 12606 12609 12612 12615 12618 12621 12624 12627 12630 12633 12636 12639 12642 12645 12648 12651 12654 12657 12660 12663 12666 12669 12671 12674 12677 12680 12683 12686 12688 12691 12694 12697 12700 12703 12706 12708 12711 12714 12717 12720 12723 12725 12728 12731 12734 12737 12740 12743 12745 12748 12751 12754 12757 12760 12763 12766 12769 12771 12774 12777 12779 12782 12785 12788 12790 12793 12796 12799 12802 12805 12807 12810 12813 12816 12819 12822 12825 12828 12831 12834 12837 12840 12843 12846 12849 12852 12855 12858 12860 12862 12865 12868 12871 12874 12877 12880 12883 12886 12889 12892 12895 12898 12901 12904 12907 12910 12912 12915 12918 12921 12924 12927 12930 12933 12936 12939 12942 12945 12948 12951 12954 12957 12960 12963 12966 12969 12972 12975 12978 12981 12984 12987 12990 12993 12996 12999 13002 13005 13008 13011 13014 13017 13020 13023 13026 13029 13032 13035 13037 13040 13043 13046 13049 13051 13054 13057 13060 13063 13066 13068 13071 13074 13077 13079 13082 13085 13087 13089 13091 13094 13097 13100 13103 13106 13109 13112 13115 13118 13121 13123 13126 13129 13132 13135 13138 13141 13144 13147 13150 13153 13156 13159 13162 13165 13168 13171 13174 13177 13180 13182 13185 13187 13190 13193 13196 13199 13202 13205 13207 13209 13212 13215 13218 13221 13224 13227 13230 13233 13236 13239 13242 13245 13248 13251 13254 13257 13259 13262 13265 13268 13271 13274 13277 13280 13283 13285 13288 13291 13294 13296 13299 13302 13305 13308 13311 13314 13317 13320 13323 13326 13329 13331 13334 13337 13340 13343 13346 13349 13352 13355 13358 13361 13364 13367 13370 13373 13376 13379 13382 13385 13388 13391 13393 13396 13399 13402 13405 13407 13410 13413 13415 13418 13421 13424 13427 13430 13433 13436 13438 13441 13444 13447 13450 13453 13456 13458 13460 13463 13466 13469 13472 13475 13478 13481 13484 13487 13490 13493 13496 13499 13502 13505 13508 13511 13513 13516 13518 13521 13524 13527 13530 13532 13535 13538 13541 13543 13546 13549 13552 13555 13558 13561 13564 13567 13570 13573 13576 13579 13582 13585 13587 13590 13593 13596 13599 13602 13604 13607 13610 13612 13615 13618 13621 13624 13626 13629 13632 13635 13637 13640 13642 13644 13647 13650 13653 13656 13658 13660 13663 13666 13669 13672 13675 13678 13681 13684 13687 13690 13693 13696 13699 13702 13704 13707 13709 13712 13715 13718 13720 13723 13726 13729 13732 13735 13738 13741 13744 13747 13750 13753 13756 13759 13762 13765 13768 13771 13774 13776 13779 13782 13784 13787 13790 13792 13794 13797 13799 13801 13804 13807 13810 13813 13815 13818 13820 13823 13826 13829 13832 13834 13837 13840 13843 13845 13848 13851 13854 13857 13860 13863 13866 13869 13871 13874 13877 13880 13883 13886 13888 13891 13894 13897 13900 13903 13905 13907 13910 13913 13916 13919 13921 13923 13926 13929 13931 13933 13935 13937 13940 13943 13946 13948 13951 13954 13957 13959 13962 13964 13967 13970 13973 13976 13979 13982 13985 13988 13991 13994 13997 14000 14003 14006 14009 14012 14014 14017 14020 14023 14026 14029 14032 14035 14037 14040 14043 14046 14049 14052 14055 14058 14061 14064 14067 14070 14073 14076 14079 14082 14085 14088 14091 14094 14097 14100 14103 14106 14109 14112 14114 14117 14119 14122 14125 14128 14130 14132 14135 14138 14141 14144 14147 14150 14153 14156 14159 14162 14165 14168 14171 14174 14177 14180 14183 14186 14189 14192 14195 14198 14201 14204 14207 14210 14213 14216 14218 14221 14224 14227 14230 14232 14235 14238 14240 14243 14246 14249 14252 14255 14258 14261 14264 14267 14269 14272 14275 14278 14281 14283 14286 14288 14291 14294 14297 14299 14302 14304 14307 14310 14313 14316 14319 14322 14325 14328 14331 14334 14337 14340 14342 14345 14347 14350 14352 14354 14357 14359 14361 14364 14366 14369 14372 14374 14377 14379 14382 14385 14387 14390 14393 14395 14397 14400 14403 14405 14408 14411 14413 14416 14418 14420 14423 14426 14429 14431 14433 14436 14439 14441 14444 14447 14449 14451 14454 14457 14460 14463 14465 14468 14471 14473 14476 14479 14482 14485 14488 14491 14494 14496 14499 14502 14505 14507 14510 14513 14516 14519 14521 14524 14527 14529 14532 14534 14536 14539 14541 14543 14546 14549 14552 14554 14556 14559 14562 14564 14567 14569 14572 14574 14577 14580 14582 14585 14588 14590 14592 14595 14597 14600 14602 14605 14608 14611 14614 14616 14619 14622 14625 14628 14631 14634 14637 14640 14643 14646 14648 14651 14654 14657 14659 14662 14664 14667 14670 14673 14675 14678 14681 14684 14687 14690 14692 14695 14698 14701 14704 14707 14710 14712 14715 14718 14721 14724 14727 14730 14733 14736 14739 14742 14745 14748 14751 14754 14757 14760 14763 14766 14769 14771 14774 14777 14780 14783 14786 14788 14791 14793 14796 14799 14802 14805 14808 14810 14813 14816 14819 14822 14825 14827 14830 14833 14836 14839 14842 14844 14846 14849 14852 14855 14858 14861 14864 14867 14870 14873 14876 14879 14882 14885 14888 14891 14894 14897 14900 14903 14906 14908 14911 14914 14917 14920 14923 14926 14928 14931 14934 14937 14940 14943 14946 14948 14950 14953 14956 14959 14962 14965 14967 14970 14973 14975 14977 14980 14982 14985 14987 14990 14993 14996 14998 15001 15004 15007 15010 15012 15015 15018 15021 15024 15027 15029 15032 15035 15038 15041 15044 15046 15048 15051 15053 15056 15059 15061 15063 15066 15068 15070 15073 15076 15078 15081 15084 15087 15090 15093 15096 15099 15102 15105 15108 15111 15114 15117 15119 15121 15124 15127 15130 15133 15136 15139 15141 15144 15147 15149 15152 15155 15158 15161 15164 15166 15168 15171 15174 15177 15179 15182 15185 15188 15191 15194 15197 15199 15202 15205 15208 15211 15214 15217 15220 15223 15226 15229 15232 15235 15237 15239 15242 15245 15248 15251 15254 15257 15260 15263 15266 15269 15272 15275 15278 15281 15284 15287 15290 15293 15295 15298 15301 15304 15307 15310 15313 15316 15319 15322 15325 15328 15331 15334 15337 15340 15343 15346 15349 15352 15355 15358 15361 15364 15367 15370 15373 15376 15379 15382 15385 15388 15391 15394 15397 15399 15402 15405 15408 15411 15414 15417 15420 15423 15425 15428 15431 15434 15436 15439 15442 15445 15448 15451 15453 15456 15459 15461 15464 15467 15470 15472 15475 15478 15481 15484 15487 15489 15492 15495 15498 15501 15504 15506 15509 15512 15515 15518 15520 15523 15526 15529 15532 15535 15538 15541 15544 15547 15550 15553 15556 15559 15562 15565 15568 15571 15574 15577 15579 15582 15585 15588 15591 15594 15597 15600 15603 15606 15608 15611 15614 15617 15620 15623 15626 15629 15632 15635 15638 15641 15644 15647 15650 15653 15656 15659 15662 15665 15668 15671 15674 15677 15680 15683 15686 15689 15692 15695 15698 15701 15704 15707 15710 15713 15716 15719 15722 15725 15728 15731 15734 15737 15740 15743 15746 15749 15752 15755 15758 15761 15764 15767 15770 15773 15776 15779 15782 15785 15788 15791 15794 15797 15800 15803 15805 15808 15811 15814 15816 15819 15822 15825 15828 15831 15834 15837 15840 15843 15846 15849 15852 15855 15858 15861 15864 15867 15870 15873 15876 15879 15882 15885 15888 15891 15894 15897 15899 15902 15905 15908 15911 15914 15917 15920 15923 15925 15928 15931 15934 15937 15940 15943 15946 15949 15952 15955 15958 15961 15964 15967 15970 15973 15976 15979 15982 15985 15988 15991 15994 15997 16000 16003 16006 16009 16012 16015 16018 16021 16024 16027 16030 16033 16036 16039 16042 16044 16047 16050 16053 16056 16059 16062 16065 16067 16070 16072 16075 16078 16081 16084 16087 16090 16093 16096 16099 16102 16105 16108 16111 16114 16117 16120 16123 16126 16129 16132 16135 16138 16141 16144 16147 16150 16153 16155 16158 16160 16163 16165 16167 16170 16173 16176 16178 16180 16183 16185 16188 16191 16194 16197 16199 16202 16205 16208 16211 16214 16217 16220 16223 16226 16229 16232 16235 16238 16241 16243 16246 16249 16251 16254 16256 16258 16261 16264 16267 16269 16272 16275 16278 16281 16284 16287 16290 16293 16296 16299 16302 16305 16308 16311 16314 16317 16320 16323 16326 16329 16332 16335 16338 16341 16344 16347 16350 16353 16356 16359 16362 16365 16368 16371 16374 16377 16380 16383 16386 16389 16392 16395 16398 16401 16404 16407 16410 16413 16416 16419 16422 16425 16428 16431 16434 16437 16440 16443 16446 16449 16452 16455 16458 16460 16463 16466 16469 16472 16475 16478 16481 16484 16487 16489 16492 16494 16497 16500 16502 16505 16508 16511 16514 16517 16520 16523 16526 16529 16531 16534 16537 16540 16542 16545 16548 16551 16554 16557 16560 16563 16566 16569 16571 16574 16577 16580 16583 16586 16589 16592 16595 16598 16601 16603 16606 16609 16612 16615 16618 16621 16624 16627 16630 16633 16636 16639 16642 16645 16648 16651 16654 16657 16660 16663 16666 16669 16672 16674 16677 16679 16682 16685 16688 16691 16694 16697 16700 16703 16706 16709 16711 16714 16717 16720 16723 16726 16729 16732 16735 16738 16741 16744 16747 16750 16753 16756 16759 16762 16765 16768 16771 16774 16777 16780 16783 16786 16789 16792 16795 16798 16801 16804 16807 16810 16813 16816 16818 16821 16824 16827 16830 16832 16835 16838 16841 16844 16847 16850 16853 16856 16859 16862 16865 16868 16870 16873 16876 16879 16882 16885 16888 16891 16894 16897 16899 16902 16905 16908 16911 16913 16916 16919 16922 16925 16928 16931 16934 16936 16939 16941 16944 16947 16950 16953 16956 16959 16961 16964 16966 16968 16971 16974 16977 16979 16982 16985 16987 16990 16993 16996 16999 17001 17004 17007 17010 17013 17016 17019 17022 17025 17028 17030 17033 17036 17039 17042 17044 17047 17050 17053 17056 17058 17061 17064 17066 17069 17072 17074 17077 17079 17082 17085 17088 17091 17094 17097 17100 17103 17105 17108 17111 17114 17117 17120 17123 17126 17129 17132 17135 17137 17140 17142 17145 17148 17151 17154 17157 17160 17163 17166 17169 17172 17175 17178 17181 17184 17187 17190 17193 17196 17199 17202 17205 17208 17211 17214 17217 17220 17223 17226 17229 17232 17235 17238 17241 17244 17247 17250 17253 17256 17259 17262 17265 17268 17271 17274 17277 17280 17283 17286 17289 17292 17295 17298 17301 17304 17307 17310 17313 17316 17319 17322 17325 17328 17331 17334 17336 17339 17342 17345 17348 17351 17354 17357 17360 17363 17365 17368 17371 17374 17377 17380 17383 17386 17389 17392 17395 17397 17400 17403 17406 17409 17412 17415 17418 17421 17424 17427 17430 17433 17436 17439 17442 17444 17447 17450 17453 17456 17458 17461 17464 17466 17469 17472 17475 17478 17481 17484 17486 17489 17491 17494 17497 17500 17502 17505 17507 17509 17512 17515 17518 17520 17523 17526 17529 17532 17535 17538 17541 17544 17547 17550 17552 17555 17558 17561 17563 17566 17569 17571 17574 17576 17578 17580 17583 17586 17588 17591 17593 17595 17598 17601 17604 17606 17609 17611 17614 17616 17619 17622 17624 17627 17630 17633 17635 17638 17640 17643 17645 17648 17651 17654 17657 17660 17662 17665 17668 17671 17674 17676 17679 17681 17684 17687 17689 17691 17694 17696 17699 17702 17705 17708 17711 17713 17716 17719 17722 17725 17728 17731 17733 17736 17739 17742 17745 17748 17751 17754 17757 17760 17763 17766 17769 17772 17775 17778 17781 17784 17787 17790 17793 17796 17799 17802 17805 17808 17811 17814 17817 17820 17823 17826 17829 17832 17835 17838 17841 17844 17847 17849 17852 17855 17858 17861 17864 17867 17870 17873 17876 17879 17882 17885 17888 17891 17894 17897 17900 17903 17906 17909 17912 17915 17918 17921 17924 17927 17930 17933 17936 17939 17942 17945 17948 17951 17954 17957 17960 17963 17966 17969 17972 17975 17978 17981 17983 17986 17989 17991 17994 17997 17999 18002 18005 18008 18011 18014 18017 18020 18023 18026 18029 18032 18035 18038 18041 18044 18047 18050 18053 18056 18058 18061 18064 18067 18070 18072 18075 18077 18080 18082 18085 18088 18091 18094 18096 18099 18102 18105 18108 18111 18114 18117 18120 18123 18125 18128 18131 18134 18137 18139 18142 18144 18147 18150 18153 18156 18159 18161 18164 18167 18170 18173 18176 18179 18182 18185 18188 18191 18193 18196 18199 18202 18205 18208 18211 18214 18217 18220 18223 18226 18228 18231 18234 18237 18239 18242 18245 18248 18251 18254 18257 18260 18263 18266 18269 18271 18274 18277 18280 18283 18286 18289 18292 18295 18298 18300 18303 18306 18309 18312 18315 18318 18320 18323 18326 18329 18332 18335 18337 18340 18343 18346 18349 18352 18355 18358 18361 18364 18367 18370 18373 18376 18379 18382 18385 18388 18390 18393 18396 18399 18402 18405 18407 18409 18411 18414 18416 18419 18422 18425 18428 18431 18434 18437 18440 18443 18446 18449 18452 18455 18458 18461 18464 18467 18470 18473 18476 18479 18482 18485 18488 18491 18494 18497 18500 18502 18505 18508 18511 18514 18517 18520 18523 18525 18528 18531 18534 18537 18540 18543 18546 18549 18552 18555 18558 18560 18563 18566 18569 18572 18575 18578 18581 18583 18586 18588 18591 18594 18597 18599 18602 18605 18607 18610 18613 18616 18619 18622 18625 18628 18631 18634 18637 18640 18643 18646 18649 18651 18653 18656 18659 18662 18665 18668 18670 18673 18676 18679 18682 18684 18687 18690 18692 18695 18698 18701 18703 18706 18709 18712 18715 18717 18720 18723 18726 18729 18732 18735 18738 18741 18744 18747 18750 18753 18756 18759 18762 18765 18767 18770 18773 18776 18779 18782 18785 18787 18790 18792 18795 18797 18800 18803 18806 18809 18812 18815 18817 18819 18822 18825 18828 18831 18834 18836 18839 18842 18845 18848 18851 18854 18857 18860 18863 18866 18869 18872 18875 18878 18881 18883 18886 18889 18892 18895 18897 18900 18903 18906 18909 18912 18915 18918 18921 18924 18927 18930 18932 18935 18938 18941 18944 18947 18950 18953 18956 18959 18962 18965 18968 18971 18974 18977 18980 18983 18986 18989 18992 18995 18998 19001 19004 19006 19009 19012 19015 19018 19021 19023 19025 19028 19031 19034 19037 19040 19042 19044 19047 19049 19052 19055 19058 19061 19064 19067 19070 19072 19074 19077 19079 19082 19084 19087 19090 19093 19096 19099 19102 19105 19108 19111 19114 19117 19119 19122 19125 19128 19131 19134 19137 19140 19143 19146 19149 19152 19155 19158 19161 19164 19167 19170 19173 19176 19179 19182 19185 19188 19191 19194 19197 19200 19203 19205 19208 19211 19213 19216 19219 19222 19224 19227 19230 19233 19235 19237 19240 19243 19246 19249 19252 19255 19258 19261 19263 19265 19268 19271 19274 19277 19280 19283 19286 19289 19291 19294 19297 19300 19303 19306 19309 19312 19315 19318 19321 19324 19327 19330 19333 19336 19339 19342 19345 19348 19351 19354 19357 19360 19363 19366 19369 19372 19375 19378 19381 19384 19387 19390 19393 19396 19399 19401 19404 19406 19409 19412 19415 19418 19421 19424 19427 19430 19433 19436 19438 19441 19444 19447 19450 19452 19455 19458 19461 19464 19466 19469 19472 19475 19478 19481 19484 19487 19489 19492 19494 19497 19499 19502 19505 19508 19511 19514 19516 19519 19522 19525 19528 19530 19533 19536 19539 19542 19545 19548 19551 19554 19557 19560 19563 19566 19569 19572 19575 19578 19581 19584 19587 19590 19593 19596 19599 19602 19605 19608 19611 19614 19617 19620 19623 19626 19629 19632 19635 19638 19641 19644 19647 19650 19653 19656 19659 19662 19665 19668 19671 19674 19677 19680 19683 19686 19689 19692 19695 19698 19701 19704 19707 19710 19713 19716 19719 19722 19724 19727 19730 19733 19736 19739 19742 19745 19748 19751 19754 19757 19760 19763 19766 19769 19772 19774 19777 19780 19782 19785 19788 19791 19794 19797 19800 19803 19806 19809 19812 19815 19818 19821 19824 19827 19830 19833 19836 19839 19842 19845 19848 19851 19854 19857 19859 19862 19865 19868 19870 19873 19876 19878 19881 19884 19887 19890 19893 19895 19898 19901 19904 19907 19910 19913 19916 19919 19922 19925 19928 19931 19934 19936 19939 19942 19945 19947 19950 19952 19955 19957 19960 19963 19966 19969 19972 19975 19978 19981 19984 19987 19990 19993 19996 19999 20001 20004 20007 20010 20012 20015 20017 20020 20023 20026 20028 20031 20034 20037 20040 20043 20046 20049 20052 20055 20058 20061 20064 20067 20070 20073 20076 20079 20082 20085 20088 20090 20093 20096 20099 20102 20105 20108 20111 20114 20117 20120 20123 20126 20129 20132 20135 20138 20141 20144 20147 20150 20153 20156 20159 20162 20165 20168 20171 20174 20177 20180 20183 20186 20189 20192 20195 20198 20201 20204 20207 20210 20212 20215 20218 20221 20224 20227 20230 20233 20236 20238 20241 20244 20247 20249 20252 20255 20258 20261 20264 20267 20270 20273 20276 20279 20282 20285 20288 20291 20294 20297 20299 20302 20305 20308 20311 20314 20317 20320 20323 20326 20329 20332 20335 20338 20341 20344 20347 20350 20353 20355 20358 20361 20364 20367 20370 20373 20376 20379 20382 20384 20387 20390 20393 20396 20399 20402 20405 20408 20411 20413 20416 20419 20422 20425 20428 20431 20434 20437 20440 20442 20445 20448 20451 20454 20457 20460 20462 20465 20468 20471 20474 20477 20480 20483 20486 20489 20491 20494 20496 20499 20502 20505 20508 20510 20512 20515 20518 20520 20523 20526 20529 20532 20535 20538 20541 20544 20547 20550 20553 20556 20559 20562 20565 20568 20571 20574 20577 20580 20583 20586 20589 20592 20595 20598 20601 20604 20607 20610 20612 20615 20618 20621 20624 20627 20630 20633 20636 20639 20642 20645 20647 20650 20653 20656 20659 20662 20665 20668 20671 20674 20676 20679 20682 20684 20687 20690 20693 20696 20699 20702 20705 20708 20711 20714 20717 20720 20723 20726 20729 20732 20735 20738 20741 20744 20747 20750 20753 20756 20759 20762 20765 20768 20771 20774 20777 20780 20783 20786 20789 20792 20795 20798 20801 20804 20807 20810 20813 20816 20819 20822 20825 20828 20831 20834 20837 20840 20843 20846 20849 20852 20855 20858 20861 20864 20867 20870 20873 20876 20879 20882 20885 20888 20891 20894 20897 20900 20903 20906 20909 20912 20915 20918 20921 20924 20927 20930 20933 20936 20939 20942 20945 20948 20951 20954 20957 20960 20963 20966 20969 20972 20975 20978 20981 20984 20987 20990 20993 20996 20999 21002 21005 21008 21011 21014 21017 21020 21023 21026 21029 21032 21035 21038 21041 21044 21047 21050 21053 21056 21059 21062 21065 21068 21071 21074 21077 21080 21083 21086 21089 21092 21095 21098 21101 21104 21107 21110 21113 21116 21118 21120 21122 21124 21127 21130 21133 21136 21139 21142 21145 21148 21151 21153 21156 21159 21161 21164 21167 21170 21173 21176 21179 21182 21185 21188 21191 21194 21197 21199 21202 21205 21208 21211 21213 21216 21219 21222 21225 21227 21230 21233 21236 21239 21242 21245 21247 21249 21252 21255 21258 21261 21264 21267 21270 21272 21275 21278 21281 21284 21287 21289 21292 21295 21298 21301 21304 21307 21310 21313 21316 21319 21321 21324 21327 21330 21333 21336 21339 21342 21344 21347 21350 21353 21356 21359 21361 21364 21367 21370 21373 21376 21379 21382 21385 21388 21391 21394 21397 21400 21403 21406 21409 21412 21415 21418 21421 21424 21427 21430 21433 21436 21439 21442 21445 21448 21451 21454 21457 21460 21463 21466 21468 21471 21474 21477 21480 21483 21486 21489 21492 21495 21498 21501 21503 21505 21508 21511 21514 21516 21519 21521 21524 21527 21530 21533 21535 21538 21541 21544 21547 21550 21553 21556 21559 21562 21565 21568 21571 21574 21577 21580 21583 21586 21589 21592 21595 21598 21601 21604 21607 21610 21613 21616 21619 21622 21625 21628 21630 21633 21636 21639 21642 21645 21648 21650 21653 21656 21659 21662 21665 21668 21671 21674 21677 21679 21682 21685 21688 21691 21694 21697 21699 21702 21705 21708 21711 21714 21717 21720 21722 21725 21728 21731 21734 21737 21740 21742 21745 21748 21750 21752 21754 21757 21760 21763 21765 21768 21771 21773 21775 21778 21781 21783 21786 21789 21792 21794 21797 21800 21803 21805 21808 21811 21814 21816 21819 21822 21825 21827 21830 21833 21836 21839 21842 21845 21847 21850 21853 21856 21859 21862 21865 21868 21871 21874 21877 21880 21883 21886 21889 21892 21895 21898 21900 21903 21906 21909 21911 21914 21917 21919 21922 21925 21928 21931 21934 21937 21940 21943 21946 21949 21952 21955 21957 21960 21963 21966 21969 21972 21975 21978 21981 21984 21987 21990 21993 21996 21998 22000 22003 22006 22009 22012 22015 22018 22020 22023 22026 22028 22031 22034 22037 22040 22043 22046 22049 22052 22055 22058 22061 22064 22066 22069 22072 22075 22078 22081 22084 22087 22090 22093 22096 22099 22102 22105 22108 22110 22113 22116 22119 22122 22125 22128 22131 22133 22135 22138 22141 22144 22147 22150 22153 22156 22159 22162 22165 22168 22171 22174 22177 22180 22183 22186 22189 22192 22195 22198 22201 22204 22207 22209 22212 22215 22218 22221 22224 22227 22229 22232 22235 22238 22240 22243 22246 22249 22251 22254 22257 22259 22262 22265 22268 22271 22274 22276 22279 22281 22284 22287 22290 22293 22295 22298 22301 22304 22307 22310 22312 22315 22318 22320 22322 22325 22328 22331 22334 22336 22339 22342 22345 22348 22351 22354 22357 22359 22362 22365 22368 22371 22374 22377 22380 22383 22386 22388 22391 22394 22397 22400 22403 22406 22408 22411 22414 22416 22419 22421 22424 22427 22430 22433 22435 22438 22441 22444 22447 22450 22453 22456 22459 22462 22464 22467 22470 22473 22476 22478 22480 22483 22486 22489 22492 22495 22498 22501 22504 22507 22510 22513 22516 22519 22522 22525 22528 22531 22534 22537 22540 22543 22546 22549 22551 22554 22557 22560 22562 22565 22568 22571 22574 22577 22580 22583 22586 22589 22592 22594 22596 22599 22601 22604 22607 22610 22612 22615 22618 22621 22624 22627 22630 22633 22636 22639 22642 22645 22648 22651 22654 22657 22660 22663 22666 22669 22672 22675 22677 22680 22683 22686 22689 22691 22694 22697 22700 22703 22705 22708 22711 22713 22716 22719 22722 22724 22727 22730 22733 22736 22739 22742 22745 22748 22751 22754 22757 22760 22763 22765 22768 22771 22774 22777 22779 22782 22785 22787 22790 22792 22795 22798 22801 22804 22807 22810 22813 22816 22819 22822 22825 22828 22831 22834 22837 22840 22843 22845 22848 22851 22854 22857 22860 22863 22865 22868 22871 22874 22877 22879 22882 22885 22887 22890 22893 22896 22899 22902 22905 22908 22911 22914 22916 22919 22921 22923 22926 22929 22932 22935 22938 22940 22943 22946 22949 22952 22955 22958 22961 22964 22967 22970 22973 22976 22978 22981 22984 22987 22990 22993 22996 22999 23002 23005 23008 23011 23014 23017 23020 23022 23025 23028 23031 23034 23037 23040 23043 23046 23049 23052 23055 23058 23061 23064 23067 23070 23072 23075 23078 23081 23084 23087 23090 23093 23095 23098 23101 23104 23107 23110 23113 23115 23118 23120 23123 23126 23129 23132 23135 23138 23141 23144 23147 23150 23153 23156 23159 23162 23165 23168 23171 23174 23177 23180 23183 23186 23189 23192 23195 23198 23201 23203 23206 23209 23212 23215 23218 23221 23223 23225 23228 23231 23234 23237 23240 23242 23245 23248 23251 23253 23256 23259 23261 23264 23267 23270 23273 23275 23278 23281 23284 23287 23290 23293 23296 23298 23301 23304 23306 23308 23311 23314 23317 23320 23323 23326 23329 23332 23335 23338 23341 23344 23347 23350 23353 23356 23358 23361 23364 23367 23369 23372 23375 23378 23381 23384 23387 23389 23392 23395 23397 23400 23403 23406 23409 23412 23415 23418 23421 23424 23426 23429 23432 23435 23438 23441 23444 23447 23450 23452 23455 23458 23461 23464 23466 23469 23472 23475 23478 23481 23484 23486 23489 23492 23495 23498 23501 23504 23507 23510 23512 23515 23518 23521 23524 23527 23530 23533 23536 23538 23540 23543 23546 23549 23552 23555 23558 23561 23564 23566 23569 23571 23574 23577 23580 23583 23585 23588 23590 23592 23595 23598 23601 23604 23607 23610 23613 23616 23619 23622 23625 23628 23630 23633 23635 23637 23640 23643 23646 23649 23651 23654 23657 23659 23662 23665 23667 23670 23672 23675 23678 23681 23684 23687 23690 23693 23696 23699 23702 23705 23708 23711 23714 23717 23720 23723 23726 23729 23732 23735 23738 23741 23744 23747 23749 23752 23755 23758 23761 23764 23767 23769 23771 23774 23777 23780 23783 23786 23789 23792 23795 23798 23801 23804 23807 23810 23813 23816 23819 23822 23825 23828 23831 23834 23836 23839 23841 23844 23847 23849 23852 23854 23857 23860 23863 23866 23869 23872 23875 23878 23881 23884 23887 23890 23893 23896 23899 23902 23905 23908 23911 23914 23917 23920 23923 23926 23929 23931 23934 23937 23940 23943 23946 23949 23952 23955 23958 23961 23964 23967 23970 23973 23976 23979 23982 23985 23988 23991 23994 23997 24000 24003 24006 24008 24011 24014 24017 24020 24023 24026 24029 24032 24035 24037 24040 24042 24045 24048 24051 24053 24056 24059 24062 24065 24068 24071 24074 24077 24080 24083 24086 24088 24091 24094 24097 24100 24103 24106 24109 24112 24115 24118 24121 24124 24127 24130 24133 24136 24139 24142 24145 24148 24151 24154 24157 24160 24163 24166 24169 24172 24174 24176 24179 24182 24184 24187 24190 24193 24196 24199 24201 24204 24207 24210 24213 24216 24218 24221 24224 24227 24230 24233 24236 24238 24241 24244 24247 24250 24252 24255 24257 24260 24263 24266 24269 24272 24275 24278 24281 24283 24286 24289 24292 24295 24298 24301 24304 24307 24310 24313 24316 24318 24321 24324 24327 24329 24331 24334 24337 24340 24343 24345 24348 24350 24353 24356 24359 24362 24365 24368 24371 24374 24377 24380 24383 24385 24388 24391 24394 24397 24400 24403 24405 24408 24410 24413 24415 24417 24419 24422 24425 24428 24431 24434 24436 24439 24442 24444 24447 24450 24453 24456 24459 24462 24465 24468 24471 24474 24477 24480 24483 24485 24487 24489 24492 24495 24498 24500 24503 24505 24507 24510 24513 24516 24519 24521 24524 24527 24530 24533 24536 24539 24542 24545 24548 24551 24553 24556 24558 24561 24564 24567 24570 24573 24576 24579 24582 24585 24587 24590 24592 24595 24598 24601 24603 24606 24608 24611 24613 24616 24619 24621 24623 24626 24629 24632 24635 24637 24640 24643 24645 24647 24649 24652 24655 24657 24660 24662 24665 24668 24671 24674 24676 24678 24680 24683 24686 24688 24691 24694 24696 24698 24701 24704 24707 24710 24712 24715 24717 24719 24722 24725 24728 24730 24732 24734 24737 24740 24743 24746 24749 24752 24754 24757 24760 24763 24765 24768 24770 24773 24776 24778 24781 24784 24787 24790 24793 24796 24798 24800 24803 24806 24809 24812 24815 24818 24821 24823 24826 24829 24832 24835 24838 24841 24844 24847 24850 24853 24856 24859 24862 24865 24867 24870 24873 24875 24878 24881 24884 24887 24890 24893 24896 24899 24902 24905 24908 24911 24914 24917 24920 24923 24926 24928 24931 24934 24936 24939 24942 24944 24946 24949 24952 24955 24957 24960 24963 24966 24969 24972 24975 24977 24980 24983 24986 24989 24992 24995 24998 25000 25003 25006 25009 25011 25014 25017 25020 25022 25025 25027 25030 25032 25035 25038 25040 25043 25046 25048 25051 25054 25057 25059 25062 25064 25067 25070 25072 25075 25077 25080 25082 25084 25087 25090 25093 25095 25098 25100 25102 25105 25108 25111 25113 25115 25117 25120 25123 25126 25129 25132 25135 25138 25141 25144 25147 25149 25152 25155 25158 25161 25164 25167 25170 25173 25175 25178 25181 25184 25187 25189 25192 25195 25198 25201 25204 25207 25210 25213 25216 25219 25221 25224 25226 25229 25232 25235 25238 25241 25244 25247 25250 25253 25256 25259 25262 25265 25268 25271 25274 25276 25279 25282 25285 25287 25289 25292 25295 25298 25300 25302 25305 25308 25311 25314 25316 25319 25322 25324 25327 25330 25333 25335 25338 25340 25342 25345 25347 25350 25353 25356 25359 25362 25365 25368 25371 25374 25377 25380 25382 25385 25388 25391 25393 25396 25399 25402 25405 25408 25411 25413 25416 25419 25421 25424 25427 25429 25432 25435 25438 25441 25444 25447 25450 25453 25456 25459 25462 25465 25468 25471 25474 25477 25480 25483 25486 25489 25492 25495 25498 25501 25504 25507 25510 25513 25516 25518 25521 25524 25527 25530 25533 25536 25539 25542 25545 25548 25551 25554 25557 25560 25563 25566 25569 25572 25575 25578 25581 25584 25587 25590 25593 25596 25599 25602 25605 25608 25610 25613 25616 25619 25621 25624 25627 25630 25633 25636 25639 25642 25645 25648 25651 25654 25657 25660 25663 25666 25669 25672 25675 25678 25680 25682 25684 25687 25690 25692 25694 25697 25700 25703 25706 25708 25710 25713 25716 25718 25721 25724 25727 25730 25732 25735 25738 25741 25744 25747 25750 25753 25756 25759 25762 25765 25768 25771 25774 25777 25780 25783 25786 25789 25792 25795 25798 25801 25804 25807 25810 25813 25816 25819 25822 25825 25828 25831 25834 25836 25838 25841 25844 25847 25849 25852 25855 25858 25861 25864 25867 25870 25873 25876 25879 25881 25884 25887 25890 25892 25895 25898 25901 25904 25907 25910 25913 25916 25919 25922 25925 25928 25931 25934 25937 25940 25943 25946 25949 25952 25955 25958 25961 25964 25967 25970 25973 25976 25979 25981 25984 25987 25990 25993 25996 25999 26001 26004 26007 26010 26013 26015 26018 26020 26023 26026 26028 26031 26034 26037 26040 26042 26045 26047 26050 26053 26056 26059 26062 26064 26067 26069 26072 26075 26078 26081 26084 26087 26090 26093 26095 26098 26101 26104 26107 26110 26112 26115 26118 26121 26124 26127 26129 26132 26135 26138 26141 26144 26146 26149 26151 26153 26156 26158 26161 26163 26165 26168 26170 26173 26175 26178 26181 26183 26186 26189 26192 26195 26198 26201 26204 26207 26210 26213 26216 26218 26221 26224 26227 26230 26233 26236 26238 26241 26244 26247 26250 26253 26256 26259 26262 26265 26268 26271 26274 26277 26280 26283 26286 26289 26292 26295 26298 26301 26304 26307 26310 26313 26316 26318 26321 26324 26326 26328 26331 26333 26336 26339 26342 26345 26348 26351 26354 26357 26360 26363 26366 26369 26372 26375 26378 26381 26383 26386 26388 26391 26394 26397 26400 26403 26406 26409 26412 26414 26417 26419 26422 26425 26427 26429 26432 26435 26437 26440 26443 26446 26449 26452 26455 26458 26460 26463 26466 26468 26471 26474 26477 26480 26483 26486 26489 26492 26495 26498 26501 26504 26507 26510 26513 26516 26519 26521 26524 26526 26529 26532 26535 26538 26541 26544 26547 26550 26553 26556 26559 26562 26565 26567 26569 26572 26575 26578 26581 26584 26587 26589 26592 26595 26597 26600 26603 26606 26609 26612 26615 26618 26621 26624 26627 26629 26632 26635 26637 26640 26643 26646 26648 26651 26653 26656 26658 26661 26663 26665 26668 26671 26674 26676 26679 26682 26685 26688 26691 26694 26697 26700 26703 26706 26709 26712 26715 26718 26721 26724 26727 26730 26733 26735 26738 26741 26744 26747 26750 26753 26756 26758 26761 26764 26767 26770 26772 26775 26778 26781 26784 26787 26790 26793 26796 26799 26802 26805 26808 26811 26814 26817 26820 26823 26826 26829 26832 26835 26838 26841 26844 26846 26849 26852 26855 26858 26861 26864 26866 26869 26872 26875 26878 26881 26884 26887 26890 26893 26896 26899 26902 26905 26908 26910 26913 26915 26918 26921 26924 26927 26929 26932 26935 26938 26941 26943 26946 26949 26951 26954 26956 26959 26962 26964 26967 26970 26973 26976 26978 26981 26984 26987 26990 26993 26995 26997 27000 27002 27005 27008 27011 27014 27017 27020 27023 27026 27029 27032 27035 27038 27040 27043 27046 27049 27051 27054 27056 27059 27062 27064 27067 27070 27073 27076 27079 27082 27085 27087 27090 27093 27096 27098 27101 27104 27106 27109 27112 27114 27117 27119 27121 27124 27127 27130 27132 27135 27138 27141 27144 27147 27150 27153 27156 27159 27162 27165 27167 27170 27173 27176 27179 27182 27185 27188 27191 27194 27197 27200 27203 27206 27209 27212 27215 27218 27221 27224 27227 27229 27232 27235 27238 27241 27243 27246 27249 27252 27255 27258 27261 27264 27267 27270 27273 27276 27278 27281 27284 27286 27289 27291 27294 27297 27300 27303 27306 27309 27312 27315 27318 27320 27323 27326 27329 27332 27335 27338 27341 27344 27347 27350 27352 27355 27358 27361 27364 27367 27370 27373 27375 27378 27381 27384 27386 27388 27391 27394 27397 27400 27403 27406 27409 27412 27414 27417 27420 27422 27425 27428 27431 27434 27437 27440 27443 27446 27449 27452 27455 27458 27461 27464 27466 27469 27472 27475 27478 27481 27484 27487 27490 27493 27496 27499 27502 27505 27508 27511 27514 27517 27520 27523 27526 27529 27531 27534 27537 27539 27542 27545 27548 27551 27554 27557 27560 27563 27566 27569 27572 27575 27578 27581 27584 27586 27589 27592 27595 27598 27601 27604 27607 27609 27612 27615 27617 27620 27623 27626 27629 27632 27635 27638 27641 27644 27647 27650 27652 27655 27658 27661 27663 27666 27669 27672 27675 27678 27681 27684 27687 27689 27692 27695 27698 27701 27704 27707 27709 27712 27715 27718 27721 27724 27727 27730 27733 27736 27739 27742 27745 27748 27751 27754 27757 27760 27763 27766 27769 27772 27774 27777 27780 27783 27786 27788 27791 27794 27797 27800 27803 27806 27809 27811 27814 27817 27820 27822 27825 27828 27831 27834 27837 27840 27843 27846 27848 27851 27853 27856 27859 27862 27865 27868 27871 27874 27876 27879 27882 27885 27888 27891 27894 27897 27899 27901 27904 27907 27910 27913 27915 27917 27920 27923 27926 27928 27931 27934 27937 27940 27943 27946 27949 27952 27954 27957 27960 27962 27965 27968 27971 27974 27976 27978 27981 27984 27987 27990 27993 27996 27999 28002 28005 28007 28010 28013 28015 28018 28021 28024 28027 28030 28033 28036 28039 28041 28044 28047 28050 28053 28056 28058 28061 28064 28067 28070 28073 28076 28079 28082 28085 28088 28090 28093 28096 28099 28102 28105 28108 28111 28114 28117 28120 28123 28126 28129 28132 28135 28138 28140 28143 28146 28149 28152 28155 28158 28160 28162 28165 28167 28170 28173 28176 28179 28182 28185 28188 28191 28194 28197 28200 28203 28206 28209 28212 28215 28218 28221 28224 28226 28229 28232 28234 28236 28239 28242 28245 28248 28251 28254 28257 28260 28263 28266 28269 28272 28274 28277 28280 28283 28286 28289 28292 28295 28298 28301 28304 28307 28310 28313 28316 28319 28322 28325 28328 28331 28334 28336 28339 28341 28344 28347 28350 28353 28356 28359 28362 28365 28368 28371 28374 28377 28380 28383 28386 28389 28392 28395 28398 28401 28404 28406 28409 28412 28415 28418 28420 28423 28426 28429 28432 28435 28438 28441 28444 28447 28449 28451 28454 28457 28460 28463 28465 28468 28471 28474 28477 28480 28483 28485 28488 28490 28493 28496 28499 28502 28505 28508 28511 28514 28517 28520 28523 28526 28529 28532 28535 28538 28541 28544 28547 28550 28553 28555 28558 28560 28563 28565 28568 28571 28573 28576 28578 28581 28584 28587 28590 28593 28595 28597 28600 28603 28606 28608 28611 28614 28616 28619 28622 28625 28628 28631 28634 28637 28639 28641 28644 28647 28650 28652 28655 28658 28661 28664 28667 28670 28673 28676 28678 28681 28684 28687 28690 28693 28696 28699 28701 28704 28707 28710 28713 28716 28719 28722 28725 28728 28731 28733 28736 28738 28741 28744 28747 28750 28753 28756 28758 28761 28764 28767 28770 28772 28775 28778 28781 28784 28786 28789 28792 28795 28798 28801 28803 28806 28809 28812 28815 28818 28821 28824 28827 28829 28832 28835 28838 28841 28844 28847 28850 28852 28855 28858 28861 28863 28866 28869 28872 28875 28878 28881 28884 28887 28890 28893 28896 28899 28902 28905 28908 28911 28914 28917 28920 28923 28926 28929 28932 28935 28938 28941 28944 28947 28950 28953 28956 28959 28962 28965 28968 28971 28974 28977 28980 28982 28985 28988 28991 28994 28997 29000 29003 29006 29008 29011 29013 29016 29019 29022 29025 29027 29030 29033 29036 29039 29042 29045 29048 29051 29054 29057 29060 29063 29066 29069 29072 29075 29078 29081 29084 29087 29089 29092 29095 29098 29101 29104 29107 29110 29112 29115 29118 29121 29124 29127 29130 29132 29135 29138 29140 29143 29145 29148 29151 29153 29156 29159 29162 29165 29168 29171 29174 29177 29179 29182 29185 29187 29190 29193 29196 29199 29202 29205 29208 29211 29214 29217 29220 29223 29226 29229 29231 29234 29237 29240 29243 29245 29248 29251 29253 29256 29258 29261 29264 29267 29270 29272 29275 29278 29281 29284 29287 29290 29293 29296 29299 29302 29305 29308 29310 29313 29316 29319 29322 29325 29328 29330 29333 29336 29339 29342 29345 29348 29351 29353 29356 29359 29362 29365 29368 29371 29374 29377 29380 29383 29386 29389 29392 29395 29398 29401 29404 29407 29410 29413 29416 29419 29422 29424 29427 29430 29433 29436 29438 29441 29444 29447 29450 29452 29455 29458 29461 29464 29467 29470 29473 29476 29479 29482 29485 29488 29491 29494 29497 29500 29503 29506 29509 29512 29515 29518 29521 29524 29527 29530 29533 29536 29539 29542 29545 29548 29551 29554 29557 29560 29563 29566 29569 29572 29575 29577 29580 29583 29586 29589 29592 29595 29598 29601 29604 29607 29610 29613 29615 29618 29621 29624 29627 29630 29633 29636 29639 29642 29645 29648 29651 29654 29656 29659 29662 29665 29668 29671 29674 29677 29680 29683 29686 29689 29692 29695 29698 29701 29703 29706 29709 29712 29715 29718 29720 29723 29726 29729 29732 29735 29738 29741 29744 29747 29750 29753 29756 29759 29762 29765 29768 29771 29774 29777 29780 29783 29786 29789 29792 29795 29797 29800 29803 29806 29809 29812 29815 29818 29821 29824 29827 29830 29833 29836 29839 29842 29845 29848 29851 29854 29857 29860 29863 29866 29869 29872 29875 29878 29881 29884 29887 29890 29893 29896 29899 29902 29905 29908 29911 29914 29917 29920 29923 29926 29929 29932 29935 29938 29941 29944 29947 29950 29953 29956 29958 29961 29964 29967 29970 29973 29976 29979 29982 29985 29988 29991 29994 29997 30000 30003 30006 30009 30012 30015 30017 30020 30023 30026 30029 30032 30035 30038 30041 30043 30046 30049 30052 30055 30058 30060 30062 30065 30068 30071 30074 30077 30079 30082 30085 30087 30090 30092 30095 30098 30100 30102 30104 30107 30109 30112 30115 30118 30121 30124 30127 30130 30132 30134 30137 30140 30143 30145 30148 30151 30154 30157 30160 30163 30166 30168 30170 30173 30176 30178 30181 30184 30187 30190 30192 30195 30197 30200 30203 30205 30208 30211 30213 30216 30219 30222 30225 30228 30231 30234 30237 30240 30243 30246 30249 30252 30255 30258 30261 30264 30267 30270 30273 30276 30278 30281 30283 30286 30288 30291 30294 30297 30300 30303 30305 30308 30311 30314 30317 30320 30322 30325 30327 30330 30333 30336 30339 30341 30344 30347 30350 30353 30356 30359 30362 30365 30367 30370 30373 30376 30379 30382 30385 30388 30391 30393 30396 30399 30402 30405 30408 30411 30414 30417 30420 30423 30425 30428 30431 30434 30437 30440 30443 30446 30449 30452 30455 30457 30460 30463 30466 30469 30472 30475 30478 30481 30484 30487 30490 30493 30496 30498 30501 30504 30507 30509 30512 30515 30517 30520 30523 30525 30528 30531 30534 30537 30540 30543 30546 30549 30551 30554 30557 30559 30562 30565 30568 30570 30573 30576 30579 30582 30585 30588 30590 30592 30595 30597 30600 30602 30605 30607 30609 30612 30615 30618 30621 30624 30627 30630 30633 30636 30638 30640 30643 30646 30649 30652 30655 30658 30660 30663 30666 30669 30672 30675 30678 30681 30684 30687 30690 30693 30695 30698 30701 30704 30707 30710 30713 30716 30718 30721 30724 30727 30730 30733 30736 30738 30741 30743 30746 30749 30752 30754 30757 30760 30763 30766 30769 30772 30775 30778 30781 30784 30787 30790 30793 30796 30799 30802 30805 30808 30811 30814 30817 30820 30823 30826 30829 30832 30835 30838 30841 30844 30847 30850 30853 30856 30859 30862 30865 30868 30871 30874 30877 30880 30883 30886 30889 30892 30894 30897 30900 30903 30906 30909 30911 30914 30917 30920 30922 30925 30928 30931 30934 30937 30940 30942 30945 30948 30951 30954 30957 
</DataArray>
<DataArray type="UInt32" Name="types" format="ascii">
5 5 5 5 5 5 5 5 5 5 5 5 5 5 3 5 5 5 5 5 5 3 5 3 5 5 5 5 5 5 5 5 5 5 5 5 5 5 5 5 5 5 5 5 5 5 3 5 5 5 5 5 5 3 5 3 5 5 5 5 5 5 5 5 5 5 5 5 5 5 3 5 5 5 5 5 5 5 5 5 5 5 3 5 3 5 5 5 3 5 5 5 5 5 3 3 5 5 5 5 5 5 5 5 5 5 3 5 5 5 3 5 5 5 5 5 5 5 5 5 5 3 5 3 5 5 3 5 5 5 5 5 5 5 3 5 5 5 5 5 5 5 5 3 5 5 3 5 5 3 5 5 3 5 5 5 5 5 5 5 5 5 5 5 5 5 3 5 5 3 5 3 3 5 5 5 5 5 5 5 5 5 3 5 5 5 5 5 5 5 5 5 5 5 5 5 5 5 5 5 5 5 5 5 5 5 5 5 5 5 5 5 5 5 3 3 5 5 3 3 5 5 3 5 3 5 5 3 5 3 5 5 5 5 5 5 5 5 3 5 5 5 3 5 5 3 5 3 5 5 3 3 5 5 5 3 5 5 3 3 5 5 5 5 3 3 3 5 5 5 3 5 5 3 5 5 5 5 5 5 5 3 5 5 3 5 5 5 5 3 5 5 5 5 5 5 5 5 3 5 5 3 5 3 5 5 5 3 5 5 5 5 5 5 5 5 5 5 5 5 3 5 5 5 5 3 5 3 3 5 5 5 5 5 5 5 5 5 5 3 3 5 5 5 5 5 5 5 5 5 5 5 5 5 5 5 5 5 5 5 5 5 5 5 5 5 5 5 5 5 5 5 5 5 5 5 5 5 5 5 5 5 5 5 5 5 5 5 5 5 5 5 5 5 5 5 5 5 5 3 5 5 3 5 5 5 5 5 5 5 5 5 5 5 5 3 5 5 5 5 5 5 3 3 5 5 5 5 5 3 3 5 5 5 5 3 5 3 5 5 5 5 5 3 5 3 5 5 3 3 3 5 5 5 3 5 5 5 3 5 5 3 5 5 5 5 5 5 5 5 5 5 5 5 5 5 5 5 5 5 5 5 5 5 5 5 5 5 3 5 5 5 5 5 5 5 5 5 5 5 5 5 5 5 5 5 5 5 5 5 5 5 5 5 5 5 5 5 5 5 5 5 5 5 5 3 5 5 5 5 5 5 5 5 5 5 5 5 5 5 5 5 5 3 5 3 5 5 5 5 3 5 5 3 5 5 5 5 5 5 3 5 5 5 5 5 5 5 5 5 5 5 3 5 5 5 5 5 5 5 5 5 5 5 5 5 5 5 5 5 5 5 5 5 5 5 5 5 5 5 5 5 5 5 5 5 5 5 5 5 5 5 5 5 5 5 3 5 5 5 5 5 5 5 5 5 5 5 5 3 5 5 5 3 5 5 5 3 3 5 5 3 5 5 5 5 5 5 5 5 5 5 5 5 5 5 5 5 5 5 5 5 5 5 5 5 5 5 5 5 5 5 5 5 5 3 5 5 5 5 5 5 5 5 5 3 5 5 3 3 5 5 5 5 5 3 5 5 3 3 5 5 3 5 3 5 5 5 5 5 3 5 5 5 3 5 5 5 5 5 5 5 5 5 5 5 5 3 3 5 5 3 5 5 5 5 5 5 5 5 5 5 5 5 5 5 5 5 5 5 5 5 5 5 3 5 5 5 5 3 5 5 5 5 5 5 5 5 3 5 3 5 5 5 5 5 5 5 5 5 5 5 3 5 5 5 5 3 5 5 5 5 5 5 3 5 5 5 5 3 3 5 3 5 5 3 5 5 5 5 5 5 5 5 5 5 5 5 5 5 5 5 5 3 5 3 5 5 5 5 5 3 5 5 5 5 5 5 5 5 5 5 5 5 5 5 5 5 5 5 5 5 5 5 5 5 5 5 5 5 5 5 5 5 5 5 5 5 5 5 5 5 5 5 5 5 5 5 5 5 5 5 5 5 5 5 5 5 5 5 5 5 5 5 5 5 5 5 5 3 5 3 5 5 5 5 5 5 5 5 5 5 5 5 5 5 5 5 5 5 5 5 5 5 5 5 5 5 5 5 5 5 5 5 5 5 5 5 5 5 5 5 5 3 5 5 5 5 5 5 5 5 5 5 5 5 5 5 5 3 5 5 5 5 5 5 3 5 5 5 5 5 5 5 5 5 5 5 5 5 5 5 5 5 5 5 3 5 5 3 5 5 3 5 5 5 5 3 5 3 5 5 5 5 5 5 5 5 5 5 5 5 5 5 5 5 5 5 5 5 5 5 5 5 5 3 5 3 5 5 5 5 5 5 5 5 5 5 5 3 5 5 5 3 5 5 3 5 3 5 5 5 5 5 5 5 5 5 5 5 5 5 5 3 5 5 5 5 5 5 3 5 5 5 5 5 5 5 5 3 5 5 5 5 5 5 5 5 5 5 5 5 5 5 5 5 5 5 5 3 5 5 5 5 5 5 5 5 5 5 5 5 5 5 5 5 5 5 5 5 5 5 5 5 5 5 3 5 5 5 5 3 5 5 5 3 5 5 5 5 5 5 5 5 5 5 5 5 5 5 3 5 5 5 3 5 5 5 5 5 3 5 5 5 5 5 5 5 5 5 5 5 5 5 5 5 5 3 5 3 5 3 5 5 5 3 5 5 5 5 5 5 5 5 5 5 5 5 5 5 3 5 5 5 5 5 5 5 5 5 5 5 5 5 5 3 3 5 5 5 5 5 5 5 5 5 5 5 5 5 5 5 5 5 5 5 5 5 5 5 5 5 5 5 5 3 5 5 5 5 3 5 5 5 3 5 5 5 5 5 5 5 5 3 5 5 5 3 5 5 3 5 5 3 3 5 5 5 5 5 5 3 5 5 5 5 5 5 5 5 5 5 5 5 5 3 5 5 5 5 3 5 5 5 5 5 5 5 5 5 5 5 5 5 5 5 5 5 5 5 5 5 5 5 5 5 5 5 5 5 5 5 5 5 5 5 5 5 5 5 5 5 5 5 5 5 5 5 5 5 5 5 5 5 5 5 5 5 5 5 5 5 5 5 5 5 5 5 5 5 5 3 5 5 5 5 5 5 5 5 5 5 5 3 5 5 5 5 3 5 5 5 5 5 3 5 5 5 3 5 5 5 3 5 5 5 5 5 5 5 5 3 5 5 5 3 5 3 5 5 3 5 5 5 5 5 3 5 5 5 5 5 5 3 5 5 5 5 5 5 5 5 5 5 5 3 3 5 5 5 5 5 5 5 5 5 5 5 5 5 5 5 5 5 5 5 5 5 5 5 5 5 5 5 5 5 3 5 5 5 5 3 5 5 5 5 5 5 5 5 3 5 5 5 5 3 3 5 5 5 5 5 5 5 5 5 5 3 5 5 5 5 5 5 5 5 5 3 5 5 5 5 5 5 5 5 5 5 5 5 5 5 5 5 5 5 5 5 5 5 5 5 5 5 5 3 5 5 5 5 5 5 5 5 5 5 5 5 5 5 5 5 5 5 5 5 5 5 5 5 5 5 5 5 5 5 5 5 5 5 5 5 5 5 5 5 5 5 5 5 5 5 5 5 5 3 5 5 5 5 3 3 5 5 5 5 5 5 5 5 5 5 5 5 5 5 5 5 5 5 3 5 5 5 5 5 5 5 5 5 5 5 5 5 5 5 3 5 5 5 5 5 5 5 5 5 5 5 5 5 5 5 5 5 5 5 5 5 5 5 5 5 5 5 5 5 5 5 3 5 5 3 5 5 3 5 5 5 5 3 3 5 5 5 5 5 5 5 3 5 5 5 5 5 5 3 5 5 5 5 5 5 5 5 5 5 5 5 5 3 5 3 5 5 5 5 5 5 3 5 5 5 5 5 5 5 5 5 5 5 5 5 5 5 5 5 5 5 5 5 5 3 3 5 3 5 5 5 5 5 3 5 3 5 5 5 3 5 3 5 5 5 5 3 5 5 3 5 5 5 3 5 5 5 3 5 5 5 3 5 5 5 5 5 5 5 5 5 3 5 5 5 5 3 5 3 5 5 3 5 5 5 3 5 3 5 5 5 5 5 5 3 5 5 3 5 3 5 5 5 5 5 5 5 5 5 5 5 5 5 5 3 5 5 5 5 5 3 3 5 5 5 3 5 5 5 5 3 5 5 3 5 5 5 5 5 5 5 3 5 5 5 5 5 5 5 5 5 5 5 5 5 5 5 3 5 5 5 5 5 5 5 5 3 5 3 5 5 5 3 5 3 5 5 5 5 5 5 5 5 5 5 5 5 5 5 5 5 5 5 5 5 5 5 5 5 5 5 5 3 5 5 5 3 5 5 5 5 5 5 3 5 5 5 3 5 3 5 5 5 5 5 5 5 5 3 3 5 5 5 5 5 5 3 5 5 5 3 5 5 5 3 5 5 5 5 5 5 5 5 5 5 5 5 3 5 3 5 5 5 5 5 5 5 5 5 5 3 5 3 3 5 5 5 5 5 5 5 5 5 5 5 5 5 3 5 5 3 5 3 5 5 5 5 5 5 3 5 5 5 3 5 3 5 5 5 3 5 5 3 3 5 3 5 5 3 5 5 5 5 5 5 5 5 5 5 5 5 5 3 3 5 5 5 5 5 5 5 5 5 5 5 5 5 5 5 5 5 5 5 5 3 5 3 3 5 5 5 3 5 3 3 5 5 5 5 3 5 5 5 5 5 5 3 5 5 5 5 5 5 5 5 5 5 5 5 3 5 5 5 5 5 5 5 5 5 5 5 5 5 3 5 3 5 5 5 5 5 5 5 5 3 5 3 5 5 5 3 5 5 5 5 5 3 5 3 3 5 5 3 5 5 5 5 3 5 3 5 5 3 5 5 3 5 5 5 5 5 5 3 3 5 5 3 5 5 3 5 5 3 3 5 5 5 3 5 5 5 3 5 3 5 3 5 5 3 5 5 3 5 5 5 3 5 5 5 3 5 5 5 3 5 3 5 5 5 3 5 5 5 5 5 5 5 5 5 5 5 5 5 5 5 5 5 5 5 5 5 5 5 5 5 5 5 5 5 5 5 5 5 5 5 5 5 5 5 5 5 5 5 3 5 5 5 5 5 5 3 3 5 5 5 5 5 5 5 5 5 5 5 5 5 5 5 5 5 5 5 5 5 5 5 5 5 5 5 5 5 5 5 5 5 5 5 5 5 5 5 5 3 5 5 5 3 5 5 3 3 5 5 3 5 3 5 3 3 5 5 5 5 5 3 5 3 5 5 3 5 5 5 5 5 3 5 5 5 5 5 5 5 5 5 5 5 5 3 5 3 5 3 5 5 5 5 5 3 3 3 5 5 3 3 5 5 5 3 5 3 5 3 3 5 3 5 5 5 3 5 5 5 5 5 5 5 3 3 5 5 3 5 5 3 5 3 5 5 3 5 5 3 5 3 5 5 5 3 5 3 5 5 3 5 3 3 5 3 3 3 5 5 5 5 3 5 5 3 5 5 5 5 3 5 5 5 5 5 5 3 5 3 5 5 5 3 3 5 5 5 5 5 5 3 5 5 3 5 3 5 5 3 5 5 3 5 5 5 5 3 3 5 5 5 5 3 5 5 5 5 5 5 5 5 5 3 5 5 5 5 5 5 5 3 5 3 5 3 5 5 3 5 5 5 5 3 3 5 5 5 3 3 3 5 5 5 5 3 3 3 3 5 5 3 5 5 3 5 5 5 3 5 5 5 3 5 3 5 5 5 5 5 5 5 3 3 5 5 3 5 5 5 5 5 5 5 3 5 5 5 5 5 5 5 3 5 5 5 5 5 5 5 5 5 5 5 5 5 5 3 5 5 5 5 5 5 5 5 5 5 3 5 5 3 5 3 5 5 5 3 5 3 5 5 5 5 5 5 5 3 5 5 5 5 5 5 5 5 5 5 5 5 5 5 5 5 3 5 5 3 5 3 5 3 5 3 5 5 5 3 3 5 5 5 5 5 5 3 5 5 5 5 5 5 5 3 5 5 3 5 5 5 5 5 5 5 5 5 5 5 5 5 5 5 5 5 3 5 5 5 3 5 5 5 5 5 5 5 5 5 5 5 5 5 5 5 5 5 5 5 5 5 5 5 5 3 5 5 5 5 5 5 5 5 5 5 5 3 5 5 5 5 5 5 3 5 5 5 5 5 5 5 5 5 5 3 5 5 3 3 5 3 5 5 5 3 5 5 5 3 5 5 5 5 5 5 5 5 5 5 3 5 5 5 5 5 5 5 5 5 5 5 5 3 5 5 3 5 5 5 5 3 5 5 3 5 5 5 3 5 5 5 3 3 5 5 5 3 5 3 5 5 5 5 5 5 5 5 5 5 5 3 5 5 3 5 5 5 5 3 5 5 3 5 5 5 5 5 3 3 5 5 5 5 3 5 5 5 5 5 5 5 3 5 5 5 5 3 5 5 5 5 5 5 3 5 5 3 5 5 3 5 5 3 3 5 3 5 5 5 3 3 5 5 3 5 5 3 5 3 5 5 5 5 5 5 5 3 5 5 5 5 3 5 5 5 5 5 5 5 5 5 5 5 5 5 5 5 5 5 3 5 5 5 5 5 5 5 5 5 5 5 5 5 5 3 5 5 5 5 5 3 5 5 3 5 5 5 5 3 5 5 5 3 5 5 5 3 5 5 5 5 5 5 5 5 5 5 5 5 5 5 5 5 5 5 5 3 5 5 5 3 5 5 3 5 5 5 5 3 5 5 5 5 5 3 5 5 5 5 5 5 5 5 5 5 5 3 5 5 5 5 5 5 5 5 5 5 5 3 5 5 5 5 3 5 3 5 5 5 5 5 5 5 5 5 5 3 5 3 3 5 3 5 5 5 5 3 3 5 5 3 5 5 3 5 5 5 3 5 5 3 5 5 5 5 3 5 5 5 5 3 3 5 5 5 5 5 5 5 3 5 5 5 5 5 5 5 5 5 5 5 5 5 5 5 5 5 5 5 3 3 5 5 5 5 3 5 5 5 3 5 5 5 5 5 5 5 5 5 5 5 3 5 5 3 5 5 5 5 5 5 3 5 3 5 5 5 5 3 5 3 5 5 3 5 5 3 5 5 5 3 5 5 5 3 5 5 3 5 5 5 5 5 5 3 5 5 3 5 5 5 5 5 3 5 3 5 5 3 5 5 3 5 3 5 5 5 5 5 3 3 5 5 5 5 5 3 5 5 5 5 5 5 5 5 5 5 5 5 5 5 5 5 5 5 5 5 3 5 5 5 5 3 5 5 5 3 3 5 5 5 5 5 3 5 5 5 5 5 5 5 3 5 5 5 5 5 5 5 5 3 5 5 3 5 5 5 5 3 5 5 5 5 3 5 3 5 5 3 5 5 5 5 5 3 5 5 5 5 3 5 5 5 5 5 3 5 5 5 5 5 5 3 5 5 3 5 5 3 5 5 5 3 5 3 5 5 3 5 5 5 5 5 5 5 3 5 5 5 5 5 3 5 5 5 3 5 5 5 5 5 5 5 5 5 5 5 5 5 5 5 5 5 3 5 5 5 5 3 5 5 5 5 5 5 5 5 5 5 5 5 5 5 5 5 5 3 5 5 5 5 5 3 3 5 5 5 3 5 5 5 5 3 5 5 5 5 5 5 3 3 5 5 5 5 5 5 3 3 5 5 5 5 3 5 5 5 5 5 5 3 5 5 5 5 5 5 5 5 5 5 3 5 5 3 5 5 5 5 5 5 5 5 5 5 5 5 5 5 5 5 5 5 5 5 5 5 5 5 5 5 5 5 5 5 5 5 5 5 5 5 5 5 5 5 5 3 5 5 5 3 5 5 5 5 5 5 3 5 5 5 5 5 5 5 5 5 3 5 5 5 5 5 5 5 5 5 5 5 5 5 5 3 5 5 3 3 5 5 5 5 5 5 5 5 5 5 5 5 5 5 5 5 5 5 5 5 5 3 5 5 5 5 3 5 5 5 5 5 5 3 5 5 3 5 5 3 5 5 5 3 5 5 5 5 5 5 5 5 3 5 5 5 5 5 5 5 5 5 5 3 5 3 5 5 5 5 3 5 5 3 5 5 5 5 5 5 5 5 5 5 3 5 5 5 5 5 5 5 5 5 5 5 3 5 3 5 5 5 5 5 5 5 5 5 5 5 5 5 5 5 5 5 5 5 5 3 5 5 5 3 5 3 5 3 5 5 3 5 3 3 5 5 5 3 3 5 5 3 5 5 5 5 5 5 5 5 5 5 5 5 5 5 3 3 5 5 3 5 3 5 5 5 5 3 5 5 5 5 5 5 5 5 3 5 5 5 5 5 5 5 5 5 5 5 5 5 5 5 5 5 5 5 5 5 3 5 3 5 5 5 5 3 3 5 3 5 5 5 5 5 3 5 5 5 3 5 3 5 3 5 5 5 5 5 5 5 5 5 5 3 5 5 3 5 5 5 3 5 5 5 5 5 5 5 5 5 5 5 5 5 5 3 3 5 5 5 5 3 5 3 5 3 5 5 5 5 5 5 3 5 3 3 5 5 5 5 3 3 5 3 5 5 5 5 5 3 5 5 5 5 5 5 5 3 5 5 5 5 5 5 3 3 5 5 5 5 5 3 5 5 5 5 5 3 3 5 5 5 3 5 5 5 3 5 5 5 5 5 5 5 5 5 5 5 5 5 5 5 5 5 5 5 5 5 5 5 5 5 5 5 5 5 3 5 5 5 5 3 3 5 5 5 5 5 5 5 5 5 5 5 5 5 5 5 5 3 5 5 5 5 5 5 5 5 5 5 5 5 5 5 5 3 5 5 5 5 5 5 5 5 5 5 3 5 5 5 5 5 5 3 5 5 5 5 5 5 5 5 5 5 5 5 5 5 5 5 5 5 5 5 5 5 5 5 5 5 5 5 5 5 5 5 5 5 5 5 5 5 5 5 5 5 5 5 5 5 5 5 5 5 5 5 3 5 5 5 5 5 5 5 5 5 5 5 5 5 5 5 5 5 5 5 5 5 5 5 5 5 5 5 5 3 5 5 5 5 5 5 5 5 5 5 5 5 5 5 5 5 5 5 5 5 5 5 5 5 5 5 5 5 5 5 5 5 5 5 5 5 5 5 5 5 5 5 5 5 5 5 5 5 5 5 5 5 5 5 5 5 5 5 5 5 5 5 5 5 5 5 5 5 3 5 5 5 5 5 5 5 5 5 5 5 5 5 5 3 5 5 3 5 5 5 5 5 5 5 5 5 5 5 5 3 3 5 5 5 5 5 5 5 5 5 5 5 5 5 3 5 3 5 5 5 5 3 5 5 5 5 5 5 5 5 5 5 5 3 5 5 5 5 5 5 5 5 5 3 5 3 5 5 3 5 5 3 3 5 5 5 3 3 5 5 5 5 5 5 5 3 5 3 3 5 5 3 5 5 5 5 5 5 5 3 5 5 3 5 5 3 5 3 5 3 5 5 5 5 5 3 3 3 5 5 5 5 5 5 5 3 5 5 5 3 3 5 5 5 5 5 3 5 5 5 5 5 5 5 5 5 5 5 5 5 5 5 5 5 5 5 5 5 5 5 5 5 5 5 5 5 5 5 5 5 5 5 5 5 5 3 5 5 5 3 5 3 5 5 5 3 5 5 3 5 3 3 3 5 5 5 5 5 5 3 5 5 5 5 5 5 3 5 5 5 5 5 5 5 5 5 5 5 5 5 5 5 5 5 5 5 5 3 5 5 5 5 5 5 3 5 5 5 5 5 5 5 3 5 3 5 5 5 5 3 5 5 5 5 5 3 3 5 5 3 5 5 5 3 5 5 5 5 5 5 5 3 5 5 5 5 5 5 5 5 5 5 5 5 5 5 5 5 5 3 3 5 5 5 5 5 5 5 5 5 5 5 5 5 5 5 5 5 5 5 5 5 5 5 5 5 5 5 5 5 5 5 5 5 5 3 3 5 5 5 5 5 3 5 5 5 5 5 5 5 5 5 5 5 5 5 5 5 5 5 5 5 5 5 5 5 5 5 5 5 5 5 5 5 5 5 3 5 5 5 5 5 3 5 5 5 5 5 5 3 5 5 5 5 5 3 5 5 5 5 5 5 3 5 5 5 5 5 5 5 5 3 5 5 3 5 5 5 3 5 5 5 5 5 3 5 5 5 5 5 5 5 5 5 5 5 5 5 5 5 5 5 3 3 5 5 5 5 5 5 5 5 5 5 5 5 5 5 5 5 3 5 5 5 5 5 5 5 5 5 5 5 5 5 5 5 5 5 5 5 5 5 5 5 5 5 5 5 5 5 5 5 5 5 5 5 5 5 5 5 5 5 3 5 5 5 5 3 5 5 5 5 5 3 5 5 5 3 5 5 3 3 3 5 5 5 5 5 5 5 5 5 5 3 5 5 5 5 5 5 5 5 5 5 5 5 5 5 5 5 5 5 5 3 5 3 5 5 5 5 5 5 3 3 5 5 5 5 5 5 5 5 5 5 5 5 5 5 5 5 3 5 5 5 5 5 5 5 5 3 5 5 5 3 5 5 5 5 5 5 5 5 5 5 5 3 5 5 5 5 5 5 5 5 5 5 5 5 5 5 5 5 5 5 5 5 3 5 5 5 5 3 5 5 3 5 5 5 5 5 5 5 3 5 5 5 5 5 5 3 3 5 5 5 5 5 5 5 5 5 5 5 5 5 5 5 5 5 3 5 3 5 5 5 5 3 5 5 5 3 5 5 5 5 5 5 5 5 5 5 5 5 5 5 3 5 5 5 5 5 3 5 5 3 5 5 5 5 3 5 5 5 3 5 3 3 5 5 5 5 3 3 5 5 5 5 5 5 5 5 5 5 5 5 5 5 3 5 3 5 5 5 3 5 5 5 5 5 5 5 5 5 5 5 5 5 5 5 5 5 5 3 5 5 3 5 5 3 3 5 3 3 5 5 5 5 3 5 3 5 5 5 5 3 5 5 5 3 5 5 5 5 5 5 5 5 3 5 5 5 5 5 3 5 5 5 5 5 3 3 5 5 5 5 3 3 5 5 3 3 3 3 5 5 5 3 5 5 5 3 5 3 5 5 5 5 5 5 5 5 5 5 5 5 5 5 5 5 3 5 5 5 5 5 5 5 3 5 5 5 5 5 5 5 5 5 5 5 5 5 5 5 5 5 5 5 5 5 5 5 5 5 3 5 3 5 5 5 3 3 5 5 5 5 5 5 5 5 5 5 5 5 5 5 5 5 5 5 5 5 5 5 5 5 5 5 5 5 3 5 5 5 5 3 5 5 3 5 5 5 5 5 5 5 5 5 3 5 5 5 5 3 5 3 5 5 5 3 5 3 5 5 5 5 5 5 5 5 5 5 5 5 3 5 3 5 3 3 5 3 3 5 3 5 5 3 5 3 5 5 3 5 5 3 3 5 5 3 5 5 3 5 3 3 5 5 5 3 3 5 5 3 5 5 3 3 5 5 5 5 3 5 5 3 5 5 5 5 5 5 5 3 5 5 5 3 5 5 5 5 3 5 5 3 5 3 3 5 3 3 5 5 5 3 3 5 5 3 5 3 5 3 5 5 3 5 5 3 3 5 3 5 3 5 5 5 5 3 5 5 5 5 5 5 5 5 5 5 3 5 5 5 3 5 3 5 5 5 3 5 5 5 5 5 3 5 5 5 5 5 5 3 5 5 5 5 5 5 5 5 5 5 5 5 5 5 5 5 5 5 5 3 5 5 5 5 5 3 5 3 5 5 5 5 5 3 5 5 5 5 5 3 5 5 5 5 5 3 3 5 5 5 5 5 5 5 5 5 5 5 5 5 5 5 5 5 5 5 5 3 5 5 5 5 5 5 3 5 5 5 5 5 5 3 3 5 5 5 5 5 3 5 5 3 3 5 3 5 3 5 5 5 3 5 5 5 5 3 5 5 5 5 5 3 5 5 5 5 5 3 3 5 3 5 5 3 3 5 3 3 5 5 3 5 5 5 5 5 5 5 5 5 5 5 5 5 3 3 5 5 5 5 5 5 3 5 5 3 5 5 5 5 5 3 3 5 5 5 3 5 5 5 5 5 5 3 5 5 5 5 5 5 5 5 5 5 5 5 3 3 5 5 5 5 5 5 5 5 5 5 5 5 5 5 5 5 5 5 3 5 5 5 5 5 5 5 5 5 5 5 5 5 5 5 5 5 5 5 5 5 5 5 5 5 5 5 5 5 5 5 5 5 5 3 5 5 5 5 5 5 5 5 3 5 5 5 3 5 5 5 5 5 3 5 5 3 5 5 5 3 5 5 5 5 5 3 5 5 5 5 5 3 5 5 5 5 3 5 5 5 5 5 5 5 5 5 5 5 5 5 5 5 5 5 5 5 3 5 5 5 5 5 5 5 5 5 3 5 5 5 5 5 5 5 5 5 5 5 5 5 5 5 5 5 5 5 5 5 5 5 5 5 5 5 5 5 5 5 5 5 5 5 5 5 5 5 5 5 5 5 5 5 5 5 5 5 5 5 5 5 5 5 5 5 5 5 5 5 5 5 5 5 3 5 5 5 3 5 5 5 5 5 5 5 5 5 5 5 5 5 5 5 5 5 5 5 5 5 5 5 5 5 5 5 3 5 5 5 5 5 5 5 5 3 5 5 5 5 5 5 5 5 5 5 5 5 5 5 5 5 5 5 5 5 5 5 5 5 5 5 5 5 5 5 5 5 5 5 5 5 5 5 5 3 5 5 5 5 5 5 5 3 5 3 5 5 5 5 5 5 5 5 5 5 5 5 5 5 5 5 5 5 5 5 5 5 5 5 5 5 5 3 5 3 5 3 3 5 5 5 3 3 5 3 5 5 5 5 3 5 5 5 5 5 5 5 5 5 5 5 5 5 5 3 5 5 3 5 3 3 5 5 5 3 5 5 5 5 5 5 5 5 5 5 5 5 5 5 5 5 5 5 5 5 5 5 5 5 5 5 5 5 5 5 5 5 5 5 5 5 5 5 5 5 5 5 5 5 5 5 5 5 5 5 5 5 5 5 5 5 5 5 5 5 5 5 5 3 5 5 5 5 5 5 5 5 5 3 5 3 5 5 3 5 5 5 5 5 5 5 5 5 3 5 5 5 3 5 5 5 5 5 5 5 5 5 3 5 5 5 5 5 5 5 5 5 5 3 5 5 5 5 5 5 5 5 5 5 5 5 5 5 5 5 5 5 5 5 5 5 5 3 5 3 5 5 5 5 5 5 5 5 5 5 3 5 5 5 5 5 5 5 5 5 5 5 5 5 5 5 5 5 5 5 5 5 5 5 5 5 5 5 5 5 5 5 5 5 5 5 3 5 5 5 5 3 5 5 5 5 5 5 5 5 5 5 5 5 3 5 5 5 5 5 5 5 5 5 3 5 5 5 5 3 5 5 5 5 5 5 5 3 5 3 5 5 5 5 5 5 3 5 3 3 5 5 5 3 5 5 3 5 5 5 5 3 5 5 5 5 5 5 5 5 5 3 5 5 5 5 3 5 5 5 5 3 5 5 3 5 5 3 5 3 5 5 5 5 5 5 5 5 3 5 5 5 5 5 5 5 5 5 5 3 5 3 5 5 5 5 5 5 5 5 5 5 5 5 5 5 5 5 5 5 5 5 5 5 5 5 5 5 5 5 5 5 5 5 5 5 5 5 5 5 5 5 5 5 5 5 5 5 5 5 5 5 5 5 5 5 5 5 5 5 5 5 5 5 5 5 3 5 5 5 5 5 5 5 5 5 3 5 5 5 5 5 5 5 5 5 5 3 5 5 5 5 5 5 5 5 5 5 5 5 5 5 5 3 5 5 5 5 3 5 5 3 5 5 5 5 5 5 3 5 3 5 5 5 3 5 3 3 5 5 5 3 5 5 5 5 5 5 5 5 5 5 3 5 5 5 3 5 5 3 5 3 3 3 5 5 3 5 3 3 5 5 5 3 5 3 5 3 5 5 3 5 5 5 3 5 3 5 3 5 5 5 5 5 3 5 5 5 5 3 5 3 5 5 3 3 5 3 5 5 5 5 5 3 5 5 5 5 5 5 3 5 5 5 5 5 5 5 5 5 5 5 5 5 5 5 5 5 5 5 5 5 5 5 5 5 5 5 5 5 5 5 5 5 5 5 5 5 5 3 5 5 5 5 5 5 5 5 5 5 5 5 5 5 5 5 5 5 5 5 5 5 5 5 5 5 5 5 5 5 5 5 5 5 5 5 5 5 5 5 5 5 5 5 3 5 5 3 5 5 3 5 5 5 5 5 5 5 5 5 5 5 5 5 5 5 5 5 5 5 3 5 5 5 5 3 5 3 5 3 5 5 5 5 3 5 5 5 5 5 5 5 5 5 3 5 5 5 5 3 5 3 5 5 5 5 5 3 5 5 5 5 5 5 5 5 5 5 3 5 5 5 5 5 5 5 5 5 5 5 3 5 5 5 3 5 5 5 5 5 5 5 5 5 5 3 5 5 5 5 5 5 5 5 5 3 5 5 5 5 5 5 3 5 5 5 5 5 3 5 5 5 5 5 5 5 5 5 5 5 5 5 5 5 5 5 3 5 5 5 5 5 3 3 3 5 3 5 5 5 5 5 5 5 5 5 5 5 5 5 5 5 5 5 5 5 5 5 5 5 5 5 5 5 5 3 5 5 5 5 5 5 5 3 5 5 5 5 5 5 5 5 5 5 5 3 5 5 5 5 5 5 5 3 5 3 5 5 5 3 5 5 3 5 5 5 5 5 5 5 5 5 5 5 5 5 5 3 3 5 5 5 5 5 3 5 5 5 5 3 5 5 3 5 5 5 3 5 5 5 5 3 5 5 5 5 5 5 5 5 5 5 5 5 5 5 5 5 3 5 5 5 5 5 5 3 5 3 5 3 5 5 5 5 5 5 3 3 5 5 5 5 5 3 5 5 5 5 5 5 5 5 5 5 5 5 5 5 5 3 5 5 5 5 3 5 5 5 5 5 5 5 5 5 5 5 3 5 5 5 5 5 5 5 5 5 5 5 5 5 5 5 5 5 5 5 5 5 5 5 5 3 5 5 5 5 5 3 3 5 5 5 5 5 3 3 5 3 5 5 5 5 5 5 5 3 3 5 3 5 3 5 5 5 5 5 5 5 5 5 5 5 3 5 5 5 5 5 5 5 5 5 5 5 5 5 5 5 5 5 5 5 5 5 5 5 5 5 5 5 5 3 5 5 3 5 5 5 3 5 5 5 3 3 5 5 5 5 5 5 5 5 3 3 5 5 5 5 5 5 5 5 3 5 5 5 5 5 5 5 5 5 5 5 5 5 5 5 5 5 5 5 5 5 5 5 5 5 5 5 5 5 5 5 5 5 5 5 5 3 5 3 5 5 5 5 5 5 5 5 5 5 3 5 5 5 5 3 5 5 5 5 3 5 5 5 5 5 5 5 3 5 3 5 3 5 5 5 5 5 3 5 5 5 5 3 5 5 5 5 5 5 5 5 5 5 5 5 5 5 5 5 5 5 5 5 5 5 5 5 5 5 5 5 5 5 5 5 5 5 5 5 5 5 5 5 5 5 5 5 5 5 5 5 5 5 5 5 5 5 5 5 5 5 5 5 5 5 5 5 3 5 5 5 5 5 5 5 5 5 5 5 5 5 5 5 5 3 5 5 3 5 5 5 5 5 5 5 5 5 5 5 5 5 5 5 5 5 5 5 5 5 5 5 5 5 3 5 5 5 3 5 5 3 5 5 5 5 5 3 5 5 5 5 5 5 5 5 5 5 5 5 5 3 5 5 5 3 5 3 5 3 5 5 5 5 5 5 5 5 5 5 5 5 5 5 3 5 5 5 3 5 3 5 5 5 3 5 5 5 5 5 5 5 5 5 5 5 5 5 5 5 5 5 5 5 5 3 5 5 5 5 5 5 5 5 5 5 5 5 5 5 5 5 5 5 5 5 5 5 5 5 5 5 5 5 5 5 5 5 5 5 5 5 5 5 5 5 3 5 5 5 5 5 5 5 5 3 5 5 5 3 5 5 5 5 5 5 5 5 5 5 5 5 5 5 5 5 3 5 5 5 5 5 5 5 5 5 5 5 5 5 5 5 5 5 5 3 5 5 5 5 5 5 5 5 5 3 5 5 5 5 5 5 5 5 5 3 5 5 5 5 5 5 5 5 5 3 5 5 5 5 5 5 3 5 5 5 5 5 5 5 5 5 3 5 3 5 5 5 5 3 3 5 5 3 5 5 5 5 5 5 5 5 5 5 5 5 5 5 5 5 5 5 5 5 5 5 5 5 5 5 5 5 5 5 3 5 5 5 5 5 5 5 5 5 5 5 3 5 5 5 5 5 5 5 5 5 3 5 5 3 5 5 5 5 5 5 5 5 5 5 5 5 5 5 5 5 5 5 5 5 5 5 5 5 5 5 5 5 5 5 5 5 5 5 5 5 5 5 5 5 5 5 5 5 5 5 5 5 5 5 5 5 5 5 5 5 5 5 5 5 5 5 5 5 5 5 5 5 5 5 5 5 5 5 5 5 5 5 5 5 5 5 5 5 5 5 5 5 5 5 5 5 5 5 5 5 5 5 5 5 5 5 5 5 5 5 5 5 5 5 5 5 5 5 5 5 5 5 5 5 5 5 5 5 5 5 5 5 5 5 5 5 5 5 5 5 5 5 5 5 5 5 5 5 3 3 3 3 5 5 5 5 5 5 5 5 5 3 5 5 3 5 5 5 5 5 5 5 5 5 5 5 5 3 5 5 5 5 3 5 5 5 5 3 5 5 5 5 5 5 3 3 5 5 5 5 5 5 5 3 5 5 5 5 5 3 5 5 5 5 5 5 5 5 5 5 3 5 5 5 5 5 5 5 3 5 5 5 5 5 3 5 5 5 5 5 5 5 5 5 5 5 5 5 5 5 5 5 5 5 5 5 5 5 5 5 5 5 5 5 5 5 5 5 5 5 3 5 5 5 5 5 5 5 5 5 5 5 3 3 5 5 5 3 5 3 5 5 5 5 3 5 5 5 5 5 5 5 5 5 5 5 5 5 5 5 5 5 5 5 5 5 5 5 5 5 5 5 5 5 5 5 3 5 5 5 5 5 5 3 5 5 5 5 5 5 5 5 5 3 5 5 5 5 5 5 3 5 5 5 5 5 5 5 3 5 5 5 5 5 5 3 5 5 3 3 3 5 5 5 3 5 5 3 3 5 5 3 5 5 5 3 5 5 5 3 5 5 5 3 5 5 5 3 5 5 5 5 5 5 3 5 5 5 5 5 5 5 5 5 5 5 5 5 5 5 5 5 3 5 5 5 3 5 5 3 5 5 5 5 5 5 5 5 5 5 5 5 3 5 5 5 5 5 5 5 5 5 5 5 5 5 3 3 5 5 5 5 5 5 3 5 5 3 5 5 5 5 5 5 5 5 5 5 5 5 3 5 5 5 5 5 5 5 5 5 5 5 5 5 5 3 5 5 5 5 5 5 5 3 3 5 5 5 5 5 5 5 5 5 5 5 5 5 5 5 5 5 5 5 5 5 5 5 5 3 5 5 5 5 5 5 3 5 5 5 3 5 5 5 3 5 5 3 5 5 5 5 5 3 5 3 5 5 5 5 3 5 5 5 5 5 3 5 5 3 3 5 5 5 5 3 5 5 5 5 5 5 5 3 5 5 5 5 5 5 5 5 5 3 5 5 5 5 5 5 3 5 5 3 5 3 5 5 5 5 3 5 5 5 5 5 5 5 5 5 3 5 5 5 5 3 3 5 5 5 5 5 5 5 5 5 5 5 5 5 5 5 5 5 5 5 5 5 5 5 3 5 5 5 3 5 5 5 5 5 5 5 5 5 5 3 3 5 3 5 5 5 3 5 5 5 5 5 5 5 5 5 5 5 5 5 5 5 5 5 5 5 5 5 3 5 5 5 5 3 5 5 5 5 3 5 5 3 5 5 5 3 5 5 5 5 5 5 5 5 5 5 5 5 5 3 5 5 5 5 3 5 5 3 5 3 5 5 5 5 5 5 5 5 5 5 5 5 5 5 5 5 5 3 5 5 5 5 5 5 3 5 5 5 5 3 5 5 3 5 5 5 5 5 5 5 5 5 3 5 3 3 5 5 5 5 5 3 5 5 5 5 5 5 5 5 5 5 5 5 3 5 5 5 5 5 5 5 5 5 5 5 5 5 5 3 5 5 5 5 5 5 5 5 5 5 5 5 5 5 5 5 3 5 5 5 5 5 5 5 3 5 5 5 5 5 5 3 5 3 5 5 5 5 5 5 5 5 5 5 5 5 5 5 5 5 5 5 5 5 5 5 5 5 5 5 5 3 5 5 5 5 5 5 3 3 5 5 5 5 5 3 5 5 5 3 5 5 3 5 5 5 5 3 5 5 5 5 5 5 5 3 5 5 3 3 5 5 5 5 5 5 5 5 5 5 5 5 5 5 5 5 3 5 5 5 3 5 5 5 5 5 5 3 5 5 3 5 5 5 5 5 5 5 5 5 3 5 5 5 5 5 5 5 5 3 5 5 5 5 3 5 5 5 5 5 5 3 5 5 5 5 5 5 5 5 3 5 5 5 5 5 5 5 5 3 3 5 5 5 5 5 5 5 5 3 5 3 5 5 5 5 3 5 3 3 5 5 5 5 5 5 5 5 5 5 5 5 3 5 3 3 5 5 5 5 3 5 5 3 5 5 3 5 3 5 5 5 5 5 5 5 5 5 5 5 5 5 5 5 5 5 5 5 5 5 5 5 5 5 3 5 5 5 5 5 5 3 3 5 5 5 5 5 5 5 5 5 5 5 5 5 5 5 5 5 5 5 5 5 3 5 3 5 5 3 5 3 5 5 5 5 5 5 5 5 5 5 5 5 5 5 5 5 5 5 5 5 5 5 5 5 5 3 5 5 5 5 5 5 5 5 5 5 5 5 5 5 5 5 5 5 5 5 5 5 5 5 5 3 5 5 5 5 5 5 5 5 5 3 5 3 5 5 5 3 5 5 5 5 5 5 5 5 5 5 5 3 5 5 5 5 5 5 5 5 5 5 5 5 5 5 5 5 5 5 5 5 5 5 5 5 5 5 5 5 3 3 5 5 3 5 5 5 5 5 3 5 5 5 5 5 3 5 5 5 5 5 5 3 5 5 5 5 3 5 3 5 5 5 5 5 5 5 5 3 5 5 5 5 5 5 5 5 5 5 5 3 5 5 5 3 3 5 5 5 5 3 5 3 5 5 5 5 5 5 5 5 5 5 5 3 5 5 5 5 5 5 3 5 3 5 3 3 3 5 5 5 5 5 3 5 5 3 5 5 5 5 5 5 5 5 5 5 5 5 5 3 3 3 5 5 5 3 5 3 3 5 5 5 5 3 5 5 5 5 5 5 5 5 5 5 3 5 3 5 5 5 5 5 5 5 5 5 3 5 3 5 5 5 3 5 3 5 3 5 5 3 3 5 5 5 5 3 5 5 3 3 3 5 5 3 5 3 5 5 5 5 3 3 3 5 5 3 5 5 3 3 5 5 5 5 3 5 3 3 5 5 5 3 3 3 5 5 5 5 5 5 3 5 5 5 3 5 3 5 5 3 5 5 5 5 5 5 3 3 5 5 5 5 5 5 5 3 5 5 5 5 5 5 5 5 5 5 5 5 5 5 3 5 5 3 5 5 5 5 5 5 5 5 5 5 5 5 5 5 5 5 5 3 5 5 3 5 5 3 3 5 5 5 3 5 5 5 5 5 5 3 5 5 5 5 5 5 5 3 5 5 5 3 5 5 5 3 5 3 5 3 5 5 3 5 5 3 5 5 5 3 5 3 5 5 3 5 3 5 3 3 5 5 5 3 5 3 3 5 5 5 3 3 3 5 5 5 5 5 5 5 5 5 5 3 5 5 5 5 5 5 5 5 3 5 5 5 5 3 5 5 5 5 5 5 5 5 5 5 3 5 3 5 5 5 5 5 5 5 5 5 5 5 5 5 5 5 5 3 5 5 5 3 3 5 5 5 3 3 5 5 5 5 3 5 5 3 5 5 5 3 5 3 3 5 3 5 5 5 5 5 5 5 5 5 5 5 3 5 5 5 3 5 5 5 5 5 5 3 5 5 3 5 5 3 5 5 5 5 5 5 5 5 5 5 5 5 5 5 5 5 5 5 5 5 5 5 5 5 5 5 5 5 5 3 5 5 5 5 5 5 5 5 5 5 5 5 5 5 5 5 5 5 5 5 5 5 5 5 5 5 5 5 5 5 3 5 5 5 3 5 5 5 5 5 5 5 5 5 5 5 5 5 5 5 5 5 5 5 3 3 3 5 5 3 3 5 5 5 5 3 3 5 5 3 5 5 5 5 3 5 5 5 5 5 5 5 5 5 5 5 5 5 5 5 5 5 5 5 5 5 5 5 5 5 5 5 5 5 5 5 5 5 5 3 3 5 5 5 3 5 5 5 5 5 5 5 5 5 5 3 5 5 5 3 5 5 5 5 5 5 5 5 5 5 5 5 5 5 5 5 5 5 5 5 5 5 5 5 5 5 5 5 5 3 5 5 5 5 5 5 3 5 5 5 5 3 5 3 5 5 3 5 5 5 5 3 5 3 5 5 5 5 5 3 5 3 5 5 5 5 5 5 5 5 3 5 5 5 5 5 3 5 5 5 5 5 3 5 5 5 5 5 3 5 3 3 5 3 5 3 3 5 3 5 3 5 5 3 5 5 5 5 5 5 5 5 5 5 5 3 5 5 5 5 5 5 3 5 5 5 5 5 5 5 5 5 5 5 5 5 5 5 5 5 5 5 5 5 5 5 5 5 5 3 5 5 3 3 5 3 5 5 5 5 5 5 5 5 5 5 5 5 5 5 5 5 3 5 3 5 5 5 5 5 5 5 5 3 5 3 5 5 3 3 5 5 3 5 5 5 5 5 5 5 3 5 5 3 5 5 5 5 5 5 5 5 5 5 5 5 5 5 5 5 5 3 5 3 5 5 5 5 5 5 5 5 5 5 5 5 5 3 3 5 5 5 5 5 5 3 5 5 3 5 5 5 5 5 5 5 5 5 5 3 5 5 3 5 5 5 3 5 3 5 3 5 3 3 5 5 5 3 5 5 5 5 5 5 5 5 5 5 5 5 5 5 5 5 5 5 5 3 5 5 5 5 5 5 5 3 5 5 5 5 3 5 5 5 5 5 5 5 5 5 5 5 5 5 5 5 5 5 5 5 5 5 5 5 5 3 5 5 5 5 5 5 3 5 5 5 5 5 5 5 5 5 5 5 5 5 5 3 5 3 5 5 5 5 3 5 5 5 5 3 5 5 3 5 3 5 5 3 5 5 5 5 3 5 5 5 5 5 3 3 5 3 5 5 5 5 5 5 5 5 5 5 5 5 3 5 5 5 3 5 3 5 5 3 5 5 5 5 5 5 5 3 5 5 5 3 5 5 3 5 5 3 5 3 3 5 5 5 3 5 5 5 5 5 5 5 5 5 5 5 3 5 5 5 5 5 5 5 5 5 5 5 5 5 5 5 5 5 5 5 5 3 5 5 5 5 3 5 5 5 5 5 5 5 5 5 5 5 3 5 5 3 5 3 5 5 5 5 5 5 5 5 5 3 5 5 5 5 5 5 5 5 5 5 3 5 5 5 5 5 5 5 3 5 5 5 3 3 5 5 5 5 5 5 5 5 3 5 5 3 5 5 5 5 5 5 5 5 5 5 5 5 5 5 3 5 5 5 5 5 5 5 5 5 5 5 5 5 5 5 5 5 5 5 5 5 3 5 5 3 5 5 5 5 5 5 5 5 5 5 5 5 5 5 5 3 5 5 5 5 5 5 5 3 5 5 3 5 5 5 5 5 5 5 5 5 5 5 3 5 5 5 3 5 5 5 5 5 5 5 5 3 5 5 5 5 5 5 3 5 5 5 5 5 5 5 5 5 5 5 5 5 5 5 5 5 5 5 5 5 3 5 5 5 5 3 5 5 5 5 5 5 5 3 5 5 5 3 5 5 5 5 5 5 5 5 3 5 3 5 5 5 5 5 5 5 3 5 5 5 5 5 5 5 3 3 5 5 5 5 3 3 5 5 5 3 5 5 5 5 5 5 5 5 3 5 5 3 5 5 5 5 3 3 5 5 5 5 5 5 5 5 5 3 5 5 3 5 5 5 5 5 5 5 5 3 5 5 5 5 5 3 5 5 5 5 5 5 5 5 5 5 3 5 5 5 5 5 5 5 5 5 5 5 5 5 5 5 5 3 5 5 5 5 5 5 3 3 5 3 5 5 5 5 5 5 5 5 5 5 5 5 5 5 5 5 5 5 5 3 5 5 3 3 5 5 5 5 5 5 5 5 5 5 5 5 3 5 5 5 5 5 5 5 5 5 5 5 5 5 5 5 5 5 5 5 5 3 5 3 5 5 5 5 5 5 5 5 5 5 5 5 5 5 5 5 5 5 5 5 5 3 5 5 5 5 3 5 5 5 5 5 5 5 5 5 3 3 5 5 5 5 3 5 5 5 5 5 5 3 5 3 5 5 5 5 5 5 5 5 5 5 5 5 5 5 5 5 5 5 5 5 5 3 5 3 5 3 5 5 3 5 3 5 5 5 5 5 3 3 5 5 5 3 5 5 3 5 5 5 5 5 5 5 3 3 5 5 5 3 5 5 5 5 5 5 5 5 3 5 5 5 5 5 5 5 3 5 5 5 5 5 5 5 5 5 5 3 5 3 5 5 5 5 5 5 3 5 5 5 5 3 5 5 5 5 3 5 5 5 5 5 3 5 5 5 5 5 5 5 5 3 5 5 5 5 5 5 5 3 5 5 5 3 5 5 5 5 5 5 5 5 5 5 5 5 5 5 5 5 5 5 5 5 5 5 5 5 5 5 5 5 5 5 5 5 5 5 5 5 5 5 5 3 5 5 5 5 5 5 5 5 3 5 3 5 5 5 5 3 5 5 5 5 5 5 5 5 5 5 5 5 5 5 5 5 5 5 5 5 3 5 5 5 5 5 5 5 3 5 5 5 5 5 5 3 5 5 3 5 3 5 5 3 5 5 5 5 5 5 5 5 3 5 5 3 5 5 5 5 5 5 5 5 5 5 5 5 5 5 3 5 5 5 5 3 5 5 3 5 3 5 5 5 5 3 5 5 5 5 5 5 5 5 5 5 5 5 3 5 5 5 5 5 5 3 5 5 5 5 5 5 5 3 5 5 5 5 5 5 5 5 5 5 5 5 5 5 5 5 5 5 5 5 5 5 5 3 5 5 5 5 3 5 5 5 5 3 5 5 5 5 5 5 5 5 5 5 5 5 5 5 5 5 5 5 5 5 5 5 5 5 5 5 5 5 5 5 5 5 5 5 5 5 5 5 5 5 5 3 5 5 5 5 5 5 5 5 5 5 5 5 3 5 5 5 5 5 5 5 5 5 5 5 5 5 3 5 5 5 5 5 5 5 5 5 5 5 5 5 5 5 3 5 5 5 5 5 3 5 5 5 5 5 5 5 5 5 5 5 5 5 5 5 5 5 5 5 5 5 5 5 5 5 3 5 5 5 5 5 5 5 5 5 5 5 5 5 5 5 5 5 5 5 5 5 5 5 5 5 5 5 5 5 5 5 5 5 5 5 5 5 5 5 5 5 5 5 5 5 5 5 5 5 5 5 5 5 3 5 5 5 5 5 5 5 5 5 5 5 5 5 5 5 5 5 5 5 3 5 5 5 5 5 5 5 5 3 5 5 5 5 5 3 3 5 5 5 5 5 3 5 5 3 5 3 5 5 3 3 3 5 3 5 5 5 5 5 5 5 3 3 5 5 5 3 5 5 5 5 5 5 5 3 3 5 5 3 5 5 5 5 3 5 3 5 5 3 5 5 3 5 5 5 5 5 5 5 5 5 5 5 5 5 5 5 5 5 5 5 5 5 3 5 3 5 3 5 5 5 5 5 3 5 5 5 5 5 3 5 3 5 5 5 5 3 5 5 5 5 5 5 5 5 3 5 5 5 5 5 5 5 5 3 5 5 5 5 5 5 5 5 5 5 3 5 5 5 5 5 5 5 5 5 5 3 5 5 5 5 5 5 5 5 5 5 5 5 5 3 5 5 5 3 5 5 3 5 5 3 5 5 5 5 5 5 5 5 3 5 5 3 5 5 5 3 5 5 5 5 5 5 3 3 5 3 5 3 5 3 3 5 5 5 5 5 5 5 5 5 3 3 5 5 5 5 5 5 3 5 5 5 5 5 5 5 5 5 5 5 3 5 5 5 5 5 5 5 3 5 5 5 5 5 5 3 5 3 5 5 5 3 5 5 5 5 5 5 5 5 5 5 5 5 5 5 5 5 5 5 5 5 5 5 5 5 5 5 5 5 5 5 5 5 5 5 5 5 5 5 5 5 5 5 5 5 5 5 3 5 5 5 5 5 3 5 5 5 3 5 5 5 5 5 5 3 5 5 5 5 5 
</DataArray>
</Cells>
<PointData Scalars="" Vectors="displacement," Tensors="">
<DataArray type="Float64" Name="displacement" NumberOfComponents="3" format="ascii">
5.281369076205469e-08 -0.034998723747516246 0 -0.00024387514342110892 -0.033266206286544364 0 -1.8414607537990836e-06 -0.030329337730279359 0 5.281369076205469e-08 -0.034998723747516246 0 -4.3300697802565322e-07 -0.034998013016743677 0 -0.00024387514342110892 -0.033266206286544364 0 -4.3300697802565322e-07 -0.034998013016743677 0 -0.0002037136810169136 -0.034459059426418213 0 -0.00024387514342110892 -0.033266206286544364 0 8.94428431646241e-05 -0.032873418561598575 0 -0.00024387514342110892 -0.033266206286544364 0 8.5080427851582402e-05 -0.031722619833885725 0 8.94428431646241e-05 -0.032873418561598575 0 -0.00014970058695536141 -0.033743681154969937 0 4.0717842340927007e-05 -0.033813360765299734 0 -0.0002037136810169136 -0.034459059426418213 0 -0.00014970058695536141 -0.033743681154969937 0 -0.00016289776350335885 -0.03427094080391134 0 -0.0002037136810169136 -0.034459059426418213 0 -0.00014970058695536141 -0.033743681154969937 0 -0.00024387514342110892 -0.033266206286544364 0 8.94428431646241e-05 -0.032873418561598575 0 -0.00014970058695536141 -0.033743681154969937 0 -0.00024387514342110892 -0.033266206286544364 0 -0.00024387514342110892 -0.033266206286544364 0 -1.8414607537990836e-06 -0.030329337730279359 0 8.5080427851582402e-05 -0.031722619833885725 0 -1.8414607537990836e-06 -0.030329337730279359 0 0.00014398416870302423 -0.030793640695311857 0 0.0002029552371606184 -0.029460429196341932 0 -1.8414607537990836e-06 -0.030329337730279359 0 4.321435425930729e-06 -0.027341033636466686 0 0.0002029552371606184 -0.029460429196341932 0 0.00014398416870302423 -0.030793640695311857 0 8.5080427851582402e-05 -0.031722619833885725 0 0.00026184438888369565 -0.031682287247315484 0 -1.8414607537990836e-06 -0.030329337730279359 0 0.00014398416870302423 -0.030793640695311857 0 8.5080427851582402e-05 -0.031722619833885725 0 2.6731431903773654e-08 -0.027331862738084075 0 2.4408606133820166e-05 -0.02588762274931113 0 -0.00017054910110263357 -0.025492011254903468 0 0.00018235624136432853 -0.027313995622080495 0 0.00073455039476017176 -0.027571430669402729 0 4.321435425930729e-06 -0.027341033636466686 0 0.0002029552371606184 -0.029460429196341932 0 0.0017791683364263495 -0.029461549456224392 0 0.00014398416870302423 -0.030793640695311857 0 0.00065399585758731539 -0.030711146108615493 0 0.00057533298180448582 -0.031405008519482726 0 0.00014398416870302423 -0.030793640695311857 0 0.0002029552371606184 -0.029460429196341932 0 0.00065399585758731539 -0.030711146108615493 0 0.0002029552371606184 -0.029460429196341932 0 0.00065399585758731539 -0.030711146108615493 0 0.0013738622958378377 -0.030640963832331086 0 0.0013738622958378377 -0.030640963832331086 0 0.0011294192752856534 -0.031227331448162629 0 0.0017691643834348745 -0.031227442184654831 0 0.0002029552371606184 -0.029460429196341932 0 0.001496836307597419 -0.030058410605058757 0 0.0017791683364263495 -0.029461549456224392 0 0.000231337921042782 -0.029535454727857114 0 0.0016113795402737969 -0.030435598872100757 0 0.00065399585758731539 -0.030711146108615493 0 0.0013738622958378377 -0.030640963832331086 0 0.0011294192752856534 -0.031227331448162629 0 0.0016113795402737969 -0.030435598872100757 0 0.0012765080836652039 -0.029083568486693523 0 0.001496836307597419 -0.030058410605058757 0 0.0017791683364263495 -0.029461549456224392 0 0.0026358324683280784 -0.030718246432574647 0 0.0013464601872673707 -0.031605264847500814 0 0.0011294192752856534 -0.031227331448162629 0 0.0017691643834348745 -0.031227442184654831 0 0.0013464601872673707 -0.031605264847500814 0 0.00092241541019082987 -0.031799571577917442 0 0.0012082235888474504 -0.032068283043889513 0 0.0013464601872673707 -0.031605264847500814 0 0.0011294192752856534 -0.031227331448162629 0 0.00092241541019082987 -0.031799571577917442 0 0.00092241541019082987 -0.031799571577917442 0 0.00057533298180448582 -0.031405008519482726 0 0.00052372617934837173 -0.032107939153079641 0 0.00065399585758731539 -0.030711146108615493 0 0.0011294192752856534 -0.031227331448162629 0 0.00057533298180448582 -0.031405008519482726 0 0.0011294192752856534 -0.031227331448162629 0 0.00092241541019082987 -0.031799571577917442 0 0.00057533298180448582 -0.031405008519482726 0 0.00057533298180448582 -0.031405008519482726 0 0.00052372617934837173 -0.032107939153079641 0 0.00026184438888369565 -0.031682287247315484 0 0.00052372617934837173 -0.032107939153079641 0 0.00037329726667137246 -0.032502619830326047 0 0.00068206909113609974 -0.032470332304612791 0 0.00052372617934837173 -0.032107939153079641 0 0.00086231184923883371 -0.032185945948311173 0 0.00068206909113609974 -0.032470332304612791 0 0.00092241541019082987 -0.031799571577917442 0 0.00052372617934837173 -0.032107939153079641 0 0.00086231184923883371 -0.032185945948311173 0 0.00092241541019082987 -0.031799571577917442 0 0.00086231184923883371 -0.032185945948311173 0 0.0012082235888474504 -0.032068283043889513 0 0.00086231184923883371 -0.032185945948311173 0 0.0012082235888474504 -0.032068283043889513 0 0.0010964432489649917 -0.032530410486645567 0 0.0012082235888474504 -0.032068283043889513 0 0.0010964432489649917 -0.032530410486645567 0 0.0014542631377752742 -0.032242197718260965 0 0.0013464601872673707 -0.031605264847500814 0 0.0012082235888474504 -0.032068283043889513 0 0.0015983475367099067 -0.031908949868571103 0 8.94428431646241e-05 -0.032873418561598575 0 8.5080427851582402e-05 -0.031722619833885725 0 0.0002168070909532926 -0.032255972685445937 0 8.5080427851582402e-05 -0.031722619833885725 0 0.00026184438888369565 -0.031682287247315484 0 0.0002168070909532926 -0.032255972685445937 0 0.00014398416870302423 -0.030793640695311857 0 0.00057533298180448582 -0.031405008519482726 0 0.00026184438888369565 -0.031682287247315484 0 0.00052372617934837173 -0.032107939153079641 0 0.00026184438888369565 -0.031682287247315484 0 0.0002168070909532926 -0.032255972685445937 0 0.00052372617934837173 -0.032107939153079641 0 0.0002168070909532926 -0.032255972685445937 0 0.00037329726667137246 -0.032502619830326047 0 0.0002168070909532926 -0.032255972685445937 0 0.00017253820332989098 -0.032547605830837927 0 0.00037329726667137246 -0.032502619830326047 0 8.94428431646241e-05 -0.032873418561598575 0 0.00017253820332989098 -0.032547605830837927 0 0.0001769719833425495 -0.032587092830656667 0 0.00010130457477249984 -0.032873533243917799 0 0.00043596830603525368 -0.033308198338543205 0 8.94428431646241e-05 -0.032873418561598575 0 0.0002168070909532926 -0.032255972685445937 0 0.00017253820332989098 -0.032547605830837927 0 8.94428431646241e-05 -0.032873418561598575 0 0.00073561755635512228 -0.034042417428738946 0 4.0717842340927007e-05 -0.033813360765299734 0 0.00073561755635512228 -0.034042417428738946 0 4.0717842340927007e-05 -0.033813360765299734 0 0.00028101207752370168 -0.034208035305297396 0 0.00017253820332989098 -0.032547605830837927 0 0.00037329726667137246 -0.032502619830326047 0 0.0001769719833425495 -0.032587092830656667 0 0.00037329726667137246 -0.032502619830326047 0 0.00043580060674137342 -0.032763339361743124 0 0.0001769719833425495 -0.032587092830656667 0 0.00073561755635512228 -0.034042417428738946 0 0.00070496594126076952 -0.03414380717265518 0 0.00077090055212299298 -0.034145362413752399 0 0.00043596830603525368 -0.033308198338543205 0 0.00066823202681340224 -0.033721706109672726 0 0.00043580060674137342 -0.032763339361743124 0 0.0001769719833425495 -0.032587092830656667 0 0.00051583535283239587 -0.033288128209402287 0 0.00066810828842188094 -0.034174940552165398 0 0.00041293718378220581 -0.034347347794287809 0 0.00073561755635512228 -0.034042417428738946 0 0.00070496594126076952 -0.03414380717265518 0 0.00028101207752370168 -0.034208035305297396 0 0.00070496594126076952 -0.03414380717265518 0 0.00022264450732513961 -0.034602067632036104 0 0.00028101207752370168 -0.034208035305297396 0 0.0010964432489649917 -0.032530410486645567 0 0.0015371053298791613 -0.032534205627035899 0 0.0013578794867465508 -0.032856008452189549 0 0.0010964432489649917 -0.032530410486645567 0 0.00066764962335795236 -0.0327596360429891 0 0.0010098434611776504 -0.033058485322883281 0 0.0010964432489649917 -0.032530410486645567 0 0.00068206909113609974 -0.032470332304612791 0 0.00066764962335795236 -0.0327596360429891 0 0.00086231184923883371 -0.032185945948311173 0 0.0010964432489649917 -0.032530410486645567 0 0.00068206909113609974 -0.032470332304612791 0 0.00037329726667137246 -0.032502619830326047 0 0.00068206909113609974 -0.032470332304612791 0 0.00066764962335795236 -0.0327596360429891 0 0.00037329726667137246 -0.032502619830326047 0 0.00043580060674137342 -0.032763339361743124 0 0.00066764962335795236 -0.0327596360429891 0 0.00066764962335795236 -0.0327596360429891 0 0.0010098434611776504 -0.033058485322883281 0 0.00051583535283239587 -0.033288128209402287 0 0.00043580060674137342 -0.032763339361743124 0 0.00066764962335795236 -0.0327596360429891 0 0.00051583535283239587 -0.033288128209402287 0 0.0010098434611776504 -0.033058485322883281 0 0.0013578794867465508 -0.032856008452189549 0 0.0014746879280145254 -0.033269700963238245 0 0.0010964432489649917 -0.032530410486645567 0 0.0010098434611776504 -0.033058485322883281 0 0.0013578794867465508 -0.032856008452189549 0 0.0010098434611776504 -0.033058485322883281 0 0.0011056161120268947 -0.033504070484283263 0 0.0014746879280145254 -0.033269700963238245 0 0.0011056161120268947 -0.033504070484283263 0 0.00051583535283239587 -0.033288128209402287 0 0.00099712717829911137 -0.034045436289313273 0 0.00066823202681340224 -0.033721706109672726 0 0.00097619022564696871 -0.034048513593112506 0 0.0010098434611776504 -0.033058485322883281 0 0.0011056161120268947 -0.033504070484283263 0 0.00051583535283239587 -0.033288128209402287 0 0.00077090055212299298 -0.034145362413752399 0 0.00099712717829911137 -0.034045436289313273 0 0.00076897025511491553 -0.034190279081535706 0 0.0011056161120268947 -0.033504070484283263 0 0.00099712717829911137 -0.034045436289313273 0 0.0014373676511925024 -0.033835193276200541 0 0.00069071107791804712 -0.034168110037033191 0 0.00061736721010781435 -0.034244777970465747 0 0.00055996440199371233 -0.034148176311526113 0 0.00070496594126076952 -0.03414380717265518 0 0.00069071107791804712 -0.034168110037033191 0 0.00055996440199371233 -0.034148176311526113 0 0.00077090055212299298 -0.034145362413752399 0 0.00069071107791804712 -0.034168110037033191 0 0.00076897025511491553 -0.034190279081535706 0 0.00070496594126076952 -0.03414380717265518 0 0.00077090055212299298 -0.034145362413752399 0 0.00069071107791804712 -0.034168110037033191 0 0.00069071107791804712 -0.034168110037033191 0 0.00076897025511491553 -0.034190279081535706 0 0.00061736721010781435 -0.034244777970465747 0 0.00076897025511491553 -0.034190279081535706 0 0.00061736721010781435 -0.034244777970465747 0 0.00059666051147728896 -0.034426035299261339 0 0.00061736721010781435 -0.034244777970465747 0 0.00052182529708581088 -0.034294439522095731 0 0.00059666051147728896 -0.034426035299261339 0 0.00061736721010781435 -0.034244777970465747 0 0.00052182529708581088 -0.034294439522095731 0 0.00055996440199371233 -0.034148176311526113 0 0.00047245013796007112 -0.03440699022868237 0 0.0001118266281663634 -0.034623718988555326 0 0.00052182529708581088 -0.034294439522095731 0 0.00055996440199371233 -0.034148176311526113 0 0.00041154112841850003 -0.03423578458644435 0 0.00041293718378220581 -0.034347347794287809 0 0.0001118266281663634 -0.034623718988555326 0 0.00022264450732513961 -0.034602067632036104 0 -6.0158940851990096e-05 -0.034765442630723356 0 -8.3980655634436233e-05 -0.034561111955260009 0 -6.0158940851990096e-05 -0.034765442630723356 0 -0.00015395946986898647 -0.03468797560606008 0 -8.3980655634436233e-05 -0.034561111955260009 0 0.00035382003936169503 -0.034536802119888438 0 0.00018218102780687495 -0.034560348311941866 0 0.00016827980163039021 -0.034760732832198639 0 0.0001118266281663634 -0.034623718988555326 0 -2.0805534033436391e-05 -0.034897978029493175 0 -0.00010335340510781649 -0.034962936858412556 0 6.7358127752334628e-06 -0.034971572865643154 0 -1.5652812098127594e-05 -0.034997534680094512 0 -0.00010335340510781649 -0.034962936858412556 0 6.7358127752334628e-06 -0.034971572865643154 0 1.2068192818073481e-05 -0.034870291966312125 0 6.7358127752334628e-06 -0.034971572865643154 0 4.5016946513289421e-08 -0.034999808725120873 0 1.2068192818073481e-05 -0.034870291966312125 0 6.7358127752334628e-06 -0.034971572865643154 0 -1.5652812098127594e-05 -0.034997534680094512 0 -6.0009454071239692e-09 -0.035000079594860338 0 6.7358127752334628e-06 -0.034971572865643154 0 4.5016946513289421e-08 -0.034999808725120873 0 -6.0009454071239692e-09 -0.035000079594860338 0 -0.0001123708034707217 -0.03486717925313023 0 -3.7091189814454295e-08 -0.034999917849990334 0 0.0001118266281663634 -0.034623718988555326 0 -0.0001123708034707217 -0.03486717925313023 0 -4.3300697802565322e-07 -0.034998013016743677 0 -0.0002037136810169136 -0.034459059426418213 0 -3.1770406779545963e-07 -0.034999003664131903 0 -0.0002037136810169136 -0.034459059426418213 0 -0.00015565177994729276 -0.034613999890846077 0 -3.1770406779545963e-07 -0.034999003664131903 0 -0.00015395946986898647 -0.03468797560606008 0 -0.00015565177994729276 -0.034613999890846077 0 -8.3980655634436233e-05 -0.034561111955260009 0 -0.00015395946986898647 -0.03468797560606008 0 -0.00015565177994729276 -0.034613999890846077 0 -3.1770406779545963e-07 -0.034999003664131903 0 -0.0002037136810169136 -0.034459059426418213 0 -0.00015565177994729276 -0.034613999890846077 0 -0.00016289776350335885 -0.03427094080391134 0 -0.00014970058695536141 -0.033743681154969937 0 -0.00016289776350335885 -0.03427094080391134 0 4.0717842340927007e-05 -0.033813360765299734 0 -0.00016289776350335885 -0.03427094080391134 0 4.0717842340927007e-05 -0.033813360765299734 0 0.00028101207752370168 -0.034208035305297396 0 0.00022264450732513961 -0.034602067632036104 0 0.00028101207752370168 -0.034208035305297396 0 -8.3980655634436233e-05 -0.034561111955260009 0 -0.00016289776350335885 -0.03427094080391134 0 0.00028101207752370168 -0.034208035305297396 0 -8.3980655634436233e-05 -0.034561111955260009 0 -0.00015565177994729276 -0.034613999890846077 0 -0.00016289776350335885 -0.03427094080391134 0 -8.3980655634436233e-05 -0.034561111955260009 0 0.00058252397884649186 -0.021626475412811572 0 0.00026309345619630192 -0.021770925133782842 0 0.00038205875716720785 -0.021648789656071098 0 0.00040681750745952239 -0.021636635390865685 0 0.00027197950048929648 -0.021732236366184318 0 0.00038205875716720785 -0.021648789656071098 0 0.00040681750745952239 -0.021636635390865685 0 0.00040333374789012718 -0.021618966673954829 0 0.00038205875716720785 -0.021648789656071098 0 0.00038803169211860955 -0.021630267666819063 0 0.00040333374789012718 -0.021618966673954829 0 0.00058252397884649186 -0.021626475412811572 0 0.00051909573832779584 -0.021655348374039384 0 0.00027197950048929648 -0.021732236366184318 0 0.00015574416074703128 -0.021981557682038244 0 0.00033098021802168104 -0.022004162883819726 0 0.0006226025081939459 -0.021943365216012423 0 0.00027197950048929648 -0.021732236366184318 0 0.00033098021802168104 -0.022004162883819726 0 0.00027197950048929648 -0.021732236366184318 0 0.00036235712268052562 -0.02164007774982946 0 0.00029832402240515503 -0.021422949216411875 0 0.00038205875716720785 -0.021648789656071098 0 0.00027197950048929648 -0.021732236366184318 0 0.00036235712268052562 -0.02164007774982946 0 0.00038205875716720785 -0.021648789656071098 0 0.00036235712268052562 -0.02164007774982946 0 0.00039192280739534324 -0.021638057642200951 0 0.00038205875716720785 -0.021648789656071098 0 0.00039192280739534324 -0.021638057642200951 0 0.00038803169211860955 -0.021630267666819063 0 0.00039192280739534324 -0.021638057642200951 0 0.00042047095948771204 -0.021623044780507954 0 0.00038803169211860955 -0.021630267666819063 0 0.00036235712268052562 -0.02164007774982946 0 0.00039192280739534324 -0.021638057642200951 0 0.00042047095948771204 -0.021623044780507954 0 0.00010635809386106271 -0.020931125994874712 0 0.00013674080681524747 -0.021289743646020518 0 0.00029832402240515503 -0.021422949216411875 0 0.00010635809386106271 -0.020931125994874712 0 0.00013674080681524747 -0.021289743646020518 0 4.5492659057696108e-06 -0.021142573251979973 0 0.00020857797053779861 -0.021235079486999403 0 0.00030566955154935811 -0.021402765613445965 0 0.00036235712268052562 -0.02164007774982946 0 0.00042047095948771204 -0.021623044780507954 0 0.00029832402240515503 -0.021422949216411875 0 3.255707224662497e-05 -0.01977174545994875 0 9.3828275057815127e-06 -0.01891837445313448 0 0.00013674080681524747 -0.021289743646020518 0 0.00029045539945543689 -0.021471082832360749 0 0.00029832402240515503 -0.021422949216411875 0 0.00013674080681524747 -0.021289743646020518 0 0.00029045539945543689 -0.021471082832360749 0 -8.1264171468208555e-05 -0.021382360181441781 0 3.255707224662497e-05 -0.01977174545994875 0 3.4655835760378295e-05 -0.021396044470011057 0 0.00029045539945543689 -0.021471082832360749 0 0.00029832402240515503 -0.021422949216411875 0 0.00016629637168326302 -0.021457664730653945 0 0.00027197950048929648 -0.021732236366184318 0 0.00029832402240515503 -0.021422949216411875 0 0.00016629637168326302 -0.021457664730653945 0 8.8777669905001376e-07 -0.018631521020343034 0 6.347779985601431e-05 -0.021233082545558328 0 -3.2545149726664398e-07 -0.020664837847960867 0 6.347779985601431e-05 -0.021233082545558328 0 -3.2545149726664398e-07 -0.020664837847960867 0 -0.00014876404036075596 -0.021740122585401513 0 -3.2545149726664398e-07 -0.020664837847960867 0 -0.00014876404036075596 -0.021740122585401513 0 -8.8749136321457799e-07 -0.022613622464215617 0 0.00016629637168326302 -0.021457664730653945 0 9.1293755415607178e-05 -0.021732445022691099 0 -0.00011417570068591006 -0.021852623748895357 0 6.347779985601431e-05 -0.021233082545558328 0 -0.00014876404036075596 -0.021740122585401513 0 -0.00011417570068591006 -0.021852623748895357 0 3.4655835760378295e-05 -0.021396044470011057 0 -9.8744586933206981e-05 -0.021795252785892671 0 5.0581298470270257e-05 -0.021871401635947481 0 -6.5333805834978708e-05 -0.021888611964304625 0 -0.00011417570068591006 -0.021852623748895357 0 9.1293755415607178e-05 -0.021732445022691099 0 5.0581298470270257e-05 -0.021871401635947481 0 -0.00011417570068591006 -0.021852623748895357 0 0.00027197950048929648 -0.021732236366184318 0 0.00016629637168326302 -0.021457664730653945 0 9.1293755415607178e-05 -0.021732445022691099 0 0.00027197950048929648 -0.021732236366184318 0 9.1293755415607178e-05 -0.021732445022691099 0 5.0581298470270257e-05 -0.021871401635947481 0 0.00027197950048929648 -0.021732236366184318 0 0.00015574416074703128 -0.021981557682038244 0 5.0581298470270257e-05 -0.021871401635947481 0 0.00015574416074703128 -0.021981557682038244 0 5.0581298470270257e-05 -0.021871401635947481 0 3.4183638558051753e-05 -0.022088509855201895 0 5.0581298470270257e-05 -0.021871401635947481 0 -8.6665207182093284e-05 -0.021996973035100394 0 3.4183638558051753e-05 -0.022088509855201895 0 5.0581298470270257e-05 -0.021871401635947481 0 -6.5333805834978708e-05 -0.021888611964304625 0 -8.6665207182093284e-05 -0.021996973035100394 0 0.0011379623084853692 -0.027761021700420038 0 0.00070688660925633483 -0.025688533795684778 0 0.0012737414537622315 -0.028891481552644475 0 0.0012755983067551894 -0.028895822323901553 0 0.0012714269074744437 -0.028884757643168679 0 -6.5333805834978708e-05 -0.021888611964304625 0 -6.2602619051153554e-05 -0.021844640611780416 0 -8.6665207182093284e-05 -0.021996973035100394 0 0.00019168748569576178 -0.023627066220972114 0 0.00070688660925633483 -0.025688533795684778 0 0.00055770828253563786 -0.026170652915689901 0 0.00066717535266701451 -0.025967118184011123 0 0.00087784303158361669 -0.026350789737173409 0 0.0012737414537622315 -0.028891481552644475 0 0.0012666623250555649 -0.028909138126883706 0 0.0012755983067551894 -0.028895822323901553 0 0.0011379623084853692 -0.027761021700420038 0 0.0004617732528365185 -0.027193162060310777 0 0.00066717535266701451 -0.025967118184011123 0 0.00046794877626651693 -0.025529603984001909 0 0.00031989154446734484 -0.025792623657946705 0 0.00055770828253563786 -0.026170652915689901 0 0.00043326448860202564 -0.025975754165994076 0 0.00066717535266701451 -0.025967118184011123 0 0.00019168748569576178 -0.023627066220972114 0 0.00025750398451547535 -0.024015308369922671 0 0.00043326448860202564 -0.025975754165994076 0 0.00066717535266701451 -0.025967118184011123 0 0.00031989154446734484 -0.025792623657946705 0 0.00055770828253563786 -0.026170652915689901 0 0.00043326448860202564 -0.025975754165994076 0 0.00018626443219176521 -0.025977529011489198 0 -6.2602619051153554e-05 -0.021844640611780416 0 -0.00011417570068591006 -0.021852623748895357 0 -7.8773761712596006e-05 -0.022021461964192128 0 -6.5333805834978708e-05 -0.021888611964304625 0 -6.2602619051153554e-05 -0.021844640611780416 0 -0.00011417570068591006 -0.021852623748895357 0 -0.00014876404036075596 -0.021740122585401513 0 -0.00011417570068591006 -0.021852623748895357 0 -7.8773761712596006e-05 -0.022021461964192128 0 -0.00014876404036075596 -0.021740122585401513 0 -7.8773761712596006e-05 -0.022021461964192128 0 -8.8749136321457799e-07 -0.022613622464215617 0 -8.8749136321457799e-07 -0.022613622464215617 0 0.00012724124010858029 -0.022411724005876495 0 1.5685769210540319e-06 -0.024558322351013351 0 -7.8773761712596006e-05 -0.022021461964192128 0 -8.8749136321457799e-07 -0.022613622464215617 0 0.00012724124010858029 -0.022411724005876495 0 -6.2602619051153554e-05 -0.021844640611780416 0 -7.8773761712596006e-05 -0.022021461964192128 0 0.00012724124010858029 -0.022411724005876495 0 0.00046794877626651693 -0.025529603984001909 0 0.00011442858575928469 -0.025702457145431547 0 0.00031989154446734484 -0.025792623657946705 0 2.6731431903773654e-08 -0.027331862738084075 0 9.1762986806949014e-09 -0.024565960032714704 0 -0.00017054910110263357 -0.025492011254903468 0 0.00046794877626651693 -0.025529603984001909 0 0.00011442858575928469 -0.025702457145431547 0 -0.00017054910110263357 -0.025492011254903468 0 0.00046794877626651693 -0.025529603984001909 0 9.1762986806949014e-09 -0.024565960032714704 0 -0.00017054910110263357 -0.025492011254903468 0 0.00025750398451547535 -0.024015308369922671 0 1.2314259467232608e-08 -0.024560988355759525 0 0.00011442858575928469 -0.025702457145431547 0 -0.00017054910110263357 -0.025492011254903468 0 -0.00013791132879031507 -0.025729749570766899 0 2.4408606133820166e-05 -0.02588762274931113 0 -0.00017054910110263357 -0.025492011254903468 0 -0.00013791132879031507 -0.025729749570766899 0 0.00073455039476017176 -0.027571430669402729 0 0.0012765080836652039 -0.029083568486693523 0 0.0013464601872673707 -0.031605264847500814 0 0.0017691643834348745 -0.031227442184654831 0 0.0015983475367099067 -0.031908949868571103 0 0.0012765080836652039 -0.029083568486693523 0 0.0016536631379912594 -0.030675542509238804 0 0.0012765080836652039 -0.029083568486693523 0 0.0004617732528365185 -0.027193162060310777 0 0.0017691643834348745 -0.031227442184654831 0 0.0019853494091058238 -0.03203576634059991 0 0.0015983475367099067 -0.031908949868571103 0 0.00011442858575928469 -0.025702457145431547 0 -0.00013791132879031507 -0.025729749570766899 0 0.00018626443219176521 -0.025977529011489198 0 0.0012431461720751229 -0.028875607433934764 0 0.0012591750359753717 -0.02888569846401819 0 0.0012582607434725097 -0.028899987556808442 0 0.00011442858575928469 -0.025702457145431547 0 0.00031989154446734484 -0.025792623657946705 0 0.00018626443219176521 -0.025977529011489198 0 0.00043326448860202564 -0.025975754165994076 0 0.00031989154446734484 -0.025792623657946705 0 0.00018626443219176521 -0.025977529011489198 0 0.0012737414537622315 -0.028891481552644475 0 0.0012582607434725097 -0.028899987556808442 0 0.0012666623250555649 -0.028909138126883706 0 0.0019853494091058238 -0.03203576634059991 0 0.0020654830390109419 -0.032335584117509447 0 0.0018595003136992641 -0.032509287150122253 0 0.0012737414537622315 -0.028891481552644475 0 0.0012591750359753717 -0.02888569846401819 0 0.0012582607434725097 -0.028899987556808442 0 0.0019853494091058238 -0.03203576634059991 0 0.0016966342350180719 -0.032249142180202875 0 0.0018595003136992641 -0.032509287150122253 0 0.0016536631379912594 -0.030675542509238804 0 0.0015531961662800348 -0.031283047497635046 0 0.0016966342350180719 -0.032249142180202875 0 0.0014542631377752742 -0.032242197718260965 0 0.0015983475367099067 -0.031908949868571103 0 0.0016966342350180719 -0.032249142180202875 0 0.0014542631377752742 -0.032242197718260965 0 0.0015371053298791613 -0.032534205627035899 0 0.0012082235888474504 -0.032068283043889513 0 0.0014542631377752742 -0.032242197718260965 0 0.0015983475367099067 -0.031908949868571103 0 0.0019853494091058238 -0.03203576634059991 0 0.0016966342350180719 -0.032249142180202875 0 0.0015983475367099067 -0.031908949868571103 0 0.0010964432489649917 -0.032530410486645567 0 0.0014542631377752742 -0.032242197718260965 0 0.0015371053298791613 -0.032534205627035899 0 0.0015371053298791613 -0.032534205627035899 0 0.0017067538507666566 -0.032790401299259156 0 0.0013578794867465508 -0.032856008452189549 0 0.0015371053298791613 -0.032534205627035899 0 0.0018595003136992641 -0.032509287150122253 0 0.0017067538507666566 -0.032790401299259156 0 0.0016966342350180719 -0.032249142180202875 0 0.0015371053298791613 -0.032534205627035899 0 0.0018595003136992641 -0.032509287150122253 0 0.0020654830390109419 -0.032335584117509447 0 0.0018595003136992641 -0.032509287150122253 0 0.0021562144893232165 -0.032619526359812981 0 0.0018595003136992641 -0.032509287150122253 0 0.0019391897367194082 -0.0328088340939965 0 0.0021562144893232165 -0.032619526359812981 0 0.0018595003136992641 -0.032509287150122253 0 0.0019391897367194082 -0.0328088340939965 0 0.0017067538507666566 -0.032790401299259156 0 0.0019391897367194082 -0.0328088340939965 0 0.0018312987003612038 -0.033081674527863258 0 0.0017067538507666566 -0.032790401299259156 0 0.0019391897367194082 -0.0328088340939965 0 0.0018312987003612038 -0.033081674527863258 0 0.0021212104748044372 -0.033045429961058671 0 0.0018312987003612038 -0.033081674527863258 0 0.0017067538507666566 -0.032790401299259156 0 0.0014746879280145254 -0.033269700963238245 0 0.0017067538507666566 -0.032790401299259156 0 0.0013578794867465508 -0.032856008452189549 0 0.0014746879280145254 -0.033269700963238245 0 0.0011056161120268947 -0.033504070484283263 0 0.0014746879280145254 -0.033269700963238245 0 0.0014373676511925024 -0.033835193276200541 0 0.0014746879280145254 -0.033269700963238245 0 0.0014373676511925024 -0.033835193276200541 0 0.0018931940281835976 -0.033562893343842014 0 0.0014373676511925024 -0.033835193276200541 0 0.0018931940281835976 -0.033562893343842014 0 0.0016925454805861364 -0.034102366147323156 0 0.0018931940281835976 -0.033562893343842014 0 0.0020947755648267263 -0.034029399481646884 0 0.0016925454805861364 -0.034102366147323156 0 0.0018312987003612038 -0.033081674527863258 0 0.0014746879280145254 -0.033269700963238245 0 0.0018931940281835976 -0.033562893343842014 0 0.0018312987003612038 -0.033081674527863258 0 0.0018931940281835976 -0.033562893343842014 0 0.0021212104748044372 -0.033045429961058671 0 0.0018931940281835976 -0.033562893343842014 0 0.0024086022873840689 -0.03336892563579491 0 0.0021212104748044372 -0.033045429961058671 0 0.0018931940281835976 -0.033562893343842014 0 0.0024086022873840689 -0.03336892563579491 0 0.0020947755648267263 -0.034029399481646884 0 0.0024086022873840689 -0.03336892563579491 0 0.0028048441514387586 -0.033692709694946678 0 0.0020947755648267263 -0.034029399481646884 0 0.0024086022873840689 -0.03336892563579491 0 0.0024746977923436491 -0.03288372266027912 0 0.0030259067891548969 -0.033096479241069031 0 0.0019391897367194082 -0.0328088340939965 0 0.0021212104748044372 -0.033045429961058671 0 0.0021562144893232165 -0.032619526359812981 0 0.0024086022873840689 -0.03336892563579491 0 0.0024746977923436491 -0.03288372266027912 0 0.0021212104748044372 -0.033045429961058671 0 0.0024746977923436491 -0.03288372266027912 0 0.0021212104748044372 -0.033045429961058671 0 0.0021562144893232165 -0.032619526359812981 0 0.002354331622344739 -0.032478884288841998 0 0.0021562144893232165 -0.032619526359812981 0 0.0024716070968503023 -0.032643232365125965 0 0.0024746977923436491 -0.03288372266027912 0 0.0021562144893232165 -0.032619526359812981 0 0.0024716070968503023 -0.032643232365125965 0 0.001999695869674834 -0.032398235126130652 0 0.002354331622344739 -0.032478884288841998 0 0.0021562144893232165 -0.032619526359812981 0 0.0015531961662800348 -0.031283047497635046 0 0.0018478261336560729 -0.030694122338389199 0 0.0015531961662800348 -0.031283047497635046 0 0.0023303389918176804 -0.032731924027182946 0 0.002354331622344739 -0.032478884288841998 0 0.0024716070968503023 -0.032643232365125965 0 0.0027135215115208387 -0.032540324242850603 0 0.0012755983067551894 -0.028895822323901553 0 0.0012714269074744437 -0.028884757643168679 0 0.0012719716339954395 -0.028884248712588066 0 0.0018478261336560729 -0.030694122338389199 0 0.0021336669913196546 -0.028960837951578947 0 0.00070688660925633483 -0.025688533795684778 0 0.0021336669913196546 -0.028960837951578947 0 0.0024746977923436491 -0.03288372266027912 0 0.0024716070968503023 -0.032643232365125965 0 0.0027135215115208387 -0.032540324242850603 0 0.0015183741909421539 -0.027685638871573461 0 0.0018081323037077771 -0.027753446239375819 0 0.0014373928099869302 -0.027396528207110766 0 0.00069952642588072815 -0.025155314138109883 0 0.0021336669913196546 -0.028960837951578947 0 0.0016354846696880439 -0.026526682279598347 0 0.00091019621294445487 -0.026110798693392903 0 0.0014600529114372461 -0.026226931452410181 0 0.00070688660925633483 -0.025688533795684778 0 0.00069952642588072815 -0.025155314138109883 0 0.0010176425933261257 -0.024366052822072798 0 0.00068904848889410353 -0.024281843645194954 0 0.00075261510659751596 -0.024199944983635129 0 0.00015574416074703128 -0.021981557682038244 0 3.4183638558051753e-05 -0.022088509855201895 0 0.00021253521742036198 -0.022142408504260257 0 0.00069952642588072815 -0.025155314138109883 0 0.0003734168185987199 -0.023191216096506595 0 0.00015574416074703128 -0.021981557682038244 0 0.00021253521742036198 -0.022142408504260257 0 0.00033098021802168104 -0.022004162883819726 0 0.00069952642588072815 -0.025155314138109883 0 0.0011898909705953661 -0.025929605674418439 0 0.0015183741909421539 -0.027685638871573461 0 0.0011424022683286879 -0.027457759197468849 0 0.0014373928099869302 -0.027396528207110766 0 0.0011424022683286879 -0.027457759197468849 0 0.001198670241305468 -0.02713362949746036 0 0.0007702010431256004 -0.027227167264977651 0 0.0011424022683286879 -0.027457759197468849 0 0.0012973066714575107 -0.027271872437506051 0 0.001198670241305468 -0.02713362949746036 0 0.0011424022683286879 -0.027457759197468849 0 0.0012973066714575107 -0.027271872437506051 0 0.0014373928099869302 -0.027396528207110766 0 0.00068904848889410353 -0.024281843645194954 0 0.00075261510659751596 -0.024199944983635129 0 0.00048719532970591605 -0.02403825975269986 0 0.0012973066714575107 -0.027271872437506051 0 0.0014178134797007953 -0.027079596556024231 0 0.0014373928099869302 -0.027396528207110766 0 0.0012973066714575107 -0.027271872437506051 0 0.001198670241305468 -0.02713362949746036 0 0.0014178134797007953 -0.027079596556024231 0 0.0018081323037077771 -0.027753446239375819 0 0.0014178134797007953 -0.027079596556024231 0 0.0014373928099869302 -0.027396528207110766 0 0.0021336669913196546 -0.028960837951578947 0 0.0020874999199459862 -0.030428954796718907 0 0.0024746977923436491 -0.03288372266027912 0 0.0027135215115208387 -0.032540324242850603 0 0.0030259067891548969 -0.033096479241069031 0 0.0017327705238620137 -0.029202633572656244 0 0.0015005955958771211 -0.029839078612559643 0 0.001939787990567388 -0.029559452492107528 0 0.0024086022873840689 -0.03336892563579491 0 0.0030259067891548969 -0.033096479241069031 0 0.0028048441514387586 -0.033692709694946678 0 0.0020874999199459862 -0.030428954796718907 0 0.0021330126728324314 -0.032169727066512083 0 0.0015005955958771211 -0.029839078612559643 0 0.001939787990567388 -0.029559452492107528 0 0.0016086464396532748 -0.030025909581010604 0 0.00033932331155818088 -0.026609628178258984 0 0.00035276581309523822 -0.026409396392505325 0 0.00048592515573440975 -0.026641081147058616 0 0.00075513632241569083 -0.026363614818097462 0 0.00085339100937798385 -0.028261566537446364 0 0.00033932331155818088 -0.026609628178258984 0 0.00035276581309523822 -0.026409396392505325 0 0.00019704860263413461 -0.02663342986103177 0 0.00075513632241569083 -0.026363614818097462 0 0.00014116516968851029 -0.023767324735618725 0 0.001198670241305468 -0.02713362949746036 0 0.0011874653435220801 -0.026680521078182078 0 0.0007702010431256004 -0.027227167264977651 0 0.001198670241305468 -0.02713362949746036 0 0.0014178134797007953 -0.027079596556024231 0 0.0011874653435220801 -0.026680521078182078 0 0.0020874999199459862 -0.030428954796718907 0 0.00075513632241569083 -0.026363614818097462 0 0.00075513632241569083 -0.026363614818097462 0 0.00042923614612982579 -0.024488205675286392 0 0.00019663593030595683 -0.023220052046065118 0 0.00020718573618749473 -0.023189907553060843 0 0.00019697569012353257 -0.023218536879731421 0 0.0001888547311861413 -0.023240223567904606 0 0.00019663593030595683 -0.023220052046065118 0 0.00019697569012353257 -0.023218536879731421 0 0.0001888547311861413 -0.023240223567904606 0 0.00019663593030595683 -0.023220052046065118 0 0.00019345491223889314 -0.023244989482737247 0 -0.0001281028738051402 -0.02130059041105253 0 0.00014116516968851029 -0.023767324735618725 0 0.00019663593030595683 -0.023220052046065118 0 0.00020760123436944412 -0.023215482316860738 0 0.00019345491223889314 -0.023244989482737247 0 0.00019663593030595683 -0.023220052046065118 0 0.00020760123436944412 -0.023215482316860738 0 0.00020718573618749473 -0.023189907553060843 0 -1.4085980631256353e-05 -0.022903522202493011 0 0.00042923614612982579 -0.024488205675286392 0 0.00048128713483398762 -0.022422503360439393 0 0.00024351075596074943 -0.022012113195876148 0 0.00020718573618749473 -0.023189907553060843 0 0.00017537266099596472 -0.023172347558892244 0 0.00018721742761176031 -0.023151659463359658 0 0.00020718573618749473 -0.023189907553060843 0 0.00018721742761176031 -0.023151659463359658 0 0.00022733480356684164 -0.023149447193226685 0 0.00072421771127510802 -0.020826508892286232 0 0.00021158759978924681 -0.020820658887355441 0 0.00012960723841200605 -0.020675580076264428 0 0.00068904848889410353 -0.024281843645194954 0 0.00048719532970591605 -0.02403825975269986 0 0.00036264458592338746 -0.024199513840576409 0 0.0011898909705953661 -0.025929605674418439 0 0.00042923614612982579 -0.024488205675286392 0 0.00042923614612982579 -0.024488205675286392 0 0.00048128713483398762 -0.022422503360439393 0 0.0003734168185987199 -0.023191216096506595 0 0.00048128713483398762 -0.022422503360439393 0 0.00021253521742036198 -0.022142408504260257 0 0.0004305010751389399 -0.022197218363575057 0 0.00033098021802168104 -0.022004162883819726 0 0.00040764972358456157 -0.021246862919636476 0 0.00072421771127510802 -0.020826508892286232 0 0.00021158759978924681 -0.020820658887355441 0 0.0006226025081939459 -0.021943365216012423 0 0.0004305010751389399 -0.022197218363575057 0 0.00033098021802168104 -0.022004162883819726 0 0.00058252397884649186 -0.021626475412811572 0 0.00048128713483398762 -0.022422503360439393 0 -0.00016831753960898553 -0.026439606329842946 0 -0.00023676421037337636 -0.026661896800549163 0 -0.00041187657243385123 -0.02638025161150875 0 -0.00016831753960898553 -0.026439606329842946 0 -2.5186309723309014e-05 -0.026643901678524061 0 -0.00023676421037337636 -0.026661896800549163 0 -0.0001344830243428945 -0.026236387060898609 0 -0.00028178329471655582 -0.024489479892553394 0 0.00010434586877587232 -0.026428796990472958 0 -2.5186309723309014e-05 -0.026643901678524061 0 0.000268354775099249 -0.02684705635511898 0 -0.00016831753960898553 -0.026439606329842946 0 0.00010434586877587232 -0.026428796990472958 0 -2.5186309723309014e-05 -0.026643901678524061 0 7.0863662443552936e-05 -0.026828033631010453 0 0.00015052176250366007 -0.02688218576365653 0 0.000268354775099249 -0.02684705635511898 0 -2.5186309723309014e-05 -0.026643901678524061 0 7.0863662443552936e-05 -0.026828033631010453 0 0.000268354775099249 -0.02684705635511898 0 -2.5186309723309014e-05 -0.026643901678524061 0 7.0863662443552936e-05 -0.026828033631010453 0 -0.0001198582947517886 -0.026791539317366778 0 -2.5186309723309014e-05 -0.026643901678524061 0 -0.0001198582947517886 -0.026791539317366778 0 -0.00023676421037337636 -0.026661896800549163 0 -0.00056638367064259512 -0.019866021077898994 0 -0.00057984352582109177 -0.019836646041752708 0 -0.00058969846779817969 -0.019872974326535998 0 -0.00034412118290543734 -0.02333872865280949 0 -0.00050566152020543756 -0.023152678001818843 0 -0.00058969846779817969 -0.019872974326535998 0 -0.00057340546621284332 -0.019931723103147 0 -0.00054950140758984131 -0.019903901091090984 0 -0.00056638367064259512 -0.019866021077898994 0 -0.00058969846779817969 -0.019872974326535998 0 -0.00054950140758984131 -0.019903901091090984 0 -0.00034412118290543734 -0.02333872865280949 0 -0.00033615235393696246 -0.023300458794085131 0 7.0863662443552936e-05 -0.026828033631010453 0 -0.0001198582947517886 -0.026791539317366778 0 2.4954107826850837e-05 -0.026883737893305365 0 -0.00058740937273838649 -0.019966660117103522 0 -0.00057340546621284332 -0.019931723103147 0 -0.00052001350284465897 -0.019973002308758887 0 -0.00058740937273838649 -0.019966660117103522 0 -0.00057340546621284332 -0.019931723103147 0 -0.00062542149943954704 -0.019914355673698977 0 -0.00058969846779817969 -0.019872974326535998 0 -0.00057340546621284332 -0.019931723103147 0 -0.00062542149943954704 -0.019914355673698977 0 0.00014116516968851029 -0.023767324735618725 0 -0.00033615235393696246 -0.023300458794085131 0 -0.00057340546621284332 -0.019931723103147 0 -0.00052001350284465897 -0.019973002308758887 0 -0.00054950140758984131 -0.019903901091090984 0 0.00013009707258639731 -0.026936579874882731 0 0.00015052176250366007 -0.02688218576365653 0 2.4954107826850837e-05 -0.026883737893305365 0 7.0863662443552936e-05 -0.026828033631010453 0 0.00015052176250366007 -0.02688218576365653 0 2.4954107826850837e-05 -0.026883737893305365 0 0.00015052176250366007 -0.02688218576365653 0 0.00019793914938973241 -0.026870443427676253 0 0.000268354775099249 -0.02684705635511898 0 0.00019793914938973241 -0.026870443427676253 0 0.0001857202402266559 -0.026897601141246397 0 0.00016338110598370306 -0.026849229260409065 0 0.00015052176250366007 -0.02688218576365653 0 0.00019793914938973241 -0.026870443427676253 0 0.0001857202402266559 -0.026897601141246397 0 0.00013009707258639731 -0.026936579874882731 0 0.00015052176250366007 -0.02688218576365653 0 0.0001857202402266559 -0.026897601141246397 0 0.00033932331155818088 -0.026609628178258984 0 0.00032205965223695214 -0.026752881871380047 0 0.00019704860263413461 -0.02663342986103177 0 0.00014116516968851029 -0.023767324735618725 0 1.4639554877491294e-05 -0.026902200113449997 0 0.00033932331155818088 -0.026609628178258984 0 0.00048592515573440975 -0.026641081147058616 0 0.00032205965223695214 -0.026752881871380047 0 0.0015005955958771211 -0.029839078612559643 0 0.0016086464396532748 -0.030025909581010604 0 0.0012683602772663228 -0.030500854709918496 0 0.0021330126728324314 -0.032169727066512083 0 0.0018684861201271998 -0.031041191402651859 0 0.00019704860263413461 -0.02663342986103177 0 0.00019132560924154101 -0.026760806389394154 0 7.2683787643304564e-05 -0.02683283828614853 0 0.00085339100937798385 -0.028261566537446364 0 0.0018684861201271998 -0.031041191402651859 0 0.00032205965223695214 -0.026752881871380047 0 0.00019704860263413461 -0.02663342986103177 0 0.00019132560924154101 -0.026760806389394154 0 0.00032205965223695214 -0.026752881871380047 0 0.00019132560924154101 -0.026760806389394154 0 0.00016338110598370306 -0.026849229260409065 0 0.00019132560924154101 -0.026760806389394154 0 0.00016338110598370306 -0.026849229260409065 0 7.2683787643304564e-05 -0.02683283828614853 0 1.4639554877491294e-05 -0.026902200113449997 0 0.00023763716383740644 -0.026812173844752037 0 0.00019793914938973241 -0.026870443427676253 0 0.00016338110598370306 -0.026849229260409065 0 0.00016603380901302712 -0.026889989341141275 0 0.00019793914938973241 -0.026870443427676253 0 0.00016603380901302712 -0.026889989341141275 0 0.00019129278397736021 -0.026910483843244955 0 0.00016338110598370306 -0.026849229260409065 0 0.00016603380901302712 -0.026889989341141275 0 8.8041616595957865e-05 -0.02691728356377129 0 0.00016338110598370306 -0.026849229260409065 0 8.8041616595957865e-05 -0.02691728356377129 0 7.2683787643304564e-05 -0.02683283828614853 0 8.8041616595957865e-05 -0.02691728356377129 0 0.0001206929392742753 -0.026943619568853352 0 6.0194778848333646e-05 -0.027011124190741784 0 0.00016603380901302712 -0.026889989341141275 0 8.8041616595957865e-05 -0.02691728356377129 0 0.0001206929392742753 -0.026943619568853352 0 0.0001206929392742753 -0.026943619568853352 0 0.00016313962445388771 -0.027053335352202175 0 6.0194778848333646e-05 -0.027011124190741784 0 0.0001206929392742753 -0.026943619568853352 0 0.00019129278397736021 -0.026910483843244955 0 0.00016313962445388771 -0.027053335352202175 0 0.00016603380901302712 -0.026889989341141275 0 0.0001206929392742753 -0.026943619568853352 0 0.00019129278397736021 -0.026910483843244955 0 0.00019793914938973241 -0.026870443427676253 0 0.00019129278397736021 -0.026910483843244955 0 0.000268354775099249 -0.02684705635511898 0 0.00019129278397736021 -0.026910483843244955 0 0.000268354775099249 -0.02684705635511898 0 0.00016313962445388771 -0.027053335352202175 0 0.00010434586877587232 -0.026428796990472958 0 0.000268354775099249 -0.02684705635511898 0 0.00041200569357716256 -0.026292760115677209 0 0.00027652050790712845 -0.026915291783064451 0 0.00036947672994901533 -0.026604164176730203 0 0.000268354775099249 -0.02684705635511898 0 0.00016313962445388771 -0.027053335352202175 0 0.000305729992851589 -0.027247582289787353 0 0.00016313962445388771 -0.027053335352202175 0 9.3779071916920008e-05 -0.027254906534075852 0 0.000305729992851589 -0.027247582289787353 0 0.00016313962445388771 -0.027053335352202175 0 4.0213018266156385e-05 -0.027140154105096941 0 9.3779071916920008e-05 -0.027254906534075852 0 0.00016313962445388771 -0.027053335352202175 0 4.0213018266156385e-05 -0.027140154105096941 0 6.0194778848333646e-05 -0.027011124190741784 0 0.00015873111300453746 -0.026168081150159464 0 0.0005063235699678735 -0.030447907186009426 0 4.0213018266156385e-05 -0.027140154105096941 0 -7.7260989655591407e-05 -0.027010800242303307 0 -0.00030932317220427283 -0.027600628878363818 0 0.0022976464202901755 -0.034560801539953237 0 0.0016413403223794552 -0.034750897565052931 0 0.0013955818238337693 -0.029922151043805939 0 0.0012522669921232383 -0.032159415330211279 0 0.0020571094395802898 -0.034733913209119067 0 0.0017726756248414128 -0.034796775454521985 0 0.0015897146494551848 -0.034939717426539868 0 0.0023755240166965512 -0.033617448380795299 0 0.0017721716527700883 -0.034790333407350604 0 0.0015897146494551848 -0.034939717426539868 0 0.0023755240166965512 -0.033617448380795299 0 0.002833143428324449 -0.033726741748486395 0 0.0023796998906717307 -0.035123055245818352 0 0.0023755240166965512 -0.033617448380795299 0 0.0017721716527700883 -0.034790333407350604 0 0.0023796998906717307 -0.035123055245818352 0 0.0020571094395802898 -0.034733913209119067 0 0.0018552923823901021 -0.0346417199349313 0 0.0020713841889309641 -0.034422728382129904 0 0.0020571094395802898 -0.034733913209119067 0 0.0018552923823901021 -0.0346417199349313 0 0.0017726756248414128 -0.034796775454521985 0 8.8041616595957865e-05 -0.02691728356377129 0 -7.7260989655591407e-05 -0.027010800242303307 0 7.2683787643304564e-05 -0.02683283828614853 0 0.0023755240166965512 -0.033617448380795299 0 0.002833143428324449 -0.033726741748486395 0 0.0033261458791514942 -0.032201013306516431 0 4.0213018266156385e-05 -0.027140154105096941 0 -7.7260989655591407e-05 -0.027010800242303307 0 6.0194778848333646e-05 -0.027011124190741784 0 8.8041616595957865e-05 -0.02691728356377129 0 -7.7260989655591407e-05 -0.027010800242303307 0 6.0194778848333646e-05 -0.027011124190741784 0 0.0013955818238337693 -0.029922151043805939 0 0.0018684861201271998 -0.031041191402651859 0 0.0022976464202901755 -0.034560801539953237 0 0.0018684861201271998 -0.031041191402651859 0 0.0020571094395802898 -0.034733913209119067 0 0.0025402409821188793 -0.034265414368280706 0 0.0020713841889309641 -0.034422728382129904 0 0.0028048441514387586 -0.033692709694946678 0 0.0025402409821188793 -0.034265414368280706 0 0.0020947755648267263 -0.034029399481646884 0 0.0020947755648267263 -0.034029399481646884 0 0.0020713841889309641 -0.034422728382129904 0 0.0018296730410971649 -0.034416424216381115 0 0.0025402409821188793 -0.034265414368280706 0 0.0020947755648267263 -0.034029399481646884 0 0.0020713841889309641 -0.034422728382129904 0 0.0018552923823901021 -0.0346417199349313 0 0.0020713841889309641 -0.034422728382129904 0 0.0018296730410971649 -0.034416424216381115 0 0.0018296730410971649 -0.034416424216381115 0 0.0015556411317316234 -0.034437337908984053 0 0.0016925454805861364 -0.034102366147323156 0 0.0018296730410971649 -0.034416424216381115 0 0.0015556411317316234 -0.034437337908984053 0 0.0016456068248748865 -0.034621591229897858 0 0.0020947755648267263 -0.034029399481646884 0 0.0018296730410971649 -0.034416424216381115 0 0.0016925454805861364 -0.034102366147323156 0 0.00099712717829911137 -0.034045436289313273 0 0.0014373676511925024 -0.033835193276200541 0 0.0013651034838650126 -0.034245659467063733 0 0.0014373676511925024 -0.033835193276200541 0 0.0016925454805861364 -0.034102366147323156 0 0.0013651034838650126 -0.034245659467063733 0 0.0015556411317316234 -0.034437337908984053 0 0.0016925454805861364 -0.034102366147323156 0 0.0013651034838650126 -0.034245659467063733 0 0.0015556411317316234 -0.034437337908984053 0 0.0013651034838650126 -0.034245659467063733 0 0.0012753588505947375 -0.034530846890247935 0 0.0015556411317316234 -0.034437337908984053 0 0.0012753588505947375 -0.034530846890247935 0 0.0014379878921635381 -0.03463922445087033 0 0.0012753588505947375 -0.034530846890247935 0 0.0014379878921635381 -0.03463922445087033 0 0.0012151072741783755 -0.034742229722595067 0 0.0013834049987899444 -0.034759887620006952 0 0.0014379878921635381 -0.03463922445087033 0 0.0012151072741783755 -0.034742229722595067 0 0.001506908153323859 -0.034766575720831451 0 0.0014379878921635381 -0.03463922445087033 0 0.0016456068248748865 -0.034621591229897858 0 0.0013834049987899444 -0.034759887620006952 0 0.001506908153323859 -0.034766575720831451 0 0.0014379878921635381 -0.03463922445087033 0 0.0015556411317316234 -0.034437337908984053 0 0.0014379878921635381 -0.03463922445087033 0 0.0016456068248748865 -0.034621591229897858 0 0.0018552923823901021 -0.0346417199349313 0 0.0018296730410971649 -0.034416424216381115 0 0.0016456068248748865 -0.034621591229897858 0 0.0018552923823901021 -0.0346417199349313 0 0.0016882982167613718 -0.034763646875320686 0 0.0017726756248414128 -0.034796775454521985 0 0.0018552923823901021 -0.0346417199349313 0 0.0016456068248748865 -0.034621591229897858 0 0.0016882982167613718 -0.034763646875320686 0 0.001506908153323859 -0.034766575720831451 0 0.0016456068248748865 -0.034621591229897858 0 0.0016882982167613718 -0.034763646875320686 0 0.001506908153323859 -0.034766575720831451 0 0.0016882982167613718 -0.034763646875320686 0 0.0015474700245027215 -0.034880117672786926 0 0.0016882982167613718 -0.034763646875320686 0 0.0016575217452111913 -0.034855108668804563 0 0.0015474700245027215 -0.034880117672786926 0 0.0016882982167613718 -0.034763646875320686 0 0.0017726756248414128 -0.034796775454521985 0 0.0016575217452111913 -0.034855108668804563 0 0.0017726756248414128 -0.034796775454521985 0 0.0016575217452111913 -0.034855108668804563 0 0.0015897146494551848 -0.034939717426539868 0 0.0016575217452111913 -0.034855108668804563 0 0.001584187523853212 -0.034911198006193717 0 0.0015897146494551848 -0.034939717426539868 0 0.0015474700245027215 -0.034880117672786926 0 0.001584187523853212 -0.034911198006193717 0 0.0015476561435028454 -0.034958353171334854 0 0.0016575217452111913 -0.034855108668804563 0 0.0015474700245027215 -0.034880117672786926 0 0.001584187523853212 -0.034911198006193717 0 0.0015474700245027215 -0.034880117672786926 0 0.0013745064323424563 -0.034884769819760644 0 0.0014547991714301783 -0.035001182755131872 0 0.0013745064323424563 -0.034884769819760644 0 0.0013092698576934807 -0.035000254611048644 0 0.00115005686174004 -0.034935583006089711 0 0.0013834049987899444 -0.034759887620006952 0 0.0013745064323424563 -0.034884769819760644 0 0.0012151072741783755 -0.034742229722595067 0 0.001506908153323859 -0.034766575720831451 0 0.0015474700245027215 -0.034880117672786926 0 0.0013745064323424563 -0.034884769819760644 0 0.0013834049987899444 -0.034759887620006952 0 0.001506908153323859 -0.034766575720831451 0 0.0013745064323424563 -0.034884769819760644 0 0.0013415652131689433 -0.035095240489162439 0 0.0014547991714301783 -0.035001182755131872 0 0.0014720174477783694 -0.035170743187540258 0 0.0013415652131689433 -0.035095240489162439 0 0.0012710980333626718 -0.035194285683722126 0 0.0012048977763765845 -0.035095129126835913 0 0.0013415652131689433 -0.035095240489162439 0 0.0013092698576934807 -0.035000254611048644 0 0.0012048977763765845 -0.035095129126835913 0 0.0013745064323424563 -0.034884769819760644 0 0.0013092698576934807 -0.035000254611048644 0 0.0014547991714301783 -0.035001182755131872 0 0.0013415652131689433 -0.035095240489162439 0 0.0013092698576934807 -0.035000254611048644 0 0.0014547991714301783 -0.035001182755131872 0 0.0015474700245027215 -0.034880117672786926 0 0.0014547991714301783 -0.035001182755131872 0 0.0015476561435028454 -0.034958353171334854 0 0.001584187523853212 -0.034911198006193717 0 0.0015476561435028454 -0.034958353171334854 0 0.0015897146494551848 -0.034939717426539868 0 0.0015476561435028454 -0.034958353171334854 0 0.0016248406293001639 -0.034993773109676544 0 0.0015472619927694663 -0.035039403125917676 0 0.0014547991714301783 -0.035001182755131872 0 0.0015476561435028454 -0.034958353171334854 0 0.0015472619927694663 -0.035039403125917676 0 0.0017721716527700883 -0.034790333407350604 0 0.0015897146494551848 -0.034939717426539868 0 0.0017431585226108986 -0.034934734560179224 0 0.0015476561435028454 -0.034958353171334854 0 0.0015897146494551848 -0.034939717426539868 0 0.0016248406293001639 -0.034993773109676544 0 0.0015897146494551848 -0.034939717426539868 0 0.0016248406293001639 -0.034993773109676544 0 0.0017431585226108986 -0.034934734560179224 0 0.0016248406293001639 -0.034993773109676544 0 0.0017597888917536303 -0.035003368429830865 0 0.0017431585226108986 -0.034934734560179224 0 0.0016248406293001639 -0.034993773109676544 0 0.0016483358722675723 -0.035078033753372581 0 0.0017597888917536303 -0.035003368429830865 0 0.0016248406293001639 -0.034993773109676544 0 0.0016483358722675723 -0.035078033753372581 0 0.0015472619927694663 -0.035039403125917676 0 0.0014547991714301783 -0.035001182755131872 0 0.0015472619927694663 -0.035039403125917676 0 0.0014720174477783694 -0.035170743187540258 0 0.0016483358722675723 -0.035078033753372581 0 0.0015472619927694663 -0.035039403125917676 0 0.0014720174477783694 -0.035170743187540258 0 0.0016483358722675723 -0.035078033753372581 0 0.0014720174477783694 -0.035170743187540258 0 0.0017369812625897877 -0.035176200085761694 0 0.0014720174477783694 -0.035170743187540258 0 0.0015102608935403685 -0.03538831281815432 0 0.0017369812625897877 -0.035176200085761694 0 0.0015102608935403685 -0.03538831281815432 0 0.0017678356632891078 -0.035356399081899782 0 0.0017369812625897877 -0.035176200085761694 0 0.0014720174477783694 -0.035170743187540258 0 0.0012670725695365082 -0.035341008825608207 0 0.0015102608935403685 -0.03538831281815432 0 0.0014720174477783694 -0.035170743187540258 0 0.0012710980333626718 -0.035194285683722126 0 0.0012670725695365082 -0.035341008825608207 0 0.0013415652131689433 -0.035095240489162439 0 0.0014720174477783694 -0.035170743187540258 0 0.0012710980333626718 -0.035194285683722126 0 0.0012670725695365082 -0.035341008825608207 0 0.0013076743773211474 -0.035562750091035038 0 0.0015102608935403685 -0.03538831281815432 0 0.000919768295241224 -0.035683699024979969 0 0.00098256418902926577 -0.032453638760136752 0 0.00030904822314681746 -0.035085558990159617 0 0.00034648295859039733 -0.034997950534661156 0 0.00026782593559874243 -0.034994221935246581 0 0.00030904822314681746 -0.035085558990159617 0 0.00018467806336079865 -0.034995705699587945 0 0.00026782593559874243 -0.034994221935246581 0 0.00098256418902926577 -0.032453638760136752 0 0.0013471119109759143 -0.032904290427555431 0 0.0013076743773211474 -0.035562750091035038 0 0.0015947056120748603 -0.035671291013447286 0 0.0015102608935403685 -0.03538831281815432 0 0.0015947056120748603 -0.035671291013447286 0 0.0015102608935403685 -0.03538831281815432 0 0.0017678356632891078 -0.035356399081899782 0 0.00076104906456357071 -0.029681830978398445 0 0.0006499261628907791 -0.029256515359392242 0 0.00034426582775160967 -0.029406370054630735 0 0.0010122111774376534 -0.02915612521649099 0 0.0006499261628907791 -0.029256515359392242 0 0.0006931441096236252 -0.028968482403573075 0 0.0010122111774376534 -0.02915612521649099 0 0.00076104906456357071 -0.029681830978398445 0 0.0006499261628907791 -0.029256515359392242 0 0.0006499261628907791 -0.029256515359392242 0 0.00039653145586991689 -0.029095955320288674 0 0.0006931441096236252 -0.028968482403573075 0 0.00039653145586991689 -0.029095955320288674 0 0.00034426582775160967 -0.029406370054630735 0 -7.5275257628758306e-05 -0.029063395742248466 0 0.0006499261628907791 -0.029256515359392242 0 0.00039653145586991689 -0.029095955320288674 0 0.00034426582775160967 -0.029406370054630735 0 0.00034426582775160967 -0.029406370054630735 0 0.00038555531757649797 -0.029797174165199478 0 0.00013605485289843654 -0.029692106406999222 0 0.00076104906456357071 -0.029681830978398445 0 0.00034426582775160967 -0.029406370054630735 0 0.00038555531757649797 -0.029797174165199478 0 0.00038555531757649797 -0.029797174165199478 0 0.00051340862938487053 -0.030203061872273312 0 0.0001698505114110047 -0.029998136607119464 0 0.00038555531757649797 -0.029797174165199478 0 0.0001698505114110047 -0.029998136607119464 0 0.00013605485289843654 -0.029692106406999222 0 0.0013471119109759143 -0.032904290427555431 0 0.0005063235699678735 -0.030447907186009426 0 0.00076104906456357071 -0.029681830978398445 0 0.00038555531757649797 -0.029797174165199478 0 0.00051340862938487053 -0.030203061872273312 0 0.0017678356632891078 -0.035356399081899782 0 0.0017369812625897877 -0.035176200085761694 0 0.0019588664046880193 -0.034988671129860732 0 0.0016483358722675723 -0.035078033753372581 0 0.0017369812625897877 -0.035176200085761694 0 0.0017754550344779528 -0.035067909525922203 0 0.0018481989392788369 -0.034995417889908009 0 0.0017754550344779528 -0.035067909525922203 0 0.0019588664046880193 -0.034988671129860732 0 0.0017369812625897877 -0.035176200085761694 0 0.0017754550344779528 -0.035067909525922203 0 0.0019588664046880193 -0.034988671129860732 0 0.0018481989392788369 -0.034995417889908009 0 0.0018641509306097789 -0.034936653566519801 0 0.0019588664046880193 -0.034988671129860732 0 0.0011037051941875044 -0.033122698003246763 0 0.0012522669921232383 -0.032159415330211279 0 0.0012522669921232383 -0.032159415330211279 0 0.0005063235699678735 -0.030447907186009426 0 0.0016483358722675723 -0.035078033753372581 0 0.0017754550344779528 -0.035067909525922203 0 0.0017597888917536303 -0.035003368429830865 0 0.0018481989392788369 -0.034995417889908009 0 0.0017597888917536303 -0.035003368429830865 0 0.0018743272159188094 -0.034957057454129706 0 0.0018481989392788369 -0.034995417889908009 0 0.0017754550344779528 -0.035067909525922203 0 0.0017597888917536303 -0.035003368429830865 0 0.0017721716527700883 -0.034790333407350604 0 0.0017431585226108986 -0.034934734560179224 0 0.0018743272159188094 -0.034957057454129706 0 0.0017597888917536303 -0.035003368429830865 0 0.0017431585226108986 -0.034934734560179224 0 0.0018743272159188094 -0.034957057454129706 0 0.0024607703217596612 -0.034789550145568726 0 0.0012522669921232383 -0.032159415330211279 0 0.0005063235699678735 -0.030447907186009426 0 3.1399876198361169e-05 -0.028659090230310651 0 4.0213018266156385e-05 -0.027140154105096941 0 -0.00030932317220427283 -0.027600628878363818 0 -0.0001469902867582177 -0.02769834567237273 0 4.0213018266156385e-05 -0.027140154105096941 0 -6.300220504992328e-05 -0.027347698804340452 0 9.3779071916920008e-05 -0.027254906534075852 0 -6.300220504992328e-05 -0.027347698804340452 0 9.3779071916920008e-05 -0.027254906534075852 0 9.1596866046132996e-05 -0.027438539816210916 0 9.3779071916920008e-05 -0.027254906534075852 0 0.000305729992851589 -0.027247582289787353 0 9.1596866046132996e-05 -0.027438539816210916 0 0.00036947672994901533 -0.026604164176730203 0 0.00030618229633927875 -0.027384861270216627 0 0.00041200569357716256 -0.026292760115677209 0 0.00048422630372916187 -0.025787185551134118 0 2.180976929742549e-05 -0.026025182949839385 0 0.00030618229633927875 -0.027384861270216627 0 3.1399876198361169e-05 -0.028659090230310651 0 0.000305729992851589 -0.027247582289787353 0 0.00027096558362991937 -0.027537921138576324 0 9.1596866046132996e-05 -0.027438539816210916 0 -0.00017408353081663878 -0.029787910961850482 0 0.0001698505114110047 -0.029998136607119464 0 0.00013605485289843654 -0.029692106406999222 0 0.00034426582775160967 -0.029406370054630735 0 0.00013605485289843654 -0.029692106406999222 0 -0.0001249425388929014 -0.029430647677623104 0 -0.00017408353081663878 -0.029787910961850482 0 0.00013605485289843654 -0.029692106406999222 0 -0.0001249425388929014 -0.029430647677623104 0 0.00034426582775160967 -0.029406370054630735 0 -7.5275257628758306e-05 -0.029063395742248466 0 -0.0001249425388929014 -0.029430647677623104 0 -0.00022035678650785071 -0.025296176254395529 0 -1.4508212051302252e-05 -0.028237181887176624 0 0.00028066429829889499 -0.02567826750052591 0 -9.9456548457596983e-05 -0.025928430850120688 0 0.0002264637993560244 -0.026121642313556091 0 -0.00022035678650785071 -0.025296176254395529 0 -9.2415382932903379e-05 -0.024462758413893688 0 -9.9456548457596983e-05 -0.025928430850120688 0 -7.2424855062012118e-05 -0.026156950038497401 0 -0.00018741559334195431 -0.025986899486888999 0 -9.9456548457596983e-05 -0.025928430850120688 0 -7.2424855062012118e-05 -0.026156950038497401 0 0.0002264637993560244 -0.026121642313556091 0 -9.2415382932903379e-05 -0.024462758413893688 0 -0.0002479916445410988 -0.024569528711514764 0 0.00030618229633927875 -0.027384861270216627 0 -1.4508212051302252e-05 -0.028237181887176624 0 0.00030618229633927875 -0.027384861270216627 0 -0.00022247828951595089 -0.024488083509182412 0 0.0001700018994111372 -0.026565189116113924 0 -7.2424855062012118e-05 -0.026156950038497401 0 -0.00047768719929044485 -0.026176349576666622 0 0.0001700018994111372 -0.026565189116113924 0 -7.2424855062012118e-05 -0.026156950038497401 0 0.0002264637993560244 -0.026121642313556091 0 -7.2424855062012118e-05 -0.026156950038497401 0 -0.00047768719929044485 -0.026176349576666622 0 -0.00018741559334195431 -0.025986899486888999 0 -0.00022247828951595089 -0.024488083509182412 0 -0.0002479916445410988 -0.024569528711514764 0 -0.00029019704171315454 -0.023163809323823108 0 -0.00030177759596506282 -0.02314583872939836 0 -0.00029140289094142915 -0.023142158191694493 0 -0.00030172878355041527 -0.023178679483493232 0 -0.00029195314238152 -0.023166406167477078 0 -0.00030177759596506282 -0.02314583872939836 0 -0.00029019704171315454 -0.023163809323823108 0 -0.00029195314238152 -0.023166406167477078 0 -0.00030177759596506282 -0.02314583872939836 0 -0.00022247828951595089 -0.024488083509182412 0 -0.00045961253076488092 -0.022802226668681019 0 -0.00030172878355041527 -0.023178679483493232 0 -0.00030177759596506282 -0.02314583872939836 0 -0.00033500896185646647 -0.023149543194523267 0 -0.00023810056413808497 -0.023217784944053303 0 -0.00031652737893230474 -0.023259909601725665 0 -0.00033500896185646647 -0.023149543194523267 0 -0.00022247828951595089 -0.024488083509182412 0 -0.00030383792049388868 -0.024563605859808081 0 -4.4666328397684977e-06 -0.025492257839013512 0 -0.00035487505539454631 -0.025710229868343638 0 2.180976929742549e-05 -0.026025182949839385 0 -0.00035487505539454631 -0.025710229868343638 0 2.180976929742549e-05 -0.026025182949839385 0 -0.00027862507935492498 -0.026116405998431673 0 0.00048422630372916187 -0.025787185551134118 0 -4.4666328397684977e-06 -0.025492257839013512 0 2.180976929742549e-05 -0.026025182949839385 0 0.00010434586877587232 -0.026428796990472958 0 0.00041200569357716256 -0.026292760115677209 0 2.180976929742549e-05 -0.026025182949839385 0 -0.00016831753960898553 -0.026439606329842946 0 0.00010434586877587232 -0.026428796990472958 0 2.180976929742549e-05 -0.026025182949839385 0 -0.00016831753960898553 -0.026439606329842946 0 -0.00027862507935492498 -0.026116405998431673 0 -0.00047334166973000269 -0.026377444223312799 0 -0.00016831753960898553 -0.026439606329842946 0 2.180976929742549e-05 -0.026025182949839385 0 -0.00027862507935492498 -0.026116405998431673 0 0.00025932913517429513 -0.034828701291152432 0 0.00016766448711297012 -0.034961566117968239 0 6.7587381038274421e-05 -0.034922259636530804 0 0.00025932913517429513 -0.034828701291152432 0 0.00042531816323240589 -0.034689981784746915 0 0.00043717806898091948 -0.034803966140156288 0 0.00025932913517429513 -0.034828701291152432 0 0.00035934616633175644 -0.034919394001698134 0 0.00043717806898091948 -0.034803966140156288 0 0.00025932913517429513 -0.034828701291152432 0 0.00035934616633175644 -0.034919394001698134 0 0.00016766448711297012 -0.034961566117968239 0 0.00035934616633175644 -0.034919394001698134 0 0.00016766448711297012 -0.034961566117968239 0 0.00028348364079051024 -0.035049713779424667 0 0.00016766448711297012 -0.034961566117968239 0 6.7587381038274421e-05 -0.034922259636530804 0 4.8248734649698676e-05 -0.035006950215723698 0 1.813616677169448e-08 -0.034999990048796698 0 6.7587381038274421e-05 -0.034922259636530804 0 4.8248734649698676e-05 -0.035006950215723698 0 1.813616677169448e-08 -0.034999990048796698 0 6.7587381038274421e-05 -0.034922259636530804 0 4.0137138039565787e-09 -0.034999820548891919 0 6.7587381038274421e-05 -0.034922259636530804 0 6.0521113271047366e-05 -0.034877036640571173 0 0.00016827980163039021 -0.034760732832198639 0 6.7587381038274421e-05 -0.034922259636530804 0 6.0521113271047366e-05 -0.034877036640571173 0 4.0137138039565787e-09 -0.034999820548891919 0 4.5016946513289421e-08 -0.034999808725120873 0 4.0137138039565787e-09 -0.034999820548891919 0 1.2068192818073481e-05 -0.034870291966312125 0 6.0521113271047366e-05 -0.034877036640571173 0 4.0137138039565787e-09 -0.034999820548891919 0 1.2068192818073481e-05 -0.034870291966312125 0 0.00018218102780687495 -0.034560348311941866 0 1.2068192818073481e-05 -0.034870291966312125 0 0.00016827980163039021 -0.034760732832198639 0 6.0521113271047366e-05 -0.034877036640571173 0 1.2068192818073481e-05 -0.034870291966312125 0 0.00016827980163039021 -0.034760732832198639 0 0.00025932913517429513 -0.034828701291152432 0 6.7587381038274421e-05 -0.034922259636530804 0 0.00016827980163039021 -0.034760732832198639 0 0.00025932913517429513 -0.034828701291152432 0 0.00032507107188083057 -0.03465359314679748 0 0.00042531816323240589 -0.034689981784746915 0 0.00025932913517429513 -0.034828701291152432 0 0.00016827980163039021 -0.034760732832198639 0 0.00032507107188083057 -0.03465359314679748 0 0.00035382003936169503 -0.034536802119888438 0 0.00016827980163039021 -0.034760732832198639 0 0.00032507107188083057 -0.03465359314679748 0 0.00035382003936169503 -0.034536802119888438 0 0.00032507107188083057 -0.03465359314679748 0 0.00059666051147728896 -0.034426035299261339 0 0.00047245013796007112 -0.03440699022868237 0 0.00058963844096049476 -0.034444128224478704 0 0.00076897025511491553 -0.034190279081535706 0 0.00059666051147728896 -0.034426035299261339 0 0.00080042995754164988 -0.034443927407366688 0 0.00080042995754164988 -0.034443927407366688 0 0.00084413416739277972 -0.034669624352207183 0 0.00062639018018816116 -0.034703866467786372 0 0.00059666051147728896 -0.034426035299261339 0 0.00080042995754164988 -0.034443927407366688 0 0.00062639018018816116 -0.034703866467786372 0 0.00059666051147728896 -0.034426035299261339 0 0.00042531816323240589 -0.034689981784746915 0 0.00062639018018816116 -0.034703866467786372 0 0.00032507107188083057 -0.03465359314679748 0 0.00059666051147728896 -0.034426035299261339 0 0.00042531816323240589 -0.034689981784746915 0 0.00099712717829911137 -0.034045436289313273 0 0.0013651034838650126 -0.034245659467063733 0 0.0010591451597943028 -0.034432203684370707 0 0.00099712717829911137 -0.034045436289313273 0 0.00076897025511491553 -0.034190279081535706 0 0.00080042995754164988 -0.034443927407366688 0 0.00099712717829911137 -0.034045436289313273 0 0.00080042995754164988 -0.034443927407366688 0 0.0010591451597943028 -0.034432203684370707 0 0.00080042995754164988 -0.034443927407366688 0 0.0010591451597943028 -0.034432203684370707 0 0.00084413416739277972 -0.034669624352207183 0 0.0010591451597943028 -0.034432203684370707 0 0.0010709088135741958 -0.034638253385158753 0 0.00084413416739277972 -0.034669624352207183 0 0.0013651034838650126 -0.034245659467063733 0 0.0012753588505947375 -0.034530846890247935 0 0.0010591451597943028 -0.034432203684370707 0 0.0012753588505947375 -0.034530846890247935 0 0.0010591451597943028 -0.034432203684370707 0 0.0010709088135741958 -0.034638253385158753 0 0.0012753588505947375 -0.034530846890247935 0 0.0012151072741783755 -0.034742229722595067 0 0.0010709088135741958 -0.034638253385158753 0 0.0012151072741783755 -0.034742229722595067 0 0.0010709088135741958 -0.034638253385158753 0 0.0009838377016945499 -0.0348017676230531 0 0.00084413416739277972 -0.034669624352207183 0 0.0009838377016945499 -0.0348017676230531 0 0.0007582528625874412 -0.03483416123506812 0 0.0010709088135741958 -0.034638253385158753 0 0.00084413416739277972 -0.034669624352207183 0 0.0009838377016945499 -0.0348017676230531 0 0.00090118910344747069 -0.034977060846376251 0 0.0009838377016945499 -0.0348017676230531 0 0.00115005686174004 -0.034935583006089711 0 0.00090118910344747069 -0.034977060846376251 0 0.0009838377016945499 -0.0348017676230531 0 0.0007582528625874412 -0.03483416123506812 0 0.0012151072741783755 -0.034742229722595067 0 0.0009838377016945499 -0.0348017676230531 0 0.00115005686174004 -0.034935583006089711 0 0.0013745064323424563 -0.034884769819760644 0 0.0012151072741783755 -0.034742229722595067 0 0.00115005686174004 -0.034935583006089711 0 0.00043717806898091948 -0.034803966140156288 0 0.00062639018018816116 -0.034703866467786372 0 0.00054845807251646943 -0.034877851525608822 0 0.00042531816323240589 -0.034689981784746915 0 0.00043717806898091948 -0.034803966140156288 0 0.00062639018018816116 -0.034703866467786372 0 0.00084413416739277972 -0.034669624352207183 0 0.00062639018018816116 -0.034703866467786372 0 0.0007582528625874412 -0.03483416123506812 0 0.00062639018018816116 -0.034703866467786372 0 0.0007582528625874412 -0.03483416123506812 0 0.00054845807251646943 -0.034877851525608822 0 0.0007582528625874412 -0.03483416123506812 0 0.00066548316817966195 -0.034987689740681976 0 0.00054845807251646943 -0.034877851525608822 0 0.00090118910344747069 -0.034977060846376251 0 0.0007582528625874412 -0.03483416123506812 0 0.00066548316817966195 -0.034987689740681976 0 0.00035934616633175644 -0.034919394001698134 0 0.00043717806898091948 -0.034803966140156288 0 0.00054845807251646943 -0.034877851525608822 0 0.00035934616633175644 -0.034919394001698134 0 0.00054845807251646943 -0.034877851525608822 0 0.00046077012339165572 -0.035007881666784375 0 0.00066548316817966195 -0.034987689740681976 0 0.00054845807251646943 -0.034877851525608822 0 0.00046077012339165572 -0.035007881666784375 0 0.00046077012339165572 -0.035007881666784375 0 0.00058063654747971688 -0.035120577601141865 0 0.00037125803498105263 -0.035131105485675752 0 0.00066548316817966195 -0.034987689740681976 0 0.00046077012339165572 -0.035007881666784375 0 0.00058063654747971688 -0.035120577601141865 0 0.00090118910344747069 -0.034977060846376251 0 0.00066548316817966195 -0.034987689740681976 0 0.00075459652823927563 -0.035119123066970424 0 0.00066548316817966195 -0.034987689740681976 0 0.00058063654747971688 -0.035120577601141865 0 0.00075459652823927563 -0.035119123066970424 0 0.00058063654747971688 -0.035120577601141865 0 0.00075459652823927563 -0.035119123066970424 0 0.00067664221502125674 -0.035321433075542349 0 0.00075459652823927563 -0.035119123066970424 0 0.00067664221502125674 -0.035321433075542349 0 0.00088266412960000577 -0.035252596184072657 0 0.00058063654747971688 -0.035120577601141865 0 0.00067664221502125674 -0.035321433075542349 0 0.00037125803498105263 -0.035131105485675752 0 0.00055942498460345258 -0.035245772284637766 0 0.00037901097057447484 -0.035139213873225161 0 0.00042612616227039865 -0.035163804377439684 0 0.00039067587261438813 -0.035169278936677817 0 0.00037125803498105263 -0.035131105485675752 0 0.00090118910344747069 -0.034977060846376251 0 0.00115005686174004 -0.034935583006089711 0 0.0010509053488002278 -0.03505930446381432 0 0.0013092698576934807 -0.035000254611048644 0 0.00115005686174004 -0.034935583006089711 0 0.0012048977763765845 -0.035095129126835913 0 0.00115005686174004 -0.034935583006089711 0 0.0012048977763765845 -0.035095129126835913 0 0.0010509053488002278 -0.03505930446381432 0 0.0012048977763765845 -0.035095129126835913 0 0.0010509053488002278 -0.03505930446381432 0 0.0010784624598587558 -0.03524171224181312 0 0.0010509053488002278 -0.03505930446381432 0 0.00092077338449047857 -0.035137581864097482 0 0.0010784624598587558 -0.03524171224181312 0 0.00090118910344747069 -0.034977060846376251 0 0.0010509053488002278 -0.03505930446381432 0 0.00092077338449047857 -0.035137581864097482 0 0.00090118910344747069 -0.034977060846376251 0 0.00075459652823927563 -0.035119123066970424 0 0.00092077338449047857 -0.035137581864097482 0 0.00088266412960000577 -0.035252596184072657 0 0.0010784624598587558 -0.03524171224181312 0 0.0009983028844422941 -0.035452315644949946 0 0.00067664221502125674 -0.035321433075542349 0 0.00088266412960000577 -0.035252596184072657 0 0.0009983028844422941 -0.035452315644949946 0 0.00075459652823927563 -0.035119123066970424 0 0.00092077338449047857 -0.035137581864097482 0 0.00088266412960000577 -0.035252596184072657 0 0.00092077338449047857 -0.035137581864097482 0 0.00088266412960000577 -0.035252596184072657 0 0.0010784624598587558 -0.03524171224181312 0 0.0012670725695365082 -0.035341008825608207 0 0.0010784624598587558 -0.03524171224181312 0 0.0009983028844422941 -0.035452315644949946 0 0.0012710980333626718 -0.035194285683722126 0 0.0012670725695365082 -0.035341008825608207 0 0.0010784624598587558 -0.03524171224181312 0 0.0012710980333626718 -0.035194285683722126 0 0.0012048977763765845 -0.035095129126835913 0 0.0010784624598587558 -0.03524171224181312 0 0.0012670725695365082 -0.035341008825608207 0 0.0013076743773211474 -0.035562750091035038 0 0.0009983028844422941 -0.035452315644949946 0 0.00030904822314681746 -0.035085558990159617 0 0.00039968061769163457 -0.035146008889663578 0 0.00037099773486459699 -0.03508450432265528 0 0.000919768295241224 -0.035683699024979969 0 0.00065915591344280959 -0.035246818699399621 0 0.00042612616227039865 -0.035163804377439684 0 0.00039968061769163457 -0.035146008889663578 0 0.00042032402363683432 -0.035147934746618904 0 0.00055942498460345258 -0.035245772284637766 0 0.00065915591344280959 -0.035246818699399621 0 0.00039968061769163457 -0.035146008889663578 0 0.00041985997002542106 -0.035098015574857137 0 0.00042032402363683432 -0.035147934746618904 0 -8.3688371056355742e-06 -0.034907849910994687 0 -6.6135987200272136e-06 -0.034872631821728339 0 -1.9435889939356545e-05 -0.034852467832545697 0 -8.3688371056355742e-06 -0.034907849910994687 0 -1.0737152365723598e-06 -0.034912489188438742 0 -6.6135987200272136e-06 -0.034872631821728339 0 0.00039968061769163457 -0.035146008889663578 0 0.00041985997002542106 -0.035098015574857137 0 0.00037099773486459699 -0.03508450432265528 0 0.00019585427200204258 -0.034982091716788212 0 0.00016876431833671589 -0.035077421325072689 0 0.00041985997002542106 -0.035098015574857137 0 0.00037099773486459699 -0.03508450432265528 0 0.00034648295859039733 -0.034997950534661156 0 0.00030904822314681746 -0.035085558990159617 0 0.00037099773486459699 -0.03508450432265528 0 0.00034648295859039733 -0.034997950534661156 0 0.00021116591152323694 -0.035066518601020683 0 0.00016812503594735702 -0.035096173895594392 0 0.00039067587261438813 -0.035169278936677817 0 0.00042277878642031543 -0.035172038749336748 0 0.00032333513548095133 -0.035203078529070397 0 4.0975958605290071e-08 -0.034955883139768891 0 1.2258205939963149e-05 -0.03496715613163371 0 1.5829720617790246e-05 -0.03500367855737975 0 0.00042612616227039865 -0.035163804377439684 0 0.00039067587261438813 -0.035169278936677817 0 0.00042277878642031543 -0.035172038749336748 0 0.00041985997002542106 -0.035098015574857137 0 0.00042277878642031543 -0.035172038749336748 0 0.00042032402363683432 -0.035147934746618904 0 0.00042612616227039865 -0.035163804377439684 0 0.00042277878642031543 -0.035172038749336748 0 0.00042032402363683432 -0.035147934746618904 0 4.0975958605290071e-08 -0.034955883139768891 0 -1.0737152365723598e-06 -0.034912489188438742 0 5.9829700768993741e-06 -0.034931002690291445 0 0.00019585427200204258 -0.034982091716788212 0 0.00021116591152323694 -0.035066518601020683 0 -8.3688371056355742e-06 -0.034907849910994687 0 4.0975958605290071e-08 -0.034955883139768891 0 -1.0737152365723598e-06 -0.034912489188438742 0 -1.0737152365723598e-06 -0.034912489188438742 0 5.9829700768993741e-06 -0.034931002690291445 0 2.2444050785815483e-06 -0.034893364774319362 0 5.9829700768993741e-06 -0.034931002690291445 0 1.3338583000626738e-05 -0.034940370869400113 0 1.2258205939963149e-05 -0.03496715613163371 0 4.0975958605290071e-08 -0.034955883139768891 0 5.9829700768993741e-06 -0.034931002690291445 0 1.2258205939963149e-05 -0.03496715613163371 0 1.3338583000626738e-05 -0.034940370869400113 0 2.3559894092373434e-05 -0.034965419537160328 0 1.2258205939963149e-05 -0.03496715613163371 0 2.3559894092373434e-05 -0.034965419537160328 0 4.2182048155571494e-05 -0.034993265164908034 0 2.1634492485079468e-05 -0.034963456552091786 0 2.3559894092373434e-05 -0.034965419537160328 0 4.2182048155571494e-05 -0.034993265164908034 0 1.5829720617790246e-05 -0.03500367855737975 0 2.3559894092373434e-05 -0.034965419537160328 0 1.2258205939963149e-05 -0.03496715613163371 0 1.5829720617790246e-05 -0.03500367855737975 0 0.00032333513548095133 -0.035203078529070397 0 0.00037125803498105263 -0.035131105485675752 0 0.00028348364079051024 -0.035049713779424667 0 0.00032333513548095133 -0.035203078529070397 0 8.7923012814953463e-05 -0.035059442895951545 0 0.00028348364079051024 -0.035049713779424667 0 0.00039067587261438813 -0.035169278936677817 0 0.00032333513548095133 -0.035203078529070397 0 0.00037125803498105263 -0.035131105485675752 0 0.00016812503594735702 -0.035096173895594392 0 9.549251377607885e-05 -0.03506476012928806 0 4.2182048155571494e-05 -0.034993265164908034 0 1.5829720617790246e-05 -0.03500367855737975 0 8.7923012814953463e-05 -0.035059442895951545 0 0.00016766448711297012 -0.034961566117968239 0 8.7923012814953463e-05 -0.035059442895951545 0 0.00028348364079051024 -0.035049713779424667 0 0.00035934616633175644 -0.034919394001698134 0 0.00046077012339165572 -0.035007881666784375 0 0.00028348364079051024 -0.035049713779424667 0 0.00046077012339165572 -0.035007881666784375 0 0.00037125803498105263 -0.035131105485675752 0 0.00028348364079051024 -0.035049713779424667 0 1.813616677169448e-08 -0.034999990048796698 0 4.8248734649698676e-05 -0.035006950215723698 0 3.3629579897899412e-08 -0.035000034550407427 0 0.00016766448711297012 -0.034961566117968239 0 8.7923012814953463e-05 -0.035059442895951545 0 4.8248734649698676e-05 -0.035006950215723698 0 4.2182048155571494e-05 -0.034993265164908034 0 8.7923012814953463e-05 -0.035059442895951545 0 3.9680934988188706e-05 -0.035017854959079379 0 8.7923012814953463e-05 -0.035059442895951545 0 4.8248734649698676e-05 -0.035006950215723698 0 3.9680934988188706e-05 -0.035017854959079379 0 4.8248734649698676e-05 -0.035006950215723698 0 3.9680934988188706e-05 -0.035017854959079379 0 3.3629579897899412e-08 -0.035000034550407427 0 3.9680934988188706e-05 -0.035017854959079379 0 1.9646222448575593e-05 -0.034988426938076175 0 3.4047061794464928e-08 -0.035000007007061407 0 3.9680934988188706e-05 -0.035017854959079379 0 3.3629579897899412e-08 -0.035000034550407427 0 3.4047061794464928e-08 -0.035000007007061407 0 4.2182048155571494e-05 -0.034993265164908034 0 3.9680934988188706e-05 -0.035017854959079379 0 1.9646222448575593e-05 -0.034988426938076175 0 4.2182048155571494e-05 -0.034993265164908034 0 1.9646222448575593e-05 -0.034988426938076175 0 2.1634492485079468e-05 -0.034963456552091786 0 1.9646222448575593e-05 -0.034988426938076175 0 3.4047061794464928e-08 -0.035000007007061407 0 1.2116272165939758e-08 -0.034999968706438803 0 1.9646222448575593e-05 -0.034988426938076175 0 1.2116272165939758e-08 -0.034999968706438803 0 1.2671091475940115e-05 -0.034973194261956018 0 1.9646222448575593e-05 -0.034988426938076175 0 1.2671091475940115e-05 -0.034973194261956018 0 2.1634492485079468e-05 -0.034963456552091786 0 1.2671091475940115e-05 -0.034973194261956018 0 9.8785340839897407e-06 -0.03494330437914818 0 4.2482940346908915e-06 -0.034971138339287916 0 1.2116272165939758e-08 -0.034999968706438803 0 1.2671091475940115e-05 -0.034973194261956018 0 4.2482940346908915e-06 -0.034971138339287916 0 1.2116272165939758e-08 -0.034999968706438803 0 -2.0745286748844419e-09 -0.034999962158999483 0 4.2482940346908915e-06 -0.034971138339287916 0 1.3338583000626738e-05 -0.034940370869400113 0 2.3559894092373434e-05 -0.034965419537160328 0 1.348471444349e-05 -0.034932528440825082 0 1.3338583000626738e-05 -0.034940370869400113 0 1.348471444349e-05 -0.034932528440825082 0 8.4717508658002656e-06 -0.034912016083393255 0 1.2671091475940115e-05 -0.034973194261956018 0 2.1634492485079468e-05 -0.034963456552091786 0 9.8785340839897407e-06 -0.03494330437914818 0 1.348471444349e-05 -0.034932528440825082 0 2.1634492485079468e-05 -0.034963456552091786 0 9.8785340839897407e-06 -0.03494330437914818 0 2.3559894092373434e-05 -0.034965419537160328 0 1.348471444349e-05 -0.034932528440825082 0 2.1634492485079468e-05 -0.034963456552091786 0 1.348471444349e-05 -0.034932528440825082 0 6.4361386540317603e-06 -0.034914681068335569 0 8.3854641209711494e-06 -0.034903641794692332 0 1.348471444349e-05 -0.034932528440825082 0 9.8785340839897407e-06 -0.03494330437914818 0 6.4361386540317603e-06 -0.034914681068335569 0 6.4361386540317603e-06 -0.034914681068335569 0 -3.3698867106881541e-06 -0.034936572800877592 0 -6.5762420038972777e-07 -0.034896039740798801 0 9.8785340839897407e-06 -0.03494330437914818 0 -3.3698867106881541e-06 -0.034936572800877592 0 4.2482940346908915e-06 -0.034971138339287916 0 9.8785340839897407e-06 -0.03494330437914818 0 6.4361386540317603e-06 -0.034914681068335569 0 -3.3698867106881541e-06 -0.034936572800877592 0 -3.3698867106881541e-06 -0.034936572800877592 0 -1.7178171245438932e-05 -0.034948540368693243 0 -1.6568301804100965e-05 -0.034912152336223377 0 -3.3698867106881541e-06 -0.034936572800877592 0 -5.7304428428092277e-06 -0.034975704461859186 0 -1.7178171245438932e-05 -0.034948540368693243 0 -3.3698867106881541e-06 -0.034936572800877592 0 -6.5762420038972777e-07 -0.034896039740798801 0 -1.6568301804100965e-05 -0.034912152336223377 0 -2.0745286748844419e-09 -0.034999962158999483 0 4.2482940346908915e-06 -0.034971138339287916 0 -5.7304428428092277e-06 -0.034975704461859186 0 -3.3698867106881541e-06 -0.034936572800877592 0 4.2482940346908915e-06 -0.034971138339287916 0 -5.7304428428092277e-06 -0.034975704461859186 0 -2.0745286748844419e-09 -0.034999962158999483 0 -5.7304428428092277e-06 -0.034975704461859186 0 -8.6958171845352068e-09 -0.034999965300278151 0 -5.7304428428092277e-06 -0.034975704461859186 0 -8.6958171845352068e-09 -0.034999965300278151 0 -2.2777180970697811e-05 -0.034968429351576083 0 -8.6958171845352068e-09 -0.034999965300278151 0 -2.2777180970697811e-05 -0.034968429351576083 0 -1.452518766815703e-08 -0.034999968528412868 0 -5.7304428428092277e-06 -0.034975704461859186 0 -2.2777180970697811e-05 -0.034968429351576083 0 -1.7178171245438932e-05 -0.034948540368693243 0 -1.7178171245438932e-05 -0.034948540368693243 0 -1.6568301804100965e-05 -0.034912152336223377 0 -3.706663944978458e-05 -0.034937657038422353 0 -2.2777180970697811e-05 -0.034968429351576083 0 -1.7178171245438932e-05 -0.034948540368693243 0 -3.706663944978458e-05 -0.034937657038422353 0 -3.706663944978458e-05 -0.034937657038422353 0 -6.8137916775897522e-05 -0.034930189578314313 0 -1.3899951652980679e-05 -0.034928858668553407 0 -1.6568301804100965e-05 -0.034912152336223377 0 -3.706663944978458e-05 -0.034937657038422353 0 -1.3899951652980679e-05 -0.034928858668553407 0 -2.2777180970697811e-05 -0.034968429351576083 0 -3.706663944978458e-05 -0.034937657038422353 0 -6.8137916775897522e-05 -0.034930189578314313 0 3.4395393604960614e-05 -0.034752980878312065 0 -0.0002021490508033241 -0.035413193686058671 0 -6.8137916775897522e-05 -0.034930189578314313 0 -0.00011225061976416248 -0.034881224411183527 0 -0.000113148094497195 -0.034832569481485547 0 -6.8137916775897522e-05 -0.034930189578314313 0 -8.6504740599539849e-05 -0.034925830005351009 0 -0.00011225061976416248 -0.034881224411183527 0 -8.6504740599539849e-05 -0.034925830005351009 0 -4.1151129558190293e-05 -0.034964726294434721 0 -8.0270598607685693e-05 -0.034941646837963289 0 -6.8137916775897522e-05 -0.034930189578314313 0 -8.6504740599539849e-05 -0.034925830005351009 0 -4.1151129558190293e-05 -0.034964726294434721 0 -2.2777180970697811e-05 -0.034968429351576083 0 -4.1151129558190293e-05 -0.034964726294434721 0 -1.452518766815703e-08 -0.034999968528412868 0 -2.2777180970697811e-05 -0.034968429351576083 0 -6.8137916775897522e-05 -0.034930189578314313 0 -4.1151129558190293e-05 -0.034964726294434721 0 -4.1151129558190293e-05 -0.034964726294434721 0 -1.452518766815703e-08 -0.034999968528412868 0 -4.0377677799743593e-08 -0.034999954193694713 0 -8.5782063865787644e-05 -0.034802470098285285 0 -4.9680381963110723e-05 -0.034762903673173022 0 -5.9660930530658693e-05 -0.03472516235636465 0 -8.5782063865787644e-05 -0.034802470098285285 0 -4.9680381963110723e-05 -0.034762903673173022 0 -4.6325398602418766e-05 -0.034810797918566179 0 -4.9680381963110723e-05 -0.034762903673173022 0 -4.6325398602418766e-05 -0.034810797918566179 0 2.3725602667988313e-06 -0.034712117354682478 0 -4.9680381963110723e-05 -0.034762903673173022 0 -5.9660930530658693e-05 -0.03472516235636465 0 2.3725602667988313e-06 -0.034712117354682478 0 -8.5782063865787644e-05 -0.034802470098285285 0 -4.6325398602418766e-05 -0.034810797918566179 0 -8.6740596633057141e-05 -0.034872463566706834 0 -0.00045207473766295942 -0.03506995281542058 0 -0.00017867672718722296 -0.03433098837301253 0 -8.5782063865787644e-05 -0.034802470098285285 0 -0.00011225061976416248 -0.034881224411183527 0 -8.6740596633057141e-05 -0.034872463566706834 0 -8.5782063865787644e-05 -0.034802470098285285 0 -0.00011225061976416248 -0.034881224411183527 0 -0.000113148094497195 -0.034832569481485547 0 -8.5782063865787644e-05 -0.034802470098285285 0 -0.000113148094497195 -0.034832569481485547 0 -9.5062878479703402e-05 -0.034738976333095237 0 -0.0002021490508033241 -0.035413193686058671 0 -0.00024640311358744627 -0.03121422343103936 0 -1.6568301804100965e-05 -0.034912152336223377 0 -1.3899951652980679e-05 -0.034928858668553407 0 7.6543039695808563e-06 -0.034868590373829306 0 -1.3899951652980679e-05 -0.034928858668553407 0 7.6543039695808563e-06 -0.034868590373829306 0 4.0324885096353694e-05 -0.034867911946237569 0 7.6543039695808563e-06 -0.034868590373829306 0 7.407073888302782e-06 -0.034820522487621908 0 6.8068601824705105e-06 -0.034834893091850193 0 0.00062206463256310744 -0.03498234051967896 0 -0.00024640311358744627 -0.03121422343103936 0 -0.00024640311358744627 -0.03121422343103936 0 -2.2037526718782677e-05 -0.02874644650855418 0 -0.00034206568566890063 -0.023575659030318476 0 -0.00027927797770500775 -0.023521607491032156 0 -0.00028721085603099732 -0.023453147232913064 0 -8.5782063865787644e-05 -0.034802470098285285 0 -9.5062878479703402e-05 -0.034738976333095237 0 -5.9660930530658693e-05 -0.03472516235636465 0 -0.00024640311358744627 -0.03121422343103936 0 -0.00020406115247420073 -0.028743062223549821 0 -0.00027927797770500775 -0.023521607491032156 0 -0.00024001950662576972 -0.023464296935383225 0 -0.00025356222677668915 -0.023444782002708789 0 -0.00027927797770500775 -0.023521607491032156 0 -0.00028721085603099732 -0.023453147232913064 0 -0.00025356222677668915 -0.023444782002708789 0 2.2194581239036727e-06 -0.034779237200199417 0 2.0327578574333685e-06 -0.034827721959660725 0 6.8068601824705105e-06 -0.034834893091850193 0 7.407073888302782e-06 -0.034820522487621908 0 2.2194581239036727e-06 -0.034779237200199417 0 6.8068601824705105e-06 -0.034834893091850193 0 2.2194581239036727e-06 -0.034779237200199417 0 2.0327578574333685e-06 -0.034827721959660725 0 -1.0180824179565819e-05 -0.034798454437727319 0 2.2194581239036727e-06 -0.034779237200199417 0 -1.0180824179565819e-05 -0.034798454437727319 0 -2.1443214842650131e-05 -0.034740164195726557 0 -6.5762420038972777e-07 -0.034896039740798801 0 -1.6568301804100965e-05 -0.034912152336223377 0 7.6543039695808563e-06 -0.034868590373829306 0 -6.5762420038972777e-07 -0.034896039740798801 0 7.6543039695808563e-06 -0.034868590373829306 0 6.2579297022077486e-06 -0.03486718837446269 0 6.2579297022077486e-06 -0.03486718837446269 0 6.8068601824705105e-06 -0.034834893091850193 0 5.9315841410515556e-06 -0.034856194936186073 0 7.6543039695808563e-06 -0.034868590373829306 0 6.2579297022077486e-06 -0.03486718837446269 0 6.8068601824705105e-06 -0.034834893091850193 0 2.0327578574333685e-06 -0.034827721959660725 0 6.8068601824705105e-06 -0.034834893091850193 0 5.9315841410515556e-06 -0.034856194936186073 0 5.9315841410515556e-06 -0.034856194936186073 0 6.1679972953150049e-06 -0.034884717801605902 0 5.5059714662705287e-06 -0.034875463554889401 0 2.0327578574333685e-06 -0.034827721959660725 0 5.9315841410515556e-06 -0.034856194936186073 0 5.5059714662705287e-06 -0.034875463554889401 0 6.4361386540317603e-06 -0.034914681068335569 0 -6.5762420038972777e-07 -0.034896039740798801 0 6.1679972953150049e-06 -0.034884717801605902 0 6.2579297022077486e-06 -0.03486718837446269 0 5.9315841410515556e-06 -0.034856194936186073 0 6.1679972953150049e-06 -0.034884717801605902 0 -6.5762420038972777e-07 -0.034896039740798801 0 6.2579297022077486e-06 -0.03486718837446269 0 6.1679972953150049e-06 -0.034884717801605902 0 6.1679972953150049e-06 -0.034884717801605902 0 8.3854641209711494e-06 -0.034903641794692332 0 5.5059714662705287e-06 -0.034875463554889401 0 8.3854641209711494e-06 -0.034903641794692332 0 5.5059714662705287e-06 -0.034875463554889401 0 8.4717508658002656e-06 -0.034912016083393255 0 6.4361386540317603e-06 -0.034914681068335569 0 6.1679972953150049e-06 -0.034884717801605902 0 8.3854641209711494e-06 -0.034903641794692332 0 5.5059714662705287e-06 -0.034875463554889401 0 2.2444050785815483e-06 -0.034893364774319362 0 -1.7243268356408962e-06 -0.03485202233631874 0 5.5059714662705287e-06 -0.034875463554889401 0 2.2444050785815483e-06 -0.034893364774319362 0 8.4717508658002656e-06 -0.034912016083393255 0 -1.0737152365723598e-06 -0.034912489188438742 0 2.2444050785815483e-06 -0.034893364774319362 0 -6.6135987200272136e-06 -0.034872631821728339 0 1.348471444349e-05 -0.034932528440825082 0 8.3854641209711494e-06 -0.034903641794692332 0 8.4717508658002656e-06 -0.034912016083393255 0 5.9829700768993741e-06 -0.034931002690291445 0 2.2444050785815483e-06 -0.034893364774319362 0 8.4717508658002656e-06 -0.034912016083393255 0 5.9829700768993741e-06 -0.034931002690291445 0 1.3338583000626738e-05 -0.034940370869400113 0 8.4717508658002656e-06 -0.034912016083393255 0 -1.0180824179565819e-05 -0.034798454437727319 0 -1.1541779701910356e-05 -0.034835218229105951 0 -2.2738305547702894e-05 -0.034807661410262071 0 -1.0180824179565819e-05 -0.034798454437727319 0 -1.7243268356408962e-06 -0.03485202233631874 0 -1.1541779701910356e-05 -0.034835218229105951 0 2.0327578574333685e-06 -0.034827721959660725 0 5.5059714662705287e-06 -0.034875463554889401 0 -1.7243268356408962e-06 -0.03485202233631874 0 2.0327578574333685e-06 -0.034827721959660725 0 -1.0180824179565819e-05 -0.034798454437727319 0 -1.7243268356408962e-06 -0.03485202233631874 0 -1.7243268356408962e-06 -0.03485202233631874 0 -6.6135987200272136e-06 -0.034872631821728339 0 -1.1541779701910356e-05 -0.034835218229105951 0 2.2444050785815483e-06 -0.034893364774319362 0 -1.7243268356408962e-06 -0.03485202233631874 0 -6.6135987200272136e-06 -0.034872631821728339 0 -6.6135987200272136e-06 -0.034872631821728339 0 -1.1541779701910356e-05 -0.034835218229105951 0 -1.9435889939356545e-05 -0.034852467832545697 0 -1.1541779701910356e-05 -0.034835218229105951 0 -1.9435889939356545e-05 -0.034852467832545697 0 -2.2738305547702894e-05 -0.034807661410262071 0 0.00016876431833671589 -0.035077421325072689 0 0.00038177882156182415 -0.03357003641310663 0 0.00034648295859039733 -0.034997950534661156 0 0.00026782593559874243 -0.034994221935246581 0 0.00022885811954370116 -0.034896754730990701 0 -1.9435889939356545e-05 -0.034852467832545697 0 -2.2738305547702894e-05 -0.034807661410262071 0 -3.7605889790269056e-05 -0.034776504244008979 0 -2.2738305547702894e-05 -0.034807661410262071 0 -2.9478219184772222e-05 -0.034781413362853432 0 -2.3780126524404004e-05 -0.0347768023003193 0 -2.3780126524404004e-05 -0.0347768023003193 0 -3.5765213906856265e-05 -0.034768211121730688 0 -2.1443214842650131e-05 -0.034740164195726557 0 -1.0180824179565819e-05 -0.034798454437727319 0 -2.2738305547702894e-05 -0.034807661410262071 0 -2.3780126524404004e-05 -0.0347768023003193 0 -2.2738305547702894e-05 -0.034807661410262071 0 -2.9478219184772222e-05 -0.034781413362853432 0 -3.7605889790269056e-05 -0.034776504244008979 0 -2.9478219184772222e-05 -0.034781413362853432 0 -2.3780126524404004e-05 -0.0347768023003193 0 -3.5765213906856265e-05 -0.034768211121730688 0 -2.9478219184772222e-05 -0.034781413362853432 0 -3.5765213906856265e-05 -0.034768211121730688 0 -3.7605889790269056e-05 -0.034776504244008979 0 -3.5765213906856265e-05 -0.034768211121730688 0 -5.3497567705056155e-05 -0.034697215458350202 0 -2.1443214842650131e-05 -0.034740164195726557 0 0.00038177882156182415 -0.03357003641310663 0 -1.6836270131167505e-05 -0.027974056655788504 0 0.00064695735988500925 -0.030380130499975982 0 0.0011308503558633721 -0.03022107344347829 0 0.00036392316374835433 -0.029773318154084537 0 -3.5765213906856265e-05 -0.034768211121730688 0 -3.7098854315988391e-05 -0.03476833795268458 0 -5.3497567705056155e-05 -0.034697215458350202 0 0.00027549365882884855 -0.033818277306749266 0 0.00038177882156182415 -0.03357003641310663 0 0.00098256418902926577 -0.032453638760136752 0 0.00038177882156182415 -0.03357003641310663 0 0.00082031701558426661 -0.030899575099044698 0 0.00064695735988500925 -0.030380130499975982 0 0.0011308503558633721 -0.03022107344347829 0 0.00018467806336079865 -0.034995705699587945 0 0.00026782593559874243 -0.034994221935246581 0 0.00022885811954370116 -0.034896754730990701 0 0.0002175209044735571 -0.030572684949282777 0 -0.00037983719804811979 -0.030245551954310619 0 0.00036392316374835433 -0.029773318154084537 0 0.00082031701558426661 -0.030899575099044698 0 0.00064695735988500925 -0.030380130499975982 0 0.0002175209044735571 -0.030572684949282777 0 0.00064695735988500925 -0.030380130499975982 0 0.0002175209044735571 -0.030572684949282777 0 0.00036392316374835433 -0.029773318154084537 0 0.00098256418902926577 -0.032453638760136752 0 0.00041986179261754939 -0.029752018793565132 0 0.00039653145586991689 -0.029095955320288674 0 -7.5275257628758306e-05 -0.029063395742248466 0 0.00037187913198425429 -0.028784019133689085 0 0.00039653145586991689 -0.029095955320288674 0 0.0006931441096236252 -0.028968482403573075 0 0.00037187913198425429 -0.028784019133689085 0 0.00041986179261754939 -0.029752018793565132 0 0.00018069184091759827 -0.027139632693911238 0 0.00018069184091759827 -0.027139632693911238 0 2.758263648564171e-05 -0.02696056018824108 0 -0.0001873964603846385 -0.023288920328945393 0 -0.00019401775458356162 -0.023282482705366016 0 -0.00010212077530483794 -0.023261292970694705 0 -0.00019401775458356162 -0.023282482705366016 0 -0.00010212077530483794 -0.023261292970694705 0 -0.00022083424504191563 -0.023158615438548587 0 0.00018069184091759827 -0.027139632693911238 0 -1.6836270131167505e-05 -0.027974056655788504 0 -0.00023549293866953849 -0.02337460584103242 0 -0.00023809266925813659 -0.023317384453685603 0 -0.00027444086646324385 -0.023293010241942223 0 -1.6836270131167505e-05 -0.027974056655788504 0 -0.0005178079416168148 -0.022624735100378116 0 -0.00023809266925813659 -0.023317384453685603 0 -0.00027444086646324385 -0.023293010241942223 0 -0.00027758955760318971 -0.023207973855125612 0 -0.00023809266925813659 -0.023317384453685603 0 -0.00027758955760318971 -0.023207973855125612 0 -0.00026010169504718826 -0.023211829591683174 0 -0.00023809266925813659 -0.023317384453685603 0 -0.00022551544378595834 -0.023316292804523096 0 -0.00026010169504718826 -0.023211829591683174 0 -0.00023809266925813659 -0.023317384453685603 0 -0.00022551544378595834 -0.023316292804523096 0 -0.00023025314301780163 -0.023377845973979527 0 -0.00022551544378595834 -0.023316292804523096 0 -0.00022927277157978505 -0.023379131958375324 0 -0.00023025314301780163 -0.023377845973979527 0 -2.2037526718782677e-05 -0.02874644650855418 0 -0.00022937250051250984 -0.029301104640606833 0 -0.00028721085603099732 -0.023453147232913064 0 -0.00022927277157978505 -0.023379131958375324 0 -0.00023025314301780163 -0.023377845973979527 0 -1.0180824179565819e-05 -0.034798454437727319 0 -2.3780126524404004e-05 -0.0347768023003193 0 -2.1443214842650131e-05 -0.034740164195726557 0 -0.00023549293866953849 -0.02337460584103242 0 -0.00023809266925813659 -0.023317384453685603 0 -0.00023025314301780163 -0.023377845973979527 0 -1.6836270131167505e-05 -0.027974056655788504 0 -0.00022937250051250984 -0.029301104640606833 0 -0.00031047905643137054 -0.023078398177280007 0 -0.0003342531112455493 -0.02308509628318162 0 -0.00034748147968750772 -0.023022934673091511 0 -0.00031047905643137054 -0.023078398177280007 0 -0.00030822857788867346 -0.023113148295423727 0 -0.0003342531112455493 -0.02308509628318162 0 -0.00030177759596506282 -0.02314583872939836 0 -0.0003342531112455493 -0.02308509628318162 0 -0.00033500896185646647 -0.023149543194523267 0 -0.00030177759596506282 -0.02314583872939836 0 -0.00030822857788867346 -0.023113148295423727 0 -0.0003342531112455493 -0.02308509628318162 0 -0.00030177759596506282 -0.02314583872939836 0 -0.00030822857788867346 -0.023113148295423727 0 -0.00029140289094142915 -0.023142158191694493 0 -0.00031047905643137054 -0.023078398177280007 0 -0.00029140289094142915 -0.023142158191694493 0 -0.00029877416807160321 -0.023116725201401362 0 -0.00031047905643137054 -0.023078398177280007 0 -0.00030822857788867346 -0.023113148295423727 0 -0.00029140289094142915 -0.023142158191694493 0 -0.00029140289094142915 -0.023142158191694493 0 -0.00029345646073729509 -0.023191020209170233 0 -0.00029877416807160321 -0.023116725201401362 0 -0.00029209133902572044 -0.023163745782531983 0 -0.00029019704171315454 -0.023163809323823108 0 -0.00029140289094142915 -0.023142158191694493 0 -0.00029209133902572044 -0.023163745782531983 0 -0.00029140289094142915 -0.023142158191694493 0 -0.00029345646073729509 -0.023191020209170233 0 -0.0003347030212268999 -0.023413361676571917 0 -0.0001823262063965734 -0.023290084284202369 0 -0.00019401775458356162 -0.023282482705366016 0 -0.0003347030212268999 -0.023413361676571917 0 -0.00019401775458356162 -0.023282482705366016 0 -0.00029345646073729509 -0.023191020209170233 0 -0.00022035678650785071 -0.025296176254395529 0 0.00018069184091759827 -0.027139632693911238 0 -0.00022035678650785071 -0.025296176254395529 0 -0.00024469934948048944 -0.022420772028531405 0 -0.00019401775458356162 -0.023282482705366016 0 -0.00022083424504191563 -0.023158615438548587 0 -0.00029345646073729509 -0.023191020209170233 0 -0.00027444086646324385 -0.023293010241942223 0 -0.00027758955760318971 -0.023207973855125612 0 -0.00029635344802069353 -0.023135401370169062 0 -0.0005178079416168148 -0.022624735100378116 0 -0.0001362113137761591 -0.02332372051004903 0 -0.00022083424504191563 -0.023158615438548587 0 -0.00029345646073729509 -0.023191020209170233 0 -0.00029635344802069353 -0.023135401370169062 0 -0.00027758955760318971 -0.023207973855125612 0 -0.00029635344802069353 -0.023135401370169062 0 -0.00030561685248302605 -0.023106243201774627 0 -0.00029635344802069353 -0.023135401370169062 0 -0.00030781856669426347 -0.023072783049110715 0 -0.00030561685248302605 -0.023106243201774627 0 -0.00029635344802069353 -0.023135401370169062 0 -0.00030781856669426347 -0.023072783049110715 0 -0.00029877416807160321 -0.023116725201401362 0 -0.00029345646073729509 -0.023191020209170233 0 -0.00029635344802069353 -0.023135401370169062 0 -0.00029877416807160321 -0.023116725201401362 0 -0.00031047905643137054 -0.023078398177280007 0 -0.00029877416807160321 -0.023116725201401362 0 -0.00031521727296930668 -0.02303449172601181 0 -0.00030781856669426347 -0.023072783049110715 0 -0.00029877416807160321 -0.023116725201401362 0 -0.00031521727296930668 -0.02303449172601181 0 -0.00030781856669426347 -0.023072783049110715 0 -0.00031521727296930668 -0.02303449172601181 0 -0.00032546337981142928 -0.022997604589987123 0 -0.00031521727296930668 -0.02303449172601181 0 -0.00032951134638226092 -0.022958855296002716 0 -0.0003348138195718108 -0.022984617842355629 0 -0.00031521727296930668 -0.02303449172601181 0 -0.00032951134638226092 -0.022958855296002716 0 -0.00032546337981142928 -0.022997604589987123 0 -0.00031047905643137054 -0.023078398177280007 0 -0.0003348138195718108 -0.022984617842355629 0 -0.00034748147968750772 -0.023022934673091511 0 -0.00031047905643137054 -0.023078398177280007 0 -0.00031521727296930668 -0.02303449172601181 0 -0.0003348138195718108 -0.022984617842355629 0 -0.00032546337981142928 -0.022997604589987123 0 -0.00032968968492674556 -0.022922668561943398 0 -0.00033211672464567894 -0.022892014023397234 0 -0.00032951134638226092 -0.022958855296002716 0 -0.00032546337981142928 -0.022997604589987123 0 -0.00033211672464567894 -0.022892014023397234 0 -0.00032546337981142928 -0.022997604589987123 0 -0.00033859946592069512 -0.023010390823951711 0 -0.00030561685248302605 -0.023106243201774627 0 -0.00032546337981142928 -0.022997604589987123 0 -0.00033859946592069512 -0.023010390823951711 0 -0.00032968968492674556 -0.022922668561943398 0 -0.00033859946592069512 -0.023010390823951711 0 -0.00030561685248302605 -0.023106243201774627 0 -0.0003160961293824392 -0.02303643525963046 0 -0.00030781856669426347 -0.023072783049110715 0 -0.00032546337981142928 -0.022997604589987123 0 -0.00030561685248302605 -0.023106243201774627 0 -0.00027758955760318971 -0.023207973855125612 0 -0.00030561685248302605 -0.023106243201774627 0 -0.00026010169504718826 -0.023211829591683174 0 -0.00030561685248302605 -0.023106243201774627 0 -0.00026010169504718826 -0.023211829591683174 0 -0.00027032096809681707 -0.02312273790695292 0 -0.00030561685248302605 -0.023106243201774627 0 -0.0003160961293824392 -0.02303643525963046 0 -0.00027032096809681707 -0.02312273790695292 0 -0.00041858176916705612 -0.023203866985549236 0 -0.00043183490023769442 -0.023174698760047675 0 -0.00037392132040664261 -0.02333960196311877 0 -0.00036554309738040259 -0.023107891339550869 0 -0.00031851592889965816 -0.023228797909254063 0 -0.00041858176916705612 -0.023203866985549236 0 -0.00041552252157936746 -0.023133917982255271 0 -0.00044104524167474466 -0.023251221977256816 0 -0.00041858176916705612 -0.023203866985549236 0 -0.00037361382429352272 -0.023197169719176226 0 -0.00044104524167474466 -0.023251221977256816 0 -0.00041858176916705612 -0.023203866985549236 0 -0.00041552252157936746 -0.023133917982255271 0 -0.00043183490023769442 -0.023174698760047675 0 -0.00041552252157936746 -0.023133917982255271 0 -0.00043183490023769442 -0.023174698760047675 0 -0.00036282068518465091 -0.02301092917936028 0 -0.00036554309738040259 -0.023107891339550869 0 -0.00035900625909659914 -0.023033765428004796 0 -0.00033859946592069512 -0.023010390823951711 0 -0.00036282068518465091 -0.02301092917936028 0 -0.00032968968492674556 -0.022922668561943398 0 -0.00033859946592069512 -0.023010390823951711 0 -0.0003160961293824392 -0.02303643525963046 0 -0.00036282068518465091 -0.02301092917936028 0 -0.00041552252157936746 -0.023133917982255271 0 -0.00036282068518465091 -0.02301092917936028 0 -0.00036918398035244238 -0.023029571573243139 0 -0.00036918398035244238 -0.023029571573243139 0 -0.00031845573634036801 -0.022942264372359029 0 -0.00031270689482215279 -0.022879541602944722 0 -0.00036282068518465091 -0.02301092917936028 0 -0.00036918398035244238 -0.023029571573243139 0 -0.00031270689482215279 -0.022879541602944722 0 -0.00036282068518465091 -0.02301092917936028 0 -0.00032968968492674556 -0.022922668561943398 0 -0.00031270689482215279 -0.022879541602944722 0 -0.00020986690432886609 -0.023452593486391272 0 -0.00022094061536711621 -0.023412332336767337 0 -0.00022536700502866075 -0.023442051959714477 0 -0.00022094061536711621 -0.023412332336767337 0 -0.00021886291572260029 -0.023327524033420564 0 -0.00022502098770873206 -0.023236932421597082 0 -0.00022849734843814989 -0.023394115387711984 0 -0.00023535047565894043 -0.023337230236931183 0 -0.00027927797770500775 -0.023521607491032156 0 -0.00024001950662576972 -0.023464296935383225 0 -0.00022751341876596555 -0.023502554023675556 0 -0.00020406115247420073 -0.028743062223549821 0 -0.00037542169384320698 -0.029635716378674605 0 -0.00020986690432886609 -0.023452593486391272 0 -0.00024001950662576972 -0.023464296935383225 0 -0.00022094061536711621 -0.023412332336767337 0 -0.00020986690432886609 -0.023452593486391272 0 -0.00024001950662576972 -0.023464296935383225 0 -0.00022751341876596555 -0.023502554023675556 0 -0.00024001950662576972 -0.023464296935383225 0 -0.00022094061536711621 -0.023412332336767337 0 -0.00025356222677668915 -0.023444782002708789 0 -0.00028721085603099732 -0.023453147232913064 0 -0.00022927277157978505 -0.023379131958375324 0 -0.00025356222677668915 -0.023444782002708789 0 -0.00022927277157978505 -0.023379131958375324 0 -0.00022094061536711621 -0.023412332336767337 0 -0.00025356222677668915 -0.023444782002708789 0 -0.00022551544378595834 -0.023316292804523096 0 -0.00022927277157978505 -0.023379131958375324 0 -0.00021886291572260029 -0.023327524033420564 0 -0.00022927277157978505 -0.023379131958375324 0 -0.00022094061536711621 -0.023412332336767337 0 -0.00021886291572260029 -0.023327524033420564 0 -0.00022551544378595834 -0.023316292804523096 0 -0.00021886291572260029 -0.023327524033420564 0 -0.00023725365990543126 -0.023255112927098535 0 -0.00022551544378595834 -0.023316292804523096 0 -0.00023725365990543126 -0.023255112927098535 0 -0.00026010169504718826 -0.023211829591683174 0 -0.00021886291572260029 -0.023327524033420564 0 -0.00023725365990543126 -0.023255112927098535 0 -0.00022502098770873206 -0.023236932421597082 0 -0.00023725365990543126 -0.023255112927098535 0 -0.00026010169504718826 -0.023211829591683174 0 -0.00027032096809681707 -0.02312273790695292 0 -0.00031851592889965816 -0.023228797909254063 0 -0.00023535047565894043 -0.023337230236931183 0 -0.00023725365990543126 -0.023255112927098535 0 -0.00027032096809681707 -0.02312273790695292 0 -0.00022502098770873206 -0.023236932421597082 0 -0.00037392132040664261 -0.02333960196311877 0 -0.00022536700502866075 -0.023442051959714477 0 -0.00023636274218353674 -0.023381047155714069 0 -0.00020986690432886609 -0.023452593486391272 0 -0.00022536700502866075 -0.023442051959714477 0 -0.00023636274218353674 -0.023381047155714069 0 -0.00023636274218353674 -0.023381047155714069 0 -0.0003410046247896515 -0.023280506308876098 0 -0.00020842461920207616 -0.023277014207186555 0 0.00023942880569366128 -0.022872904336727385 0 -3.6725326948973617e-05 -0.026566558741612213 0 -0.00023636274218353674 -0.023381047155714069 0 -0.00022603216032585609 -0.02342386607745835 0 -0.0002193090481203421 -0.02342749501052278 0 -0.00041858176916705612 -0.023203866985549236 0 -0.00037392132040664261 -0.02333960196311877 0 -0.0003410046247896515 -0.023280506308876098 0 -0.00037392132040664261 -0.02333960196311877 0 -0.00023636274218353674 -0.023381047155714069 0 -0.0003410046247896515 -0.023280506308876098 0 -0.00041858176916705612 -0.023203866985549236 0 -0.0003410046247896515 -0.023280506308876098 0 -0.00037361382429352272 -0.023197169719176226 0 -0.0003410046247896515 -0.023280506308876098 0 -0.00037361382429352272 -0.023197169719176226 0 -0.00020842461920207616 -0.023277014207186555 0 -0.00023006733725011301 -0.023532121722169012 0 -0.00043254765451982135 -0.022829320829745054 0 -0.00033575778300866659 -0.023587362820351829 0 -0.00056376158159101523 -0.022918355756471213 0 -3.6725326948973617e-05 -0.026566558741612213 0 -0.00043254765451982135 -0.022829320829745054 0 -0.00033575778300866659 -0.023587362820351829 0 -0.00039244430541953839 -0.0237102626929716 0 -0.00029084932581007969 -0.033737173483601453 0 -0.00040214095414318091 -0.033837168337060491 0 -0.00039361081995449874 -0.033886512433501589 0 -0.00043254765451982135 -0.022829320829745054 0 -0.00039244430541953839 -0.0237102626929716 0 -0.00070170492194889173 -0.025349755738169246 0 -0.00029084932581007969 -0.033737173483601453 0 -0.00040214095414318091 -0.033837168337060491 0 -0.00041775864176816737 -0.033710607544470417 0 -3.6725326948973617e-05 -0.026566558741612213 0 -0.00060512769997927908 -0.02998591272471569 0 -3.6725326948973617e-05 -0.026566558741612213 0 -0.00037542169384320698 -0.029635716378674605 0 -0.00022603216032585609 -0.02342386607745835 0 -0.0002193090481203421 -0.02342749501052278 0 -0.00020302598673485557 -0.023457922339384027 0 0.0011965736924488765 -0.024436612459545339 0 -0.00037542169384320698 -0.029635716378674605 0 -0.00020986690432886609 -0.023452593486391272 0 -0.0002193090481203421 -0.02342749501052278 0 -0.00020302598673485557 -0.023457922339384027 0 -0.00020986690432886609 -0.023452593486391272 0 -0.00023636274218353674 -0.023381047155714069 0 -0.0002193090481203421 -0.02342749501052278 0 -0.00045207473766295942 -0.03506995281542058 0 -0.00037542169384320698 -0.029635716378674605 0 -0.00040214095414318091 -0.033837168337060491 0 -0.00041775864176816737 -0.033710607544470417 0 -0.00045546939197054154 -0.033911016516368894 0 -0.0004865284815530268 -0.033901145819983242 0 -0.00041775864176816737 -0.033710607544470417 0 -0.00045546939197054154 -0.033911016516368894 0 -0.00040214095414318091 -0.033837168337060491 0 -0.00045546939197054154 -0.033911016516368894 0 -0.00043799850088764651 -0.033926577308857855 0 -0.00045546939197054154 -0.033911016516368894 0 -0.00043799850088764651 -0.033926577308857855 0 -0.00046136445605594916 -0.033981023862252525 0 -0.00043799850088764651 -0.033926577308857855 0 -0.00045862125517455091 -0.033968135595904086 0 -0.00043191134975957047 -0.03394856287536191 0 -0.00043799850088764651 -0.033926577308857855 0 -0.00046136445605594916 -0.033981023862252525 0 -0.00045862125517455091 -0.033968135595904086 0 -0.00046136445605594916 -0.033981023862252525 0 -0.00047704861522715692 -0.033992355430971746 0 -0.00045862125517455091 -0.033968135595904086 0 -0.00045862125517455091 -0.033968135595904086 0 -0.00047266801720827385 -0.033977780183699305 0 -0.00043191134975957047 -0.03394856287536191 0 -0.00047266801720827385 -0.033977780183699305 0 -0.00047525422781894284 -0.033975571880035214 0 -0.00043191134975957047 -0.03394856287536191 0 -0.00047704861522715692 -0.033992355430971746 0 -0.00045862125517455091 -0.033968135595904086 0 -0.00047266801720827385 -0.033977780183699305 0 -0.00047704861522715692 -0.033992355430971746 0 -0.00047266801720827385 -0.033977780183699305 0 -0.00049915693638222377 -0.033991052692838149 0 -0.00047525422781894284 -0.033975571880035214 0 -0.00051597493935966827 -0.033991905879521465 0 -0.00054455757480594133 -0.034002528620918293 0 -0.00047266801720827385 -0.033977780183699305 0 -0.00049915693638222377 -0.033991052692838149 0 -0.00047525422781894284 -0.033975571880035214 0 -0.00049915693638222377 -0.033991052692838149 0 -0.00047525422781894284 -0.033975571880035214 0 -0.00051597493935966827 -0.033991905879521465 0 -0.00047704861522715692 -0.033992355430971746 0 -0.00048989666168688397 -0.033996313679344005 0 -0.00045537916625753238 -0.034019002641782661 0 -0.00047704861522715692 -0.033992355430971746 0 -0.00049915693638222377 -0.033991052692838149 0 -0.00048989666168688397 -0.033996313679344005 0 -0.00029940152531182152 -0.023426291120096601 0 -0.00036703744842693487 -0.023393838714639268 0 -0.0004050305668949301 -0.023382974765410066 0 -0.00060512769997927908 -0.02998591272471569 0 -0.00060592155213339981 -0.031473422142971726 0 -0.00047525422781894284 -0.033975571880035214 0 -0.0003705271979829388 -0.033928836573910097 0 -0.00054455757480594133 -0.034002528620918293 0 -0.00035934319107599127 -0.024904620549142054 0 -0.00041465891389838886 -0.026663466441001385 0 -0.00038557292257965448 -0.026286218976081677 0 -0.00070170492194889173 -0.025349755738169246 0 -0.00080434906832381567 -0.029201163340883515 0 -0.00034940145411544105 -0.023401712837946818 0 -0.00029940152531182152 -0.023426291120096601 0 -0.00036703744842693487 -0.023393838714639268 0 -0.00034940145411544105 -0.023401712837946818 0 -0.00037541265149636081 -0.023382016621742278 0 -0.00036703744842693487 -0.023393838714639268 0 -0.00047525422781894284 -0.033975571880035214 0 -0.0003705271979829388 -0.033928836573910097 0 -0.00043191134975957047 -0.03394856287536191 0 -0.00034940145411544105 -0.023401712837946818 0 -0.00029940152531182152 -0.023426291120096601 0 -0.00036164971328694288 -0.023410507246314397 0 -0.00034180999467319217 -0.023847759924478067 0 -0.00035934319107599127 -0.024904620549142054 0 -0.00039244430541953839 -0.0237102626929716 0 -0.00038557292257965448 -0.026286218976081677 0 -0.00070170492194889173 -0.025349755738169246 0 -0.00029084932581007969 -0.033737173483601453 0 -0.0003705271979829388 -0.033928836573910097 0 -0.00039361081995449874 -0.033886512433501589 0 -0.0003705271979829388 -0.033928836573910097 0 -0.00043191134975957047 -0.03394856287536191 0 -0.00039361081995449874 -0.033886512433501589 0 -0.00043799850088764651 -0.033926577308857855 0 -0.00043191134975957047 -0.03394856287536191 0 -0.00039361081995449874 -0.033886512433501589 0 -0.00040214095414318091 -0.033837168337060491 0 -0.00043799850088764651 -0.033926577308857855 0 -0.00039361081995449874 -0.033886512433501589 0 -0.00033575778300866659 -0.023587362820351829 0 -0.00039244430541953839 -0.0237102626929716 0 -0.00036412910186633328 -0.023527900655099847 0 -0.00039244430541953839 -0.0237102626929716 0 -0.00029940152531182152 -0.023426291120096601 0 -0.00036412910186633328 -0.023527900655099847 0 -0.00033575778300866659 -0.023587362820351829 0 -0.00036412910186633328 -0.023527900655099847 0 -0.00033144731378560499 -0.023489795139021195 0 -0.00036412910186633328 -0.023527900655099847 0 -0.00033144731378560499 -0.023489795139021195 0 -0.00036951302931070276 -0.023426269571882059 0 -0.00029940152531182152 -0.023426291120096601 0 -0.00036412910186633328 -0.023527900655099847 0 -0.00035541028306695498 -0.02344645034669969 0 -0.00036412910186633328 -0.023527900655099847 0 -0.00035541028306695498 -0.02344645034669969 0 -0.00036951302931070276 -0.023426269571882059 0 -0.00023006733725011301 -0.023532121722169012 0 -0.00036647955840525965 -0.023375363193238463 0 -0.00044104524167474466 -0.023251221977256816 0 -0.00023006733725011301 -0.023532121722169012 0 -0.00033144731378560499 -0.023489795139021195 0 -0.00036647955840525965 -0.023375363193238463 0 -0.00023006733725011301 -0.023532121722169012 0 -0.00033575778300866659 -0.023587362820351829 0 -0.00033144731378560499 -0.023489795139021195 0 -0.00033144731378560499 -0.023489795139021195 0 -0.00036647955840525965 -0.023375363193238463 0 -0.00036951302931070276 -0.023426269571882059 0 -0.00036647955840525965 -0.023375363193238463 0 -0.00040286993888580632 -0.023357296229588292 0 -0.00042892886631815802 -0.02330643120763105 0 -0.00036647955840525965 -0.023375363193238463 0 -0.00040286993888580632 -0.023357296229588292 0 -0.00036951302931070276 -0.023426269571882059 0 -0.00040286993888580632 -0.023357296229588292 0 -0.00043070533696562346 -0.023324594345760584 0 -0.00042892886631815802 -0.02330643120763105 0 -0.00035541028306695498 -0.02344645034669969 0 -0.00036164971328694288 -0.023410507246314397 0 -0.00036951302931070276 -0.023426269571882059 0 -0.00029940152531182152 -0.023426291120096601 0 -0.00035541028306695498 -0.02344645034669969 0 -0.00036164971328694288 -0.023410507246314397 0 -0.00036164971328694288 -0.023410507246314397 0 -0.00036951302931070276 -0.023426269571882059 0 -0.00038744574212700166 -0.02337587869939552 0 -0.00040286993888580632 -0.023357296229588292 0 -0.00038744574212700166 -0.02337587869939552 0 -0.00041236174933848306 -0.023349148845021102 0 -0.00040286993888580632 -0.023357296229588292 0 -0.00036951302931070276 -0.023426269571882059 0 -0.00038744574212700166 -0.02337587869939552 0 -0.00034940145411544105 -0.023401712837946818 0 -0.00036164971328694288 -0.023410507246314397 0 -0.00037541265149636081 -0.023382016621742278 0 -0.00036164971328694288 -0.023410507246314397 0 -0.00038744574212700166 -0.02337587869939552 0 -0.00037541265149636081 -0.023382016621742278 0 -0.00038744574212700166 -0.02337587869939552 0 -0.00037541265149636081 -0.023382016621742278 0 -0.00040259434294832972 -0.023362338602773099 0 -0.00037541265149636081 -0.023382016621742278 0 -0.00040259434294832972 -0.023362338602773099 0 -0.00039266162546587201 -0.023374487281267932 0 -0.00038744574212700166 -0.02337587869939552 0 -0.00041236174933848306 -0.023349148845021102 0 -0.00040259434294832972 -0.023362338602773099 0 -0.00041236174933848306 -0.023349148845021102 0 -0.00040259434294832972 -0.023362338602773099 0 -0.00042870629502106649 -0.023345866835594458 0 -0.00040259434294832972 -0.023362338602773099 0 -0.00042220750167527784 -0.023362953427158325 0 -0.00042870629502106649 -0.023345866835594458 0 -0.00040572307932545108 -0.023370217627676115 0 -0.00040259434294832972 -0.023362338602773099 0 -0.00042220750167527784 -0.023362953427158325 0 -0.00040572307932545108 -0.023370217627676115 0 -0.00040259434294832972 -0.023362338602773099 0 -0.00039266162546587201 -0.023374487281267932 0 -0.00040286993888580632 -0.023357296229588292 0 -0.00041236174933848306 -0.023349148845021102 0 -0.00043070533696562346 -0.023324594345760584 0 -0.00041236174933848306 -0.023349148845021102 0 -0.00043070533696562346 -0.023324594345760584 0 -0.00043416923585952802 -0.023330423561736761 0 -0.00041236174933848306 -0.023349148845021102 0 -0.00043416923585952802 -0.023330423561736761 0 -0.00042870629502106649 -0.023345866835594458 0 -0.00043070533696562346 -0.023324594345760584 0 -0.00044922002359446884 -0.023309955114590997 0 -0.00044781120699652951 -0.023293891202437068 0 -0.00043070533696562346 -0.023324594345760584 0 -0.00043416923585952802 -0.023330423561736761 0 -0.00044922002359446884 -0.023309955114590997 0 -0.00044922002359446884 -0.023309955114590997 0 -0.00044771416724827994 -0.023326221002612613 0 -0.0004656306414489342 -0.023301686643082305 0 -0.00043416923585952802 -0.023330423561736761 0 -0.00044922002359446884 -0.023309955114590997 0 -0.00044771416724827994 -0.023326221002612613 0 -0.00043416923585952802 -0.023330423561736761 0 -0.00044771416724827994 -0.023326221002612613 0 -0.00042870629502106649 -0.023345866835594458 0 -0.00044771416724827994 -0.023326221002612613 0 -0.00045047615621035195 -0.023343499995032331 0 -0.00047090989521262429 -0.023320385679393953 0 -0.00044771416724827994 -0.023326221002612613 0 -0.0004656306414489342 -0.023301686643082305 0 -0.00047090989521262429 -0.023320385679393953 0 -0.00043389790040070407 -0.02335451912714091 0 -0.00042220750167527784 -0.023362953427158325 0 -0.00042870629502106649 -0.023345866835594458 0 -0.00043389790040070407 -0.02335451912714091 0 -0.00042220750167527784 -0.023362953427158325 0 -0.00043487141507389017 -0.023366366036360296 0 -0.00042220750167527784 -0.023362953427158325 0 -0.00043487141507389017 -0.023366366036360296 0 -0.00042363981448927026 -0.023374534548164381 0 -0.00044771416724827994 -0.023326221002612613 0 -0.00042870629502106649 -0.023345866835594458 0 -0.00045047615621035195 -0.023343499995032331 0 -0.00043389790040070407 -0.02335451912714091 0 -0.00042870629502106649 -0.023345866835594458 0 -0.00045047615621035195 -0.023343499995032331 0 -0.00043389790040070407 -0.02335451912714091 0 -0.00045047615621035195 -0.023343499995032331 0 -0.00043487141507389017 -0.023366366036360296 0 -0.00045047615621035195 -0.023343499995032331 0 -0.00043487141507389017 -0.023366366036360296 0 -0.00045281476690073644 -0.023367474925596338 0 -0.00043487141507389017 -0.023366366036360296 0 -0.00043289845188110624 -0.023382646967495382 0 -0.00045281476690073644 -0.023367474925596338 0 -0.00044759378538148097 -0.023413525674552255 0 -0.00041557618248870456 -0.023388785758889804 0 -0.0004050305668949301 -0.023382974765410066 0 -0.00043487141507389017 -0.023366366036360296 0 -0.00043289845188110624 -0.023382646967495382 0 -0.00042363981448927026 -0.023374534548164381 0 -0.00043289845188110624 -0.023382646967495382 0 -0.00042363981448927026 -0.023374534548164381 0 -0.00042029442986618728 -0.023383121170785389 0 -0.00042363981448927026 -0.023374534548164381 0 -0.00042029442986618728 -0.023383121170785389 0 -0.00041209578828009356 -0.023376799708360055 0 -0.00042029442986618728 -0.023383121170785389 0 -0.00041209578828009356 -0.023376799708360055 0 -0.00040979963396638516 -0.023382839457810747 0 -0.00042220750167527784 -0.023362953427158325 0 -0.00042363981448927026 -0.023374534548164381 0 -0.00041209578828009356 -0.023376799708360055 0 -0.00040572307932545108 -0.023370217627676115 0 -0.00042220750167527784 -0.023362953427158325 0 -0.00041209578828009356 -0.023376799708360055 0 -0.00042145873644038138 -0.023390470643082376 0 -0.00044759378538148097 -0.023413525674552255 0 -0.00041557618248870456 -0.023388785758889804 0 -0.00042029442986618728 -0.023383121170785389 0 -0.00042145873644038138 -0.023390470643082376 0 -0.00040979963396638516 -0.023382839457810747 0 -0.00042145873644038138 -0.023390470643082376 0 -0.00040979963396638516 -0.023382839457810747 0 -0.00041557618248870456 -0.023388785758889804 0 -0.00042029442986618728 -0.023383121170785389 0 -0.00042145873644038138 -0.023390470643082376 0 -0.00042809993489561365 -0.023392357268580986 0 -0.00043289845188110624 -0.023382646967495382 0 -0.00042029442986618728 -0.023383121170785389 0 -0.00042809993489561365 -0.023392357268580986 0 -0.00042809993489561365 -0.023392357268580986 0 -0.00043823904519942872 -0.023395762936641664 0 -0.00044759378538148097 -0.023413525674552255 0 -0.00042145873644038138 -0.023390470643082376 0 -0.00042809993489561365 -0.023392357268580986 0 -0.00044759378538148097 -0.023413525674552255 0 -0.00043289845188110624 -0.023382646967495382 0 -0.00042809993489561365 -0.023392357268580986 0 -0.00043823904519942872 -0.023395762936641664 0 -0.00043289845188110624 -0.023382646967495382 0 -0.00043823904519942872 -0.023395762936641664 0 -0.00044477352511446171 -0.023386407607016234 0 -0.00041694125706427318 -0.033571627857128375 0 -0.00066934498781404171 -0.033651733788782556 0 -0.00038804835646553281 -0.029722797095553793 0 -0.00048403899779287442 -0.0283673239164536 0 -0.00041465891389838886 -0.026663466441001385 0 -0.00066934498781404171 -0.033651733788782556 0 -0.00056322876991488926 -0.033874379371090148 0 -0.00054949323784638719 -0.033950090339737816 0 -0.00073384095148556051 -0.033465720279356986 0 -0.00060592155213339981 -0.031473422142971726 0 -0.00066934498781404171 -0.033651733788782556 0 -0.00056779281075853628 -0.033817130240746014 0 -0.00056377981041975066 -0.033755211115449005 0 -0.00066934498781404171 -0.033651733788782556 0 -0.00056779281075853628 -0.033817130240746014 0 -0.00056322876991488926 -0.033874379371090148 0 -0.00056779281075853628 -0.033817130240746014 0 -0.00056322876991488926 -0.033874379371090148 0 -0.00052443268990620554 -0.033913517233856848 0 -0.00056779281075853628 -0.033817130240746014 0 -0.00052443268990620554 -0.033913517233856848 0 -0.00051921169508041553 -0.033878861489713842 0 -0.00066934498781404171 -0.033651733788782556 0 -0.00054949323784638719 -0.033950090339737816 0 -0.00054455757480594133 -0.034002528620918293 0 -0.00056322876991488926 -0.033874379371090148 0 -0.00054949323784638719 -0.033950090339737816 0 -0.00052301297890156668 -0.033962712476513376 0 -0.00066934498781404171 -0.033651733788782556 0 -0.00080434906832381567 -0.029201163340883515 0 -0.00038804835646553281 -0.029722797095553793 0 -0.00056322876991488926 -0.033874379371090148 0 -0.00052443268990620554 -0.033913517233856848 0 -0.00052301297890156668 -0.033962712476513376 0 -0.00052443268990620554 -0.033913517233856848 0 -0.00052301297890156668 -0.033962712476513376 0 -0.00048058595976069047 -0.033985152479872639 0 -0.00052301297890156668 -0.033962712476513376 0 -0.00048989666168688397 -0.033996313679344005 0 -0.00052238685225325637 -0.033987405024635813 0 -0.00052301297890156668 -0.033962712476513376 0 -0.00048989666168688397 -0.033996313679344005 0 -0.00048058595976069047 -0.033985152479872639 0 -0.00054949323784638719 -0.033950090339737816 0 -0.00052238685225325637 -0.033987405024635813 0 -0.00054455757480594133 -0.034002528620918293 0 -0.00054949323784638719 -0.033950090339737816 0 -0.00052301297890156668 -0.033962712476513376 0 -0.00052238685225325637 -0.033987405024635813 0 -0.00049915693638222377 -0.033991052692838149 0 -0.00048989666168688397 -0.033996313679344005 0 -0.00052238685225325637 -0.033987405024635813 0 -0.00049915693638222377 -0.033991052692838149 0 -0.00052238685225325637 -0.033987405024635813 0 -0.00051597493935966827 -0.033991905879521465 0 -0.00052238685225325637 -0.033987405024635813 0 -0.00051597493935966827 -0.033991905879521465 0 -0.00054455757480594133 -0.034002528620918293 0 -0.00036703744842693487 -0.023393838714639268 0 -0.00038874607873007149 -0.023383358914289692 0 -0.0004050305668949301 -0.023382974765410066 0 -0.00038557292257965448 -0.026286218976081677 0 -0.00080434906832381567 -0.029201163340883515 0 -0.00038804835646553281 -0.029722797095553793 0 -0.00037541265149636081 -0.023382016621742278 0 -0.00036703744842693487 -0.023393838714639268 0 -0.00038303000064895948 -0.023382138384207315 0 -0.00039266162546587201 -0.023374487281267932 0 -0.00038303000064895948 -0.023382138384207315 0 -0.00039251396778388606 -0.023380375708999885 0 -0.00037541265149636081 -0.023382016621742278 0 -0.00039266162546587201 -0.023374487281267932 0 -0.00038303000064895948 -0.023382138384207315 0 -0.00036703744842693487 -0.023393838714639268 0 -0.00038303000064895948 -0.023382138384207315 0 -0.00038874607873007149 -0.023383358914289692 0 -0.00038303000064895948 -0.023382138384207315 0 -0.00038874607873007149 -0.023383358914289692 0 -0.00039251396778388606 -0.023380375708999885 0 -0.00038874607873007149 -0.023383358914289692 0 -0.00039251396778388606 -0.023380375708999885 0 -0.00040214815952999762 -0.02338246063139263 0 -0.00040163412203562119 -0.023377520699237687 0 -0.00039251396778388606 -0.023380375708999885 0 -0.00040214815952999762 -0.02338246063139263 0 -0.00039266162546587201 -0.023374487281267932 0 -0.00040163412203562119 -0.023377520699237687 0 -0.00039251396778388606 -0.023380375708999885 0 -0.00040572307932545108 -0.023370217627676115 0 -0.00039266162546587201 -0.023374487281267932 0 -0.00040163412203562119 -0.023377520699237687 0 -0.00040572307932545108 -0.023370217627676115 0 -0.00041209578828009356 -0.023376799708360055 0 -0.00040163412203562119 -0.023377520699237687 0 -0.00040163412203562119 -0.023377520699237687 0 -0.00040979963396638516 -0.023382839457810747 0 -0.00040214815952999762 -0.02338246063139263 0 -0.00041209578828009356 -0.023376799708360055 0 -0.00040163412203562119 -0.023377520699237687 0 -0.00040979963396638516 -0.023382839457810747 0 -0.00040979963396638516 -0.023382839457810747 0 -0.00041557618248870456 -0.023388785758889804 0 -0.00040214815952999762 -0.02338246063139263 0 -0.00038874607873007149 -0.023383358914289692 0 -0.0004050305668949301 -0.023382974765410066 0 -0.00040214815952999762 -0.02338246063139263 0 -0.00041557618248870456 -0.023388785758889804 0 -0.0004050305668949301 -0.023382974765410066 0 -0.00040214815952999762 -0.02338246063139263 0 -0.0003670226899762415 -0.023096498461544528 0 -0.00035794962054838106 -0.023218004530052998 0 -0.00026605938052983103 -0.023072016676938117 0 -0.0003670226899762415 -0.023096498461544528 0 -0.00036918398035244238 -0.023029571573243139 0 -0.00031845573634036801 -0.022942264372359029 0 -0.0003670226899762415 -0.023096498461544528 0 -0.00036918398035244238 -0.023029571573243139 0 -0.00041436258752302111 -0.023153353699886314 0 -0.00041552252157936746 -0.023133917982255271 0 -0.00036918398035244238 -0.023029571573243139 0 -0.00041436258752302111 -0.023153353699886314 0 -0.0003670226899762415 -0.023096498461544528 0 -0.00041436258752302111 -0.023153353699886314 0 -0.00043507147646239898 -0.023224457962261195 0 -0.00041436258752302111 -0.023153353699886314 0 -0.0004463005321719608 -0.023244562405282013 0 -0.00043507147646239898 -0.023224457962261195 0 -0.00041552252157936746 -0.023133917982255271 0 -0.00041436258752302111 -0.023153353699886314 0 -0.0004463005321719608 -0.023244562405282013 0 -0.00041552252157936746 -0.023133917982255271 0 -0.0004463005321719608 -0.023244562405282013 0 -0.00044104524167474466 -0.023251221977256816 0 -0.00056376158159101523 -0.022918355756471213 0 -0.00028407350291341054 -0.023391979174904036 0 -0.00036647955840525965 -0.023375363193238463 0 -0.00044104524167474466 -0.023251221977256816 0 -0.00042892886631815802 -0.02330643120763105 0 -0.0004463005321719608 -0.023244562405282013 0 -0.00044104524167474466 -0.023251221977256816 0 -0.00042892886631815802 -0.02330643120763105 0 -0.0004463005321719608 -0.023244562405282013 0 -0.00042892886631815802 -0.02330643120763105 0 -0.00044781120699652951 -0.023293891202437068 0 -0.0004463005321719608 -0.023244562405282013 0 -0.00044781120699652951 -0.023293891202437068 0 -0.00045477726827553114 -0.023265195217888539 0 -0.00043070533696562346 -0.023324594345760584 0 -0.00042892886631815802 -0.02330643120763105 0 -0.00044781120699652951 -0.023293891202437068 0 -0.00044781120699652951 -0.023293891202437068 0 -0.00046122795336996938 -0.023284912623208632 0 -0.00045477726827553114 -0.023265195217888539 0 -0.00044922002359446884 -0.023309955114590997 0 -0.00044781120699652951 -0.023293891202437068 0 -0.00046122795336996938 -0.023284912623208632 0 -0.00044922002359446884 -0.023309955114590997 0 -0.0004656306414489342 -0.023301686643082305 0 -0.00046122795336996938 -0.023284912623208632 0 -0.0004656306414489342 -0.023301686643082305 0 -0.00046122795336996938 -0.023284912623208632 0 -0.00047191968810832499 -0.02327538691503226 0 -0.00046122795336996938 -0.023284912623208632 0 -0.00046242623239350287 -0.023266448509058658 0 -0.00047191968810832499 -0.02327538691503226 0 -0.00046122795336996938 -0.023284912623208632 0 -0.00046242623239350287 -0.023266448509058658 0 -0.00045477726827553114 -0.023265195217888539 0 -0.0004463005321719608 -0.023244562405282013 0 -0.00045477726827553114 -0.023265195217888539 0 -0.00043507147646239898 -0.023224457962261195 0 -0.00046242623239350287 -0.023266448509058658 0 -0.00045477726827553114 -0.023265195217888539 0 -0.00043507147646239898 -0.023224457962261195 0 -0.00046242623239350287 -0.023266448509058658 0 -0.00043507147646239898 -0.023224457962261195 0 -0.00044576264493643362 -0.023264983972123857 0 -0.00041377025994525233 -0.022782422776971706 0 -0.00027296056728291703 -0.022726232489511347 0 -0.00027581609312364239 -0.022556566087069713 0 -0.00041946757044328579 -0.02302285166573239 0 -0.00031642797749690822 -0.02288823991171593 0 -0.0003670226899762415 -0.023096498461544528 0 -0.00043507147646239898 -0.023224457962261195 0 -0.00035794962054838106 -0.023218004530052998 0 -0.00043507147646239898 -0.023224457962261195 0 -0.00044576264493643362 -0.023264983972123857 0 -0.00035794962054838106 -0.023218004530052998 0 -0.00022951259260576564 -0.023210971458062422 0 -0.00032737247145744734 -0.023001573349377399 0 -0.00041640579895249955 -0.023213632565529167 0 -0.00022951259260576564 -0.023210971458062422 0 -0.00032737247145744734 -0.023001573349377399 0 -0.00010638766040373991 -0.023000717368780902 0 -0.00027296056728291703 -0.022726232489511347 0 -0.00032737247145744734 -0.023001573349377399 0 -0.00017975010876885455 -0.022679346889732284 0 -0.00041377025994525233 -0.022782422776971706 0 -0.00027296056728291703 -0.022726232489511347 0 -0.00032737247145744734 -0.023001573349377399 0 -0.00041946757044328579 -0.02302285166573239 0 -0.00048513862787953648 -0.023165487697038654 0 -0.00041377025994525233 -0.022782422776971706 0 -0.00032737247145744734 -0.023001573349377399 0 -0.00049171903663129462 -0.023195773471811398 0 -0.00046242623239350287 -0.023266448509058658 0 -0.00044576264493643362 -0.023264983972123857 0 -0.00049171903663129462 -0.023195773471811398 0 -0.00032737247145744734 -0.023001573349377399 0 -0.00041640579895249955 -0.023213632565529167 0 -0.00049171903663129462 -0.023195773471811398 0 -0.00022951259260576564 -0.023210971458062422 0 -0.00041640579895249955 -0.023213632565529167 0 -0.00045347286185580684 -0.023346388903926481 0 -0.00041640579895249955 -0.023213632565529167 0 -0.00050340065149693353 -0.023267489680968683 0 -0.00049171903663129462 -0.023195773471811398 0 -0.00050340065149693353 -0.023267489680968683 0 -0.00049171903663129462 -0.023195773471811398 0 -0.00049569176380752822 -0.023261546862969166 0 -0.00046242623239350287 -0.023266448509058658 0 -0.00049171903663129462 -0.023195773471811398 0 -0.00047191968810832499 -0.02327538691503226 0 -0.00049171903663129462 -0.023195773471811398 0 -0.00047191968810832499 -0.02327538691503226 0 -0.00049569176380752822 -0.023261546862969166 0 -0.00047191968810832499 -0.02327538691503226 0 -0.00048710262759000237 -0.023294836717015422 0 -0.00049569176380752822 -0.023261546862969166 0 -0.0004656306414489342 -0.023301686643082305 0 -0.00047191968810832499 -0.02327538691503226 0 -0.00048710262759000237 -0.023294836717015422 0 -0.00050340065149693353 -0.023267489680968683 0 -0.00051790094093599791 -0.023298448087372147 0 -0.0005312417693097149 -0.023332805099604035 0 -0.00050340065149693353 -0.023267489680968683 0 -0.00049569176380752822 -0.023261546862969166 0 -0.00051790094093599791 -0.023298448087372147 0 -0.00048710262759000237 -0.023294836717015422 0 -0.00049569176380752822 -0.023261546862969166 0 -0.00051790094093599791 -0.023298448087372147 0 -0.0005312417693097149 -0.023332805099604035 0 -0.00055130139597337792 -0.023337908630847243 0 -0.00060469549352301416 -0.023406583178427802 0 -0.00051790094093599791 -0.023298448087372147 0 -0.0005312417693097149 -0.023332805099604035 0 -0.00055130139597337792 -0.023337908630847243 0 -0.0005312417693097149 -0.023332805099604035 0 -0.00055993996599885813 -0.023386485210757466 0 -0.00060469549352301416 -0.023406583178427802 0 -0.00055993996599885813 -0.023386485210757466 0 -0.00060469549352301416 -0.023406583178427802 0 -0.00060453146810376978 -0.023487111855273919 0 -0.0005312417693097149 -0.023332805099604035 0 -0.00055993996599885813 -0.023386485210757466 0 -0.00045347286185580684 -0.023346388903926481 0 -0.00055993996599885813 -0.023386485210757466 0 -0.00042285674976422064 -0.022906721290077845 0 -0.00035120715422653576 -0.023297785370953204 0 -0.00055232648915426615 -0.023351345536246685 0 -0.00042306499862854386 -0.023122057732284589 0 -0.00050340065149693353 -0.023267489680968683 0 -0.0005312417693097149 -0.023332805099604035 0 -0.00045347286185580684 -0.023346388903926481 0 -0.00041640579895249955 -0.023213632565529167 0 -0.00050340065149693353 -0.023267489680968683 0 -0.00045347286185580684 -0.023346388903926481 0 -0.0001927189307878354 -0.022805273966377066 0 -0.00042306499862854386 -0.023122057732284589 0 -0.00042285674976422064 -0.022906721290077845 0 -9.7781873999898107e-05 -0.022908740969359232 0 -0.00035120715422653576 -0.023297785370953204 0 0.00014514910947025891 -0.023144542678346331 0 -0.00020118954551924997 -0.023426417659742984 0 9.1181791599380399e-05 -0.023499926129485729 0 1.8674279313606259e-05 -0.023028484908492419 0 -0.00028454732689420356 -0.023366182163366018 0 0.00014514910947025891 -0.023144542678346331 0 9.1181791599380399e-05 -0.023499926129485729 0 0.00028697758005607067 -0.023397916190438146 0 -0.00016762138877757582 -0.022412801707282423 0 -0.00042285674976422064 -0.022906721290077845 0 -9.7781873999898107e-05 -0.022908740969359232 0 -0.00046596580174038029 -0.023356073761451535 0 -0.00044764245982571119 -0.023401095002785269 0 -0.00046139970243528288 -0.023377442086919362 0 -0.00046596580174038029 -0.023356073761451535 0 -0.00046139970243528288 -0.023377442086919362 0 -0.000500938418668848 -0.023348244638267089 0 -0.0010461845270732723 -0.022884111167636115 0 -0.00049968624279256855 -0.02889254657989113 0 -0.00046596580174038029 -0.023356073761451535 0 -0.00043933162893883824 -0.023414589915530991 0 -0.00044764245982571119 -0.023401095002785269 0 -0.00048403899779287442 -0.0283673239164536 0 -0.00049968624279256855 -0.02889254657989113 0 -0.00066934498781404171 -0.033651733788782556 0 -0.00065480229342313573 -0.033694816541352139 0 -0.00056377981041975066 -0.033755211115449005 0 -0.00044759378538148097 -0.023413525674552255 0 -0.00043933162893883824 -0.023414589915530991 0 -0.00044764245982571119 -0.023401095002785269 0 -0.00041694125706427318 -0.033571627857128375 0 -0.00066934498781404171 -0.033651733788782556 0 -0.00065480229342313573 -0.033694816541352139 0 -0.00044759378538148097 -0.023413525674552255 0 -0.00044764245982571119 -0.023401095002785269 0 -0.0004447805165298331 -0.023400316064195324 0 -0.0004447805165298331 -0.023400316064195324 0 -0.00046139970243528288 -0.023377442086919362 0 -0.00044477352511446171 -0.023386407607016234 0 -0.00043823904519942872 -0.023395762936641664 0 -0.00044759378538148097 -0.023413525674552255 0 -0.0004447805165298331 -0.023400316064195324 0 -0.00043823904519942872 -0.023395762936641664 0 -0.0004447805165298331 -0.023400316064195324 0 -0.00044477352511446171 -0.023386407607016234 0 -0.00044764245982571119 -0.023401095002785269 0 -0.0004447805165298331 -0.023400316064195324 0 -0.00046139970243528288 -0.023377442086919362 0 -0.00046139970243528288 -0.023377442086919362 0 -0.00044477352511446171 -0.023386407607016234 0 -0.00045281476690073644 -0.023367474925596338 0 -0.00043289845188110624 -0.023382646967495382 0 -0.00044477352511446171 -0.023386407607016234 0 -0.00045281476690073644 -0.023367474925596338 0 -0.00045047615621035195 -0.023343499995032331 0 -0.00045281476690073644 -0.023367474925596338 0 -0.00047012748900951575 -0.023340032365618879 0 -0.00045281476690073644 -0.023367474925596338 0 -0.00047012748900951575 -0.023340032365618879 0 -0.0004782128127396817 -0.023350996326237265 0 -0.00047012748900951575 -0.023340032365618879 0 -0.0004782128127396817 -0.023350996326237265 0 -0.00050070995244134216 -0.023325361301193764 0 -0.00046139970243528288 -0.023377442086919362 0 -0.00045281476690073644 -0.023367474925596338 0 -0.0004782128127396817 -0.023350996326237265 0 -0.0004656306414489342 -0.023301686643082305 0 -0.00048710262759000237 -0.023294836717015422 0 -0.00047090989521262429 -0.023320385679393953 0 -0.00045047615621035195 -0.023343499995032331 0 -0.00047012748900951575 -0.023340032365618879 0 -0.00047090989521262429 -0.023320385679393953 0 -0.00047012748900951575 -0.023340032365618879 0 -0.00047090989521262429 -0.023320385679393953 0 -0.00050070995244134216 -0.023325361301193764 0 -0.00048710262759000237 -0.023294836717015422 0 -0.00047090989521262429 -0.023320385679393953 0 -0.00050070995244134216 -0.023325361301193764 0 -0.00051790094093599791 -0.023298448087372147 0 -0.00050070995244134216 -0.023325361301193764 0 -0.00055130139597337792 -0.023337908630847243 0 -0.00050070995244134216 -0.023325361301193764 0 -0.000500938418668848 -0.023348244638267089 0 -0.00055130139597337792 -0.023337908630847243 0 -0.00048710262759000237 -0.023294836717015422 0 -0.00051790094093599791 -0.023298448087372147 0 -0.00050070995244134216 -0.023325361301193764 0 -0.00046139970243528288 -0.023377442086919362 0 -0.0004782128127396817 -0.023350996326237265 0 -0.000500938418668848 -0.023348244638267089 0 -0.0004782128127396817 -0.023350996326237265 0 -0.00050070995244134216 -0.023325361301193764 0 -0.000500938418668848 -0.023348244638267089 0 -0.00046596580174038029 -0.023356073761451535 0 -0.000500938418668848 -0.023348244638267089 0 -0.0005265036306494747 -0.02333224958666312 0 -0.000500938418668848 -0.023348244638267089 0 -0.0005265036306494747 -0.02333224958666312 0 -0.00055130139597337792 -0.023337908630847243 0 -0.0010461845270732723 -0.022884111167636115 0 -0.00054470978035095886 -0.023479968756414681 0 -0.0005265036306494747 -0.02333224958666312 0 -0.00055130139597337792 -0.023337908630847243 0 -0.00060469549352301416 -0.023406583178427802 0 -0.00054470978035095886 -0.023479968756414681 0 -0.00063467840821347947 -0.023391677522062178 0 -0.00060469549352301416 -0.023406583178427802 0 -0.00077666713838989436 -0.023551982562686393 0 -0.00070269344869745745 -0.023557342805890075 0 -0.00077016938127897521 -0.023468257323339774 0 -0.00060469549352301416 -0.023406583178427802 0 -0.00077666713838989436 -0.023551982562686393 0 -0.00060469549352301416 -0.023406583178427802 0 -0.00070269344869745745 -0.023557342805890075 0 -0.00060453146810376978 -0.023487111855273919 0 -0.00077666713838989436 -0.023551982562686393 0 -0.00090458130127484969 -0.023613039797189869 0 -0.00078331357425323253 -0.023670487278910735 0 -0.00077016938127897521 -0.023468257323339774 0 -0.00077666713838989436 -0.023551982562686393 0 -0.00090458130127484969 -0.023613039797189869 0 -0.00090753107637549018 -0.023467725527912778 0 -0.00077016938127897521 -0.023468257323339774 0 -0.00090458130127484969 -0.023613039797189869 0 -0.00090753107637549018 -0.023467725527912778 0 -0.00090458130127484969 -0.023613039797189869 0 -0.0011240691565919168 -0.023604161619893753 0 -0.00090753107637549018 -0.023467725527912778 0 -0.0010366808429437741 -0.023459776040008519 0 -0.0011240691565919168 -0.023604161619893753 0 -0.00090458130127484969 -0.023613039797189869 0 -0.0011240691565919168 -0.023604161619893753 0 -0.0010877829586791506 -0.023760396507597561 0 -8.5630658753230396e-05 -0.034402830271098896 0 -0.00015019056640989053 -0.034516378129351023 0 -0.00019622533536025187 -0.034516917687532747 0 -8.5630658753230396e-05 -0.034402830271098896 0 -0.00013134052840859899 -0.034364503122194953 0 -0.00020266723358823666 -0.034464311209369568 0 -0.00061308143310132197 -0.029003623487764457 0 -0.00071966066946258205 -0.029186639032651653 0 -0.0011240691565919168 -0.023604161619893753 0 -0.0012853266284772189 -0.023852644802163377 0 -0.0010877829586791506 -0.023760396507597561 0 -8.5630658753230396e-05 -0.034402830271098896 0 -0.00020266723358823666 -0.034464311209369568 0 -0.00019622533536025187 -0.034516917687532747 0 -4.367459847097114e-05 -0.034288263631957194 0 -8.5630658753230396e-05 -0.034402830271098896 0 -0.00013134052840859899 -0.034364503122194953 0 -0.00049968624279256855 -0.02889254657989113 0 -0.00061308143310132197 -0.029003623487764457 0 -4.367459847097114e-05 -0.034288263631957194 0 -0.00013134052840859899 -0.034364503122194953 0 -0.00011426656596917232 -0.034280676147632347 0 -0.00013134052840859899 -0.034364503122194953 0 -0.00011426656596917232 -0.034280676147632347 0 -0.00022622859565271861 -0.034374900328654728 0 2.1660103465310225e-06 -0.03475233685952344 0 -0.00042875458885018286 -0.03392964491615702 0 -0.00065480229342313573 -0.033694816541352139 0 -0.00043312428007700955 -0.033769677947872355 0 -0.00056377981041975066 -0.033755211115449005 0 -0.00049968624279256855 -0.02889254657989113 0 2.1660103465310225e-06 -0.03475233685952344 0 -0.00028742105374682573 -0.034391542003918578 0 -0.00022622859565271861 -0.034374900328654728 0 -0.00025382924953253755 -0.034178029360436346 0 -0.00011426656596917232 -0.034280676147632347 0 -0.00022622859565271861 -0.034374900328654728 0 -0.00025382924953253755 -0.034178029360436346 0 -0.00013134052840859899 -0.034364503122194953 0 -0.00022622859565271861 -0.034374900328654728 0 -0.00020266723358823666 -0.034464311209369568 0 -0.00028742105374682573 -0.034391542003918578 0 -0.00022622859565271861 -0.034374900328654728 0 -0.00025209551250850843 -0.034477015121303606 0 -0.00020266723358823666 -0.034464311209369568 0 -0.00022450141420061892 -0.03456061874257247 0 -0.00025209551250850843 -0.034477015121303606 0 -0.00022622859565271861 -0.034374900328654728 0 -0.00020266723358823666 -0.034464311209369568 0 -0.00025209551250850843 -0.034477015121303606 0 -0.00020266723358823666 -0.034464311209369568 0 -0.00022450141420061892 -0.03456061874257247 0 -0.00019622533536025187 -0.034516917687532747 0 -0.00022450141420061892 -0.03456061874257247 0 -0.00022502347091009873 -0.034542021134168405 0 -0.00020291031030773152 -0.034659651016005988 0 -0.00022450141420061892 -0.03456061874257247 0 -0.00022502347091009873 -0.034542021134168405 0 -0.00025209551250850843 -0.034477015121303606 0 -0.00022502347091009873 -0.034542021134168405 0 -0.00026145975302282884 -0.034544132301988502 0 -0.00020291031030773152 -0.034659651016005988 0 -0.00022502347091009873 -0.034542021134168405 0 -0.00022951106059570603 -0.034497223115610938 0 -0.00026145975302282884 -0.034544132301988502 0 -0.00022502347091009873 -0.034542021134168405 0 -0.00022951106059570603 -0.034497223115610938 0 -0.00025209551250850843 -0.034477015121303606 0 -4.3866853139910349e-08 -0.035000023210573716 0 -5.9051358819575372e-05 -0.035023456112876453 0 -5.4135894709208294e-05 -0.034944142457902096 0 -0.00022951106059570603 -0.034497223115610938 0 -0.00026145975302282884 -0.034544132301988502 0 -0.00014939621695879258 -0.034490064941681872 0 -0.00015687345078898638 -0.034779741172494424 0 -7.9146235874063666e-05 -0.034755564743524307 0 -5.9051358819575372e-05 -0.035023456112876453 0 5.294822214336361e-09 -0.03500010196135505 0 -7.5934048420408884e-06 -0.034999712080983972 0 -4.3866853139910349e-08 -0.035000023210573716 0 -5.9051358819575372e-05 -0.035023456112876453 0 5.294822214336361e-09 -0.03500010196135505 0 -0.00022951106059570603 -0.034497223115610938 0 -0.00014939621695879258 -0.034490064941681872 0 -0.00025948319054334225 -0.034500294303417972 0 -0.00014939621695879258 -0.034490064941681872 0 -0.00016683580890418444 -0.034641333266087405 0 -0.00025948319054334225 -0.034500294303417972 0 -0.00014939621695879258 -0.034490064941681872 0 -0.00016683580890418444 -0.034641333266087405 0 -4.7923935544967113e-06 -0.034883680801065402 0 5.294822214336361e-09 -0.03500010196135505 0 -7.5934048420408884e-06 -0.034999712080983972 0 -6.9001093208361334e-08 -0.034999669628821957 0 -7.9146235874063666e-05 -0.034755564743524307 0 -1.3680382772245545e-05 -0.034877890785446675 0 -7.5934048420408884e-06 -0.034999712080983972 0 -6.9001093208361334e-08 -0.034999669628821957 0 -4.7923935544967113e-06 -0.034883680801065402 0 -0.00028742105374682573 -0.034391542003918578 0 -0.00025209551250850843 -0.034477015121303606 0 -0.00025948319054334225 -0.034500294303417972 0 -0.00022951106059570603 -0.034497223115610938 0 -0.00025209551250850843 -0.034477015121303606 0 -0.00025948319054334225 -0.034500294303417972 0 -0.00016683580890418444 -0.034641333266087405 0 -0.00025948319054334225 -0.034500294303417972 0 -0.00018674285444390961 -0.034704344955589148 0 -0.00025948319054334225 -0.034500294303417972 0 -0.0002750449035093459 -0.034509657225344839 0 -0.00018674285444390961 -0.034704344955589148 0 -0.00028742105374682573 -0.034391542003918578 0 -0.00025948319054334225 -0.034500294303417972 0 -0.0002750449035093459 -0.034509657225344839 0 -0.00028742105374682573 -0.034391542003918578 0 -0.0002750449035093459 -0.034509657225344839 0 -0.00031074694600666741 -0.034331561769533024 0 -0.0002750449035093459 -0.034509657225344839 0 -0.00018674285444390961 -0.034704344955589148 0 -0.00031074694600666741 -0.034331561769533024 0 -0.0001791029828066307 -0.034672565203182536 0 -0.00021186372527785946 -0.034592090815956662 0 -0.00018674285444390961 -0.034704344955589148 0 -0.0001607384344466646 -0.0348727634607474 0 -0.00011372659919087265 -0.034917650231642831 0 -6.9001093208361334e-08 -0.034999669628821957 0 -4.7923935544967113e-06 -0.034883680801065402 0 2.2112925496725945e-08 -0.034999935684547415 0 -0.00018674285444390961 -0.034704344955589148 0 -4.7923935544967113e-06 -0.034883680801065402 0 -4.7423703459352587e-05 -0.034917079094604127 0 -0.00016683580890418444 -0.034641333266087405 0 -0.00018674285444390961 -0.034704344955589148 0 -4.7923935544967113e-06 -0.034883680801065402 0 -0.00018674285444390961 -0.034704344955589148 0 -4.7423703459352587e-05 -0.034917079094604127 0 -0.00011372659919087265 -0.034917650231642831 0 -4.7923935544967113e-06 -0.034883680801065402 0 -4.7423703459352587e-05 -0.034917079094604127 0 2.2112925496725945e-08 -0.034999935684547415 0 -4.7423703459352587e-05 -0.034917079094604127 0 2.2112925496725945e-08 -0.034999935684547415 0 -3.3116241011453626e-05 -0.034969464486119824 0 2.2112925496725945e-08 -0.034999935684547415 0 -3.3116241011453626e-05 -0.034969464486119824 0 -4.0377677799743593e-08 -0.034999954193694713 0 -3.3116241011453626e-05 -0.034969464486119824 0 -0.00011372659919087265 -0.034917650231642831 0 -8.0270598607685693e-05 -0.034941646837963289 0 -4.7423703459352587e-05 -0.034917079094604127 0 -3.3116241011453626e-05 -0.034969464486119824 0 -0.00011372659919087265 -0.034917650231642831 0 -4.1151129558190293e-05 -0.034964726294434721 0 -3.3116241011453626e-05 -0.034969464486119824 0 -8.0270598607685693e-05 -0.034941646837963289 0 -4.1151129558190293e-05 -0.034964726294434721 0 -3.3116241011453626e-05 -0.034969464486119824 0 -4.0377677799743593e-08 -0.034999954193694713 0 -0.0001607384344466646 -0.0348727634607474 0 -0.00011891648042608059 -0.034911247228802476 0 -0.00011962791299840225 -0.034899800900831814 0 -0.0001607384344466646 -0.0348727634607474 0 -0.00011372659919087265 -0.034917650231642831 0 -0.00011891648042608059 -0.034911247228802476 0 -0.00011372659919087265 -0.034917650231642831 0 -8.0270598607685693e-05 -0.034941646837963289 0 -0.00011891648042608059 -0.034911247228802476 0 -8.6504740599539849e-05 -0.034925830005351009 0 -8.0270598607685693e-05 -0.034941646837963289 0 -0.00011891648042608059 -0.034911247228802476 0 -8.6504740599539849e-05 -0.034925830005351009 0 -0.00011225061976416248 -0.034881224411183527 0 -0.00011891648042608059 -0.034911247228802476 0 -0.00011225061976416248 -0.034881224411183527 0 -0.00011891648042608059 -0.034911247228802476 0 -0.00011962791299840225 -0.034899800900831814 0 -0.00033120440413447955 -0.034141191426857877 0 -0.0004208216782797917 -0.034047716451608499 0 -0.00036410160747885214 -0.034087788324318434 0 -0.00024156844529459401 -0.03453973274365537 0 -0.00017867672718722296 -0.03433098837301253 0 -0.00011225061976416248 -0.034881224411183527 0 -0.00011962791299840225 -0.034899800900831814 0 -8.6740596633057141e-05 -0.034872463566706834 0 -0.0004865284815530268 -0.033901145819983242 0 -0.0004208216782797917 -0.034047716451608499 0 -0.00045115079559797735 -0.034010831758122216 0 -0.00045546939197054154 -0.033911016516368894 0 -0.00046136445605594916 -0.033981023862252525 0 -0.00045115079559797735 -0.034010831758122216 0 -0.0004865284815530268 -0.033901145819983242 0 -0.00045546939197054154 -0.033911016516368894 0 -0.00045115079559797735 -0.034010831758122216 0 -0.00046136445605594916 -0.033981023862252525 0 -0.00045115079559797735 -0.034010831758122216 0 -0.00045537916625753238 -0.034019002641782661 0 -0.00046136445605594916 -0.033981023862252525 0 -0.00047704861522715692 -0.033992355430971746 0 -0.00045537916625753238 -0.034019002641782661 0 -0.0004208216782797917 -0.034047716451608499 0 -0.00045115079559797735 -0.034010831758122216 0 -0.00036410160747885214 -0.034087788324318434 0 -0.00045115079559797735 -0.034010831758122216 0 -0.00045537916625753238 -0.034019002641782661 0 -0.00036410160747885214 -0.034087788324318434 0 -0.00045537916625753238 -0.034019002641782661 0 -0.00036410160747885214 -0.034087788324318434 0 -0.00042449399958347303 -0.034014836457237393 0 -0.00036410160747885214 -0.034087788324318434 0 -0.00042449399958347303 -0.034014836457237393 0 -0.00036970802202665508 -0.034029664705377709 0 -0.00045537916625753238 -0.034019002641782661 0 -0.00048058595976069047 -0.033985152479872639 0 -0.00042449399958347303 -0.034014836457237393 0 -0.00048989666168688397 -0.033996313679344005 0 -0.00045537916625753238 -0.034019002641782661 0 -0.00048058595976069047 -0.033985152479872639 0 -0.00042449399958347303 -0.034014836457237393 0 -0.00047904426887627354 -0.033947620925992211 0 -0.00046639869152793483 -0.033918238517212838 0 -0.00052443268990620554 -0.033913517233856848 0 -0.00048058595976069047 -0.033985152479872639 0 -0.00047904426887627354 -0.033947620925992211 0 -0.00048058595976069047 -0.033985152479872639 0 -0.00042449399958347303 -0.034014836457237393 0 -0.00047904426887627354 -0.033947620925992211 0 -0.00043312428007700955 -0.033769677947872355 0 -0.00046639869152793483 -0.033918238517212838 0 -0.00056377981041975066 -0.033755211115449005 0 -0.00047904426887627354 -0.033947620925992211 0 -0.00051921169508041553 -0.033878861489713842 0 -0.00046639869152793483 -0.033918238517212838 0 -0.00052443268990620554 -0.033913517233856848 0 -0.00047904426887627354 -0.033947620925992211 0 -0.00051921169508041553 -0.033878861489713842 0 -0.00051921169508041553 -0.033878861489713842 0 -0.00046639869152793483 -0.033918238517212838 0 -0.00056377981041975066 -0.033755211115449005 0 -0.00056779281075853628 -0.033817130240746014 0 -0.00051921169508041553 -0.033878861489713842 0 -0.00056377981041975066 -0.033755211115449005 0 -0.00043312428007700955 -0.033769677947872355 0 -0.00046639869152793483 -0.033918238517212838 0 -0.00036970802202665508 -0.034029664705377709 0 -0.00036410160747885214 -0.034087788324318434 0 -0.00036970802202665508 -0.034029664705377709 0 -0.00025382924953253755 -0.034178029360436346 0 -0.00043312428007700955 -0.033769677947872355 0 -0.00036970802202665508 -0.034029664705377709 0 -0.00025382924953253755 -0.034178029360436346 0 -0.00042449399958347303 -0.034014836457237393 0 -0.00046639869152793483 -0.033918238517212838 0 -0.00036970802202665508 -0.034029664705377709 0 -0.00028742105374682573 -0.034391542003918578 0 -0.00025382924953253755 -0.034178029360436346 0 -0.00029391065112883296 -0.034220753723309738 0 -0.00028742105374682573 -0.034391542003918578 0 -0.00031074694600666741 -0.034331561769533024 0 -0.00029391065112883296 -0.034220753723309738 0 -0.00021186372527785946 -0.034592090815956662 0 -0.00024156844529459401 -0.03453973274365537 0 -0.00031074694600666741 -0.034331561769533024 0 -0.00033120440413447955 -0.034141191426857877 0 -0.00029391065112883296 -0.034220753723309738 0 -0.00036410160747885214 -0.034087788324318434 0 -0.00025382924953253755 -0.034178029360436346 0 -0.00029391065112883296 -0.034220753723309738 0 -0.00033120440413447955 -0.034141191426857877 0 -0.00036410160747885214 -0.034087788324318434 0 -0.00029391065112883296 -0.034220753723309738 0 -0.00019435190036475391 -0.021440452843849638 0 -0.00033121520600078088 -0.021494568988452145 0 -0.00023950470046368426 -0.021351316515543735 0 0.00036503210756635648 -0.013731283547778722 0 9.6857986301479451e-05 -0.010625621301094353 0 0.0012602371068739546 -0.0050504242738474009 0 0.0010689725004570979 -0.0053755606401407743 0 0.0010584318693096899 -0.0050205951644033643 0 0.0012602371068739546 -0.0050504242738474009 0 0.0012367137885541139 -0.0048497065899269524 0 0.0010584318693096899 -0.0050205951644033643 0 0.0012367137885541139 -0.0048497065899269524 0 0.0010584318693096899 -0.0050205951644033643 0 0.0011357643556113802 -0.0046848772307811802 0 0.00036503210756635648 -0.013731283547778722 0 0.00070911176863565589 -0.012752168130088955 0 -0.00019435190036475391 -0.021440452843849638 0 -0.00033026542285405027 -0.021541949885853302 0 -0.00033121520600078088 -0.021494568988452145 0 0.0012602371068739546 -0.0050504242738474009 0 0.0012367137885541139 -0.0048497065899269524 0 0.0012112381236433871 -0.0049242981609001792 0 -0.00033026542285405027 -0.021541949885853302 0 -0.00040734138946310925 -0.021565621170779516 0 -0.00033121520600078088 -0.021494568988452145 0 -0.00042633840262755181 -0.021503735269386232 0 -0.00050727389508187682 -0.021631113839328267 0 -0.00056290840119484838 -0.021589344066357968 0 -0.00040734138946310925 -0.021565621170779516 0 -0.00042633840262755181 -0.021503735269386232 0 -0.00050727389508187682 -0.021631113839328267 0 -0.00040734138946310925 -0.021565621170779516 0 -0.00033121520600078088 -0.021494568988452145 0 -0.00042633840262755181 -0.021503735269386232 0 -0.00033121520600078088 -0.021494568988452145 0 -0.00042633840262755181 -0.021503735269386232 0 -0.00023950470046368426 -0.021351316515543735 0 -0.00042633840262755181 -0.021503735269386232 0 -0.00030541419081816146 -0.021252837776676602 0 -0.00023950470046368426 -0.021351316515543735 0 -0.00042633840262755181 -0.021503735269386232 0 -0.00047651597564363625 -0.021423911024690944 0 -0.00056290840119484838 -0.021589344066357968 0 -0.00047651597564363625 -0.021423911024690944 0 -0.0005725290169863211 -0.02149499424666005 0 -0.00045669358836238354 -0.02123264987404111 0 -0.00042633840262755181 -0.021503735269386232 0 -0.00047651597564363625 -0.021423911024690944 0 -0.00030541419081816146 -0.021252837776676602 0 -0.00047651597564363625 -0.021423911024690944 0 -0.00030541419081816146 -0.021252837776676602 0 -0.00045669358836238354 -0.02123264987404111 0 -0.00030541419081816146 -0.021252837776676602 0 -0.00023950470046368426 -0.021351316515543735 0 -7.7968074136768349e-05 -0.021120744339254399 0 -0.00019435190036475391 -0.021440452843849638 0 -0.00023950470046368426 -0.021351316515543735 0 -6.7879058762264523e-05 -0.021279031746273162 0 9.6857986301479451e-05 -0.010625621301094353 0 -0.00064684436698026436 -0.015799042352293468 0 -0.00023950470046368426 -0.021351316515543735 0 -6.7879058762264523e-05 -0.021279031746273162 0 -7.7968074136768349e-05 -0.021120744339254399 0 -0.00016361153920302598 -0.009324097093584411 0 -0.00075894733808367677 -0.010022181153933708 0 -0.0009264781502628678 -0.0089173498194890597 0 0.0012651295882132663 -0.0023281834414417943 0 0.0015390673174393889 -0.0024552071512593874 0 0.0014424292838776857 -0.0023540165544713703 0 0.00077706937314477205 -0.0052719964668449708 0 0.00086061936155147156 -0.0055089698695942307 0 0.0012651295882132663 -0.0023281834414417943 0 0.0014424292838776857 -0.0023540165544713703 0 0.001424868292054121 -0.0023719806538454419 0 0.0012651295882132663 -0.0023281834414417943 0 0.0015390673174393889 -0.0024552071512593874 0 0.0011667029120335593 -0.0027153754475401442 0 0.0015390673174393889 -0.0024552071512593874 0 0.0011667029120335593 -0.0027153754475401442 0 0.0012255476274783315 -0.0032779503902639101 0 0.0012651295882132663 -0.0023281834414417943 0 0.0005811280050818556 -0.0028992133109344486 0 0.0011667029120335593 -0.0027153754475401442 0 0.0005811280050818556 -0.0028992133109344486 0 0.0011667029120335593 -0.0027153754475401442 0 0.0012255476274783315 -0.0032779503902639101 0 0.00077706937314477205 -0.0052719964668449708 0 9.6857986301479451e-05 -0.010625621301094353 0 0.0012234294856659528 -0.0022651296352413581 0 0.001287541603562871 -0.002354640986875042 0 0.0011343532565859802 -0.0023205231333460938 0 0.0012234294856659528 -0.0022651296352413581 0 0.0013089975740721662 -0.0022793831241947234 0 0.001160347692775859 -0.002106615854850656 0 0.0013089975740721662 -0.0022793831241947234 0 0.001287541603562871 -0.002354640986875042 0 0.0013713259113018027 -0.0023622200511659859 0 0.0012234294856659528 -0.0022651296352413581 0 0.0013089975740721662 -0.0022793831241947234 0 0.001287541603562871 -0.002354640986875042 0 0.0013089975740721662 -0.0022793831241947234 0 0.0014424292838776857 -0.0023540165544713703 0 0.0013933730472551011 -0.0023085220565907316 0 0.0013089975740721662 -0.0022793831241947234 0 0.0014424292838776857 -0.0023540165544713703 0 0.0013713259113018027 -0.0023622200511659859 0 0.0015390673174393889 -0.0024552071512593874 0 0.0014424292838776857 -0.0023540165544713703 0 0.0013933730472551011 -0.0023085220565907316 0 0.0013089975740721662 -0.0022793831241947234 0 0.0012858001090464168 -0.0021231639864957574 0 0.0013933730472551011 -0.0023085220565907316 0 0.0015390673174393889 -0.0024552071512593874 0 0.0012858001090464168 -0.0021231639864957574 0 0.0013933730472551011 -0.0023085220565907316 0 0.0015390673174393889 -0.0024552071512593874 0 0.0012858001090464168 -0.0021231639864957574 0 0.0013307285790947658 -0.0019039870508051138 0 0.0013089975740721662 -0.0022793831241947234 0 0.0012858001090464168 -0.0021231639864957574 0 0.001160347692775859 -0.002106615854850656 0 0.0012858001090464168 -0.0021231639864957574 0 0.001160347692775859 -0.002106615854850656 0 0.0011416106423224302 -0.0019507724854494752 0 0.0012858001090464168 -0.0021231639864957574 0 0.0011225739630976112 -0.0018403129215395046 0 0.0011416106423224302 -0.0019507724854494752 0 0.0012858001090464168 -0.0021231639864957574 0 0.0013307285790947658 -0.0019039870508051138 0 0.0011225739630976112 -0.0018403129215395046 0 0.0013307285790947658 -0.0019039870508051138 0 0.0011225739630976112 -0.0018403129215395046 0 0.0010600509253322556 -0.0018344714980049602 0 0.0019905738198055692 -0.0039392819214886252 0 0.0015724001043413373 -0.0046181288096295327 0 0.0019098174337832386 -0.0047784118224251321 0 0.001637369533104628 -0.0029184499446305596 0 0.001484431619396407 -0.0033079782169913047 0 0.0005811280050818556 -0.0028992133109344486 0 0.0007233209105587681 -0.0037761160853870875 0 0.0012255476274783315 -0.0032779503902639101 0 9.6857986301479451e-05 -0.010625621301094353 0 0.00079652240865274047 -0.0031897724320187008 0 0.0007233209105587681 -0.0037761160853870875 0 0.0012255476274783315 -0.0032779503902639101 0 0.0013477902524805421 -0.0041070523664385322 0 0.0015523570790381487 -0.0024852412526648942 0 0.001637369533104628 -0.0029184499446305596 0 0.0015390673174393889 -0.0024552071512593874 0 0.0019905738198055692 -0.0039392819214886252 0 0.0012255476274783315 -0.0032779503902639101 0 0.0019905738198055692 -0.0039392819214886252 0 0.0012255476274783315 -0.0032779503902639101 0 0.0013477902524805421 -0.0041070523664385322 0 0.0019905738198055692 -0.0039392819214886252 0 0.0013477902524805421 -0.0041070523664385322 0 0.0015724001043413373 -0.0046181288096295327 0 0.00079652240865274047 -0.0031897724320187008 0 0.0011279028113841264 -0.0050811258848312904 0 0.0013477902524805421 -0.0041070523664385322 0 0.0011357643556113802 -0.0046848772307811802 0 0.0015724001043413373 -0.0046181288096295327 0 0.0007233209105587681 -0.0037761160853870875 0 0.0013477902524805421 -0.0041070523664385322 0 0.0011357643556113802 -0.0046848772307811802 0 0.0011357643556113802 -0.0046848772307811802 0 0.0015724001043413373 -0.0046181288096295327 0 0.0014143257580957942 -0.0048367166387370481 0 0.0011357643556113802 -0.0046848772307811802 0 0.0014143257580957942 -0.0048367166387370481 0 0.0012825263789497633 -0.0048703760579022742 0 0.0015724001043413373 -0.0046181288096295327 0 0.0017023640616645184 -0.0048504964644797985 0 0.0014143257580957942 -0.0048367166387370481 0 0.0017023640616645184 -0.0048504964644797985 0 0.0015923203385144202 -0.0049202174484803164 0 0.0014143257580957942 -0.0048367166387370481 0 0.0017023640616645184 -0.0048504964644797985 0 0.0015923203385144202 -0.0049202174484803164 0 0.0017084790161704863 -0.0049256900930037617 0 0.0015923203385144202 -0.0049202174484803164 0 0.0014143257580957942 -0.0048367166387370481 0 0.0014329329814228701 -0.0049228723010734153 0 0.0014143257580957942 -0.0048367166387370481 0 0.0014329329814228701 -0.0049228723010734153 0 0.0012825263789497633 -0.0048703760579022742 0 0.0010600509253322556 -0.0018344714980049602 0 0.00107805600681393 -0.0018341240300553999 0 0.0010505742116643311 -0.0019184348791672849 0 0.0011225739630976112 -0.0018403129215395046 0 0.0010600509253322556 -0.0018344714980049602 0 0.00107805600681393 -0.0018341240300553999 0 0.0015724001043413373 -0.0046181288096295327 0 0.0017023640616645184 -0.0048504964644797985 0 0.0019098174337832386 -0.0047784118224251321 0 0.0017023640616645184 -0.0048504964644797985 0 0.0019098174337832386 -0.0047784118224251321 0 0.0017739392879787786 -0.0049381382453551744 0 0.0017023640616645184 -0.0048504964644797985 0 0.0017739392879787786 -0.0049381382453551744 0 0.0017084790161704863 -0.0049256900930037617 0 0.001484431619396407 -0.0033079782169913047 0 0.0012510451385021057 -0.0035106737836926166 0 0.0019098174337832386 -0.0047784118224251321 0 0.0016258541154090852 -0.0050620087434286032 0 0.0017739392879787786 -0.0049381382453551744 0 0.0010600509253322556 -0.0018344714980049602 0 0.00086800150200466795 -0.0020381448921472037 0 0.0010505742116643311 -0.0019184348791672849 0 0.00086800150200466795 -0.0020381448921472037 0 0.0010505742116643311 -0.0019184348791672849 0 0.0010202818420106323 -0.0020505646673581765 0 0.00097629368585106944 -0.0021482253050672919 0 0.00086800150200466795 -0.0020381448921472037 0 0.00098474583926622464 -0.0023475281999111685 0 0.00097629368585106944 -0.0021482253050672919 0 0.00086800150200466795 -0.0020381448921472037 0 0.0010202818420106323 -0.0020505646673581765 0 0.0017739392879787786 -0.0049381382453551744 0 0.0017665754020784641 -0.0048524192048114206 0 0.001704700871168609 -0.004953790209048581 0 0.0017739392879787786 -0.0049381382453551744 0 0.0017665754020784641 -0.0048524192048114206 0 0.0018767617260819572 -0.0045743708529842018 0 0.0016258541154090852 -0.0050620087434286032 0 0.0017739392879787786 -0.0049381382453551744 0 0.0018767617260819572 -0.0045743708529842018 0 0.0018352539351171333 -0.0049775233277065262 0 0.0018767617260819572 -0.0045743708529842018 0 0.0019491848587722155 -0.005215312418067046 0 0.0017665754020784641 -0.0048524192048114206 0 0.0017886912591565582 -0.0050953768166381308 0 0.0017369457338376625 -0.0051173801354485139 0 0.0017665754020784641 -0.0048524192048114206 0 0.0018352539351171333 -0.0049775233277065262 0 0.0017886912591565582 -0.0050953768166381308 0 0.0017665754020784641 -0.0048524192048114206 0 0.0018352539351171333 -0.0049775233277065262 0 0.0018767617260819572 -0.0045743708529842018 0 0.0016258541154090852 -0.0050620087434286032 0 0.0018767617260819572 -0.0045743708529842018 0 0.00093721055618322356 -0.0027723130580543363 0 0.0018767617260819572 -0.0045743708529842018 0 0.00093721055618322356 -0.0027723130580543363 0 0.0011704537873078508 -0.0023627057100935613 0 0.0018395028797998979 -0.0044811420021040231 0 0.0015844015545665524 -0.0038674807467146601 0 0.0012510451385021057 -0.0035106737836926166 0 0.00096325458800776377 -0.0028243809943195061 0 0.00086800150200466795 -0.0020381448921472037 0 0.00098474583926622464 -0.0023475281999111685 0 0.00093721055618322356 -0.0027723130580543363 0 0.00098474583926622464 -0.0023475281999111685 0 0.0010456042753995648 -0.0024507567714725409 0 0.00093721055618322356 -0.0027723130580543363 0 0.00097629368585106944 -0.0021482253050672919 0 0.00098474583926622464 -0.0023475281999111685 0 0.0010374264467663177 -0.0022999081977288336 0 0.0015923203385144202 -0.0049202174484803164 0 0.0015844053220956092 -0.0049641596502208651 0 0.0014329329814228701 -0.0049228723010734153 0 0.0015844053220956092 -0.0049641596502208651 0 0.0015168590014175778 -0.0049962984202857729 0 0.0016328056663282237 -0.0050390725605053326 0 0.0015168590014175778 -0.0049962984202857729 0 0.0014329329814228701 -0.0049228723010734153 0 0.0013927791749126122 -0.0049849352742135809 0 0.0015844053220956092 -0.0049641596502208651 0 0.0015168590014175778 -0.0049962984202857729 0 0.0014329329814228701 -0.0049228723010734153 0 0.0015923203385144202 -0.0049202174484803164 0 0.0015844053220956092 -0.0049641596502208651 0 0.001704700871168609 -0.004953790209048581 0 0.0015923203385144202 -0.0049202174484803164 0 0.0017084790161704863 -0.0049256900930037617 0 0.001704700871168609 -0.004953790209048581 0 0.0017739392879787786 -0.0049381382453551744 0 0.0017084790161704863 -0.0049256900930037617 0 0.001704700871168609 -0.004953790209048581 0 0.0015844053220956092 -0.0049641596502208651 0 0.001704700871168609 -0.004953790209048581 0 0.0016328056663282237 -0.0050390725605053326 0 0.001704700871168609 -0.004953790209048581 0 0.0017097271965160472 -0.0050132481766509678 0 0.0016328056663282237 -0.0050390725605053326 0 0.0017665754020784641 -0.0048524192048114206 0 0.001704700871168609 -0.004953790209048581 0 0.0017097271965160472 -0.0050132481766509678 0 0.0017665754020784641 -0.0048524192048114206 0 0.0017097271965160472 -0.0050132481766509678 0 0.0017369457338376625 -0.0051173801354485139 0 0.0017097271965160472 -0.0050132481766509678 0 0.0017068029910410564 -0.0051559662295934004 0 0.0017369457338376625 -0.0051173801354485139 0 0.0017097271965160472 -0.0050132481766509678 0 0.0017068029910410564 -0.0051559662295934004 0 0.0016328056663282237 -0.0050390725605053326 0 0.0017068029910410564 -0.0051559662295934004 0 0.0016570149132569337 -0.0051672664354505673 0 0.0016328056663282237 -0.0050390725605053326 0 0.0015168590014175778 -0.0049962984202857729 0 0.0016328056663282237 -0.0050390725605053326 0 0.0015302664943394001 -0.0050825919673498626 0 0.0016570149132569337 -0.0051672664354505673 0 0.0016328056663282237 -0.0050390725605053326 0 0.0015302664943394001 -0.0050825919673498626 0 0.0016570149132569337 -0.0051672664354505673 0 0.0015302664943394001 -0.0050825919673498626 0 0.0016218263191045245 -0.0052536657601167519 0 0.0013339285144591613 -0.0050522137648919083 0 0.0015302664943394001 -0.0050825919673498626 0 0.0016218263191045245 -0.0052536657601167519 0 0.0013339285144591613 -0.0050522137648919083 0 0.0016218263191045245 -0.0052536657601167519 0 0.0012880071284010533 -0.0051563769010148676 0 0.0013339285144591613 -0.0050522137648919083 0 0.0012953444893052939 -0.0049928172471543448 0 0.0013927791749126122 -0.0049849352742135809 0 0.0013339285144591613 -0.0050522137648919083 0 0.0015302664943394001 -0.0050825919673498626 0 0.0013927791749126122 -0.0049849352742135809 0 0.0015168590014175778 -0.0049962984202857729 0 0.0015302664943394001 -0.0050825919673498626 0 0.0013927791749126122 -0.0049849352742135809 0 0.0013339285144591613 -0.0050522137648919083 0 0.0012290381766887353 -0.0050411459204316401 0 0.0012880071284010533 -0.0051563769010148676 0 0.0013339285144591613 -0.0050522137648919083 0 0.0012290381766887353 -0.0050411459204316401 0 0.0012953444893052939 -0.0049928172471543448 0 0.0012290381766887353 -0.0050411459204316401 0 0.0012953444893052939 -0.0049928172471543448 0 0.0012495320236497669 -0.0049689961665768684 0 0.00089110247285772092 -0.0062628630971161975 0 0.00055441230834491211 -0.0078521593539043998 0 0.00067547106461632723 -0.0083676404719066101 0 0.00019682286036694236 -0.0066645513625248065 0 -4.5769672506444597e-05 -0.0075619857564226687 0 0.0012290381766887353 -0.0050411459204316401 0 0.0012495320236497669 -0.0049689961665768684 0 0.0012368970260522489 -0.0049541649179555029 0 0.0012495320236497669 -0.0049689961665768684 0 0.0012997228924286498 -0.0049358260595931038 0 0.00123144318468292 -0.0049509358617400171 0 0.0012953444893052939 -0.0049928172471543448 0 0.0012495320236497669 -0.0049689961665768684 0 0.0012997228924286498 -0.0049358260595931038 0 0.00030905436999198476 -0.0059700082638477524 0 0.00055441230834491211 -0.0078521593539043998 0 0.0014329329814228701 -0.0049228723010734153 0 0.0013927791749126122 -0.0049849352742135809 0 0.0012997228924286498 -0.0049358260595931038 0 0.0012953444893052939 -0.0049928172471543448 0 0.0013927791749126122 -0.0049849352742135809 0 0.0012997228924286498 -0.0049358260595931038 0 0.0014329329814228701 -0.0049228723010734153 0 0.0012997228924286498 -0.0049358260595931038 0 0.0012825263789497633 -0.0048703760579022742 0 0.0017366610658280243 -0.0040125290722923205 0 0.00055441230834491211 -0.0078521593539043998 0 0.0012997228924286498 -0.0049358260595931038 0 0.0012825263789497633 -0.0048703760579022742 0 0.00123144318468292 -0.0049509358617400171 0 0.0012094998940424732 -0.0049574678742443064 0 0.0011635648436504195 -0.0050917219206464328 0 0.0011721336864289832 -0.0051326846877539451 0 0.0012825263789497633 -0.0048703760579022742 0 0.0012094998940424732 -0.0049574678742443064 0 0.0011721336864289832 -0.0051326846877539451 0 0.0012094998940424732 -0.0049574678742443064 0 0.0011618029452920636 -0.0049997032286786562 0 0.0011635648436504195 -0.0050917219206464328 0 0.0012367137885541139 -0.0048497065899269524 0 0.0012112381236433871 -0.0049242981609001792 0 0.0012094998940424732 -0.0049574678742443064 0 0.0012112381236433871 -0.0049242981609001792 0 0.0012094998940424732 -0.0049574678742443064 0 0.0011618029452920636 -0.0049997032286786562 0 0.0012367137885541139 -0.0048497065899269524 0 0.0012825263789497633 -0.0048703760579022742 0 0.0012094998940424732 -0.0049574678742443064 0 0.0012367137885541139 -0.0048497065899269524 0 0.0011357643556113802 -0.0046848772307811802 0 0.0012825263789497633 -0.0048703760579022742 0 -0.00026616993658131079 -0.015733258390478119 0 -0.0010626061359790215 -0.022270313182402978 0 -0.002543511152989163 -0.020131116146721296 0 -0.0018606793299780885 -0.020071075074256418 0 -0.0016579118846649038 -0.021051741059719974 0 -0.00040734138946310925 -0.021565621170779516 0 -0.00040330139987306674 -0.021568203487271103 0 -0.00050727389508187682 -0.021631113839328267 0 -0.00033026542285405027 -0.021541949885853302 0 -0.00040734138946310925 -0.021565621170779516 0 -0.00040330139987306674 -0.021568203487271103 0 0.00070911176863565589 -0.012752168130088955 0 -0.00026616993658131079 -0.015733258390478119 0 0.0012112381236433871 -0.0049242981609001792 0 0.0011618029452920636 -0.0049997032286786562 0 0.00106165413715834 -0.0050603715707951257 0 -0.00011410060656967752 -0.016716272376365741 0 0.0005998924236551383 -0.017429433406436465 0 -0.00024814465003358078 -0.017500206199462815 0 -0.00026616993658131079 -0.015733258390478119 0 0.00055441230834491211 -0.0078521593539043998 0 0.0011618029452920636 -0.0049997032286786562 0 0.00106165413715834 -0.0050603715707951257 0 0.0011635648436504195 -0.0050917219206464328 0 0.00106165413715834 -0.0050603715707951257 0 0.0011635648436504195 -0.0050917219206464328 0 0.0011681793222142066 -0.0051282090274731079 0 0.00054264858036810141 -0.0062389767333661823 0 0.00055441230834491211 -0.0078521593539043998 0 -0.00026616993658131079 -0.015733258390478119 0 -0.0016750369874619058 -0.019041607326485775 0 -0.002543511152989163 -0.020131116146721296 0 -0.0019128646684762299 -0.019376436309118828 0 -0.0018606793299780885 -0.020071075074256418 0 -0.00011410060656967752 -0.016716272376365741 0 -0.00024814465003358078 -0.017500206199462815 0 -0.00082780227969182817 -0.017692273488066217 0 -0.00024814465003358078 -0.017500206199462815 0 -0.00062258182061643514 -0.018140203085591625 0 -0.00082780227969182817 -0.017692273488066217 0 -0.0015801921629677372 -0.0076089488447476416 0 -0.00058220805413013675 -0.007658446714009514 0 -0.00098162197857923285 -0.0080768339544499065 0 0.0005998924236551383 -0.017429433406436465 0 -0.00024814465003358078 -0.017500206199462815 0 -0.00062258182061643514 -0.018140203085591625 0 -0.0015801921629677372 -0.0076089488447476416 0 -0.00019783998124958316 -0.0071073056789165163 0 -0.00058220805413013675 -0.007658446714009514 0 0.00055441230834491211 -0.0078521593539043998 0 -0.0013020152026145171 -0.013540148633248837 0 0.00019682286036694236 -0.0066645513625248065 0 -0.0015801921629677372 -0.0076089488447476416 0 -0.00019783998124958316 -0.0071073056789165163 0 0.00019682286036694236 -0.0066645513625248065 0 -0.00019783998124958316 -0.0071073056789165163 0 -4.5769672506444597e-05 -0.0075619857564226687 0 -0.00019783998124958316 -0.0071073056789165163 0 -0.00058220805413013675 -0.007658446714009514 0 -4.5769672506444597e-05 -0.0075619857564226687 0 0.00067547106461632723 -0.0083676404719066101 0 -4.5769672506444597e-05 -0.0075619857564226687 0 -0.00031847756379214584 -0.0082118934775403506 0 -0.00058220805413013675 -0.007658446714009514 0 -0.00031847756379214584 -0.0082118934775403506 0 -0.00098162197857923285 -0.0080768339544499065 0 -0.00031847756379214584 -0.0082118934775403506 0 -0.00083717241344219645 -0.0086154672896603685 0 -0.00098162197857923285 -0.0080768339544499065 0 -0.00058220805413013675 -0.007658446714009514 0 -4.5769672506444597e-05 -0.0075619857564226687 0 -0.00031847756379214584 -0.0082118934775403506 0 -0.00031847756379214584 -0.0082118934775403506 0 -0.00083717241344219645 -0.0086154672896603685 0 -0.00015642346108259885 -0.0089907009296142926 0 0.00067547106461632723 -0.0083676404719066101 0 -0.00031847756379214584 -0.0082118934775403506 0 -0.00015642346108259885 -0.0089907009296142926 0 -0.0015801921629677372 -0.0076089488447476416 0 -0.0015398868785688161 -0.0085548735231836016 0 -0.002448467162725408 -0.0088890951532704723 0 -0.0015801921629677372 -0.0076089488447476416 0 -0.00098162197857923285 -0.0080768339544499065 0 -0.0015398868785688161 -0.0085548735231836016 0 -0.00083717241344219645 -0.0086154672896603685 0 -0.0015398868785688161 -0.0085548735231836016 0 -0.0014375852558490803 -0.0092231252472903778 0 -0.00083717241344219645 -0.0086154672896603685 0 -0.00098162197857923285 -0.0080768339544499065 0 -0.0015398868785688161 -0.0085548735231836016 0 -0.0013020152026145171 -0.013540148633248837 0 -0.0021942824106331261 -0.013471861788833981 0 -0.00062258182061643514 -0.018140203085591625 0 -0.0011297039801462245 -0.018444613972076921 0 -0.0011638305671184716 -0.018490415033519766 0 -0.0015398868785688161 -0.0085548735231836016 0 -0.002448467162725408 -0.0088890951532704723 0 -0.0019882416112563216 -0.0090774509140512331 0 -0.0015801921629677372 -0.0076089488447476416 0 -0.002448467162725408 -0.0088890951532704723 0 -0.0034632880371072441 -0.008588840848458271 0 -0.0013183215294809635 -0.019193788652701136 0 -0.0019128646684762299 -0.019376436309118828 0 -0.0011297039801462245 -0.018444613972076921 0 -0.0016750369874619058 -0.019041607326485775 0 -0.00099905037930435293 -0.018229211215615593 0 -0.00062258182061643514 -0.018140203085591625 0 -0.00082780227969182817 -0.017692273488066217 0 -0.0011297039801462245 -0.018444613972076921 0 -0.0013183215294809635 -0.019193788652701136 0 -0.0019128646684762299 -0.019376436309118828 0 -0.0014865379074598041 -0.019737563705848043 0 -0.0013183215294809635 -0.019193788652701136 0 -0.0010749334057989315 -0.019378888762595269 0 -0.0014865379074598041 -0.019737563705848043 0 -0.0010749334057989315 -0.019378888762595269 0 -0.00068967912329221791 -0.019110867372366055 0 -0.00071073972569572394 -0.019561373835241296 0 -0.0010749334057989315 -0.019378888762595269 0 -0.0010119820512016064 -0.018971421724201298 0 -0.00068967912329221791 -0.019110867372366055 0 -0.0013183215294809635 -0.019193788652701136 0 -0.0010749334057989315 -0.019378888762595269 0 -0.0010119820512016064 -0.018971421724201298 0 -0.0013183215294809635 -0.019193788652701136 0 -0.0010119820512016064 -0.018971421724201298 0 -0.0011297039801462245 -0.018444613972076921 0 -0.0010119820512016064 -0.018971421724201298 0 -0.00068967912329221791 -0.019110867372366055 0 -0.00080081513899791796 -0.01870667909886525 0 -0.00080081513899791796 -0.01870667909886525 0 -0.0011638305671184716 -0.018490415033519766 0 -0.00046118261471828238 -0.018523179102800363 0 -0.0010119820512016064 -0.018971421724201298 0 -0.00080081513899791796 -0.01870667909886525 0 -0.0011297039801462245 -0.018444613972076921 0 -0.00080081513899791796 -0.01870667909886525 0 -0.0011297039801462245 -0.018444613972076921 0 -0.0011638305671184716 -0.018490415033519766 0 -0.0011638305671184716 -0.018490415033519766 0 -0.00046118261471828238 -0.018523179102800363 0 -0.00015018639948580656 -0.017828136597500169 0 -0.00046118261471828238 -0.018523179102800363 0 0.00017656869581110035 -0.018644648311471203 0 -0.00015018639948580656 -0.017828136597500169 0 -0.00046118261471828238 -0.018523179102800363 0 0.00017656869581110035 -0.018644648311471203 0 -0.00031490368651266025 -0.018934212906530232 0 -0.00080081513899791796 -0.01870667909886525 0 -0.00046118261471828238 -0.018523179102800363 0 -0.00031490368651266025 -0.018934212906530232 0 0.00017656869581110035 -0.018644648311471203 0 0.00076250587721465792 -0.018715357414458636 0 0.00067839829803856961 -0.018132184026952356 0 0.00017656869581110035 -0.018644648311471203 0 0.00053065188329447992 -0.01921630827418206 0 0.00076250587721465792 -0.018715357414458636 0 0.00017656869581110035 -0.018644648311471203 0 7.5233290474595037e-05 -0.019186337948355437 0 -0.00031490368651266025 -0.018934212906530232 0 0.00017656869581110035 -0.018644648311471203 0 7.5233290474595037e-05 -0.019186337948355437 0 0.00053065188329447992 -0.01921630827418206 0 7.5233290474595037e-05 -0.019186337948355437 0 -0.00025965167469115978 -0.019537465991966679 0 0.0002437016073303346 -0.019606103595610457 0 7.5233290474595037e-05 -0.019186337948355437 0 0.00053065188329447992 -0.01921630827418206 0 0.0002437016073303346 -0.019606103595610457 0 -0.00068967912329221791 -0.019110867372366055 0 -0.00080081513899791796 -0.01870667909886525 0 -0.00031490368651266025 -0.018934212906530232 0 7.5233290474595037e-05 -0.019186337948355437 0 -0.00031490368651266025 -0.018934212906530232 0 -0.00025965167469115978 -0.019537465991966679 0 -0.00068967912329221791 -0.019110867372366055 0 -0.00031490368651266025 -0.018934212906530232 0 -0.00025965167469115978 -0.019537465991966679 0 -0.00068967912329221791 -0.019110867372366055 0 -0.00025965167469115978 -0.019537465991966679 0 -0.00071073972569572394 -0.019561373835241296 0 -0.00025965167469115978 -0.019537465991966679 0 -0.0005645852651044469 -0.020019143651506748 0 -0.00071073972569572394 -0.019561373835241296 0 -0.00025965167469115978 -0.019537465991966679 0 -0.00022017840689180916 -0.020039523440791792 0 7.3314665337954635e-05 -0.019923973326668287 0 -0.00022017840689180916 -0.020039523440791792 0 7.3314665337954635e-05 -0.019923973326668287 0 1.5093566392435026e-05 -0.02026625058245982 0 -0.00025965167469115978 -0.019537465991966679 0 -0.00022017840689180916 -0.020039523440791792 0 -0.0005645852651044469 -0.020019143651506748 0 -0.00022017840689180916 -0.020039523440791792 0 -0.0005645852651044469 -0.020019143651506748 0 -0.00027324805550932486 -0.020400659704822494 0 0.0002437016073303346 -0.019606103595610457 0 0.0003656956840591537 -0.019926781371765609 0 0.00065983907681643132 -0.019829298453881743 0 0.00053065188329447992 -0.01921630827418206 0 0.0002437016073303346 -0.019606103595610457 0 0.00065983907681643132 -0.019829298453881743 0 -0.00025965167469115978 -0.019537465991966679 0 0.0002437016073303346 -0.019606103595610457 0 7.3314665337954635e-05 -0.019923973326668287 0 0.0002437016073303346 -0.019606103595610457 0 7.3314665337954635e-05 -0.019923973326668287 0 0.0003656956840591537 -0.019926781371765609 0 7.3314665337954635e-05 -0.019923973326668287 0 0.00029721440401118076 -0.020173345667850541 0 1.5093566392435026e-05 -0.02026625058245982 0 7.3314665337954635e-05 -0.019923973326668287 0 0.0003656956840591537 -0.019926781371765609 0 0.00029721440401118076 -0.020173345667850541 0 0.0003656956840591537 -0.019926781371765609 0 0.00029721440401118076 -0.020173345667850541 0 0.00050751344179393067 -0.020115737393213755 0 0.0003656956840591537 -0.019926781371765609 0 0.00050751344179393067 -0.020115737393213755 0 0.00065983907681643132 -0.019829298453881743 0 0.0002855327148961004 -0.020692008446510878 0 0.00066203019462605353 -0.02056734920704438 0 0.00015328024834736353 -0.02144170646190794 0 0.00043386325259344143 -0.020347324594730168 0 0.0002855327148961004 -0.020692008446510878 0 0.00076509894562971795 -0.020342262436284092 0 0.00050751344179393067 -0.020115737393213755 0 0.00043386325259344143 -0.020347324594730168 0 0.00076509894562971795 -0.020342262436284092 0 0.00029721440401118076 -0.020173345667850541 0 0.00043386325259344143 -0.020347324594730168 0 0.00020709236556281667 -0.020413982721670488 0 0.00029721440401118076 -0.020173345667850541 0 0.00050751344179393067 -0.020115737393213755 0 0.00043386325259344143 -0.020347324594730168 0 0.00043386325259344143 -0.020347324594730168 0 0.00020709236556281667 -0.020413982721670488 0 0.0002855327148961004 -0.020692008446510878 0 0.00029721440401118076 -0.020173345667850541 0 0.00020709236556281667 -0.020413982721670488 0 1.5093566392435026e-05 -0.02026625058245982 0 0.00020709236556281667 -0.020413982721670488 0 1.5093566392435026e-05 -0.02026625058245982 0 3.0995829373676299e-06 -0.020601384705589147 0 3.0995829373676299e-06 -0.020601384705589147 0 0.0002855327148961004 -0.020692008446510878 0 6.3992998858838384e-06 -0.020981275368593736 0 0.00020709236556281667 -0.020413982721670488 0 3.0995829373676299e-06 -0.020601384705589147 0 0.0002855327148961004 -0.020692008446510878 0 0.0002855327148961004 -0.020692008446510878 0 0.00076509894562971795 -0.020342262436284092 0 0.00066203019462605353 -0.02056734920704438 0 -0.0005645852651044469 -0.020019143651506748 0 -0.00027324805550932486 -0.020400659704822494 0 -0.00059391142026032266 -0.020589533949897532 0 -0.00022017840689180916 -0.020039523440791792 0 1.5093566392435026e-05 -0.02026625058245982 0 -0.00027324805550932486 -0.020400659704822494 0 1.5093566392435026e-05 -0.02026625058245982 0 3.0995829373676299e-06 -0.020601384705589147 0 -0.00027324805550932486 -0.020400659704822494 0 3.0995829373676299e-06 -0.020601384705589147 0 -0.00027324805550932486 -0.020400659704822494 0 -0.00026909933442709519 -0.020753453035355827 0 3.0995829373676299e-06 -0.020601384705589147 0 -0.00026909933442709519 -0.020753453035355827 0 6.3992998858838384e-06 -0.020981275368593736 0 -0.00027324805550932486 -0.020400659704822494 0 -0.00026909933442709519 -0.020753453035355827 0 -0.00059391142026032266 -0.020589533949897532 0 -0.00026909933442709519 -0.020753453035355827 0 -0.00059391142026032266 -0.020589533949897532 0 -0.00046495488982542358 -0.021174531465973541 0 -0.00059391142026032266 -0.020589533949897532 0 -0.00090034563068710116 -0.020302498943262737 0 -0.00096431083545926049 -0.020864641636706104 0 -0.0005645852651044469 -0.020019143651506748 0 -0.00059391142026032266 -0.020589533949897532 0 -0.00090034563068710116 -0.020302498943262737 0 -0.00090034563068710116 -0.020302498943262737 0 -0.0013310455616339697 -0.020280158834705766 0 -0.00096431083545926049 -0.020864641636706104 0 -0.0013310455616339697 -0.020280158834705766 0 -0.0016579118846649038 -0.021051741059719974 0 -0.00096431083545926049 -0.020864641636706104 0 -0.0013310455616339697 -0.020280158834705766 0 -0.0018606793299780885 -0.020071075074256418 0 -0.0016579118846649038 -0.021051741059719974 0 -0.0013310455616339697 -0.020280158834705766 0 -0.0018606793299780885 -0.020071075074256418 0 -0.0014865379074598041 -0.019737563705848043 0 -0.0013310455616339697 -0.020280158834705766 0 -0.0014865379074598041 -0.019737563705848043 0 -0.00097412401710253883 -0.019821608379332396 0 -0.0019128646684762299 -0.019376436309118828 0 -0.0018606793299780885 -0.020071075074256418 0 -0.0014865379074598041 -0.019737563705848043 0 -0.0010749334057989315 -0.019378888762595269 0 -0.0014865379074598041 -0.019737563705848043 0 -0.00097412401710253883 -0.019821608379332396 0 -0.0005645852651044469 -0.020019143651506748 0 -0.00071073972569572394 -0.019561373835241296 0 -0.00097412401710253883 -0.019821608379332396 0 -0.0010749334057989315 -0.019378888762595269 0 -0.00071073972569572394 -0.019561373835241296 0 -0.00097412401710253883 -0.019821608379332396 0 -0.0005645852651044469 -0.020019143651506748 0 -0.00090034563068710116 -0.020302498943262737 0 -0.00097412401710253883 -0.019821608379332396 0 -0.00090034563068710116 -0.020302498943262737 0 -0.0013310455616339697 -0.020280158834705766 0 -0.00097412401710253883 -0.019821608379332396 0 -0.00016762138877757582 -0.022412801707282423 0 -9.7781873999898107e-05 -0.022908740969359232 0 0.0001845246676993587 -0.022481901477882215 0 1.8674279313606259e-05 -0.023028484908492419 0 0.00035269930821722252 -0.022641690923194371 0 0.00014514910947025891 -0.023144542678346331 0 0.00046356496629155173 -0.023200189755837566 0 0.00053220918657556312 -0.022806403935276068 0 0.00014514910947025891 -0.023144542678346331 0 0.00046356496629155173 -0.023200189755837566 0 0.00028697758005607067 -0.023397916190438146 0 0.00046356496629155173 -0.023200189755837566 0 0.00028697758005607067 -0.023397916190438146 0 0.00047001883172939868 -0.023468655294243055 0 0.00046356496629155173 -0.023200189755837566 0 0.00066921117390452887 -0.023320685026613525 0 0.00069138421426342522 -0.023045139968708717 0 0.00046356496629155173 -0.023200189755837566 0 0.00066921117390452887 -0.023320685026613525 0 0.00047001883172939868 -0.023468655294243055 0 0.00066921117390452887 -0.023320685026613525 0 0.00086030180325398736 -0.023190507953419964 0 0.00090547828899885515 -0.023266766253849193 0 0.00066921117390452887 -0.023320685026613525 0 0.00069138421426342522 -0.023045139968708717 0 0.00086030180325398736 -0.023190507953419964 0 0.00046356496629155173 -0.023200189755837566 0 0.00069138421426342522 -0.023045139968708717 0 0.00053220918657556312 -0.022806403935276068 0 0.00053220918657556312 -0.022806403935276068 0 0.00085184143346759276 -0.022861342775253743 0 0.00099881168991663213 -0.022448066283503949 0 0.00069138421426342522 -0.023045139968708717 0 0.00085184143346759276 -0.022861342775253743 0 0.00086030180325398736 -0.023190507953419964 0 0.00069138421426342522 -0.023045139968708717 0 0.00053220918657556312 -0.022806403935276068 0 0.00085184143346759276 -0.022861342775253743 0 0.00061052544242996853 -0.02120476362823601 0 0.0013056471411176218 -0.020973834367214474 0 0.00085184143346759276 -0.022861342775253743 0 0.00086030180325398736 -0.023190507953419964 0 0.0011861281970471005 -0.022763738484235099 0 0.00085184143346759276 -0.022861342775253743 0 0.0011861281970471005 -0.022763738484235099 0 0.00099881168991663213 -0.022448066283503949 0 0.0016513998997188047 -0.018465103634768023 0 0.0011367222315470664 -0.018448542446413665 0 0.0011979994966438985 -0.019385576096856216 0 0.00086030180325398736 -0.023190507953419964 0 0.00091401961951327062 -0.023269896154890585 0 0.0011861281970471005 -0.022763738484235099 0 0.0010043622997959454 -0.022086784809729369 0 0.00061052544242996853 -0.02120476362823601 0 0.0016513998997188047 -0.018465103634768023 0 0.0011367222315470664 -0.018448542446413665 0 0.0012704686581400558 -0.017872237497956599 0 0.0011367222315470664 -0.018448542446413665 0 0.00076250587721465792 -0.018715357414458636 0 0.0011979994966438985 -0.019385576096856216 0 0.0011367222315470664 -0.018448542446413665 0 0.00076250587721465792 -0.018715357414458636 0 0.00067839829803856961 -0.018132184026952356 0 0.00053065188329447992 -0.01921630827418206 0 0.00076250587721465792 -0.018715357414458636 0 0.0011979994966438985 -0.019385576096856216 0 0.00053065188329447992 -0.01921630827418206 0 0.0011979994966438985 -0.019385576096856216 0 0.00065983907681643132 -0.019829298453881743 0 0.0013056471411176218 -0.020973834367214474 0 0.0010294986813623335 -0.021326607064450543 0 0.0011979994966438985 -0.019385576096856216 0 0.00065983907681643132 -0.019829298453881743 0 0.00076509894562971795 -0.020342262436284092 0 0.0011861281970471005 -0.022763738484235099 0 0.0014544090162413714 -0.022218660752144681 0 0.00099881168991663213 -0.022448066283503949 0 0.00050751344179393067 -0.020115737393213755 0 0.00065983907681643132 -0.019829298453881743 0 0.00076509894562971795 -0.020342262436284092 0 0.00085348339826757228 -0.021540987988811822 0 0.00069719789362624048 -0.022303531306832016 0 0.00048335641174183919 -0.021683470660331286 0 0.00039325672835269638 -0.021813171692942376 0 0.0004000672301589958 -0.022054740118461907 0 0.00048335641174183919 -0.021683470660331286 0 0.00040887291930738283 -0.02169087768518254 0 0.00039325672835269638 -0.021813171692942376 0 0.0014544090162413714 -0.022218660752144681 0 0.0015096432633722868 -0.022101886554157135 0 0.00099881168991663213 -0.022448066283503949 0 0.0010294986813623335 -0.021326607064450543 0 0.00085348339826757228 -0.021540987988811822 0 0.00048335641174183919 -0.021683470660331286 0 0.00040887291930738283 -0.02169087768518254 0 0.00042171110506184238 -0.021632616254560876 0 0.00048335641174183919 -0.021683470660331286 0 0.00042171110506184238 -0.021632616254560876 0 0.00036919923216975533 -0.021573917962290398 0 0.00039325672835269638 -0.021813171692942376 0 0.00030767737035057103 -0.021918922351214246 0 0.00035093000926626728 -0.02164751369030617 0 0.00040887291930738283 -0.02169087768518254 0 0.00039325672835269638 -0.021813171692942376 0 0.00035093000926626728 -0.02164751369030617 0 0.00039325672835269638 -0.021813171692942376 0 0.00030767737035057103 -0.021918922351214246 0 0.0004000672301589958 -0.022054740118461907 0 0.00030767737035057103 -0.021918922351214246 0 0.0004000672301589958 -0.022054740118461907 0 0.00024909165497262893 -0.022101132701048163 0 0.0001845246676993587 -0.022481901477882215 0 0.00014807210260292181 -0.022180850374024046 0 0.00024909165497262893 -0.022101132701048163 0 0.0001845246676993587 -0.022481901477882215 0 0.0004000672301589958 -0.022054740118461907 0 0.00024909165497262893 -0.022101132701048163 0 0.00035269930821722252 -0.022641690923194371 0 0.00069719789362624048 -0.022303531306832016 0 0.00014807210260292181 -0.022180850374024046 0 0.00024909165497262893 -0.022101132701048163 0 0.00012069372796874952 -0.021963094858726388 0 0.00030767737035057103 -0.021918922351214246 0 0.00024909165497262893 -0.022101132701048163 0 0.00012069372796874952 -0.021963094858726388 0 0.00030767737035057103 -0.021918922351214246 0 0.00012069372796874952 -0.021963094858726388 0 0.00035093000926626728 -0.02164751369030617 0 0.00014938728306613332 -0.022455179242194926 0 0.00028333543345541247 -0.022106243044275636 0 0.00012024379799635168 -0.022946550427330136 0 6.0026647808777986e-05 -0.022834449794881102 0 0.00048073539940624119 -0.022658690442036014 0 -0.00030355558997144968 -0.022953245707272845 0 -0.00012320936920905316 -0.022841506743809782 0 -0.00032737247145744734 -0.023001573349377399 0 6.0026647808777986e-05 -0.022834449794881102 0 -0.00010638766040373991 -0.023000717368780902 0 0.00012024379799635168 -0.022946550427330136 0 6.0026647808777986e-05 -0.022834449794881102 0 -0.00010638766040373991 -0.023000717368780902 0 -0.0001927189307878354 -0.022805273966377066 0 0.00014938728306613332 -0.022455179242194926 0 -0.00016762138877757582 -0.022412801707282423 0 0.0001845246676993587 -0.022481901477882215 0 5.9726992809182119e-05 -0.022253113499087242 0 -0.00016762138877757582 -0.022412801707282423 0 0.00012069372796874952 -0.021963094858726388 0 5.9726992809182119e-05 -0.022253113499087242 0 -0.00022951259260576564 -0.023210971458062422 0 0.00012024379799635168 -0.022946550427330136 0 -0.00010638766040373991 -0.023000717368780902 0 0.00014807210260292181 -0.022180850374024046 0 0.00012069372796874952 -0.021963094858726388 0 5.9726992809182119e-05 -0.022253113499087242 0 0.0001845246676993587 -0.022481901477882215 0 0.00014807210260292181 -0.022180850374024046 0 5.9726992809182119e-05 -0.022253113499087242 0 -0.00031642797749690822 -0.02288823991171593 0 -0.00023950050061163103 -0.022797843703587416 0 -0.00027581609312364239 -0.022556566087069713 0 -0.00020690224888448723 -0.022550961037508064 0 -0.00021957635443733712 -0.022632816770344639 0 -0.00027581609312364239 -0.022556566087069713 0 -0.00020690224888448723 -0.022550961037508064 0 -0.00018624072621134877 -0.022516169099890671 0 -0.00027296056728291703 -0.022726232489511347 0 -0.00017975010876885455 -0.022679346889732284 0 -0.00021957635443733712 -0.022632816770344639 0 -0.00027296056728291703 -0.022726232489511347 0 -0.00027581609312364239 -0.022556566087069713 0 -0.00021957635443733712 -0.022632816770344639 0 -0.00017975010876885455 -0.022679346889732284 0 -0.00021957635443733712 -0.022632816770344639 0 -0.0001978269189409499 -0.02258176635674259 0 -0.00020690224888448723 -0.022550961037508064 0 -0.00021957635443733712 -0.022632816770344639 0 -0.0001978269189409499 -0.02258176635674259 0 -0.00012320936920905316 -0.022841506743809782 0 0.00028333543345541247 -0.022106243044275636 0 -0.00020690224888448723 -0.022550961037508064 0 -0.0001978269189409499 -0.02258176635674259 0 -0.00021233015550090978 -0.022518434144633039 0 -0.00017975010876885455 -0.022679346889732284 0 -0.0001978269189409499 -0.02258176635674259 0 -0.00021483834251745203 -0.022502837673420692 0 -0.0001978269189409499 -0.02258176635674259 0 -0.00021233015550090978 -0.022518434144633039 0 -0.00021483834251745203 -0.022502837673420692 0 -0.00020690224888448723 -0.022550961037508064 0 -0.00022230542349830606 -0.022498097374550354 0 -0.00018624072621134877 -0.022516169099890671 0 -0.00020690224888448723 -0.022550961037508064 0 -0.00021233015550090978 -0.022518434144633039 0 -0.00022230542349830606 -0.022498097374550354 0 -0.00022230542349830606 -0.022498097374550354 0 -0.00024611389597073029 -0.02245695776731078 0 -0.00026203726247159747 -0.022446284232312673 0 -0.00024611389597073029 -0.02245695776731078 0 -0.00021483834251745203 -0.022502837673420692 0 -0.00025974638390285822 -0.022420210832234298 0 -0.00021233015550090978 -0.022518434144633039 0 -0.00022230542349830606 -0.022498097374550354 0 -0.00024611389597073029 -0.02245695776731078 0 -0.00024611389597073029 -0.02245695776731078 0 -0.0002682845658413642 -0.022412395392929864 0 -0.00026203726247159747 -0.022446284232312673 0 -0.0002682845658413642 -0.022412395392929864 0 -0.00027649539669550145 -0.022393702378078775 0 -0.00026203726247159747 -0.022446284232312673 0 -0.00021233015550090978 -0.022518434144633039 0 -0.00024611389597073029 -0.02245695776731078 0 -0.00021483834251745203 -0.022502837673420692 0 0.00028333543345541247 -0.022106243044275636 0 -7.70494538775719e-06 -0.022035774094060556 0 0.00028333543345541247 -0.022106243044275636 0 0.00039619512937914836 -0.021530459216384301 0 0.00040887291930738283 -0.02169087768518254 0 0.00035093000926626728 -0.02164751369030617 0 0.00041928219012415398 -0.021613978172715695 0 0.00062145287901665275 -0.021436296043851968 0 0.00028066610337537537 -0.021555910343187299 0 0.00030011718546511026 -0.021684594123393418 0 0.00035093000926626728 -0.02164751369030617 0 0.00041928219012415398 -0.021613978172715695 0 0.00043268761932776899 -0.021599031030999232 0 0.00040887291930738283 -0.02169087768518254 0 0.00042171110506184238 -0.021632616254560876 0 0.00041928219012415398 -0.021613978172715695 0 0.00041928219012415398 -0.021613978172715695 0 0.00036919923216975533 -0.021573917962290398 0 0.00030972238734513574 -0.021516414769909419 0 0.00042171110506184238 -0.021632616254560876 0 0.00041928219012415398 -0.021613978172715695 0 0.00036919923216975533 -0.021573917962290398 0 0.00041928219012415398 -0.021613978172715695 0 0.00043268761932776899 -0.021599031030999232 0 0.00030972238734513574 -0.021516414769909419 0 -0.00024611389597073029 -0.02245695776731078 0 -0.00025974638390285822 -0.022420210832234298 0 -0.0002682845658413642 -0.022412395392929864 0 -0.00025974638390285822 -0.022420210832234298 0 -0.0002682845658413642 -0.022412395392929864 0 -0.00027594017383743047 -0.022356198515966902 0 -0.0002682845658413642 -0.022412395392929864 0 -0.00027594017383743047 -0.022356198515966902 0 -0.00027649539669550145 -0.022393702378078775 0 -0.00025974638390285822 -0.022420210832234298 0 -0.00027594017383743047 -0.022356198515966902 0 -0.00027725146594765861 -0.022257070906739382 0 -0.00028413964270507502 -0.022343242653919564 0 -0.00027725146594765861 -0.022257070906739382 0 -0.00029487835367283851 -0.022274141518369209 0 -0.00027594017383743047 -0.022356198515966902 0 -0.00028413964270507502 -0.022343242653919564 0 -0.00027725146594765861 -0.022257070906739382 0 -0.00028413964270507502 -0.022343242653919564 0 -0.00027649539669550145 -0.022393702378078775 0 -0.00028421556095812955 -0.022442986540206676 0 -0.00027594017383743047 -0.022356198515966902 0 -0.00028413964270507502 -0.022343242653919564 0 -0.00027649539669550145 -0.022393702378078775 0 -0.00028413964270507502 -0.022343242653919564 0 -0.00029864243422342653 -0.022377920527761466 0 -0.00028421556095812955 -0.022442986540206676 0 -0.00029864243422342653 -0.022377920527761466 0 -0.00031577788484987338 -0.022463445602028072 0 -0.00028421556095812955 -0.022442986540206676 0 -0.00028413964270507502 -0.022343242653919564 0 -0.00029864243422342653 -0.022377920527761466 0 -0.00029487835367283851 -0.022274141518369209 0 -0.00029864243422342653 -0.022377920527761466 0 -0.00029487835367283851 -0.022274141518369209 0 -0.00032559787201763248 -0.022386315575563663 0 -0.00031577788484987338 -0.022463445602028072 0 -0.00030471476647311272 -0.022598493143922902 0 -0.00037331011807632103 -0.022529924207594376 0 -0.00031577788484987338 -0.022463445602028072 0 -0.00030471476647311272 -0.022598493143922902 0 -0.00028421556095812955 -0.022442986540206676 0 -0.00029864243422342653 -0.022377920527761466 0 -0.00031577788484987338 -0.022463445602028072 0 -0.00032559787201763248 -0.022386315575563663 0 -0.00031577788484987338 -0.022463445602028072 0 -0.00032559787201763248 -0.022386315575563663 0 -0.00037331011807632103 -0.022529924207594376 0 -0.00030471476647311272 -0.022598493143922902 0 -0.00025696464768129948 -0.022528814961045356 0 -0.00028421556095812955 -0.022442986540206676 0 -0.00030471476647311272 -0.022598493143922902 0 -0.00025696464768129948 -0.022528814961045356 0 -0.00023680783487545727 -0.022723759293930564 0 -0.00022230542349830606 -0.022498097374550354 0 -0.00025696464768129948 -0.022528814961045356 0 -0.00026203726247159747 -0.022446284232312673 0 -0.00025696464768129948 -0.022528814961045356 0 -0.00028421556095812955 -0.022442986540206676 0 -0.00026203726247159747 -0.022446284232312673 0 -0.00027649539669550145 -0.022393702378078775 0 -0.00028421556095812955 -0.022442986540206676 0 -0.00026203726247159747 -0.022446284232312673 0 -0.00022230542349830606 -0.022498097374550354 0 -0.00025696464768129948 -0.022528814961045356 0 -0.00018624072621134877 -0.022516169099890671 0 -0.00023819487181845454 -0.022746337649678882 0 -0.00023950050061163103 -0.022797843703587416 0 -0.00025696464768129948 -0.022528814961045356 0 -0.00023680783487545727 -0.022723759293930564 0 -0.00018624072621134877 -0.022516169099890671 0 -0.00023680783487545727 -0.022723759293930564 0 -0.00031845573634036801 -0.022942264372359029 0 -0.00026605938052983103 -0.023072016676938117 0 -0.0003670226899762415 -0.023096498461544528 0 -0.00031845573634036801 -0.022942264372359029 0 -0.00026605938052983103 -0.023072016676938117 0 -0.00068197992549155349 -0.021741632019757904 0 -0.00050727389508187682 -0.021631113839328267 0 -0.00056290840119484838 -0.021589344066357968 0 -0.00080024879191010101 -0.021369794590259696 0 -0.0010626061359790215 -0.022270313182402978 0 -0.00068197992549155349 -0.021741632019757904 0 -0.00096431083545926049 -0.020864641636706104 0 -0.00046495488982542358 -0.021174531465973541 0 -0.00068197992549155349 -0.021741632019757904 0 -0.0016579118846649038 -0.021051741059719974 0 -0.00096431083545926049 -0.020864641636706104 0 -0.00059391142026032266 -0.020589533949897532 0 -0.00096431083545926049 -0.020864641636706104 0 -0.00046495488982542358 -0.021174531465973541 0 -0.00046495488982542358 -0.021174531465973541 0 0.00015328024834736353 -0.02144170646190794 0 -0.00037072716854492612 -0.021581759143038341 0 -0.00046495488982542358 -0.021174531465973541 0 6.3992998858838384e-06 -0.020981275368593736 0 0.00015328024834736353 -0.02144170646190794 0 -0.00026909933442709519 -0.020753453035355827 0 -0.00046495488982542358 -0.021174531465973541 0 6.3992998858838384e-06 -0.020981275368593736 0 0.00043268761932776899 -0.021599031030999232 0 0.00030972238734513574 -0.021516414769909419 0 -0.00015350773532367933 -0.021682552566718263 0 0.00048335641174183919 -0.021683470660331286 0 0.00036919923216975533 -0.021573917962290398 0 0.00015328024834736353 -0.02144170646190794 0 0.00085348339826757228 -0.021540987988811822 0 0.00021582672841158015 -0.021359673940910318 0 0.0002855327148961004 -0.020692008446510878 0 6.3992998858838384e-06 -0.020981275368593736 0 0.00015328024834736353 -0.02144170646190794 0 0.00036919923216975533 -0.021573917962290398 0 0.00015328024834736353 -0.02144170646190794 0 0.00030972238734513574 -0.021516414769909419 0 0.00015328024834736353 -0.02144170646190794 0 0.00030972238734513574 -0.021516414769909419 0 -0.00015350773532367933 -0.021682552566718263 0 -0.00025974638390285822 -0.022420210832234298 0 -0.00027725146594765861 -0.022257070906739382 0 -0.00027340352101760132 -0.022058645427738829 0 -7.70494538775719e-06 -0.022035774094060556 0 -0.00024567835831786522 -0.02209309446827332 0 0.00039619512937914836 -0.021530459216384301 0 -0.00011435811309253194 -0.021693849861111354 0 0.00030011718546511026 -0.021684594123393418 0 -0.00015350773532367933 -0.021682552566718263 0 -0.00027340352101760132 -0.022058645427738829 0 0.00028066610337537537 -0.021555910343187299 0 0.00030011718546511026 -0.021684594123393418 0 -0.00015350773532367933 -0.021682552566718263 0 0.00015328024834736353 -0.02144170646190794 0 -0.00015350773532367933 -0.021682552566718263 0 -0.00037072716854492612 -0.021581759143038341 0 -0.00068197992549155349 -0.021741632019757904 0 -0.00037072716854492612 -0.021581759143038341 0 -0.00046881519770444415 -0.021823183613998775 0 -0.00068197992549155349 -0.021741632019757904 0 -0.00046495488982542358 -0.021174531465973541 0 -0.00037072716854492612 -0.021581759143038341 0 -0.00015350773532367933 -0.021682552566718263 0 -0.00037072716854492612 -0.021581759143038341 0 -0.00046881519770444415 -0.021823183613998775 0 -0.00015350773532367933 -0.021682552566718263 0 -0.00046881519770444415 -0.021823183613998775 0 -0.00027340352101760132 -0.022058645427738829 0 -0.00046881519770444415 -0.021823183613998775 0 -0.00027340352101760132 -0.022058645427738829 0 -0.00058495883347028596 -0.021829088919862655 0 -0.00027340352101760132 -0.022058645427738829 0 -0.00031847843789652494 -0.02219809165349074 0 -0.00058495883347028596 -0.021829088919862655 0 -0.00068197992549155349 -0.021741632019757904 0 -0.00046881519770444415 -0.021823183613998775 0 -0.00058495883347028596 -0.021829088919862655 0 -0.0003245981476126369 -0.022161300116024144 0 -0.00055300791278212939 -0.022134040976831873 0 -0.00027725146594765861 -0.022257070906739382 0 -0.00028922433043672381 -0.022193463817809539 0 -0.00027340352101760132 -0.022058645427738829 0 -0.00027725146594765861 -0.022257070906739382 0 -0.00028922433043672381 -0.022193463817809539 0 -0.00029487835367283851 -0.022274141518369209 0 -0.00028922433043672381 -0.022193463817809539 0 -0.00031847843789652494 -0.02219809165349074 0 -0.00029487835367283851 -0.022274141518369209 0 -0.00028922433043672381 -0.022193463817809539 0 -0.00027340352101760132 -0.022058645427738829 0 -0.00031847843789652494 -0.02219809165349074 0 -0.00031847843789652494 -0.02219809165349074 0 -0.00029487835367283851 -0.022274141518369209 0 -0.00032559787201763248 -0.022386315575563663 0 -0.00031847843789652494 -0.02219809165349074 0 -0.00046067264383154295 -0.022471974809243112 0 -0.00032559787201763248 -0.022386315575563663 0 -0.00046067264383154295 -0.022471974809243112 0 -0.00032559787201763248 -0.022386315575563663 0 -0.00037331011807632103 -0.022529924207594376 0 -0.00031847843789652494 -0.02219809165349074 0 -0.00046067264383154295 -0.022471974809243112 0 -0.00060597239577329248 -0.02245384976819292 0 -0.00046067264383154295 -0.022471974809243112 0 -0.00060597239577329248 -0.02245384976819292 0 -0.00057167997811927238 -0.022529368418102165 0 -0.00055300791278212939 -0.022134040976831873 0 -0.0005688330989408614 -0.022066071064806389 0 -0.00058495883347028596 -0.021829088919862655 0 -0.00056290840119484838 -0.021589344066357968 0 -0.0005725290169863211 -0.02149499424666005 0 -0.00068197992549155349 -0.021741632019757904 0 -0.00058495883347028596 -0.021829088919862655 0 -0.00056290840119484838 -0.021589344066357968 0 -0.00047651597564363625 -0.021423911024690944 0 -0.00056290840119484838 -0.021589344066357968 0 -0.0005725290169863211 -0.02149499424666005 0 -0.00058947778248482469 -0.02260802132431914 0 -0.00051556589239308245 -0.022549268936211266 0 -0.00025727407899079464 -0.02281627174655668 0 -0.00058947778248482469 -0.02260802132431914 0 -0.00051556589239308245 -0.022549268936211266 0 -0.0006098467719712939 -0.022539286332303104 0 -0.00051556589239308245 -0.022549268936211266 0 -0.00059313792435460098 -0.022408491835766393 0 -0.0006098467719712939 -0.022539286332303104 0 -0.00051556589239308245 -0.022549268936211266 0 -0.00059313792435460098 -0.022408491835766393 0 -0.00053266063755706922 -0.022238870249795331 0 -0.00061439340646394906 -0.022463204136625264 0 -0.0006098467719712939 -0.022539286332303104 0 -0.00057167997811927238 -0.022529368418102165 0 -0.00059313792435460098 -0.022408491835766393 0 -0.00061439340646394906 -0.022463204136625264 0 -0.00061489181970777681 -0.022252786451103602 0 -0.00059313792435460098 -0.022408491835766393 0 -0.00061439340646394906 -0.022463204136625264 0 -0.0006098467719712939 -0.022539286332303104 0 -0.00060597239577329248 -0.02245384976819292 0 -0.0006098467719712939 -0.022539286332303104 0 -0.00057167997811927238 -0.022529368418102165 0 -0.00060597239577329248 -0.02245384976819292 0 -0.00058947778248482469 -0.02260802132431914 0 -0.0006098467719712939 -0.022539286332303104 0 -0.00046067264383154295 -0.022471974809243112 0 -0.00057167997811927238 -0.022529368418102165 0 -0.00048760801944851745 -0.022565520377525315 0 -0.00046067264383154295 -0.022471974809243112 0 -0.00048760801944851745 -0.022565520377525315 0 -0.00037331011807632103 -0.022529924207594376 0 -0.00048760801944851745 -0.022565520377525315 0 -0.00056834840180297814 -0.022518005679356669 0 -0.00053719637732415118 -0.022558897153605543 0 -0.00048760801944851745 -0.022565520377525315 0 -0.00053719637732415118 -0.022558897153605543 0 -0.00045799014789453334 -0.022617468080200695 0 -0.00061439340646394906 -0.022463204136625264 0 -0.00057167997811927238 -0.022529368418102165 0 -0.00056834840180297814 -0.022518005679356669 0 -0.00057167997811927238 -0.022529368418102165 0 -0.00048760801944851745 -0.022565520377525315 0 -0.00056834840180297814 -0.022518005679356669 0 -0.00061439340646394906 -0.022463204136625264 0 -0.00056834840180297814 -0.022518005679356669 0 -0.00059197311007005917 -0.022446659995684858 0 -0.00056834840180297814 -0.022518005679356669 0 -0.00059197311007005917 -0.022446659995684858 0 -0.00053719637732415118 -0.022558897153605543 0 -0.00059197311007005917 -0.022446659995684858 0 -0.00053719637732415118 -0.022558897153605543 0 -0.00058390464249189248 -0.022496585352599168 0 -0.00053719637732415118 -0.022558897153605543 0 -0.00045799014789453334 -0.022617468080200695 0 -0.00047501135740434604 -0.022641841299851726 0 -0.00053719637732415118 -0.022558897153605543 0 -0.00053584712084170404 -0.022608410208022244 0 -0.00047501135740434604 -0.022641841299851726 0 -0.00053719637732415118 -0.022558897153605543 0 -0.00053584712084170404 -0.022608410208022244 0 -0.00058390464249189248 -0.022496585352599168 0 -0.00053584712084170404 -0.022608410208022244 0 -0.00058390464249189248 -0.022496585352599168 0 -0.00057737754523194695 -0.022612371386073457 0 -0.00058390464249189248 -0.022496585352599168 0 -0.00057202347523666627 -0.022328070026951814 0 -0.00056534481089251022 -0.022468119037031976 0 -0.00059197311007005917 -0.022446659995684858 0 -0.00058390464249189248 -0.022496585352599168 0 -0.00057202347523666627 -0.022328070026951814 0 -0.00080622960351165612 -0.021676479032655935 0 -0.00067176172824301612 -0.02192722783955018 0 -0.00058681068697293524 -0.022198649683163679 0 -0.00054374547234015949 -0.02246138136145669 0 -0.00065878403644720424 -0.021922980164794451 0 -0.00057202347523666627 -0.022328070026951814 0 -0.00058681068697293524 -0.022198649683163679 0 -0.00054374547234015949 -0.02246138136145669 0 -0.0010980977486890788 -0.020921325174423869 0 -0.00065589463953654229 -0.021287072909323707 0 -0.00065878403644720424 -0.021922980164794451 0 -0.00057202347523666627 -0.022328070026951814 0 -0.00058681068697293524 -0.022198649683163679 0 -0.00061489181970777681 -0.022252786451103602 0 -0.00061489181970777681 -0.022252786451103602 0 -0.00065878403644720424 -0.021922980164794451 0 -0.00053266063755706922 -0.022238870249795331 0 -0.00058681068697293524 -0.022198649683163679 0 -0.00061489181970777681 -0.022252786451103602 0 -0.00065878403644720424 -0.021922980164794451 0 -0.00059313792435460098 -0.022408491835766393 0 -0.00061489181970777681 -0.022252786451103602 0 -0.00053266063755706922 -0.022238870249795331 0 -0.00061439340646394906 -0.022463204136625264 0 -0.00059197311007005917 -0.022446659995684858 0 -0.00061489181970777681 -0.022252786451103602 0 -0.00059197311007005917 -0.022446659995684858 0 -0.00057202347523666627 -0.022328070026951814 0 -0.00061489181970777681 -0.022252786451103602 0 -0.00032968968492674556 -0.022922668561943398 0 -0.00031270689482215279 -0.022879541602944722 0 -0.00032261160542774081 -0.02279660630861886 0 -0.00023680783487545727 -0.022723759293930564 0 -0.00031845573634036801 -0.022942264372359029 0 -0.00031270689482215279 -0.022879541602944722 0 -0.00023680783487545727 -0.022723759293930564 0 -0.00031270689482215279 -0.022879541602944722 0 -0.00029267229350638863 -0.022760895797520692 0 -0.00030471476647311272 -0.022598493143922902 0 -0.00023680783487545727 -0.022723759293930564 0 -0.00029267229350638863 -0.022760895797520692 0 -0.00029267229350638863 -0.022760895797520692 0 -0.00032261160542774081 -0.02279660630861886 0 -0.00034178900532075572 -0.022689206142873383 0 -0.00031270689482215279 -0.022879541602944722 0 -0.00029267229350638863 -0.022760895797520692 0 -0.00032261160542774081 -0.02279660630861886 0 -0.00032261160542774081 -0.02279660630861886 0 -0.00034178900532075572 -0.022689206142873383 0 -0.00039594166500784509 -0.022698222323126346 0 -0.00034178900532075572 -0.022689206142873383 0 -0.00039149633811378677 -0.022614655567403472 0 -0.00039594166500784509 -0.022698222323126346 0 -0.00030471476647311272 -0.022598493143922902 0 -0.00034178900532075572 -0.022689206142873383 0 -0.00039149633811378677 -0.022614655567403472 0 -0.00030471476647311272 -0.022598493143922902 0 -0.00029267229350638863 -0.022760895797520692 0 -0.00034178900532075572 -0.022689206142873383 0 -0.00030471476647311272 -0.022598493143922902 0 -0.00039149633811378677 -0.022614655567403472 0 -0.00037331011807632103 -0.022529924207594376 0 -0.00048760801944851745 -0.022565520377525315 0 -0.00039149633811378677 -0.022614655567403472 0 -0.00037331011807632103 -0.022529924207594376 0 -0.00039149633811378677 -0.022614655567403472 0 -0.00045799014789453334 -0.022617468080200695 0 -0.00039594166500784509 -0.022698222323126346 0 -0.00048760801944851745 -0.022565520377525315 0 -0.00039149633811378677 -0.022614655567403472 0 -0.00045799014789453334 -0.022617468080200695 0 -0.00047501135740434604 -0.022641841299851726 0 -0.00044210502735672163 -0.022727156420652116 0 -0.00039594166500784509 -0.022698222323126346 0 -0.00045799014789453334 -0.022617468080200695 0 -0.00047501135740434604 -0.022641841299851726 0 -0.00039594166500784509 -0.022698222323126346 0 -0.00053584712084170404 -0.022608410208022244 0 -0.00044210502735672163 -0.022727156420652116 0 -0.00049752874094339844 -0.02273101496488027 0 -0.00053584712084170404 -0.022608410208022244 0 -0.00047501135740434604 -0.022641841299851726 0 -0.00044210502735672163 -0.022727156420652116 0 -0.00044210502735672163 -0.022727156420652116 0 -0.00036953911757667713 -0.022802220098528544 0 -0.00040311300700765669 -0.022822695257708334 0 -0.00044210502735672163 -0.022727156420652116 0 -0.00039594166500784509 -0.022698222323126346 0 -0.00036953911757667713 -0.022802220098528544 0 -0.00032261160542774081 -0.02279660630861886 0 -0.00039594166500784509 -0.022698222323126346 0 -0.00036953911757667713 -0.022802220098528544 0 -0.00032261160542774081 -0.02279660630861886 0 -0.00036953911757667713 -0.022802220098528544 0 -0.00033211672464567894 -0.022892014023397234 0 -0.00036953911757667713 -0.022802220098528544 0 -0.00035326959506735913 -0.022893975277017444 0 -0.00040311300700765669 -0.022822695257708334 0 -0.00036953911757667713 -0.022802220098528544 0 -0.00033211672464567894 -0.022892014023397234 0 -0.00035326959506735913 -0.022893975277017444 0 -0.00032951134638226092 -0.022958855296002716 0 -0.00033211672464567894 -0.022892014023397234 0 -0.00035326959506735913 -0.022893975277017444 0 -0.00032968968492674556 -0.022922668561943398 0 -0.00032261160542774081 -0.02279660630861886 0 -0.00033211672464567894 -0.022892014023397234 0 -0.0003348138195718108 -0.022984617842355629 0 -0.000377360084839627 -0.022924740895785781 0 -0.00034748147968750772 -0.023022934673091511 0 -0.00032951134638226092 -0.022958855296002716 0 -0.0003348138195718108 -0.022984617842355629 0 -0.00035326959506735913 -0.022893975277017444 0 -0.0003348138195718108 -0.022984617842355629 0 -0.00035326959506735913 -0.022893975277017444 0 -0.000377360084839627 -0.022924740895785781 0 -0.00035326959506735913 -0.022893975277017444 0 -0.000377360084839627 -0.022924740895785781 0 -0.00040311300700765669 -0.022822695257708334 0 -0.000377360084839627 -0.022924740895785781 0 -0.00038535849660377734 -0.022994032529154697 0 -0.00034748147968750772 -0.023022934673091511 0 -0.000377360084839627 -0.022924740895785781 0 -0.00041922293132995388 -0.022942748394790005 0 -0.00038535849660377734 -0.022994032529154697 0 -0.000377360084839627 -0.022924740895785781 0 -0.00041922293132995388 -0.022942748394790005 0 -0.00044186184254307816 -0.022852271920114652 0 -0.00041922293132995388 -0.022942748394790005 0 -0.00044186184254307816 -0.022852271920114652 0 -0.00046314701707806679 -0.022932798830158172 0 -0.00044186184254307816 -0.022852271920114652 0 -0.0004994284774705426 -0.022832632459382902 0 -0.00046314701707806679 -0.022932798830158172 0 -0.000377360084839627 -0.022924740895785781 0 -0.00044186184254307816 -0.022852271920114652 0 -0.00040311300700765669 -0.022822695257708334 0 -0.00044210502735672163 -0.022727156420652116 0 -0.00040311300700765669 -0.022822695257708334 0 -0.00049752874094339844 -0.02273101496488027 0 -0.00044186184254307816 -0.022852271920114652 0 -0.00040311300700765669 -0.022822695257708334 0 -0.00049752874094339844 -0.02273101496488027 0 -0.0004994284774705426 -0.022832632459382902 0 -0.00053644367278987291 -0.022983367200292992 0 -0.00057947839161417568 -0.02270889577661744 0 -0.00044186184254307816 -0.022852271920114652 0 -0.00049752874094339844 -0.02273101496488027 0 -0.0004994284774705426 -0.022832632459382902 0 -0.00059617028347618407 -0.022832546904113751 0 -0.00058884982590668648 -0.022728687791286808 0 -0.00049752874094339844 -0.02273101496488027 0 -0.0004994284774705426 -0.022832632459382902 0 -0.00057947839161417568 -0.02270889577661744 0 -0.00066084738399644347 -0.022709384084458956 0 -0.00068290625830021146 -0.022576074267373878 0 -0.00059631333856657008 -0.022731171584416482 0 -0.0004994284774705426 -0.022832632459382902 0 -0.00053644367278987291 -0.022983367200292992 0 -0.00046314701707806679 -0.022932798830158172 0 -0.00066084738399644347 -0.022709384084458956 0 -0.00068290625830021146 -0.022576074267373878 0 -0.00077574626181824298 -0.022557290877396854 0 -0.0011279451862314914 -0.02202255741428617 0 -0.00086788157556934569 -0.022385490663897101 0 -0.00059617028347618407 -0.022832546904113751 0 -0.00062203232504846483 -0.022858500082822388 0 -0.00053644367278987291 -0.022983367200292992 0 -0.0004793388607746685 -0.023109947361787172 0 -0.00044326622575268287 -0.023017738600414377 0 -0.0004793388607746685 -0.023109947361787172 0 -0.00042797220839944217 -0.023087480978343875 0 -0.00044326622575268287 -0.023017738600414377 0 -0.0004793388607746685 -0.023109947361787172 0 -0.00042797220839944217 -0.023087480978343875 0 -0.00043336089610291587 -0.023121144473340047 0 -0.00053644367278987291 -0.022983367200292992 0 -0.00044326622575268287 -0.023017738600414377 0 -0.00046314701707806679 -0.022932798830158172 0 -0.00041922293132995388 -0.022942748394790005 0 -0.00044326622575268287 -0.023017738600414377 0 -0.00046314701707806679 -0.022932798830158172 0 -0.00041922293132995388 -0.022942748394790005 0 -0.00044326622575268287 -0.023017738600414377 0 -0.00038535849660377734 -0.022994032529154697 0 -0.00044326622575268287 -0.023017738600414377 0 -0.00038535849660377734 -0.022994032529154697 0 -0.00038510846300108994 -0.023059509030615065 0 -0.00038535849660377734 -0.022994032529154697 0 -0.00038510846300108994 -0.023059509030615065 0 -0.00034748147968750772 -0.023022934673091511 0 -0.00042797220839944217 -0.023087480978343875 0 -0.00038510846300108994 -0.023059509030615065 0 -0.00039987908558989337 -0.023125661693681528 0 -0.00042797220839944217 -0.023087480978343875 0 -0.00044326622575268287 -0.023017738600414377 0 -0.00038510846300108994 -0.023059509030615065 0 -0.00038510846300108994 -0.023059509030615065 0 -0.00036178120163544601 -0.023102522089955141 0 -0.00039987908558989337 -0.023125661693681528 0 -0.00042797220839944217 -0.023087480978343875 0 -0.00039987908558989337 -0.023125661693681528 0 -0.00043336089610291587 -0.023121144473340047 0 -0.0003342531112455493 -0.02308509628318162 0 -0.00036178120163544601 -0.023102522089955141 0 -0.00033500896185646647 -0.023149543194523267 0 -0.00038510846300108994 -0.023059509030615065 0 -0.0003342531112455493 -0.02308509628318162 0 -0.00036178120163544601 -0.023102522089955141 0 -0.00038510846300108994 -0.023059509030615065 0 -0.0003342531112455493 -0.02308509628318162 0 -0.00034748147968750772 -0.023022934673091511 0 -0.00055053865517616315 -0.022382374070261089 0 -0.00054374547234015949 -0.02246138136145669 0 -0.00041941896705061164 -0.022106802755423094 0 -0.00055053865517616315 -0.022382374070261089 0 -0.0007072334106741449 -0.022163239094116032 0 -0.00041941896705061164 -0.022106802755423094 0 -0.00097997713553110949 -0.020411482946702374 0 -0.0010980977486890788 -0.020921325174423869 0 -0.0014435172330147814 -0.020113229202289321 0 -0.00080622960351165612 -0.021676479032655935 0 -0.00095515367723364301 -0.021107207609700626 0 -0.00097997713553110949 -0.020411482946702374 0 -0.0008011305428472558 -0.019889429782031679 0 -0.00057238226604065323 -0.02081554167092765 0 -0.00097997713553110949 -0.020411482946702374 0 -0.0010980977486890788 -0.020921325174423869 0 -0.00057238226604065323 -0.02081554167092765 0 -0.0010980977486890788 -0.020921325174423869 0 -0.00057238226604065323 -0.02081554167092765 0 -0.00065589463953654229 -0.021287072909323707 0 -0.00057202347523666627 -0.022328070026951814 0 -0.00054374547234015949 -0.02246138136145669 0 -0.00056534481089251022 -0.022468119037031976 0 -0.00055053865517616315 -0.022382374070261089 0 -0.00054374547234015949 -0.02246138136145669 0 -0.00056534481089251022 -0.022468119037031976 0 -0.00055053865517616315 -0.022382374070261089 0 -0.00056534481089251022 -0.022468119037031976 0 -0.00064372208394824311 -0.022553228262368184 0 -0.00058390464249189248 -0.022496585352599168 0 -0.00064372208394824311 -0.022553228262368184 0 -0.00057737754523194695 -0.022612371386073457 0 -0.00058390464249189248 -0.022496585352599168 0 -0.00056534481089251022 -0.022468119037031976 0 -0.00064372208394824311 -0.022553228262368184 0 -0.00053584712084170404 -0.022608410208022244 0 -0.00049752874094339844 -0.02273101496488027 0 -0.00057737754523194695 -0.022612371386073457 0 -0.00049752874094339844 -0.02273101496488027 0 -0.00057737754523194695 -0.022612371386073457 0 -0.00057947839161417568 -0.02270889577661744 0 -0.00064372208394824311 -0.022553228262368184 0 -0.00057737754523194695 -0.022612371386073457 0 -0.00057947839161417568 -0.02270889577661744 0 -0.00066084738399644347 -0.022709384084458956 0 -0.00057947839161417568 -0.02270889577661744 0 -0.00059631333856657008 -0.022731171584416482 0 -0.00064372208394824311 -0.022553228262368184 0 -0.00057947839161417568 -0.02270889577661744 0 -0.00059631333856657008 -0.022731171584416482 0 -0.00055053865517616315 -0.022382374070261089 0 -0.00064372208394824311 -0.022553228262368184 0 -0.0007072334106741449 -0.022163239094116032 0 -0.00064372208394824311 -0.022553228262368184 0 -0.0007072334106741449 -0.022163239094116032 0 -0.0011358947030661736 -0.022079440708852718 0 -0.00066229259015919981 -0.022557029880961976 0 -0.00086788157556934569 -0.022385490663897101 0 -0.0007072334106741449 -0.022163239094116032 0 -0.000710623310158266 -0.021924796614363227 0 -0.00041941896705061164 -0.022106802755423094 0 -0.0007072334106741449 -0.022163239094116032 0 -0.00093433046532196654 -0.021879635398761581 0 -0.0011358947030661736 -0.022079440708852718 0 -0.0007072334106741449 -0.022163239094116032 0 -0.00093433046532196654 -0.021879635398761581 0 -0.000710623310158266 -0.021924796614363227 0 -0.00093433046532196654 -0.021879635398761581 0 -0.000710623310158266 -0.021924796614363227 0 -0.00081276442276917221 -0.021709621150422256 0 -0.00093433046532196654 -0.021879635398761581 0 -0.0011358947030661736 -0.022079440708852718 0 -0.0011984794171885453 -0.021658033462616123 0 -0.0016265369491638133 -0.021392887251119604 0 -0.0011358947030661736 -0.022079440708852718 0 -0.0011984794171885453 -0.021658033462616123 0 -0.00093433046532196654 -0.021879635398761581 0 -0.0011984794171885453 -0.021658033462616123 0 -0.00098055809619216673 -0.021659640679825676 0 -0.0011984794171885453 -0.021658033462616123 0 -0.00098055809619216673 -0.021659640679825676 0 -0.0010713584869049123 -0.021484495345775557 0 -0.00098055809619216673 -0.021659640679825676 0 -0.0010713584869049123 -0.021484495345775557 0 -0.00087899504495892063 -0.021544065181715876 0 -0.0011177781088804364 -0.02131761088779557 0 -0.0010713584869049123 -0.021484495345775557 0 -0.00091153567232775162 -0.02137891081802315 0 -0.0011177781088804364 -0.02131761088779557 0 -0.0010713584869049123 -0.021484495345775557 0 -0.0012785894570847155 -0.021337764747029541 0 -0.0016265369491638133 -0.021392887251119604 0 -0.0011984794171885453 -0.021658033462616123 0 -0.0012785894570847155 -0.021337764747029541 0 -0.0011984794171885453 -0.021658033462616123 0 -0.0010713584869049123 -0.021484495345775557 0 -0.0012785894570847155 -0.021337764747029541 0 -0.000710623310158266 -0.021924796614363227 0 -0.00063727555829034231 -0.021688708504531619 0 -0.00081276442276917221 -0.021709621150422256 0 -0.00063727555829034231 -0.021688708504531619 0 -0.00081276442276917221 -0.021709621150422256 0 -0.00074540589720148908 -0.021546849293978158 0 -0.00093433046532196654 -0.021879635398761581 0 -0.00098055809619216673 -0.021659640679825676 0 -0.00081276442276917221 -0.021709621150422256 0 -0.00098055809619216673 -0.021659640679825676 0 -0.00081276442276917221 -0.021709621150422256 0 -0.00087899504495892063 -0.021544065181715876 0 -0.00081276442276917221 -0.021709621150422256 0 -0.00087899504495892063 -0.021544065181715876 0 -0.00074540589720148908 -0.021546849293978158 0 -0.00079164853411073583 -0.021454205099610497 0 -0.00087899504495892063 -0.021544065181715876 0 -0.00074540589720148908 -0.021546849293978158 0 -0.0010713584869049123 -0.021484495345775557 0 -0.00087899504495892063 -0.021544065181715876 0 -0.00091153567232775162 -0.02137891081802315 0 -0.00079164853411073583 -0.021454205099610497 0 -0.00087899504495892063 -0.021544065181715876 0 -0.00091153567232775162 -0.02137891081802315 0 -0.00079164853411073583 -0.021454205099610497 0 -0.00091153567232775162 -0.02137891081802315 0 -0.00080613639666733336 -0.021354919054617973 0 -0.00079164853411073583 -0.021454205099610497 0 -0.00080613639666733336 -0.021354919054617973 0 -0.00071979293342651395 -0.021410308565324929 0 -0.00080613639666733336 -0.021354919054617973 0 -0.00071979293342651395 -0.021410308565324929 0 -0.00074091779767870109 -0.021317438862138154 0 -0.00063727555829034231 -0.021688708504531619 0 -0.00062200666718503132 -0.021440949568033035 0 -0.00057131564441001393 -0.02137217117195056 0 -0.00063727555829034231 -0.021688708504531619 0 -0.00074540589720148908 -0.021546849293978158 0 -0.00062200666718503132 -0.021440949568033035 0 -0.00067272082335453757 -0.021348233299909699 0 -0.00056653729997429116 -0.021357222408242019 0 -0.00074091779767870109 -0.021317438862138154 0 -0.00067272082335453757 -0.021348233299909699 0 -0.00071979293342651395 -0.021410308565324929 0 -0.00074091779767870109 -0.021317438862138154 0 -0.00067272082335453757 -0.021348233299909699 0 -0.00071979293342651395 -0.021410308565324929 0 -0.00062200666718503132 -0.021440949568033035 0 -0.00071979293342651395 -0.021410308565324929 0 -0.00074540589720148908 -0.021546849293978158 0 -0.00062200666718503132 -0.021440949568033035 0 -0.00079164853411073583 -0.021454205099610497 0 -0.00071979293342651395 -0.021410308565324929 0 -0.00074540589720148908 -0.021546849293978158 0 -0.0011208296373996466 -0.02050755098187005 0 -0.001084889350666906 -0.020289359173153124 0 -0.00067272082335453757 -0.021348233299909699 0 -0.00062200666718503132 -0.021440949568033035 0 -0.00056653729997429116 -0.021357222408242019 0 -0.0017810624779763106 -0.019323023704501917 0 -0.0012465910143515762 -0.019526972412667199 0 -0.0016781207869904619 -0.019160809978293357 0 -0.001084889350666906 -0.020289359173153124 0 -0.00095515367723364301 -0.021107207609700626 0 -0.0017810624779763106 -0.019323023704501917 0 -0.0014435172330147814 -0.020113229202289321 0 -0.0012465910143515762 -0.019526972412667199 0 -0.00063727555829034231 -0.021688708504531619 0 -0.00057131564441001393 -0.02137217117195056 0 -0.00041941896705061164 -0.022106802755423094 0 -0.0014686196964016122 -0.018473608003390221 0 -0.0012922394725811592 -0.019085705648992157 0 -0.000710623310158266 -0.021924796614363227 0 -0.00063727555829034231 -0.021688708504531619 0 -0.00041941896705061164 -0.022106802755423094 0 -0.0014435172330147814 -0.020113229202289321 0 -0.0008011305428472558 -0.019889429782031679 0 -0.0012465910143515762 -0.019526972412667199 0 -0.00097997713553110949 -0.020411482946702374 0 -0.0014435172330147814 -0.020113229202289321 0 -0.0008011305428472558 -0.019889429782031679 0 -0.0015101686807452316 -0.017556723887501288 0 -0.0016890766595824645 -0.017403060319452081 0 -0.0015825098768595309 -0.017227409779659964 0 -0.0014957757025124028 -0.017641522278588111 0 -0.0014686196964016122 -0.018473608003390221 0 -0.0014957757025124028 -0.017641522278588111 0 -0.0022755657654358516 -0.015088745712724599 0 -0.0020974894775651902 -0.016234012021206563 0 -0.0010344804204829292 -0.015391795218044351 0 -0.0025869571350331344 -0.013995347979065943 0 -0.0010344804204829292 -0.015391795218044351 0 -2.1380851779727092e-06 -0.014854720344651075 0 -0.00097035972568211516 -0.013902367866534678 0 -2.1380851779727092e-06 -0.014854720344651075 0 0.0004800710018686368 -0.016248891064242363 0 0.0013736082417651831 -0.014790197312418188 0 -0.0010344804204829292 -0.015391795218044351 0 -2.1380851779727092e-06 -0.014854720344651075 0 0.0004800710018686368 -0.016248891064242363 0 0.0004800710018686368 -0.016248891064242363 0 -0.00099538222212236234 -0.017207592405958011 0 0.00042064550212486429 -0.017834651305192312 0 -0.0010344804204829292 -0.015391795218044351 0 0.0004800710018686368 -0.016248891064242363 0 -0.00099538222212236234 -0.017207592405958011 0 -0.0020974894775651902 -0.016234012021206563 0 -0.0010344804204829292 -0.015391795218044351 0 -0.00099538222212236234 -0.017207592405958011 0 -0.0014957757025124028 -0.017641522278588111 0 -0.0014867470225885112 -0.016813726984450401 0 0.0021381161114587977 -0.016078191271762843 0 0.0036624248867631196 -0.015173589341668771 0 0.002461489585152998 -0.013844648276970052 0 0.0013736082417651831 -0.014790197312418188 0 0.0021381161114587977 -0.016078191271762843 0 0.002461489585152998 -0.013844648276970052 0 0.0004800710018686368 -0.016248891064242363 0 0.0013736082417651831 -0.014790197312418188 0 0.0021381161114587977 -0.016078191271762843 0 0.0004800710018686368 -0.016248891064242363 0 0.0012792026616379013 -0.017152442966127945 0 0.00042064550212486429 -0.017834651305192312 0 0.0012792026616379013 -0.017152442966127945 0 0.0021381161114587977 -0.016078191271762843 0 0.0021478055295241229 -0.017789230243653378 0 0.0004800710018686368 -0.016248891064242363 0 0.0012792026616379013 -0.017152442966127945 0 0.0021381161114587977 -0.016078191271762843 0 0.0019924041570643972 -0.015869879601538388 0 0.0034369778457225813 -0.018171531108747089 0 0.0021381161114587977 -0.016078191271762843 0 0.0031608256810470338 -0.016156386425969001 0 0.0030146891451867416 -0.017085033881185999 0 0.0021381161114587977 -0.016078191271762843 0 0.0031608256810470338 -0.016156386425969001 0 0.0036624248867631196 -0.015173589341668771 0 0.0021381161114587977 -0.016078191271762843 0 0.002931161441700636 -0.01765904998995653 0 0.0021478055295241229 -0.017789230243653378 0 0.002931161441700636 -0.01765904998995653 0 0.0021478055295241229 -0.017789230243653378 0 0.0027603337019021057 -0.018310029322262882 0 0.0021478055295241229 -0.017789230243653378 0 0.0012274339203517716 -0.018327388746650214 0 0.0015269508015797837 -0.019306112760624751 0 0.0012792026616379013 -0.017152442966127945 0 0.0021478055295241229 -0.017789230243653378 0 0.0012274339203517716 -0.018327388746650214 0 0.0012792026616379013 -0.017152442966127945 0 0.0012274339203517716 -0.018327388746650214 0 0.00042064550212486429 -0.017834651305192312 0 0.0012274339203517716 -0.018327388746650214 0 0.00042064550212486429 -0.017834651305192312 0 0.00061472070521231945 -0.01934518366499147 0 0.0021478055295241229 -0.017789230243653378 0 0.0015269508015797837 -0.019306112760624751 0 0.002279119967553255 -0.020551967386505516 0 0.0012274339203517716 -0.018327388746650214 0 0.0015269508015797837 -0.019306112760624751 0 0.00061472070521231945 -0.01934518366499147 0 0.0015269508015797837 -0.019306112760624751 0 0.00061472070521231945 -0.01934518366499147 0 0.0012588281342874367 -0.02041013339106711 0 0.0015269508015797837 -0.019306112760624751 0 0.0012588281342874367 -0.02041013339106711 0 0.002279119967553255 -0.020551967386505516 0 0.0021478055295241229 -0.017789230243653378 0 0.0027603337019021057 -0.018310029322262882 0 0.0025439205673733348 -0.018900820914202105 0 0.0021199572349483663 -0.017616226179373987 0 0.0024894051369092418 -0.020241328001049216 0 0.002868025594066616 -0.018667681647212674 0 0.0027603337019021057 -0.018310029322262882 0 0.0025439205673733348 -0.018900820914202105 0 -0.0014957757025124028 -0.017641522278588111 0 -0.0010305931716300528 -0.019919479228547182 0 -0.00099538222212236234 -0.017207592405958011 0 -0.00036646785864923964 -0.01862478402581106 0 -0.0015554826652771413 -0.018826118769133871 0 -0.0021756697575524182 -0.016202114188016158 0 -0.00099538222212236234 -0.017207592405958011 0 -0.0015554826652771413 -0.018826118769133871 0 -0.00099538222212236234 -0.017207592405958011 0 0.00042064550212486429 -0.017834651305192312 0 -0.00036646785864923964 -0.01862478402581106 0 0.00042064550212486429 -0.017834651305192312 0 -0.00036646785864923964 -0.01862478402581106 0 0.00061472070521231945 -0.01934518366499147 0 0.00061472070521231945 -0.01934518366499147 0 -0.0002651498480356454 -0.019851773899442465 0 0.00032922483826298662 -0.02081414212419698 0 -0.00036646785864923964 -0.01862478402581106 0 0.00061472070521231945 -0.01934518366499147 0 -0.0002651498480356454 -0.019851773899442465 0 -0.0010305931716300528 -0.019919479228547182 0 -0.00051299957794272502 -0.021393254160620115 0 -0.0002651498480356454 -0.019851773899442465 0 -0.0015554826652771413 -0.018826118769133871 0 -0.00044099108353026214 -0.021539239496187228 0 -0.00057238226604065323 -0.02081554167092765 0 -0.00065589463953654229 -0.021287072909323707 0 -0.00044099108353026214 -0.021539239496187228 0 -0.00036646785864923964 -0.01862478402581106 0 -0.0002651498480356454 -0.019851773899442465 0 -0.0015554826652771413 -0.018826118769133871 0 -0.00065589463953654229 -0.021287072909323707 0 -0.00044099108353026214 -0.021539239496187228 0 -0.00065878403644720424 -0.021922980164794451 0 -0.00065878403644720424 -0.021922980164794451 0 -0.00037299450776670398 -0.022013683520734822 0 -0.00053266063755706922 -0.022238870249795331 0 -0.00044099108353026214 -0.021539239496187228 0 -0.00065878403644720424 -0.021922980164794451 0 -0.00037299450776670398 -0.022013683520734822 0 -0.00044099108353026214 -0.021539239496187228 0 -0.00037299450776670398 -0.022013683520734822 0 0.0002342446398608561 -0.021923040099063772 0 -0.00037299450776670398 -0.022013683520734822 0 -0.00053266063755706922 -0.022238870249795331 0 -0.00019520385841115514 -0.022401837050303863 0 -0.00037299450776670398 -0.022013683520734822 0 0.0002342446398608561 -0.021923040099063772 0 -0.00019520385841115514 -0.022401837050303863 0 -0.0002651498480356454 -0.019851773899442465 0 -0.00044099108353026214 -0.021539239496187228 0 0.00032922483826298662 -0.02081414212419698 0 0.0002342446398608561 -0.021923040099063772 0 0.00032922483826298662 -0.02081414212419698 0 0.0010345031682302641 -0.021328919935287811 0 0.00061472070521231945 -0.01934518366499147 0 0.00032922483826298662 -0.02081414212419698 0 0.0012588281342874367 -0.02041013339106711 0 -0.00044099108353026214 -0.021539239496187228 0 0.0002342446398608561 -0.021923040099063772 0 0.00032922483826298662 -0.02081414212419698 0 0.0012588281342874367 -0.02041013339106711 0 0.0015682802574188024 -0.020960976725495947 0 0.002279119967553255 -0.020551967386505516 0 0.0015682802574188024 -0.020960976725495947 0 0.0010345031682302641 -0.021328919935287811 0 0.0016911512596244822 -0.021512042002767486 0 0.0015682802574188024 -0.020960976725495947 0 0.002279119967553255 -0.020551967386505516 0 0.0016911512596244822 -0.021512042002767486 0 0.0012588281342874367 -0.02041013339106711 0 0.0015682802574188024 -0.020960976725495947 0 0.0010345031682302641 -0.021328919935287811 0 0.00032922483826298662 -0.02081414212419698 0 0.0012588281342874367 -0.02041013339106711 0 0.0010345031682302641 -0.021328919935287811 0 0.0025439205673733348 -0.018900820914202105 0 0.0026542562957781791 -0.019572110201096844 0 0.0029143271569268504 -0.019048531841665439 0 0.002868025594066616 -0.018667681647212674 0 0.0025439205673733348 -0.018900820914202105 0 0.0029143271569268504 -0.019048531841665439 0 0.0001686610488459 -0.013249252642288894 0 0.00018211480374957022 -0.013349560133792711 0 0.00052216935238354417 -0.013148681056070741 0 0.002279119967553255 -0.020551967386505516 0 0.0021901814784782221 -0.02210114537638444 0 0.0016911512596244822 -0.021512042002767486 0 0.001854554080795412 -0.018132154276247512 0 0.0015925493941738619 -0.01599402083019414 0 0.0024894051369092418 -0.020241328001049216 0 0.001854554080795412 -0.018132154276247512 0 0.0021901814784782221 -0.02210114537638444 0 0.0016911512596244822 -0.021512042002767486 0 0.0022075444550033641 -0.022378955906489174 0 0.001854554080795412 -0.018132154276247512 0 0.00044809167796451451 -0.015578781414793498 0 0.0016911512596244822 -0.021512042002767486 0 0.0010884278458160766 -0.022089527783422241 0 0.0022075444550033641 -0.022378955906489174 0 0.0002342446398608561 -0.021923040099063772 0 0.0010345031682302641 -0.021328919935287811 0 0.0010884278458160766 -0.022089527783422241 0 0.0010345031682302641 -0.021328919935287811 0 0.0016911512596244822 -0.021512042002767486 0 0.0010884278458160766 -0.022089527783422241 0 0.0010884278458160766 -0.022089527783422241 0 0.00074684307590985812 -0.022815687420883732 0 0.0022075444550033641 -0.022378955906489174 0 -0.00028946726528642625 -0.02103183168614265 0 -8.4061998332686343e-05 -0.020860891037616607 0 -0.00018042575569289556 -0.021058390898029619 0 0.00010765816062782551 -0.022596910310315441 0 0.00044809167796451451 -0.015578781414793498 0 0.0002342446398608561 -0.021923040099063772 0 0.0010884278458160766 -0.022089527783422241 0 0.00074684307590985812 -0.022815687420883732 0 0.00044809167796451451 -0.015578781414793498 0 -0.00064684436698026436 -0.015799042352293468 0 -8.4061998332686343e-05 -0.020860891037616607 0 -7.7968074136768349e-05 -0.021120744339254399 0 -0.00018042575569289556 -0.021058390898029619 0 -0.00030541419081816146 -0.021252837776676602 0 -7.7968074136768349e-05 -0.021120744339254399 0 -0.00018042575569289556 -0.021058390898029619 0 -0.00030541419081816146 -0.021252837776676602 0 -0.00028946726528642625 -0.02103183168614265 0 -0.00018042575569289556 -0.021058390898029619 0 0.00010765816062782551 -0.022596910310315441 0 -0.00026087201516981337 -0.021926982846861141 0 -0.00030541419081816146 -0.021252837776676602 0 -0.00028946726528642625 -0.02103183168614265 0 -0.00045669358836238354 -0.02123264987404111 0 -0.0005688330989408614 -0.022066071064806389 0 -0.00026087201516981337 -0.021926982846861141 0 -0.00051556589239308245 -0.022549268936211266 0 -0.00025727407899079464 -0.02281627174655668 0 -0.00019520385841115514 -0.022401837050303863 0 -0.00051556589239308245 -0.022549268936211266 0 -0.00053266063755706922 -0.022238870249795331 0 -0.00019520385841115514 -0.022401837050303863 0 0.00074684307590985812 -0.022815687420883732 0 -0.00025727407899079464 -0.02281627174655668 0 -0.00019520385841115514 -0.022401837050303863 0 0.0002342446398608561 -0.021923040099063772 0 0.00074684307590985812 -0.022815687420883732 0 -0.00019520385841115514 -0.022401837050303863 0 0.0013674771362984506 -0.0059112615277078237 0 0.00086061936155147156 -0.0055089698695942307 0 0.00048968920469621361 -0.007877649236714461 0 0.00098934042066923492 -0.007887303267045058 0 0.00042053112130723442 -0.0086090356266871181 0 0.0013369566682104451 -0.0025722452113076206 0 0.0012753374008900589 -0.0025175036412269608 0 0.001363004704747661 -0.0024267265320829573 0 0.0013674771362984506 -0.0059112615277078237 0 0.00085164587034379632 -0.002712827315429862 0 0.00048968920469621361 -0.007877649236714461 0 0.00073000560878320206 -0.0076634205544040381 0 0.00098934042066923492 -0.007887303267045058 0 0.00048968920469621361 -0.007877649236714461 0 0.00073000560878320206 -0.0076634205544040381 0 0.0004889842222348807 -0.0073424858566650342 0 0.00073000560878320206 -0.0076634205544040381 0 0.00098934042066923492 -0.007887303267045058 0 0.00098735318292339112 -0.0075763445044264126 0 0.00085164587034379632 -0.002712827315429862 0 0.001051558889950009 -0.0035581922565122662 0 0.0015125909724910068 -0.0066365166361542095 0 0.0015763789284899932 -0.0066963411573321323 0 0.0016887532089499876 -0.0064764460947719978 0 0.00098934042066923492 -0.007887303267045058 0 0.00098735318292339112 -0.0075763445044264126 0 0.0015212504126618568 -0.0070578047771199404 0 0.0012974884109789025 -0.0024899887224669563 0 0.001287541603562871 -0.002354640986875042 0 0.001363004704747661 -0.0024267265320829573 0 0.00085164587034379632 -0.002712827315429862 0 0.00059561659903342539 -0.001344908745477282 0 0.0012974884109789025 -0.0024899887224669563 0 0.001287541603562871 -0.002354640986875042 0 0.0011343532565859802 -0.0023205231333460938 0 0.001287541603562871 -0.002354640986875042 0 0.0013713259113018027 -0.0023622200511659859 0 0.001363004704747661 -0.0024267265320829573 0 0.0013369566682104451 -0.0025722452113076206 0 0.001363004704747661 -0.0024267265320829573 0 0.001424868292054121 -0.0023719806538454419 0 0.00085164587034379632 -0.002712827315429862 0 0.0013986910717748433 -0.0023633856321232608 0 0.0013713259113018027 -0.0023622200511659859 0 0.001363004704747661 -0.0024267265320829573 0 0.001424868292054121 -0.0023719806538454419 0 0.0014424292838776857 -0.0023540165544713703 0 0.0013713259113018027 -0.0023622200511659859 0 0.001424868292054121 -0.0023719806538454419 0 -0.00016361153920302598 -0.009324097093584411 0 0.00042053112130723442 -0.0086090356266871181 0 -0.00019269703770892827 -0.008177213799756132 0 -0.00016361153920302598 -0.009324097093584411 0 -0.0009264781502628678 -0.0089173498194890597 0 -0.00019269703770892827 -0.008177213799756132 0 -0.0010856849439188621 -0.0078199387778284807 0 -0.00019269703770892827 -0.008177213799756132 0 -0.00039967762657763367 -0.0074402875395751652 0 -0.0010856849439188621 -0.0078199387778284807 0 -0.0009264781502628678 -0.0089173498194890597 0 -0.00019269703770892827 -0.008177213799756132 0 -0.00019269703770892827 -0.008177213799756132 0 0.00010994413731309197 -0.0075980876478294133 0 -0.00039967762657763367 -0.0074402875395751652 0 0.00048968920469621361 -0.007877649236714461 0 0.00042053112130723442 -0.0086090356266871181 0 -0.00019269703770892827 -0.008177213799756132 0 0.00048968920469621361 -0.007877649236714461 0 -0.00019269703770892827 -0.008177213799756132 0 0.00010994413731309197 -0.0075980876478294133 0 1.5969306376629278e-07 -0.008850823124001617 0 0.0002331359772621576 -0.010125318888914442 0 0.00010994413731309197 -0.0075980876478294133 0 0.00028666157653537528 -0.0070734879516269984 0 0.0004889842222348807 -0.0073424858566650342 0 0.00010994413731309197 -0.0075980876478294133 0 0.00028666157653537528 -0.0070734879516269984 0 -0.00039967762657763367 -0.0074402875395751652 0 0.00048968920469621361 -0.007877649236714461 0 0.00010994413731309197 -0.0075980876478294133 0 0.0004889842222348807 -0.0073424858566650342 0 0.00082450601355062245 -0.012962778978542849 0 0.00052216935238354417 -0.013148681056070741 0 0.00055821306766050405 -0.012923713212129704 0 1.5969306376629278e-07 -0.008850823124001617 0 -8.3765702415090673e-05 -0.0075969530056658333 0 0.0001686610488459 -0.013249252642288894 0 0.00052216935238354417 -0.013148681056070741 0 0.0003462419973907729 -0.012854006835503229 0 0.00044809167796451451 -0.015578781414793498 0 0.0002331359772621576 -0.010125318888914442 0 0.00052216935238354417 -0.013148681056070741 0 0.0003462419973907729 -0.012854006835503229 0 0.00055821306766050405 -0.012923713212129704 0 0.0003462419973907729 -0.012854006835503229 0 0.00055821306766050405 -0.012923713212129704 0 0.00066098398264816008 -0.012736157510533778 0 0.0015925493941738619 -0.01599402083019414 0 0.0018152299673393469 -0.013561357483107533 0 0.0003462419973907729 -0.012854006835503229 0 0.00066098398264816008 -0.012736157510533778 0 0.00050497244176432414 -0.012506322741664017 0 -0.00060543405257631295 -0.0066793371820180513 0 -0.00077443562490602435 -0.0064035144377454292 0 -0.00049963699948575645 -0.0062820894776589422 0 0.00082450601355062245 -0.012962778978542849 0 0.00055821306766050405 -0.012923713212129704 0 0.00066098398264816008 -0.012736157510533778 0 1.5969306376629278e-07 -0.008850823124001617 0 -0.00038865609513481325 -0.0090934100460124696 0 -0.00060543405257631295 -0.0066793371820180513 0 -0.00013505148546040602 -0.0064690198089258667 0 -0.00049963699948575645 -0.0062820894776589422 0 1.5969306376629278e-07 -0.008850823124001617 0 0.00052808765855870041 -0.0063583129119162401 0 0.00076502454418092189 -0.0074075965147930153 0 0.0004889842222348807 -0.0073424858566650342 0 0.0010754593328717854 -0.0067367514271876932 0 0.0003238893477351013 -0.0071071246933365889 0 0.0004889842222348807 -0.0073424858566650342 0 0.0010754593328717854 -0.0067367514271876932 0 0.00073000560878320206 -0.0076634205544040381 0 0.00098735318292339112 -0.0075763445044264126 0 0.00076502454418092189 -0.0074075965147930153 0 0.00073000560878320206 -0.0076634205544040381 0 0.00076502454418092189 -0.0074075965147930153 0 0.0004889842222348807 -0.0073424858566650342 0 0.00098735318292339112 -0.0075763445044264126 0 0.00076502454418092189 -0.0074075965147930153 0 0.0015212504126618568 -0.0070578047771199404 0 0.00076502454418092189 -0.0074075965147930153 0 0.0010754593328717854 -0.0067367514271876932 0 0.0014376892555873076 -0.0069347538339699253 0 0.00081092996118698683 -0.0073357783143671064 0 0.0015514320505393732 -0.0066893126177620388 0 0.0015763789284899932 -0.0066963411573321323 0 0.0016887532089499876 -0.0064764460947719978 0 0.0019124658527476094 -0.0065181927186309255 0 0.00076502454418092189 -0.0074075965147930153 0 0.0015212504126618568 -0.0070578047771199404 0 0.0016645276035068522 -0.006428494848119087 0 0.0013674771362984506 -0.0059112615277078237 0 0.0014694896332651498 -0.0069325251289952365 0 0.0010754593328717854 -0.0067367514271876932 0 0.0014376892555873076 -0.0069347538339699253 0 0.0017738655763281375 -0.0063884394291679539 0 0.00052808765855870041 -0.0063583129119162401 0 0.0011646583467171774 -0.0063237009887029483 0 -0.00013505148546040602 -0.0064690198089258667 0 0.00010471811620273165 -0.0060135167857592693 0 -0.00024621852571473377 -0.0060295357268887999 0 -0.00013505148546040602 -0.0064690198089258667 0 0.00010471811620273165 -0.0060135167857592693 0 0.00057903898239494473 -0.0062276704997877332 0 0.00010471811620273165 -0.0060135167857592693 0 -0.00024621852571473377 -0.0060295357268887999 0 -8.5131373663247461e-05 -0.0056460857277482327 0 -0.00013505148546040602 -0.0064690198089258667 0 -0.00049963699948575645 -0.0062820894776589422 0 -0.00024621852571473377 -0.0060295357268887999 0 -0.00049963699948575645 -0.0062820894776589422 0 -0.00048778931496177701 -0.0059685215382490045 0 -0.00024621852571473377 -0.0060295357268887999 0 -0.00048778931496177701 -0.0059685215382490045 0 -0.00032014863229013672 -0.0057434925191005102 0 -0.00068449141122671931 -0.005672534714093058 0 -0.00048778931496177701 -0.0059685215382490045 0 -0.00024621852571473377 -0.0060295357268887999 0 -0.00032014863229013672 -0.0057434925191005102 0 -0.00032014863229013672 -0.0057434925191005102 0 -8.5131373663247461e-05 -0.0056460857277482327 0 -0.00033096786097973227 -0.0055473218968443089 0 -8.5131373663247461e-05 -0.0056460857277482327 0 0.00011543804146310532 -0.004616542347120116 0 0.00036007751261889253 -0.0055635575363354494 0 0.00010471811620273165 -0.0060135167857592693 0 -8.5131373663247461e-05 -0.0056460857277482327 0 0.00036007751261889253 -0.0055635575363354494 0 -0.00024621852571473377 -0.0060295357268887999 0 -0.00032014863229013672 -0.0057434925191005102 0 -8.5131373663247461e-05 -0.0056460857277482327 0 0.002868025594066616 -0.018667681647212674 0 0.0029143271569268504 -0.019048531841665439 0 0.0032686431218221881 -0.018388834045229951 0 0.002931161441700636 -0.01765904998995653 0 0.0027603337019021057 -0.018310029322262882 0 0.0032686431218221881 -0.018388834045229951 0 0.002868025594066616 -0.018667681647212674 0 0.0027603337019021057 -0.018310029322262882 0 0.0032686431218221881 -0.018388834045229951 0 -0.00038865609513481325 -0.0090934100460124696 0 0.0018152299673393469 -0.013561357483107533 0 -0.00077443562490602435 -0.0064035144377454292 0 -0.00092533555574560535 -0.0061616194872395483 0 -0.00068642685667181591 -0.0061156309999122905 0 -0.00077443562490602435 -0.0064035144377454292 0 -0.00049963699948575645 -0.0062820894776589422 0 -0.00068642685667181591 -0.0061156309999122905 0 -0.00049963699948575645 -0.0062820894776589422 0 -0.00048778931496177701 -0.0059685215382490045 0 -0.00068642685667181591 -0.0061156309999122905 0 -0.00048778931496177701 -0.0059685215382490045 0 -0.00068642685667181591 -0.0061156309999122905 0 -0.00068449141122671931 -0.005672534714093058 0 -0.00092533555574560535 -0.0061616194872395483 0 -0.00068642685667181591 -0.0061156309999122905 0 -0.00068449141122671931 -0.005672534714093058 0 0.0034369778457225813 -0.018171531108747089 0 0.0018152299673393469 -0.013561357483107533 0 0.0018152299673393469 -0.013561357483107533 0 0.0021496526961073555 -0.011264343491327449 0 0.0030146891451867416 -0.017085033881185999 0 0.0037902261907726219 -0.018171216771240374 0 0.0045790168775517023 -0.016520484702440885 0 0.0031608256810470338 -0.016156386425969001 0 0.0030146891451867416 -0.017085033881185999 0 0.0045790168775517023 -0.016520484702440885 0 0.0031608256810470338 -0.016156386425969001 0 0.0045790168775517023 -0.016520484702440885 0 0.0036624248867631196 -0.015173589341668771 0 0.0021496526961073555 -0.011264343491327449 0 0.00033650653852539488 -0.0074286502786610354 0 -0.00068449141122671931 -0.005672534714093058 0 -0.00050503222396494185 -0.0053395295850372304 0 -0.00033096786097973227 -0.0055473218968443089 0 0.0045790168775517023 -0.016520484702440885 0 0.0054513147244621123 -0.014604928283319985 0 0.0036624248867631196 -0.015173589341668771 0 0.00011543804146310532 -0.004616542347120116 0 -0.00089073765592933229 -0.0045410336443356984 0 -0.00047107915936417903 -0.0034909742896956984 0 -8.5131373663247461e-05 -0.0056460857277482327 0 0.00011543804146310532 -0.004616542347120116 0 -0.00089073765592933229 -0.0045410336443356984 0 1.9582701588768144e-05 -0.0058439239307123648 0 -0.00095715826764897335 -0.0044540994560668401 0 -0.00032014863229013672 -0.0057434925191005102 0 -0.00068449141122671931 -0.005672534714093058 0 -0.00033096786097973227 -0.0055473218968443089 0 -0.0016178861422457811 -0.0034826659107477839 0 -0.00089073765592933229 -0.0045410336443356984 0 -0.0010349196547887801 -0.0033945838511889349 0 0.00033650653852539488 -0.0074286502786610354 0 -0.00095715826764897335 -0.0044540994560668401 0 -0.00089073765592933229 -0.0045410336443356984 0 -0.0010349196547887801 -0.0033945838511889349 0 -0.00047107915936417903 -0.0034909742896956984 0 -0.0010349196547887801 -0.0033945838511889349 0 -0.00047107915936417903 -0.0034909742896956984 0 -0.00087523804538058934 -0.002898571557588278 0 0.00011543804146310532 -0.004616542347120116 0 -0.00047107915936417903 -0.0034909742896956984 0 0.00033856886616382374 -0.0032721064880701332 0 -0.00047107915936417903 -0.0034909742896956984 0 -0.00042394535868536213 -0.0026019363641710241 0 0.00033856886616382374 -0.0032721064880701332 0 -0.00047107915936417903 -0.0034909742896956984 0 -0.00042394535868536213 -0.0026019363641710241 0 -0.00087523804538058934 -0.002898571557588278 0 -0.0014051595684085607 -0.0025092283862756569 0 -0.0013303293060135011 -0.0027951588776442032 0 -0.0014080561101932334 -0.0027766480866257101 0 -0.0016178861422457811 -0.0034826659107477839 0 -0.0010349196547887801 -0.0033945838511889349 0 -0.0013303293060135011 -0.0027951588776442032 0 0.00033650653852539488 -0.0074286502786610354 0 -0.00027750389742532748 -0.0026039099229757351 0 -0.0010349196547887801 -0.0033945838511889349 0 -0.0013303293060135011 -0.0027951588776442032 0 -0.00087523804538058934 -0.002898571557588278 0 -0.00042394535868536213 -0.0026019363641710241 0 -0.00087523804538058934 -0.002898571557588278 0 -0.0011016697681286202 -0.00230418255477241 0 -0.0013303293060135011 -0.0027951588776442032 0 -0.0011016697681286202 -0.00230418255477241 0 -0.0014080561101932334 -0.0027766480866257101 0 -0.0013303293060135011 -0.0027951588776442032 0 -0.00087523804538058934 -0.002898571557588278 0 -0.0011016697681286202 -0.00230418255477241 0 -0.00042394535868536213 -0.0026019363641710241 0 -0.0011016697681286202 -0.00230418255477241 0 -0.00075468209938773915 -0.001724067366272342 0 -0.0011016697681286202 -0.00230418255477241 0 -0.0013270969820432682 -0.0017413956257087576 0 -0.0014080561101932334 -0.0027766480866257101 0 -0.00075468209938773915 -0.001724067366272342 0 -0.0013270969820432682 -0.0017413956257087576 0 -0.001231379876910651 -0.00098718718030238808 0 -0.0011016697681286202 -0.00230418255477241 0 -0.00075468209938773915 -0.001724067366272342 0 -0.0013270969820432682 -0.0017413956257087576 0 -0.00042394535868536213 -0.0026019363641710241 0 -0.00075468209938773915 -0.001724067366272342 0 1.5435573633435078e-05 -0.0018443662406461339 0 -0.00042394535868536213 -0.0026019363641710241 0 1.5435573633435078e-05 -0.0018443662406461339 0 0.0008067324162769425 -0.0024822146924444507 0 1.5435573633435078e-05 -0.0018443662406461339 0 -0.00028969963138249309 -0.00080473310807291224 0 0.00083330719866385537 -0.0015601791288817088 0 -0.00075468209938773915 -0.001724067366272342 0 1.5435573633435078e-05 -0.0018443662406461339 0 -0.00028969963138249309 -0.00080473310807291224 0 -0.00075468209938773915 -0.001724067366272342 0 -0.00028969963138249309 -0.00080473310807291224 0 -0.001231379876910651 -0.00098718718030238808 0 -0.0020882402370888745 0.00062335347694440616 0 -0.0015236188899118879 -0.00015135771195362712 0 -0.002012537168308258 7.7874891323964906e-05 0 -0.00028969963138249309 -0.00080473310807291224 0 -0.001231379876910651 -0.00098718718030238808 0 -0.0015236188899118879 -0.00015135771195362712 0 -0.0012202945337118757 -0.00010787349892496512 0 -0.0014880604059647933 -0.00011083565877766205 0 -0.0020882402370888745 0.00062335347694440616 0 -0.002012537168308258 7.7874891323964906e-05 0 -0.0026492602137542665 0.00054298783548292664 0 -0.0019387086199895553 -0.0003554235255485939 0 -0.001799518732190196 -0.00049632056687977225 0 -0.0020239118901388478 -0.0012123225535804738 0 -0.0019387086199895553 -0.0003554235255485939 0 -0.001799518732190196 -0.00049632056687977225 0 -0.0017772645750142107 -0.00023361788739224338 0 -0.001231379876910651 -0.00098718718030238808 0 -0.0015236188899118879 -0.00015135771195362712 0 -0.001799518732190196 -0.00049632056687977225 0 -0.0015236188899118879 -0.00015135771195362712 0 -0.001799518732190196 -0.00049632056687977225 0 -0.0017772645750142107 -0.00023361788739224338 0 -0.001231379876910651 -0.00098718718030238808 0 -0.001799518732190196 -0.00049632056687977225 0 -0.0020239118901388478 -0.0012123225535804738 0 -0.0013270969820432682 -0.0017413956257087576 0 -0.001231379876910651 -0.00098718718030238808 0 -0.0020239118901388478 -0.0012123225535804738 0 -0.0004081323133365851 -0.0049354954666425421 0 -0.00096440323402021192 -0.003820055218787624 0 -0.00018150401118832428 -0.0039347282124437199 0 -0.0013227026370138673 -0.0025614710980277284 0 -0.0014375015392470623 -0.0025668460475227061 0 0.0033494792952313735 -0.011388143204105049 0 0.0044332196438134101 -0.013040137386696196 0 0.002461489585152998 -0.013844648276970052 0 0.0015312195670552991 -0.0076044485977145408 0 0.0020684222289702107 -0.0083248425344355052 0 -0.00096440323402021192 -0.003820055218787624 0 -0.00018150401118832428 -0.0039347282124437199 0 -0.00087959942313299425 -0.0030145690104636138 0 -0.0013270969820432682 -0.0017413956257087576 0 -0.0020239118901388478 -0.0012123225535804738 0 -0.0014080561101932334 -0.0027766480866257101 0 -0.00096440323402021192 -0.003820055218787624 0 -0.00087959942313299425 -0.0030145690104636138 0 -0.0014080561101932334 -0.0027766480866257101 0 -0.0014375015392470623 -0.0025668460475227061 0 -0.001422522761398806 -0.0027477678968352067 0 -0.0014051595684085607 -0.0025092283862756569 0 -0.00087959942313299425 -0.0030145690104636138 0 -0.0014080561101932334 -0.0027766480866257101 0 0.00033650653852539488 -0.0074286502786610354 0 0.0020684222289702107 -0.0083248425344355052 0 0.0054513147244621123 -0.014604928283319985 0 0.0036624248867631196 -0.015173589341668771 0 0.0044332196438134101 -0.013040137386696196 0 0.0036624248867631196 -0.015173589341668771 0 0.0044332196438134101 -0.013040137386696196 0 0.002461489585152998 -0.013844648276970052 0 0.0013736082417651831 -0.014790197312418188 0 0.002461489585152998 -0.013844648276970052 0 0.00047901250265268707 -0.012899229876301337 0 0.002461489585152998 -0.013844648276970052 0 0.00047901250265268707 -0.012899229876301337 0 0.001515715418450955 -0.011345730134832045 0 0.00047901250265268707 -0.012899229876301337 0 2.524163624332269e-05 -0.011599519928637406 0 0.001515715418450955 -0.011345730134832045 0 0.0033494792952313735 -0.011388143204105049 0 0.002461489585152998 -0.013844648276970052 0 0.001515715418450955 -0.011345730134832045 0 -0.00097035972568211516 -0.013902367866534678 0 -0.0013141870608506265 -0.012322451527747944 0 -0.0025869571350331344 -0.013995347979065943 0 -0.0010344804204829292 -0.015391795218044351 0 -0.00097035972568211516 -0.013902367866534678 0 -0.0025869571350331344 -0.013995347979065943 0 -2.1380851779727092e-06 -0.014854720344651075 0 -0.00097035972568211516 -0.013902367866534678 0 0.00047901250265268707 -0.012899229876301337 0 -2.1380851779727092e-06 -0.014854720344651075 0 0.0013736082417651831 -0.014790197312418188 0 0.00047901250265268707 -0.012899229876301337 0 -0.00097035972568211516 -0.013902367866534678 0 0.00047901250265268707 -0.012899229876301337 0 -0.0013141870608506265 -0.012322451527747944 0 0.00047901250265268707 -0.012899229876301337 0 -0.0013141870608506265 -0.012322451527747944 0 2.524163624332269e-05 -0.011599519928637406 0 -0.001930993843202309 -0.010584709750032659 0 -0.0014721604386747282 -0.011191863458707629 0 -0.002087615672089759 -0.011343161759245372 0 -0.001930993843202309 -0.010584709750032659 0 -0.0014721604386747282 -0.011191863458707629 0 -0.0012931772597732111 -0.010742649507583711 0 -0.0013141870608506265 -0.012322451527747944 0 -0.0014721604386747282 -0.011191863458707629 0 -0.002087615672089759 -0.011343161759245372 0 -0.0013141870608506265 -0.012322451527747944 0 -0.0014721604386747282 -0.011191863458707629 0 -0.00075949358013001789 -0.011101804300754674 0 -0.0014721604386747282 -0.011191863458707629 0 -0.00075949358013001789 -0.011101804300754674 0 -0.0012931772597732111 -0.010742649507583711 0 -0.00075949358013001789 -0.011101804300754674 0 -0.0012931772597732111 -0.010742649507583711 0 -0.0010087365655081404 -0.010091934296701613 0 2.524163624332269e-05 -0.011599519928637406 0 0.00019080831383327311 -0.010327671444126586 0 0.001515715418450955 -0.011345730134832045 0 -0.0013141870608506265 -0.012322451527747944 0 -0.00075949358013001789 -0.011101804300754674 0 2.524163624332269e-05 -0.011599519928637406 0 -0.00075949358013001789 -0.011101804300754674 0 2.524163624332269e-05 -0.011599519928637406 0 0.00019080831383327311 -0.010327671444126586 0 -0.00075949358013001789 -0.011101804300754674 0 0.00019080831383327311 -0.010327671444126586 0 -0.0010087365655081404 -0.010091934296701613 0 -3.993266260893753e-05 -0.0092346202647194311 0 -0.0010087365655081404 -0.010091934296701613 0 -0.00099757054837531383 -0.0084208504901784453 0 0.00019080831383327311 -0.010327671444126586 0 -3.993266260893753e-05 -0.0092346202647194311 0 0.0010707664709932261 -0.0094930967485841716 0 -3.993266260893753e-05 -0.0092346202647194311 0 0.0010707664709932261 -0.0094930967485841716 0 0.00055783630582047759 -0.0086471356322390374 0 0.00019080831383327311 -0.010327671444126586 0 -3.993266260893753e-05 -0.0092346202647194311 0 -0.0010087365655081404 -0.010091934296701613 0 0.00088990659881553295 -0.011556331382186445 0 -0.00012461721697342999 -0.013186969307547765 0 -0.00040442247068350838 -0.012133939693190611 0 -3.8883732651889251e-05 -0.010147218740558213 0 -0.0011215730430911776 -0.01223035902634312 0 -0.0010087365655081404 -0.010091934296701613 0 -0.00099757054837531383 -0.0084208504901784453 0 -0.0022824127872847137 -0.010530551801177878 0 -0.001930993843202309 -0.010584709750032659 0 -0.0010087365655081404 -0.010091934296701613 0 -0.0022824127872847137 -0.010530551801177878 0 -0.001930993843202309 -0.010584709750032659 0 -0.0012931772597732111 -0.010742649507583711 0 -0.0010087365655081404 -0.010091934296701613 0 0.0015312195670552991 -0.0076044485977145408 0 0.0013186765055615824 -0.0072340402507051031 0 0.0033494792952313735 -0.011388143204105049 0 0.001515715418450955 -0.011345730134832045 0 0.0022142369769306077 -0.00969622738636804 0 0.001515715418450955 -0.011345730134832045 0 0.0010707664709932261 -0.0094930967485841716 0 0.0022142369769306077 -0.00969622738636804 0 0.00019080831383327311 -0.010327671444126586 0 0.001515715418450955 -0.011345730134832045 0 0.0010707664709932261 -0.0094930967485841716 0 -0.0004081323133365851 -0.0049354954666425421 0 -0.00018150401118832428 -0.0039347282124437199 0 0.00047279699807351537 -0.0048664052959486552 0 -0.0004081323133365851 -0.0049354954666425421 0 0.00047279699807351537 -0.0048664052959486552 0 0.00012288320606855136 -0.0060119153601395393 0 0.00047279699807351537 -0.0048664052959486552 0 0.0011087058884602292 -0.0057733452087436682 0 0.00012288320606855136 -0.0060119153601395393 0 0.0013186765055615824 -0.0072340402507051031 0 0.0012005956481603408 -0.0071767190453397717 0 0.0010707664709932261 -0.0094930967485841716 0 0.0022142369769306077 -0.00969622738636804 0 0.0010406676728169631 -0.0079810565507281873 0 0.0010707664709932261 -0.0094930967485841716 0 0.0010406676728169631 -0.0079810565507281873 0 0.00055783630582047759 -0.0086471356322390374 0 0.0010406676728169631 -0.0079810565507281873 0 0.00063747106822646064 -0.008079789732958996 0 0.00055783630582047759 -0.0086471356322390374 0 0.0012005956481603408 -0.0071767190453397717 0 0.0011971696280796231 -0.0073514603303628532 0 0.0010363356417125184 -0.0079667355322367087 0 0.00063747106822646064 -0.008079789732958996 0 0.00080075744603785523 -0.0076421325506022342 0 0.0012005956481603408 -0.0071767190453397717 0 0.00088691275280189722 -0.0074079470409138528 0 0.00063747106822646064 -0.008079789732958996 0 0.00080075744603785523 -0.0076421325506022342 0 0.00030270758151005863 -0.0076317405584283935 0 0.00097496858074054874 -0.0068951693915541767 0 0.00029685764644997144 -0.006347853387722013 0 0.0020584292409724465 -0.0061036191367672505 0 0.00099737715354941865 -0.0079092910999835082 0 0.001503234758383162 -0.0071756577473104776 0 0.0026706270566248034 -0.0074138191618176282 0 0.00080075744603785523 -0.0076421325506022342 0 0.00097496858074054874 -0.0068951693915541767 0 0.00030270758151005863 -0.0076317405584283935 0 0.00099737715354941865 -0.0079092910999835082 0 0.001503234758383162 -0.0071756577473104776 0 0.00080075744603785523 -0.0076421325506022342 0 0.001503234758383162 -0.0071756577473104776 0 0.00080075744603785523 -0.0076421325506022342 0 0.00097496858074054874 -0.0068951693915541767 0 0.001503234758383162 -0.0071756577473104776 0 0.00097496858074054874 -0.0068951693915541767 0 0.0020584292409724465 -0.0061036191367672505 0 0.001503234758383162 -0.0071756577473104776 0 0.0026706270566248034 -0.0074138191618176282 0 0.0020584292409724465 -0.0061036191367672505 0 0.0012005956481603408 -0.0071767190453397717 0 0.00010300477710549716 -0.0034624749253412165 0 0.00010300477710549716 -0.0034624749253412165 0 0.0013126940169772467 -0.0029180841218736557 0 -1.9734616122465256e-05 -0.00026695251212697493 0 1.3810003187364476e-06 -0.00080176950233783921 0 0.00028119752599511412 -0.00088507771154148302 0 -0.00099757054837531383 -0.0084208504901784453 0 8.4697777438524831e-05 -0.0084397808681285665 0 0.00030270758151005863 -0.0076317405584283935 0 -3.993266260893753e-05 -0.0092346202647194311 0 -0.00099757054837531383 -0.0084208504901784453 0 8.4697777438524831e-05 -0.0084397808681285665 0 -3.993266260893753e-05 -0.0092346202647194311 0 0.00055783630582047759 -0.0086471356322390374 0 8.4697777438524831e-05 -0.0084397808681285665 0 0.00063747106822646064 -0.008079789732958996 0 8.4697777438524831e-05 -0.0084397808681285665 0 0.00030270758151005863 -0.0076317405584283935 0 0.00063747106822646064 -0.008079789732958996 0 0.00055783630582047759 -0.0086471356322390374 0 8.4697777438524831e-05 -0.0084397808681285665 0 -3.8883732651889251e-05 -0.010147218740558213 0 0.00072110974206553158 -0.0068823989566068914 0 -0.00099757054837531383 -0.0084208504901784453 0 0.00030270758151005863 -0.0076317405584283935 0 0.00029685764644997144 -0.006347853387722013 0 0.00097496858074054874 -0.0068951693915541767 0 0.00030270758151005863 -0.0076317405584283935 0 0.00029685764644997144 -0.006347853387722013 0 0.00088990659881553295 -0.011556331382186445 0 0.00013652547499878027 -0.010195545017093277 0 0.0019011292710416411 -0.0099112418400491599 0 0.00016111530014446804 -0.009651617963450574 0 0.00072110974206553158 -0.0068823989566068914 0 0.00088990659881553295 -0.011556331382186445 0 0.00013652547499878027 -0.010195545017093277 0 -0.00045140387212828735 -0.011174551852507148 0 4.8715229667535048e-05 -0.0090391031378096835 0 0.00024542957324110126 -0.0085136282734602931 0 0.00092649572401473689 -0.0088108574433822806 0 0.00024542957324110126 -0.0085136282734602931 0 0.00085565584615823807 -0.0084911134060583603 0 0.00092649572401473689 -0.0088108574433822806 0 0.00031319745961665813 -0.0084528638658738168 0 0.00082153394108654089 -0.0084997499820648106 0 0.00044591015076234216 -0.0084951225431538508 0 0.00085565584615823807 -0.0084911134060583603 0 0.0006569585678751587 -0.0083495931095895551 0 0.00085565584615823807 -0.0084911134060583603 0 0.00086312144374793033 -0.0080977312901721939 0 0.0012017556111049803 -0.0081866624333816335 0 0.00085565584615823807 -0.0084911134060583603 0 0.00086312144374793033 -0.0080977312901721939 0 0.0006569585678751587 -0.0083495931095895551 0 0.00086312144374793033 -0.0080977312901721939 0 0.0006569585678751587 -0.0083495931095895551 0 0.00063091288397155456 -0.0081199871452022846 0 0.00044591015076234216 -0.0084951225431538508 0 0.00056101546722360388 -0.0082714228366569283 0 0.00043791611396705552 -0.00828108595867506 0 0.0006569585678751587 -0.0083495931095895551 0 0.00056101546722360388 -0.0082714228366569283 0 0.00063091288397155456 -0.0081199871452022846 0 0.00044591015076234216 -0.0084951225431538508 0 0.0006569585678751587 -0.0083495931095895551 0 0.00056101546722360388 -0.0082714228366569283 0 0.00056101546722360388 -0.0082714228366569283 0 0.00063091288397155456 -0.0081199871452022846 0 0.00050551799202996905 -0.0081528881861632138 0 0.00063091288397155456 -0.0081199871452022846 0 0.00050551799202996905 -0.0081528881861632138 0 0.00043080807067564304 -0.0080703438887046175 0 0.00056101546722360388 -0.0082714228366569283 0 0.00050551799202996905 -0.0081528881861632138 0 0.00043791611396705552 -0.00828108595867506 0 0.00050551799202996905 -0.0081528881861632138 0 0.00042308992461584724 -0.0080714781821964246 0 0.00043791611396705552 -0.00828108595867506 0 0.00042308992461584724 -0.0080714781821964246 0 0.00025603239740828001 -0.0083284989897317013 0 0.00020175838030684793 -0.0082973438198954731 0 0.00056437518577765779 -0.0088154849391292815 0 0.0002288659438692528 -0.01024484418778677 0 0.00042308992461584724 -0.0080714781821964246 0 0.00043791611396705552 -0.00828108595867506 0 0.00025603239740828001 -0.0083284989897317013 0 0.00039932806449329635 -0.008516979989628734 0 0.00056437518577765779 -0.0088154849391292815 0 0.00044591015076234216 -0.0084951225431538508 0 0.00043791611396705552 -0.00828108595867506 0 0.00025603239740828001 -0.0083284989897317013 0 0.00020466156075397933 -0.0013232518721577307 0 0.00028119752599511412 -0.00088507771154148302 0 0.00050881748065978731 -0.0015719613733930491 0 0.00020466156075397933 -0.0013232518721577307 0 8.5117593466324483e-05 -0.0010715034138286926 0 0.00028119752599511412 -0.00088507771154148302 0 0.00020466156075397933 -0.0013232518721577307 0 -4.1454594103637461e-05 -0.0012449767348518173 0 8.5117593466324483e-05 -0.0010715034138286926 0 -4.1454594103637461e-05 -0.0012449767348518173 0 -0.00015911701066703904 -0.0014526824940574922 0 -0.0002978987130128347 -0.0010359048404309733 0 -4.1454594103637461e-05 -0.0012449767348518173 0 8.5117593466324483e-05 -0.0010715034138286926 0 -0.0002978987130128347 -0.0010359048404309733 0 8.5117593466324483e-05 -0.0010715034138286926 0 1.3810003187364476e-06 -0.00080176950233783921 0 -0.0002978987130128347 -0.0010359048404309733 0 8.5117593466324483e-05 -0.0010715034138286926 0 1.3810003187364476e-06 -0.00080176950233783921 0 0.00028119752599511412 -0.00088507771154148302 0 0.00085565584615823807 -0.0084911134060583603 0 0.00092649572401473689 -0.0088108574433822806 0 0.0012017556111049803 -0.0081866624333816335 0 2.9288346733515545e-05 -0.0022382904826594744 0 0.00078509997452458216 -0.0021431750290269187 0 0.00050881748065978731 -0.0015719613733930491 0 0.00072110974206553158 -0.0068823989566068914 0 0.00073186283866621103 -0.005136025877079029 0 2.9288346733515545e-05 -0.0022382904826594744 0 0.00052624591485748269 -0.0015480053338095901 0 0.00050881748065978731 -0.0015719613733930491 0 0.00072110974206553158 -0.0068823989566068914 0 0.0013126940169772467 -0.0029180841218736557 0 0.0013126940169772467 -0.0029180841218736557 0 0.00027356242895984701 -0.0010531425815850464 0 0.00020466156075397933 -0.0013232518721577307 0 0.00052624591485748269 -0.0015480053338095901 0 0.00050881748065978731 -0.0015719613733930491 0 0.00086312144374793033 -0.0080977312901721939 0 0.0012017556111049803 -0.0081866624333816335 0 0.0010228401916649995 -0.0078632129314574421 0 0.00052624591485748269 -0.0015480053338095901 0 -0.00015911701066703904 -0.0014526824940574922 0 6.7982199053878836e-05 -0.0023039488981139119 0 0.00020466156075397933 -0.0013232518721577307 0 0.00052624591485748269 -0.0015480053338095901 0 -0.00015911701066703904 -0.0014526824940574922 0 0.00020466156075397933 -0.0013232518721577307 0 -4.1454594103637461e-05 -0.0012449767348518173 0 -0.00015911701066703904 -0.0014526824940574922 0 -0.00015911701066703904 -0.0014526824940574922 0 -0.00079681598925479774 -0.0011731330095717037 0 -0.00073949816909234299 -0.0018501973511143711 0 -0.00015911701066703904 -0.0014526824940574922 0 -0.0002978987130128347 -0.0010359048404309733 0 -0.00079681598925479774 -0.0011731330095717037 0 1.3810003187364476e-06 -0.00080176950233783921 0 -0.0002978987130128347 -0.0010359048404309733 0 -0.00089012603172557961 -0.0004414913595817368 0 -0.0002978987130128347 -0.0010359048404309733 0 -0.00079681598925479774 -0.0011731330095717037 0 -0.00089012603172557961 -0.0004414913595817368 0 -0.0012604601093425133 -0.00087902410587442224 0 -0.0017710889343773672 -0.00058810834367307812 0 -0.00089012603172557961 -0.0004414913595817368 0 -0.00079681598925479774 -0.0011731330095717037 0 -0.0012604601093425133 -0.00087902410587442224 0 -0.0015875706537090506 -0.0013166621383634085 0 -0.00079681598925479774 -0.0011731330095717037 0 -0.0012604601093425133 -0.00087902410587442224 0 -0.00089012603172557961 -0.0004414913595817368 0 -0.00079681598925479774 -0.0011731330095717037 0 -0.0015875706537090506 -0.0013166621383634085 0 -0.00073949816909234299 -0.0018501973511143711 0 -0.00088805973865655331 -4.1571633990029257e-05 0 -0.00038644687677041336 -0.00018903114344969465 0 -0.00029281879680851346 0.0013224335191351021 0 -0.00076680998896007336 0.0010570220761327437 0 -0.00089315045719467621 0.0016622477583838986 0 -0.0015875706537090506 -0.0013166621383634085 0 -0.0022666260730257659 -0.00080000998252985475 0 -0.0017710889343773672 -0.00058810834367307812 0 -0.00088805973865655331 -4.1571633990029257e-05 0 -0.0015982547015525607 0.00044395307715694064 0 -0.0012604601093425133 -0.00087902410587442224 0 -0.0015875706537090506 -0.0013166621383634085 0 -0.0017710889343773672 -0.00058810834367307812 0 -0.0017297271955926843 -0.00062510334469410692 0 -0.0014405827570307718 -4.7964039404321992e-05 0 -0.0017710889343773672 -0.00058810834367307812 0 -0.001674351371420186 -0.0002453681439421016 0 -0.0016966202075399349 -0.00026881089262392104 0 -0.0022666260730257659 -0.00080000998252985475 0 -0.0017710889343773672 -0.00058810834367307812 0 -0.0022834466950015452 -0.00021728526587363323 0 -0.0017710889343773672 -0.00058810834367307812 0 -0.001674351371420186 -0.0002453681439421016 0 -0.0022834466950015452 -0.00021728526587363323 0 -0.002012537168308258 7.7874891323964906e-05 0 -0.001674351371420186 -0.0002453681439421016 0 -0.0022834466950015452 -0.00021728526587363323 0 -0.0015236188899118879 -0.00015135771195362712 0 -0.002012537168308258 7.7874891323964906e-05 0 -0.001674351371420186 -0.0002453681439421016 0 -0.0015236188899118879 -0.00015135771195362712 0 -0.001674351371420186 -0.0002453681439421016 0 -0.0017772645750142107 -0.00023361788739224338 0 -0.0013227026370138673 -0.0025614710980277284 0 0.00010300477710549716 -0.0034624749253412165 0 -0.0019387086199895553 -0.0003554235255485939 0 -0.001820932634942359 -0.00021996623017911669 0 -0.0017772645750142107 -0.00023361788739224338 0 -0.001820932634942359 -0.00021996623017911669 0 -0.0017772645750142107 -0.00023361788739224338 0 -0.0016966202075399349 -0.00026881089262392104 0 -1.9734616122465256e-05 -0.00026695251212697493 0 1.3810003187364476e-06 -0.00080176950233783921 0 -0.00089012603172557961 -0.0004414913595817368 0 0.00010300477710549716 -0.0034624749253412165 0 -0.0014405827570307718 -4.7964039404321992e-05 0 -0.001674351371420186 -0.0002453681439421016 0 -0.0017772645750142107 -0.00023361788739224338 0 -0.0016966202075399349 -0.00026881089262392104 0 -0.0012170191558887565 -0.021876383435291226 0 -0.00084864184408393309 -0.022785922220378892 0 -0.0010766865366574191 -0.022650624969774897 0 -0.00053431890970940805 -0.023591471880162036 0 -0.00062086189085507103 -0.023576691124355766 0 -0.0010766865366574191 -0.022650624969774897 0 -0.0012037541077459001 -0.022729904285080774 0 -0.00062086189085507103 -0.023576691124355766 0 -0.00027862507935492498 -0.026116405998431673 0 -0.00072646672828514556 -0.025924160492146599 0 -0.00047334166973000269 -0.026377444223312799 0 -0.00098617456698648297 -0.023517422967048673 0 -0.00028178329471655582 -0.024489479892553394 0 -0.00099706923380592943 -0.021533162574858756 0 -0.00096359152174749349 -0.021397821942260926 0 -0.00084872808854321875 -0.021567794219920958 0 -0.00099706923380592943 -0.021533162574858756 0 -0.00096359152174749349 -0.021397821942260926 0 -0.0011430187977204817 -0.021498978961100118 0 -0.0012170191558887565 -0.021876383435291226 0 -0.001537237368500482 -0.021375905188716088 0 -0.00098617456698648297 -0.023517422967048673 0 -0.00066098782129687689 -0.022655255797078933 0 -0.00099242164165664368 -0.022216944101348078 0 -0.00097145905198352982 -0.022202054544089612 0 -0.00089178941211012297 -0.022367917962846786 0 -0.00098617456698648297 -0.023517422967048673 0 -0.0012170191558887565 -0.021876383435291226 0 -0.00035487505539454631 -0.025710229868343638 0 -0.00027862507935492498 -0.026116405998431673 0 -0.00072646672828514556 -0.025924160492146599 0 -0.00031652737893230474 -0.023259909601725665 0 -0.00039648778475912053 -0.023303946027173606 0 -0.00038066765791782683 -0.023233586512748577 0 -0.00030383792049388868 -0.024563605859808081 0 -0.00098617456698648297 -0.023517422967048673 0 -0.00031652737893230474 -0.023259909601725665 0 -0.00038066765791782683 -0.023233586512748577 0 -0.00033500896185646647 -0.023149543194523267 0 -0.00038066765791782683 -0.023233586512748577 0 -0.00033500896185646647 -0.023149543194523267 0 -0.00039528280272423436 -0.023175425781574329 0 -0.00036178120163544601 -0.023102522089955141 0 -0.00033500896185646647 -0.023149543194523267 0 -0.00039987908558989337 -0.023125661693681528 0 -0.00033500896185646647 -0.023149543194523267 0 -0.00039987908558989337 -0.023125661693681528 0 -0.00039528280272423436 -0.023175425781574329 0 -0.00039987908558989337 -0.023125661693681528 0 -0.00042827121621705498 -0.02316099717887107 0 -0.00043336089610291587 -0.023121144473340047 0 -0.00039987908558989337 -0.023125661693681528 0 -0.00039528280272423436 -0.023175425781574329 0 -0.00042827121621705498 -0.02316099717887107 0 -0.00039528280272423436 -0.023175425781574329 0 -0.00042827121621705498 -0.02316099717887107 0 -0.00043947190223914704 -0.023203891516655275 0 -0.00039648778475912053 -0.023303946027173606 0 -0.00038066765791782683 -0.023233586512748577 0 -0.00043947190223914704 -0.023203891516655275 0 -0.00097145905198352982 -0.022202054544089612 0 -0.00089178941211012297 -0.022367917962846786 0 -0.00083605181784573881 -0.022367525430454411 0 -0.00038066765791782683 -0.023233586512748577 0 -0.00039528280272423436 -0.023175425781574329 0 -0.00043947190223914704 -0.023203891516655275 0 -0.0018462016542424601 -0.020494146399519245 0 -0.0020237754059006566 -0.020701283224011813 0 -0.0019883807394792314 -0.020322208726315703 0 -0.0018462016542424601 -0.020494146399519245 0 -0.0018088473131026655 -0.020710282535160097 0 -0.0020237754059006566 -0.020701283224011813 0 -0.0018088473131026655 -0.020710282535160097 0 -0.0020237754059006566 -0.020701283224011813 0 -0.0017115023207226346 -0.020906669844216786 0 -0.00062203232504846483 -0.022858500082822388 0 -0.00066098782129687689 -0.022655255797078933 0 -0.0011279451862314914 -0.02202255741428617 0 -0.001537237368500482 -0.021375905188716088 0 -0.00077574626181824298 -0.022557290877396854 0 -0.00089178941211012297 -0.022367917962846786 0 -0.00083605181784573881 -0.022367525430454411 0 -0.0004793388607746685 -0.023109947361787172 0 -0.00042827121621705498 -0.02316099717887107 0 -0.00043947190223914704 -0.023203891516655275 0 -0.00068290625830021146 -0.022576074267373878 0 -0.00077574626181824298 -0.022557290877396854 0 -0.00083605181784573881 -0.022367525430454411 0 -0.0004793388607746685 -0.023109947361787172 0 -0.00042827121621705498 -0.02316099717887107 0 -0.00043336089610291587 -0.023121144473340047 0 -0.0016265369491638133 -0.021392887251119604 0 -0.0020237754059006566 -0.020701283224011813 0 -0.0017115023207226346 -0.020906669844216786 0 -0.0016265369491638133 -0.021392887251119604 0 -0.0017115023207226346 -0.020906669844216786 0 -0.0014679568206387363 -0.021067900488246468 0 -0.0016265369491638133 -0.021392887251119604 0 -0.0012785894570847155 -0.021337764747029541 0 -0.0014679568206387363 -0.021067900488246468 0 -0.0017115023207226346 -0.020906669844216786 0 -0.0014679568206387363 -0.021067900488246468 0 -0.0016278228410356161 -0.020665987485044505 0 -0.0014679568206387363 -0.021067900488246468 0 -0.0016278228410356161 -0.020665987485044505 0 -0.0012513416636815045 -0.020817782065814333 0 -0.0016278228410356161 -0.020665987485044505 0 -0.0014431633622243715 -0.020431750003806242 0 -0.0012513416636815045 -0.020817782065814333 0 -0.0018088473131026655 -0.020710282535160097 0 -0.0017115023207226346 -0.020906669844216786 0 -0.0016278228410356161 -0.020665987485044505 0 -0.0018462016542424601 -0.020494146399519245 0 -0.0016278228410356161 -0.020665987485044505 0 -0.001673319161510459 -0.020294379739309351 0 -0.0018462016542424601 -0.020494146399519245 0 -0.0018088473131026655 -0.020710282535160097 0 -0.0016278228410356161 -0.020665987485044505 0 -0.0016278228410356161 -0.020665987485044505 0 -0.0014431633622243715 -0.020431750003806242 0 -0.001673319161510459 -0.020294379739309351 0 -0.0014431633622243715 -0.020431750003806242 0 -0.001673319161510459 -0.020294379739309351 0 -0.0013942777005700288 -0.020169113619856016 0 -0.001673319161510459 -0.020294379739309351 0 -0.0018155271439797931 -0.020076975358019604 0 -0.0013942777005700288 -0.020169113619856016 0 -0.0018462016542424601 -0.020494146399519245 0 -0.001673319161510459 -0.020294379739309351 0 -0.0019883807394792314 -0.020322208726315703 0 -0.002390653284909209 -0.020120680210238804 0 -0.0020237754059006566 -0.020701283224011813 0 -0.0019883807394792314 -0.020322208726315703 0 -0.002390653284909209 -0.020120680210238804 0 -0.0019883807394792314 -0.020322208726315703 0 -0.0018155271439797931 -0.020076975358019604 0 -0.001673319161510459 -0.020294379739309351 0 -0.0019883807394792314 -0.020322208726315703 0 -0.0018155271439797931 -0.020076975358019604 0 -0.0012170191558887565 -0.021876383435291226 0 -0.0012079856697421944 -0.02024423914948691 0 -0.002390653284909209 -0.020120680210238804 0 -0.0018155271439797931 -0.020076975358019604 0 -0.0018644985290052877 -0.019772903377071851 0 -0.00081307478763614674 -0.020613878864014425 0 -0.0012079856697421944 -0.02024423914948691 0 -0.0012079856697421944 -0.02024423914948691 0 -0.00070820972487327806 -0.019817556843036255 0 -0.0018155271439797931 -0.020076975358019604 0 -0.0018644985290052877 -0.019772903377071851 0 -0.0013110440536473456 -0.019853384264342241 0 -0.0018155271439797931 -0.020076975358019604 0 -0.0013110440536473456 -0.019853384264342241 0 -0.0013942777005700288 -0.020169113619856016 0 -0.0007234494195796767 -0.019699935659398 0 -0.00081377207264578472 -0.019659535056298458 0 -0.0007497866714235601 -0.019712721817155717 0 -0.0012079856697421944 -0.02024423914948691 0 -0.0010727306754140088 -0.019785011231670303 0 -0.0013110440536473456 -0.019853384264342241 0 -0.00081542616725474235 -0.019935442940732205 0 -0.0010773754948772947 -0.020145819571729316 0 -0.0010727306754140088 -0.019785011231670303 0 -0.00088249363472366548 -0.018954550222305348 0 -0.00088249363472366548 -0.018954550222305348 0 -0.00089847388492305595 -0.017454558631637876 0 -0.00058331614941425219 -0.016089164454913148 0 -0.00045910871469963065 -0.015739313145250251 0 -0.00083826005763533841 -0.015519137553371544 0 -0.00081377207264578472 -0.019659535056298458 0 -0.00091489532450080718 -0.019625333523083578 0 -0.0008715677959091891 -0.019708993360497251 0 -0.0010773754948772947 -0.020145819571729316 0 -0.00091237264411006308 -0.020410992294156639 0 -0.00067651378298912179 -0.020201474478830542 0 -0.00081542616725474235 -0.019935442940732205 0 -0.0010773754948772947 -0.020145819571729316 0 -0.00067651378298912179 -0.020201474478830542 0 -0.00088249363472366548 -0.018954550222305348 0 -0.00056566847428950575 -0.020381578711015653 0 -0.0014431633622243715 -0.020431750003806242 0 -0.0013942777005700288 -0.020169113619856016 0 -0.001185988685632987 -0.020533370085759731 0 -0.0010773754948772947 -0.020145819571729316 0 -0.001185988685632987 -0.020533370085759731 0 -0.00091237264411006308 -0.020410992294156639 0 -0.0010773754948772947 -0.020145819571729316 0 -0.0013942777005700288 -0.020169113619856016 0 -0.001185988685632987 -0.020533370085759731 0 -0.0013110440536473456 -0.019853384264342241 0 -0.0010773754948772947 -0.020145819571729316 0 -0.0013942777005700288 -0.020169113619856016 0 -0.0014431633622243715 -0.020431750003806242 0 -0.001185988685632987 -0.020533370085759731 0 -0.0012513416636815045 -0.020817782065814333 0 -0.001185988685632987 -0.020533370085759731 0 -0.0010391434977713627 -0.020841931289849933 0 -0.0012513416636815045 -0.020817782065814333 0 -0.0011435316084227223 -0.020557881452265198 0 -0.00082394349913911041 -0.020695931381142191 0 -0.001185988685632987 -0.020533370085759731 0 -0.0010391434977713627 -0.020841931289849933 0 -0.00080869692169096858 -0.020871541485188796 0 -0.0014679568206387363 -0.021067900488246468 0 -0.0012513416636815045 -0.020817782065814333 0 -0.0012143516760299139 -0.021123676776512015 0 -0.0012513416636815045 -0.020817782065814333 0 -0.0010279604615478345 -0.021031512865615908 0 -0.0012143516760299139 -0.021123676776512015 0 -0.0010391434977713627 -0.020841931289849933 0 -0.0012513416636815045 -0.020817782065814333 0 -0.0010279604615478345 -0.021031512865615908 0 -0.0010391434977713627 -0.020841931289849933 0 -0.0010279604615478345 -0.021031512865615908 0 -0.00093291928099374654 -0.020953156026789089 0 -0.0011177781088804364 -0.02131761088779557 0 -0.00098232876975108902 -0.021212091291230441 0 -0.0012143516760299139 -0.021123676776512015 0 -0.0010279604615478345 -0.021031512865615908 0 -0.00098232876975108902 -0.021212091291230441 0 -0.0012143516760299139 -0.021123676776512015 0 -0.0011177781088804364 -0.02131761088779557 0 -0.00091153567232775162 -0.02137891081802315 0 -0.00098232876975108902 -0.021212091291230441 0 -0.0011177781088804364 -0.02131761088779557 0 -0.0012785894570847155 -0.021337764747029541 0 -0.0012143516760299139 -0.021123676776512015 0 -0.0012785894570847155 -0.021337764747029541 0 -0.0014679568206387363 -0.021067900488246468 0 -0.0012143516760299139 -0.021123676776512015 0 -0.00056653729997429116 -0.021357222408242019 0 -0.00072226422828307356 -0.021132280031985674 0 -0.00071464224929668359 -0.020959507893045327 0 -0.0010588452422563308 -0.01964653841768086 0 -0.0007415802490326859 -0.020371458955567075 0 -0.0012452648335100948 -0.019940322244257454 0 -0.001084889350666906 -0.020289359173153124 0 -0.00068037644266998932 -0.020682957423421834 0 -0.00056653729997429116 -0.021357222408242019 0 -0.00072226422828307356 -0.021132280031985674 0 -0.00074091779767870109 -0.021317438862138154 0 -0.00091153567232775162 -0.02137891081802315 0 -0.00080613639666733336 -0.021354919054617973 0 -0.00081505958811744442 -0.02123908656978242 0 -0.00072226422828307356 -0.021132280031985674 0 -0.00074091779767870109 -0.021317438862138154 0 -0.00081505958811744442 -0.02123908656978242 0 -0.00080613639666733336 -0.021354919054617973 0 -0.00074091779767870109 -0.021317438862138154 0 -0.00081505958811744442 -0.02123908656978242 0 -0.00091153567232775162 -0.02137891081802315 0 -0.00098232876975108902 -0.021212091291230441 0 -0.00081505958811744442 -0.02123908656978242 0 -0.0010279604615478345 -0.021031512865615908 0 -0.00098232876975108902 -0.021212091291230441 0 -0.00085588719370354588 -0.021064771315957388 0 -0.00098232876975108902 -0.021212091291230441 0 -0.00081505958811744442 -0.02123908656978242 0 -0.00085588719370354588 -0.021064771315957388 0 -0.00072226422828307356 -0.021132280031985674 0 -0.00081505958811744442 -0.02123908656978242 0 -0.00085588719370354588 -0.021064771315957388 0 -0.00072226422828307356 -0.021132280031985674 0 -0.00085588719370354588 -0.021064771315957388 0 -0.00071464224929668359 -0.020959507893045327 0 -0.0010279604615478345 -0.021031512865615908 0 -0.00085588719370354588 -0.021064771315957388 0 -0.00093291928099374654 -0.020953156026789089 0 -0.00085588719370354588 -0.021064771315957388 0 -0.00093291928099374654 -0.020953156026789089 0 -0.00080869692169096858 -0.020871541485188796 0 -0.0010391434977713627 -0.020841931289849933 0 -0.00093291928099374654 -0.020953156026789089 0 -0.00080869692169096858 -0.020871541485188796 0 -0.00085588719370354588 -0.021064771315957388 0 -0.00080869692169096858 -0.020871541485188796 0 -0.00071464224929668359 -0.020959507893045327 0 -0.00082394349913911041 -0.020695931381142191 0 -0.00068037644266998932 -0.020682957423421834 0 -0.00086684229080729561 -0.020740846351350217 0 -0.0007195496783534538 -0.020662237194572327 0 -0.00068643500337375277 -0.02088984977575703 0 -0.00068037644266998932 -0.020682957423421834 0 -0.0012922394725811592 -0.019085705648992157 0 -0.00093514728957551038 -0.020688185391338092 0 -0.00086684229080729561 -0.020740846351350217 0 -0.0007195496783534538 -0.020662237194572327 0 -0.00080822271187890927 -0.020550598261713852 0 -0.00065157143203667541 -0.020455737225169496 0 -0.0007195496783534538 -0.020662237194572327 0 -0.00093514728957551038 -0.020688185391338092 0 -0.00080822271187890927 -0.020550598261713852 0 -0.0007195496783534538 -0.020662237194572327 0 -0.00093514728957551038 -0.020688185391338092 0 -0.00080822271187890927 -0.020550598261713852 0 -0.00091237264411006308 -0.020410992294156639 0 -0.001185988685632987 -0.020533370085759731 0 -0.00093514728957551038 -0.020688185391338092 0 -0.00091237264411006308 -0.020410992294156639 0 -0.00080822271187890927 -0.020550598261713852 0 -0.00091237264411006308 -0.020410992294156639 0 -0.00065157143203667541 -0.020455737225169496 0 -0.00091237264411006308 -0.020410992294156639 0 -0.00065157143203667541 -0.020455737225169496 0 -0.00067651378298912179 -0.020201474478830542 0 -0.00065157143203667541 -0.020455737225169496 0 -0.00050233658965357091 -0.020625024514894154 0 -0.00029417476862191467 -0.020317306755818863 0 -0.0013325199166838841 -0.019052867309924983 0 -0.0015304288570383744 -0.016035262502165509 0 -0.00065157143203667541 -0.020455737225169496 0 -0.00050233658965357091 -0.020625024514894154 0 -0.0007195496783534538 -0.020662237194572327 0 -0.0013325199166838841 -0.019052867309924983 0 -0.0012922394725811592 -0.019085705648992157 0 -0.00050233658965357091 -0.020625024514894154 0 -0.0007195496783534538 -0.020662237194572327 0 -0.00068643500337375277 -0.02088984977575703 0 -0.0017666347320206112 -0.017073612824644518 0 -0.0017275536225601889 -0.017240361892797703 0 -0.0018721736562781614 -0.017254825574141552 0 -0.0016890766595824645 -0.017403060319452081 0 -0.0017275536225601889 -0.017240361892797703 0 -0.0018721736562781614 -0.017254825574141552 0 -0.001084889350666906 -0.020289359173153124 0 -0.0012922394725811592 -0.019085705648992157 0 -0.0016890766595824645 -0.017403060319452081 0 -0.0017275536225601889 -0.017240361892797703 0 -0.0015825098768595309 -0.017227409779659964 0 -0.0017666347320206112 -0.017073612824644518 0 -0.0017275536225601889 -0.017240361892797703 0 -0.0015825098768595309 -0.017227409779659964 0 -0.0017666347320206112 -0.017073612824644518 0 -0.0015825098768595309 -0.017227409779659964 0 -0.001653377734858292 -0.016889101428944123 0 -0.0013141870608506265 -0.012322451527747944 0 -0.0025869571350331344 -0.013995347979065943 0 -0.0030835303751332692 -0.011833099607566422 0 -0.0013141870608506265 -0.012322451527747944 0 -0.0030835303751332692 -0.011833099607566422 0 -0.002087615672089759 -0.011343161759245372 0 -0.0022755657654358516 -0.015088745712724599 0 -0.0015304288570383744 -0.016035262502165509 0 -0.0011660247392782654 -0.015260616507193301 0 -0.00073417523511858551 -0.014572392300182499 0 -0.001341612601666602 -0.014481445972895562 0 -0.0015304288570383744 -0.016035262502165509 0 -0.0011215730430911776 -0.01223035902634312 0 -0.0015304288570383744 -0.016035262502165509 0 -0.00038998500799673991 -0.016026695688560175 0 -0.0030835303751332692 -0.011833099607566422 0 -0.002087615672089759 -0.011343161759245372 0 -0.0022750418824380621 -0.010533324069076269 0 -0.001930993843202309 -0.010584709750032659 0 -0.002087615672089759 -0.011343161759245372 0 -0.0022750418824380621 -0.010533324069076269 0 -0.0016422486099440861 -0.011906886640772866 0 -0.0011215730430911776 -0.01223035902634312 0 -0.00065157143203667541 -0.020455737225169496 0 -0.00029417476862191467 -0.020317306755818863 0 -0.00067651378298912179 -0.020201474478830542 0 -0.0008767250559916529 -0.019800309716681556 0 -0.00067651378298912179 -0.020201474478830542 0 -0.00036851175079991597 -0.01988623208679588 0 -0.00029417476862191467 -0.020317306755818863 0 -0.00067651378298912179 -0.020201474478830542 0 -0.00036851175079991597 -0.01988623208679588 0 -0.00058331614941425219 -0.016089164454913148 0 -3.7437494664496037e-06 -0.016176219626444763 0 -0.00045910871469963065 -0.015739313145250251 0 -0.00038998500799673991 -0.016026695688560175 0 -0.00075906216424938386 -0.013542971449925237 0 -3.7437494664496037e-06 -0.016176219626444763 0 -0.00013705065581451958 -0.015588517045386774 0 -0.00045910871469963065 -0.015739313145250251 0 -0.00088249363472366548 -0.018954550222305348 0 -0.00038998500799673991 -0.016026695688560175 0 -0.001026142422994575 -0.013048674641014715 0 -0.00040442247068350838 -0.012133939693190611 0 -0.00132342706704818 -0.01175313636697831 0 -0.00012461721697342999 -0.013186969307547765 0 -0.001026142422994575 -0.013048674641014715 0 -0.00040442247068350838 -0.012133939693190611 0 -0.0011215730430911776 -0.01223035902634312 0 -0.00038998500799673991 -0.016026695688560175 0 0.00088990659881553295 -0.011556331382186445 0 -0.00040442247068350838 -0.012133939693190611 0 -0.00045140387212828735 -0.011174551852507148 0 -0.00040442247068350838 -0.012133939693190611 0 -0.00045140387212828735 -0.011174551852507148 0 -0.00132342706704818 -0.01175313636697831 0 -0.00075906216424938386 -0.013542971449925237 0 -0.00093941528731838629 -0.012011291975177467 0 -0.00013705065581451958 -0.015588517045386774 0 -0.00037221781397450124 -0.015360232355768519 0 -0.00027748271437316757 -0.014989236820574094 0 -0.00045140387212828735 -0.011174551852507148 0 -0.00132342706704818 -0.01175313636697831 0 -0.0016181196025853431 -0.01047147904710503 0 -0.00013705065581451958 -0.015588517045386774 0 -0.00037221781397450124 -0.015360232355768519 0 -0.00045910871469963065 -0.015739313145250251 0 -0.00037221781397450124 -0.015360232355768519 0 -0.0003225176341783629 -0.014995996748921691 0 -0.00027748271437316757 -0.014989236820574094 0 -0.00037221781397450124 -0.015360232355768519 0 -0.0003225176341783629 -0.014995996748921691 0 -0.00059651448967340548 -0.015442599885787977 0 -0.0003225176341783629 -0.014995996748921691 0 -0.00027631268059873375 -0.014987684885951999 0 -0.00031669256141076524 -0.01484560352275471 0 -0.00093941528731838629 -0.012011291975177467 0 -0.00057928590018028905 -0.013074405609332733 0 -0.00091359578764742808 -0.012071487879424173 0 -0.00093941528731838629 -0.012011291975177467 0 -0.00091913255351395876 -0.0092413885249157755 0 -0.00095807144168795835 -0.0090778669068438123 0 -0.00039780978503599438 -0.0088743600485772962 0 0.00013652547499878027 -0.010195545017093277 0 -0.00045140387212828735 -0.011174551852507148 0 -0.0016181196025853431 -0.01047147904710503 0 0.00016111530014446804 -0.009651617963450574 0 -0.00093941528731838629 -0.012011291975177467 0 4.8715229667535048e-05 -0.0090391031378096835 0 -0.00091913255351395876 -0.0092413885249157755 0 -0.00039780978503599438 -0.0088743600485772962 0 0.00024542957324110126 -0.0085136282734602931 0 -0.00039780978503599438 -0.0088743600485772962 0 -0.0004294732659837141 -0.0085244901956663139 0 0.00031319745961665813 -0.0084528638658738168 0 -3.3585103316321601e-05 -0.010212239262562725 0 0.00044591015076234216 -0.0084951225431538508 0 -6.3205444820400868e-06 -0.0085156269402183182 0 0.00025603239740828001 -0.0083284989897317013 0 4.8715229667535048e-05 -0.0090391031378096835 0 0.00024542957324110126 -0.0085136282734602931 0 -0.00039780978503599438 -0.0088743600485772962 0 0.0002288659438692528 -0.01024484418778677 0 0.00016579498515493902 -0.011257965217919908 0 -3.3585103316321601e-05 -0.010212239262562725 0 0.0002288659438692528 -0.01024484418778677 0 -6.7865518909790247e-05 -0.012097246819854647 0 -0.00014723225731473282 -0.012171690564047407 0 4.2438851086235093e-06 -0.01228164040995583 0 -6.3205444820400868e-06 -0.0085156269402183182 0 0.00025603239740828001 -0.0083284989897317013 0 0.00020102356239352456 -0.0082976415896579229 0 0.00034159072068794477 -0.010310174100924177 0 0.00034442231157856979 -0.010325059194041737 0 0.00034392083625119047 -0.010318865029155756 0 8.3242041879183728e-05 -0.010024049926909757 0 0.0002288659438692528 -0.01024484418778677 0 0.00033780060454474025 -0.010309276080993796 0 0.00034159072068794477 -0.010310174100924177 0 0.00034392083625119047 -0.010318865029155756 0 9.6693738595643634e-05 -0.012114043039844688 0 0.0001592100456645775 -0.01238866951347393 0 4.2438851086235093e-06 -0.01228164040995583 0 -6.7865518909790247e-05 -0.012097246819854647 0 9.6693738595643634e-05 -0.012114043039844688 0 4.2438851086235093e-06 -0.01228164040995583 0 -3.3585103316321601e-05 -0.010212239262562725 0 -0.00046473081488808377 -0.014192516697166637 0 -0.00054405336520558286 -0.01286114373021317 0 8.3924877928830808e-05 -0.012220990501368689 0 -0.00069195344136869293 -0.012223656983264062 0 -0.00057928590018028905 -0.013074405609332733 0 -3.3585103316321601e-05 -0.010212239262562725 0 -0.00095807144168795835 -0.0090778669068438123 0 -0.00039780978503599438 -0.0088743600485772962 0 -0.0004294732659837141 -0.0085244901956663139 0 -0.00057928590018028905 -0.013074405609332733 0 -0.00046473081488808377 -0.014192516697166637 0 -0.00083231434783002955 -0.015495513862628933 0 -0.00083462329100064594 -0.015503223728922603 0 -0.00083369236244288986 -0.015506003463174644 0 -0.00083462329100064594 -0.015503223728922603 0 -0.00083369236244288986 -0.015506003463174644 0 -0.0008307981593735597 -0.015523931623686605 0 -0.00046473081488808377 -0.014192516697166637 0 -0.00097109777537662573 -0.015753555136202173 0 -0.00083369236244288986 -0.015506003463174644 0 -0.0008307981593735597 -0.015523931623686605 0 -0.00082954272614493862 -0.015515827427178648 0 -0.00083369236244288986 -0.015506003463174644 0 -0.00082954272614493862 -0.015515827427178648 0 -0.00083362082421528205 -0.015505055591333215 0 -0.00046473081488808377 -0.014192516697166637 0 -0.00020937736604644328 -0.013225049693864359 0 -0.00058531389218034649 -0.015970920530225668 0 -0.00096633625490501803 -0.015980646825897223 0 -0.00073619557371023387 -0.015319220747541721 0 -0.00096633625490501803 -0.015980646825897223 0 -0.001120791626161859 -0.015610032595595178 0 -0.00073619557371023387 -0.015319220747541721 0 -0.00075243897874010103 -0.019850892912270924 0 -0.00075804706372345986 -0.019833616756713721 0 -0.00075618619060258379 -0.019838479971711353 0 -0.0010788820037133345 -0.017972735815749347 0 -0.00084261626447217162 -0.017840292919294422 0 -0.00096633625490501803 -0.015980646825897223 0 -0.001120791626161859 -0.015610032595595178 0 -0.0013534120308014053 -0.015998099965122897 0 -0.00075243897874010103 -0.019850892912270924 0 -0.00075136445080250017 -0.019853794530014825 0 -0.00075331152881398847 -0.019860515395390646 0 -0.00075243897874010103 -0.019850892912270924 0 -0.00075618619060258379 -0.019838479971711353 0 -0.00075136445080250017 -0.019853794530014825 0 -0.00097109777537662573 -0.015753555136202173 0 -0.00084261626447217162 -0.017840292919294422 0 -0.00082211102488742615 -0.019780176141236543 0 -0.00076507311658056585 -0.019819991457424586 0 -0.00077792873149622709 -0.019833606884382505 0 -0.00082954272614493862 -0.015515827427178648 0 -0.00082593532889013613 -0.015506828515075927 0 -0.00080587976532629801 -0.015545842326586427 0 -0.0008307981593735597 -0.015523931623686605 0 -0.00082954272614493862 -0.015515827427178648 0 -0.00080587976532629801 -0.015545842326586427 0 -0.00081664924672728164 -0.017650584927398728 0 -0.00084261626447217162 -0.017840292919294422 0 -0.00082593532889013613 -0.015506828515075927 0 -0.00083362082421528205 -0.015505055591333215 0 -0.0008369598716414132 -0.015510901620159815 0 -0.00081664924672728164 -0.017650584927398728 0 -0.00089847388492305595 -0.017454558631637876 0 -0.00082211102488742615 -0.019780176141236543 0 -0.00080437185419219746 -0.019737733101379235 0 -0.00077758925065733687 -0.019781414196252078 0 -0.00082954272614493862 -0.015515827427178648 0 -0.00082593532889013613 -0.015506828515075927 0 -0.00083362082421528205 -0.015505055591333215 0 -0.00083231434783002955 -0.015495513862628933 0 -0.00083362082421528205 -0.015505055591333215 0 -0.0008369598716414132 -0.015510901620159815 0 -0.00057928590018028905 -0.013074405609332733 0 -0.00101332516243883 -0.016190312304313753 0 -0.0003225176341783629 -0.014995996748921691 0 -0.00031669256141076524 -0.01484560352275471 0 -0.0008369598716414132 -0.015510901620159815 0 -0.00083231434783002955 -0.015495513862628933 0 -0.00083369236244288986 -0.015506003463174644 0 -0.00083362082421528205 -0.015505055591333215 0 -0.0003225176341783629 -0.014995996748921691 0 -0.0008369598716414132 -0.015510901620159815 0 -0.00059651448967340548 -0.015442599885787977 0 -0.0008369598716414132 -0.015510901620159815 0 -0.00059651448967340548 -0.015442599885787977 0 -0.00083826005763533841 -0.015519137553371544 0 -0.00037221781397450124 -0.015360232355768519 0 -0.00059651448967340548 -0.015442599885787977 0 -0.00045910871469963065 -0.015739313145250251 0 -0.00059651448967340548 -0.015442599885787977 0 -0.00045910871469963065 -0.015739313145250251 0 -0.00083826005763533841 -0.015519137553371544 0 -0.00082211102488742615 -0.019780176141236543 0 -0.0008715677959091891 -0.019708993360497251 0 -0.00080437185419219746 -0.019737733101379235 0 -0.00082593532889013613 -0.015506828515075927 0 -0.0008369598716414132 -0.015510901620159815 0 -0.00083826005763533841 -0.015519137553371544 0 -0.00081377207264578472 -0.019659535056298458 0 -0.0008715677959091891 -0.019708993360497251 0 -0.00080437185419219746 -0.019737733101379235 0 -0.00081377207264578472 -0.019659535056298458 0 -0.00077519909245035311 -0.019722922758156534 0 -0.0007497866714235601 -0.019712721817155717 0 -0.00081377207264578472 -0.019659535056298458 0 -0.00080437185419219746 -0.019737733101379235 0 -0.00077519909245035311 -0.019722922758156534 0 -0.00074475263320045247 -0.019748622980909812 0 -0.00076765552809370734 -0.01975282070524683 0 -0.0007493064473755055 -0.019777532352745389 0 -0.00074475263320045247 -0.019748622980909812 0 -0.00076765552809370734 -0.01975282070524683 0 -0.00077519909245035311 -0.019722922758156534 0 -0.00080437185419219746 -0.019737733101379235 0 -0.00076765552809370734 -0.01975282070524683 0 -0.00077519909245035311 -0.019722922758156534 0 -0.00074475263320045247 -0.019748622980909812 0 -0.00077519909245035311 -0.019722922758156534 0 -0.0007497866714235601 -0.019712721817155717 0 -0.00074475263320045247 -0.019748622980909812 0 -0.0007497866714235601 -0.019712721817155717 0 -0.00072797803181343405 -0.019736586683106315 0 -0.00067032803706210673 -0.019744357648336965 0 -0.00072787568273874944 -0.019712208720383324 0 -0.00072797803181343405 -0.019736586683106315 0 -0.00072787568273874944 -0.019712208720383324 0 -0.0007497866714235601 -0.019712721817155717 0 -0.00072797803181343405 -0.019736586683106315 0 -0.00067032803706210673 -0.019744357648336965 0 -0.00072797803181343405 -0.019736586683106315 0 -0.00070763897178786027 -0.019766239055761341 0 -0.00074475263320045247 -0.019748622980909812 0 -0.00072797803181343405 -0.019736586683106315 0 -0.00070763897178786027 -0.019766239055761341 0 -0.00074475263320045247 -0.019748622980909812 0 -0.00070763897178786027 -0.019766239055761341 0 -0.0007298908837360421 -0.019773515625647366 0 -0.0007298908837360421 -0.019773515625647366 0 -0.00069723129718428725 -0.019807911033951138 0 -0.00072694078382909227 -0.019797407292369708 0 -0.0007298908837360421 -0.019773515625647366 0 -0.00072694078382909227 -0.019797407292369708 0 -0.0007493064473755055 -0.019777532352745389 0 -0.00070763897178786027 -0.019766239055761341 0 -0.00069723129718428725 -0.019807911033951138 0 -0.00067535233777681362 -0.019792189143469467 0 -0.00070763897178786027 -0.019766239055761341 0 -0.0007298908837360421 -0.019773515625647366 0 -0.00069723129718428725 -0.019807911033951138 0 -0.00072694078382909227 -0.019797407292369708 0 -0.00074863763762548499 -0.019804990168743191 0 -0.00071332343641281515 -0.019822883593254396 0 -0.00069723129718428725 -0.019807911033951138 0 -0.00072694078382909227 -0.019797407292369708 0 -0.00071332343641281515 -0.019822883593254396 0 -0.00074863763762548499 -0.019804990168743191 0 -0.0007493064473755055 -0.019777532352745389 0 -0.00077758925065733687 -0.019781414196252078 0 -0.00072694078382909227 -0.019797407292369708 0 -0.00074863763762548499 -0.019804990168743191 0 -0.0007493064473755055 -0.019777532352745389 0 -0.00074475263320045247 -0.019748622980909812 0 -0.0007298908837360421 -0.019773515625647366 0 -0.0007493064473755055 -0.019777532352745389 0 -0.00080437185419219746 -0.019737733101379235 0 -0.00076765552809370734 -0.01975282070524683 0 -0.00077758925065733687 -0.019781414196252078 0 -0.00076765552809370734 -0.01975282070524683 0 -0.0007493064473755055 -0.019777532352745389 0 -0.00077758925065733687 -0.019781414196252078 0 -0.00082211102488742615 -0.019780176141236543 0 -0.00077758925065733687 -0.019781414196252078 0 -0.00076507311658056585 -0.019819991457424586 0 -0.00074863763762548499 -0.019804990168743191 0 -0.00077758925065733687 -0.019781414196252078 0 -0.00076507311658056585 -0.019819991457424586 0 -0.00074863763762548499 -0.019804990168743191 0 -0.00074692867329812841 -0.019822096062935335 0 -0.00073048831016802966 -0.019830078507105737 0 -0.00074863763762548499 -0.019804990168743191 0 -0.00076507311658056585 -0.019819991457424586 0 -0.00074692867329812841 -0.019822096062935335 0 -0.00076507311658056585 -0.019819991457424586 0 -0.00074692867329812841 -0.019822096062935335 0 -0.00074443734663558127 -0.019832995580450947 0 -0.00074692867329812841 -0.019822096062935335 0 -0.00074443734663558127 -0.019832995580450947 0 -0.00073048831016802966 -0.019830078507105737 0 -0.00074443734663558127 -0.019832995580450947 0 -0.0007298634845953482 -0.019843653080812502 0 -0.00073048831016802966 -0.019830078507105737 0 -0.00075230391652411697 -0.01983606264744487 0 -0.00074976681758057195 -0.019842333668661557 0 -0.0007408760418166914 -0.019845851690825731 0 -0.00074443734663558127 -0.019832995580450947 0 -0.00075230391652411697 -0.01983606264744487 0 -0.0007408760418166914 -0.019845851690825731 0 -0.00074443734663558127 -0.019832995580450947 0 -0.0007408760418166914 -0.019845851690825731 0 -0.0007298634845953482 -0.019843653080812502 0 -0.00076507311658056585 -0.019819991457424586 0 -0.00075881285987543907 -0.019833479124493819 0 -0.00076253019979849045 -0.019831366066515577 0 -0.0012381325354538274 -0.019413840100035402 0 -0.00084261626447217162 -0.017840292919294422 0 -0.00076507311658056585 -0.019819991457424586 0 -0.00074443734663558127 -0.019832995580450947 0 -0.00075230391652411697 -0.01983606264744487 0 -0.00076507311658056585 -0.019819991457424586 0 -0.00075230391652411697 -0.01983606264744487 0 -0.00075881285987543907 -0.019833479124493819 0 -0.00075230391652411697 -0.01983606264744487 0 -0.00075377780584955567 -0.019839354988854727 0 -0.00074976681758057195 -0.019842333668661557 0 -0.00075230391652411697 -0.01983606264744487 0 -0.00075377780584955567 -0.019839354988854727 0 -0.00075881285987543907 -0.019833479124493819 0 -0.00075377780584955567 -0.019839354988854727 0 -0.00075881285987543907 -0.019833479124493819 0 -0.00075618619060258379 -0.019838479971711353 0 -0.00075881285987543907 -0.019833479124493819 0 -0.00076256600339534098 -0.019830440658876732 0 -0.00075618619060258379 -0.019838479971711353 0 -0.00079807793019205609 -0.0179332888337113 0 -0.00084261626447217162 -0.017840292919294422 0 -0.00084261626447217162 -0.017840292919294422 0 -0.00065082318288289581 -0.018399008985429656 0 -0.00075618619060258379 -0.019838479971711353 0 -0.00075062459878262274 -0.019846325261989321 0 -0.00075136445080250017 -0.019853794530014825 0 -0.00075062459878262274 -0.019846325261989321 0 -0.00074564623029227731 -0.019849035094106016 0 -0.00074623156188999664 -0.019855109713411166 0 -0.00075062459878262274 -0.019846325261989321 0 -0.00074976681758057195 -0.019842333668661557 0 -0.00074564623029227731 -0.019849035094106016 0 -0.00075377780584955567 -0.019839354988854727 0 -0.00075062459878262274 -0.019846325261989321 0 -0.00074976681758057195 -0.019842333668661557 0 -0.00075377780584955567 -0.019839354988854727 0 -0.00075618619060258379 -0.019838479971711353 0 -0.00075062459878262274 -0.019846325261989321 0 -0.00074976681758057195 -0.019842333668661557 0 -0.0007408760418166914 -0.019845851690825731 0 -0.00074564623029227731 -0.019849035094106016 0 -0.0007408760418166914 -0.019845851690825731 0 -0.00072397816229678139 -0.019855637181264707 0 -0.0007298634845953482 -0.019843653080812502 0 -0.0007408760418166914 -0.019845851690825731 0 -0.00073241429963056539 -0.019861199394074762 0 -0.00072397816229678139 -0.019855637181264707 0 -0.0007408760418166914 -0.019845851690825731 0 -0.00074564623029227731 -0.019849035094106016 0 -0.00073241429963056539 -0.019861199394074762 0 -0.00074564623029227731 -0.019849035094106016 0 -0.00073241429963056539 -0.019861199394074762 0 -0.00074623156188999664 -0.019855109713411166 0 -0.00073241429963056539 -0.019861199394074762 0 -0.00074623156188999664 -0.019855109713411166 0 -0.00074226630226337644 -0.019864896309511808 0 -0.00073241429963056539 -0.019861199394074762 0 -0.00071187262098275058 -0.019885570850995959 0 -0.00074226630226337644 -0.019864896309511808 0 -0.00075136445080250017 -0.019853794530014825 0 -0.00075331152881398847 -0.019860515395390646 0 -0.00074226630226337644 -0.019864896309511808 0 -0.00075062459878262274 -0.019846325261989321 0 -0.00075136445080250017 -0.019853794530014825 0 -0.00074623156188999664 -0.019855109713411166 0 -0.00075136445080250017 -0.019853794530014825 0 -0.00074623156188999664 -0.019855109713411166 0 -0.00074226630226337644 -0.019864896309511808 0 -0.00070925275259474917 -0.019870198550989069 0 -0.0006794780296733332 -0.019884152844172175 0 -0.00071187262098275058 -0.019885570850995959 0 -0.00073241429963056539 -0.019861199394074762 0 -0.00070925275259474917 -0.019870198550989069 0 -0.00071187262098275058 -0.019885570850995959 0 -0.00072397816229678139 -0.019855637181264707 0 -0.00070925275259474917 -0.019870198550989069 0 -0.00070857689122595549 -0.019851697284518854 0 -0.00073241429963056539 -0.019861199394074762 0 -0.00072397816229678139 -0.019855637181264707 0 -0.00070925275259474917 -0.019870198550989069 0 -0.00070925275259474917 -0.019870198550989069 0 -0.00070857689122595549 -0.019851697284518854 0 -0.0006794780296733332 -0.019884152844172175 0 -0.00070857689122595549 -0.019851697284518854 0 -0.00068563320877149017 -0.019847128520138334 0 -0.0006794780296733332 -0.019884152844172175 0 -0.00072397816229678139 -0.019855637181264707 0 -0.00070857689122595549 -0.019851697284518854 0 -0.0007298634845953482 -0.019843653080812502 0 -0.00070857689122595549 -0.019851697284518854 0 -0.0007298634845953482 -0.019843653080812502 0 -0.00073048831016802966 -0.019830078507105737 0 -0.00070857689122595549 -0.019851697284518854 0 -0.00071332343641281515 -0.019822883593254396 0 -0.00073048831016802966 -0.019830078507105737 0 -0.00074863763762548499 -0.019804990168743191 0 -0.00071332343641281515 -0.019822883593254396 0 -0.00073048831016802966 -0.019830078507105737 0 -0.00069723129718428725 -0.019807911033951138 0 -0.00071332343641281515 -0.019822883593254396 0 -0.00068563320877149017 -0.019847128520138334 0 -0.00070857689122595549 -0.019851697284518854 0 -0.00071332343641281515 -0.019822883593254396 0 -0.00068563320877149017 -0.019847128520138334 0 -0.00068563320877149017 -0.019847128520138334 0 -0.00065645233515716187 -0.019875046024318221 0 -0.00066325569239258204 -0.019834595069639409 0 -0.00069723129718428725 -0.019807911033951138 0 -0.00068563320877149017 -0.019847128520138334 0 -0.00066325569239258204 -0.019834595069639409 0 -0.00068563320877149017 -0.019847128520138334 0 -0.00065645233515716187 -0.019875046024318221 0 -0.0006794780296733332 -0.019884152844172175 0 -0.00065645233515716187 -0.019875046024318221 0 -0.00063338524652398036 -0.019861735262875789 0 -0.00066325569239258204 -0.019834595069639409 0 -0.00065645233515716187 -0.019875046024318221 0 -0.0006794780296733332 -0.019884152844172175 0 -0.00062542149943954704 -0.019914355673698977 0 -0.0006794780296733332 -0.019884152844172175 0 -0.00062542149943954704 -0.019914355673698977 0 -0.00067343627647432588 -0.019914792254037368 0 -0.00058969846779817969 -0.019872974326535998 0 -0.00062542149943954704 -0.019914355673698977 0 -0.00063338524652398036 -0.019861735262875789 0 -0.00065645233515716187 -0.019875046024318221 0 -0.00062542149943954704 -0.019914355673698977 0 -0.00063338524652398036 -0.019861735262875789 0 -0.00057984352582109177 -0.019836646041752708 0 -0.00058969846779817969 -0.019872974326535998 0 -0.0006322778942955418 -0.019817407057747247 0 -0.00058969846779817969 -0.019872974326535998 0 -0.00063338524652398036 -0.019861735262875789 0 -0.0006322778942955418 -0.019817407057747247 0 -0.00063338524652398036 -0.019861735262875789 0 -0.0006322778942955418 -0.019817407057747247 0 -0.00066325569239258204 -0.019834595069639409 0 -0.00069723129718428725 -0.019807911033951138 0 -0.00066325569239258204 -0.019834595069639409 0 -0.00067535233777681362 -0.019792189143469467 0 -0.0006322778942955418 -0.019817407057747247 0 -0.00066325569239258204 -0.019834595069639409 0 -0.00067535233777681362 -0.019792189143469467 0 -0.00081307478763614674 -0.020613878864014425 0 -0.00084864184408393309 -0.022785922220378892 0 -0.00067032803706210673 -0.019744357648336965 0 -0.0006322778942955418 -0.019817407057747247 0 -0.00067535233777681362 -0.019792189143469467 0 -0.00067032803706210673 -0.019744357648336965 0 -0.00070763897178786027 -0.019766239055761341 0 -0.00067535233777681362 -0.019792189143469467 0 -0.00053088404832379095 -0.023165200268914204 0 -0.0003351133396576939 -0.023533657792028595 0 -0.00029041476914289061 -0.023541392705574215 0 -0.00050566152020543756 -0.023152678001818843 0 -0.00084864184408393309 -0.022785922220378892 0 -0.00057984352582109177 -0.019836646041752708 0 -0.0006322778942955418 -0.019817407057747247 0 -0.00061377039309147314 -0.019776427257480529 0 -0.00067032803706210673 -0.019744357648336965 0 -0.0006322778942955418 -0.019817407057747247 0 -0.00061377039309147314 -0.019776427257480529 0 -0.00050566152020543756 -0.023152678001818843 0 -0.00028178329471655582 -0.024489479892553394 0 -0.00028178329471655582 -0.024489479892553394 0 -0.00084864184408393309 -0.022785922220378892 0 0.00043711286523786234 -0.021575206527862604 0 0.00027257609288792116 -0.021419732618422435 0 0.00035915332375821275 -0.021556686965121138 0 0.00040764972358456157 -0.021246862919636476 0 0.00021158759978924681 -0.020820658887355441 0 -9.325610829562605e-05 -0.020931109819405276 0 0.00058252397884649186 -0.021626475412811572 0 -2.1844174323101584e-05 -0.019891165865918943 0 0.00021158759978924681 -0.020820658887355441 0 -9.4082008319396453e-05 -0.020921691362504713 0 0.00012960723841200605 -0.020675580076264428 0 1.1213879722701874e-05 -0.020758597713567809 0 -2.1844174323101584e-05 -0.019891165865918943 0 0.00027257609288792116 -0.021419732618422435 0 0.00031408831631125195 -0.021530702901445806 0 0.00035915332375821275 -0.021556686965121138 0 -2.1844174323101584e-05 -0.019891165865918943 0 -0.00076375428695393604 -0.017098376594851368 0 -2.1844174323101584e-05 -0.019891165865918943 0 -0.00040400671680277316 -0.019095432615561916 0 0.00022135537585183586 -0.021485176704438197 0 0.00027257609288792116 -0.021419732618422435 0 0.00011152148823880272 -0.021498834402206683 0 0.00027156130759861208 -0.021501685046708782 0 0.00022135537585183586 -0.021485176704438197 0 0.00027257609288792116 -0.021419732618422435 0 0.00027156130759861208 -0.021501685046708782 0 0.00027257609288792116 -0.021419732618422435 0 0.00031408831631125195 -0.021530702901445806 0 0.00027156130759861208 -0.021501685046708782 0 0.00022135537585183586 -0.021485176704438197 0 0.00022693904014183051 -0.021517339725186525 0 0.00022135537585183586 -0.021485176704438197 0 0.00011152148823880272 -0.021498834402206683 0 0.00022693904014183051 -0.021517339725186525 0 -2.1844174323101584e-05 -0.019891165865918943 0 -0.00048503517632172147 -0.01818331950119419 0 0.00022733480356684164 -0.023149447193226685 0 0.00023277259334817451 -0.023172875628540691 0 0.00025113773054126877 -0.023125254482839461 0 0.00024351075596074943 -0.022012113195876148 0 -0.00038287613446852853 -0.020623530671640345 0 -9.4082008319396453e-05 -0.020921691362504713 0 0.00012960723841200605 -0.020675580076264428 0 -0.00047611331502805948 -0.020513949962188686 0 0.00020718573618749473 -0.023189907553060843 0 0.00022733480356684164 -0.023149447193226685 0 0.00023277259334817451 -0.023172875628540691 0 -0.0001281028738051402 -0.02130059041105253 0 -0.0002457875101934878 -0.02171891284260246 0 0.00020760123436944412 -0.023215482316860738 0 0.00020718573618749473 -0.023189907553060843 0 0.00023277259334817451 -0.023172875628540691 0 -0.00058740937273838649 -0.019966660117103522 0 -0.00062542149943954704 -0.019914355673698977 0 -0.00064749649367914683 -0.019958951861364274 0 -0.00062542149943954704 -0.019914355673698977 0 -0.00064749649367914683 -0.019958951861364274 0 -0.00067343627647432588 -0.019914792254037368 0 -0.0006794780296733332 -0.019884152844172175 0 -0.00067343627647432588 -0.019914792254037368 0 -0.00071187262098275058 -0.019885570850995959 0 -0.00064749649367914683 -0.019958951861364274 0 -0.00067343627647432588 -0.019914792254037368 0 -0.00070279315642788503 -0.019918081275886918 0 -0.0002457875101934878 -0.02171891284260246 0 -0.00038287613446852853 -0.020623530671640345 0 -0.00064749649367914683 -0.019958951861364274 0 -0.00070279315642788503 -0.019918081275886918 0 -0.00069736824945309096 -0.019956277621958191 0 -0.00071691950325472164 -0.019927860602588221 0 -0.00070279315642788503 -0.019918081275886918 0 -0.00069736824945309096 -0.019956277621958191 0 -0.00071691950325472164 -0.019927860602588221 0 -0.00074454039751330366 -0.019929844950115124 0 -0.00069736824945309096 -0.019956277621958191 0 -0.00070279315642788503 -0.019918081275886918 0 -0.00073735529940859663 -0.019879408733786304 0 -0.00073720912073795507 -0.019901214120228074 0 -0.00071691950325472164 -0.019927860602588221 0 -0.00070279315642788503 -0.019918081275886918 0 -0.00073720912073795507 -0.019901214120228074 0 -0.00067343627647432588 -0.019914792254037368 0 -0.00070279315642788503 -0.019918081275886918 0 -0.00071187262098275058 -0.019885570850995959 0 -0.00070279315642788503 -0.019918081275886918 0 -0.00071187262098275058 -0.019885570850995959 0 -0.00073735529940859663 -0.019879408733786304 0 -0.00071187262098275058 -0.019885570850995959 0 -0.00074226630226337644 -0.019864896309511808 0 -0.00073735529940859663 -0.019879408733786304 0 -0.00075331152881398847 -0.019860515395390646 0 -0.00074226630226337644 -0.019864896309511808 0 -0.00073735529940859663 -0.019879408733786304 0 -0.00075331152881398847 -0.019860515395390646 0 -0.00073735529940859663 -0.019879408733786304 0 -0.00076256311424924489 -0.019857752481368701 0 -0.00073735529940859663 -0.019879408733786304 0 -0.00076256311424924489 -0.019857752481368701 0 -0.00073720912073795507 -0.019901214120228074 0 -0.00076256311424924489 -0.019857752481368701 0 -0.00073720912073795507 -0.019901214120228074 0 -0.00077749036544291869 -0.019902719862127539 0 -0.0010362889226424364 -0.020200570159535063 0 -0.0010228920444127656 -0.017463263004140833 0 -0.00071691950325472164 -0.019927860602588221 0 -0.00073720912073795507 -0.019901214120228074 0 -0.00074454039751330366 -0.019929844950115124 0 -0.0008246017706346493 -0.017431910580711259 0 -0.0010835686664991487 -0.014151918470915219 0 -0.00073720912073795507 -0.019901214120228074 0 -0.00074454039751330366 -0.019929844950115124 0 -0.00077749036544291869 -0.019902719862127539 0 -0.0008246017706346493 -0.017431910580711259 0 -0.0010228920444127656 -0.017463263004140833 0 -0.00044931800943561449 -0.01669525645476801 0 -0.0018609034541529877 -0.016386139290212938 0 -0.0017697710309790026 -0.01589078621793329 0 -0.0007893636597968754 -0.015232224414809863 0 -0.00070766126038223037 -0.015079136647823781 0 -0.00045578149337331697 -0.015246009755745523 0 -0.0007893636597968754 -0.015232224414809863 0 -0.00045578149337331697 -0.015246009755745523 0 -0.00074722862391466219 -0.015406214661905625 0 -0.0007893636597968754 -0.015232224414809863 0 -0.00070766126038223037 -0.015079136647823781 0 -0.00093111989889865852 -0.015019844367027656 0 -0.0007893636597968754 -0.015232224414809863 0 -0.00074722862391466219 -0.015406214661905625 0 -0.00096865213726683675 -0.015225551053823309 0 -0.0004990676177993713 -0.015014367351164412 0 -0.0006613247979548048 -0.011422276529401226 0 -0.00048503517632172147 -0.01818331950119419 0 -0.0004990676177993713 -0.015014367351164412 0 -0.0008246017706346493 -0.017431910580711259 0 -0.00048503517632172147 -0.01818331950119419 0 -9.4082008319396453e-05 -0.020921691362504713 0 -0.00060694557839112233 -0.020588187988524485 0 -0.00047611331502805948 -0.020513949962188686 0 -0.0011011367141631127 -0.018629952673805641 0 -0.00046845910459934081 -0.019027791108621302 0 -0.00016959281476064156 -0.018849639420696111 0 -0.0008246017706346493 -0.017431910580711259 0 -0.00038287613446852853 -0.020623530671640345 0 -0.00048503517632172147 -0.01818331950119419 0 -0.00038287613446852853 -0.020623530671640345 0 -0.00050645894429188351 -0.017413210741664395 0 -0.00046614762451749673 -0.017782683305321657 0 -0.00074906909139558662 -0.017548884490106366 0 -0.00011580873905179956 -0.017669315793936772 0 -0.00050645894429188351 -0.017413210741664395 0 -0.00046614762451749673 -0.017782683305321657 0 -0.00055043036112235487 -0.018857230973455846 0 -0.00021243921569123804 -0.018627416848813121 0 -0.00014756558920047834 -0.018675301389120356 0 -0.00040400671680277316 -0.019095432615561916 0 -0.00076375428695393604 -0.017098376594851368 0 -0.00037908683550139262 -0.014638874315055565 0 -3.9506510432276584e-06 -0.014396920172796928 0 -0.00037663316883190329 -0.014117800428439587 0 -0.00076375428695393604 -0.017098376594851368 0 -0.0004990676177993713 -0.015014367351164412 0 -0.00082951877092082643 -0.014309077986367141 0 -0.00037908683550139262 -0.014638874315055565 0 -0.00037663316883190329 -0.014117800428439587 0 -0.0004990676177993713 -0.015014367351164412 0 -0.00023972059491879168 -0.011160720325821031 0 -0.00023972059491879168 -0.011160720325821031 0 -0.0006613247979548048 -0.011422276529401226 0 -0.0007457295680952761 -0.0076265812128767747 0 -0.0001682510811747234 -0.007715677402646344 0 -0.0010625001329601443 -0.008928114120323058 0 -0.00023972059491879168 -0.011160720325821031 0 0.0001231395631650398 -0.0083105772356680922 0 -0.00063743864571327977 -0.012551365852225282 0 -0.00032109638218957772 -0.012347723588991425 0 -0.00039407746805679981 -0.01273192617502278 0 -0.0007457295680952761 -0.0076265812128767747 0 -0.00023309381998857896 -0.0075992854287066907 0 0.00014799754435125876 -0.0071497754542931636 0 -0.0007457295680952761 -0.0076265812128767747 0 -0.00023309381998857896 -0.0075992854287066907 0 -0.0001682510811747234 -0.007715677402646344 0 -0.00028268081565825746 -0.0076312214858276278 0 -0.00028511505141997576 -0.0076299063484202116 0 7.7226533463103738e-05 -0.0074527950323796891 0 0.00053018680193649386 -0.0074703861480987441 0 0.00014799754435125876 -0.0071497754542931636 0 0.00018072447610537794 -0.0076240145617179492 0 -0.00019918838975708941 -0.0076263399915223237 0 0.00035047778218218477 -0.0079269400842472207 0 -0.00023309381998857896 -0.0075992854287066907 0 7.7226533463103738e-05 -0.0074527950323796891 0 -0.00019918838975708941 -0.0076263399915223237 0 -0.00023309381998857896 -0.0075992854287066907 0 7.7226533463103738e-05 -0.0074527950323796891 0 0.00014799754435125876 -0.0071497754542931636 0 7.7226533463103738e-05 -0.0074527950323796891 0 0.00018072447610537794 -0.0076240145617179492 0 0.00034499148221263197 -0.0076187413358760605 0 7.7226533463103738e-05 -0.0074527950323796891 0 0.00018072447610537794 -0.0076240145617179492 0 -0.00019918838975708941 -0.0076263399915223237 0 -0.00048219098076966049 -0.0078793218201382315 0 6.9581175322233792e-05 -0.010264510244727515 0 0.00089314146790286616 -0.0093129666410366498 0 -0.00028511505141997576 -0.0076299063484202116 0 0.0004435714791546016 -0.0087565743273843189 0 -0.00028511505141997576 -0.0076299063484202116 0 0.00025687348795646854 -0.01104540526883588 0 -0.0001682510811747234 -0.007715677402646344 0 -0.00037891932928946974 -0.0095021977612985992 0 0.00045666705930760989 -0.01013382265853236 0 0.00018072447610537794 -0.0076240145617179492 0 0.00035047778218218477 -0.0079269400842472207 0 0.00034499148221263197 -0.0076187413358760605 0 -0.0010871153659452039 -0.0096375164295552877 0 -0.0006613247979548048 -0.011422276529401226 0 -0.0001682510811747234 -0.007715677402646344 0 -0.00037891932928946974 -0.0095021977612985992 0 -0.0010625001329601443 -0.008928114120323058 0 -0.00037891932928946974 -0.0095021977612985992 0 -0.0010893470378795394 -0.0089823521805775311 0 -0.0012454371576927229 -0.0097805475515902185 0 -0.0006613247979548048 -0.011422276529401226 0 -0.0010835686664991487 -0.014151918470915219 0 -0.0007893636597968754 -0.015232224414809863 0 -0.00096865213726683675 -0.015225551053823309 0 -0.00093111989889865852 -0.015019844367027656 0 -0.0010228920444127656 -0.017463263004140833 0 -0.00040517768395173872 -0.016122025756830052 0 -0.00037891932928946974 -0.0095021977612985992 0 -0.0012454371576927229 -0.0097805475515902185 0 0.00045666705930760989 -0.01013382265853236 0 -0.00076256311424924489 -0.019857752481368701 0 -0.000761188844150403 -0.019812434588347312 0 -0.00073104544245204933 -0.019823314305422522 0 -0.0010835686664991487 -0.014151918470915219 0 0.00025687348795646854 -0.01104540526883588 0 -0.00038178076566285058 -0.014520722956728724 0 -0.00047870769796330497 -0.014450791692768529 0 -0.00049597846414675207 -0.014496371793916458 0 -0.00038547913168875803 -0.014538644385830623 0 -0.00038178076566285058 -0.014520722956728724 0 -0.00049597846414675207 -0.014496371793916458 0 -0.0010835686664991487 -0.014151918470915219 0 -0.0010228920444127656 -0.017463263004140833 0 -0.00075243897874010103 -0.019850892912270924 0 -0.00075331152881398847 -0.019860515395390646 0 -0.00076256311424924489 -0.019857752481368701 0 -0.0010788820037133345 -0.017972735815749347 0 -0.00040517768395173872 -0.016122025756830052 0 -0.00075243897874010103 -0.019850892912270924 0 -0.00076256311424924489 -0.019857752481368701 0 -0.00073104544245204933 -0.019823314305422522 0 -0.001120791626161859 -0.015610032595595178 0 -0.0008891619091703619 -0.015230523484006662 0 -0.00073619557371023387 -0.015319220747541721 0 -0.00013634798574429011 -0.01396197766191213 0 0.00013900435212045584 -0.014127998329980981 0 3.9179278535474523e-05 -0.01367638844402908 0 -0.00040517768395173872 -0.016122025756830052 0 -0.00020937736604644328 -0.013225049693864359 0 0.00034194419159030163 -0.010339547412664598 0 0.00034121584695882623 -0.010332881561849803 0 0.00034404428939962455 -0.010340901886521545 0 -0.00020937736604644328 -0.013225049693864359 0 0.00020866621658209941 -0.012170859701585799 0 0.00034121584695882623 -0.010332881561849803 0 0.00034404428939962455 -0.010340901886521545 0 0.00034304552102750997 -0.010341662949800079 0 0.0003222674165595219 -0.011076381206982705 0 0.00039735704865215851 -0.011395947177288174 0 0.00015626597122837417 -0.011343841044922828 0 0.00020866621658209941 -0.012170859701585799 0 0.00038833957081084696 -0.010977378880286871 0 -0.00047870769796330497 -0.014450791692768529 0 -0.00050025784729636137 -0.014479076176725798 0 -0.00049597846414675207 -0.014496371793916458 0 -0.00040517768395173872 -0.016122025756830052 0 0.00020866621658209941 -0.012170859701585799 0 0.00020866621658209941 -0.012170859701585799 0 0.00025687348795646854 -0.01104540526883588 0 6.9581175322233792e-05 -0.010264510244727515 0 0.00028063084171664639 -0.010310102142461416 0 0.00089314146790286616 -0.0093129666410366498 0 0.00038833957081084696 -0.010977378880286871 0 0.0004435714791546016 -0.0087565743273843189 0 0.00025687348795646854 -0.01104540526883588 0 0.00038833957081084696 -0.010977378880286871 0 0.00044587164807929555 -0.00911631712755844 0 0.0004435714791546016 -0.0087565743273843189 0 0.00031972830118725312 -0.010314515735844786 0 0.00033954722156855869 -0.01032016178198461 0 0.00033421930080157291 -0.010289577017534053 0 0.00033954722156855869 -0.01032016178198461 0 0.00034766383649529031 -0.010321787321167076 0 0.00033421930080157291 -0.010289577017534053 0 0.00053083747593477189 -0.007754737411911598 0 0.00052388228724471882 -0.0076728959380519095 0 0.0004501225960307153 -0.0076728779528490087 0 0.00033954722156855869 -0.01032016178198461 0 0.00034317140527084875 -0.010327503443623936 0 0.00034766383649529031 -0.010321787321167076 0 0.00038833957081084696 -0.010977378880286871 0 0.00027201046515271484 -0.010393294104999434 0 0.00034121584695882623 -0.010332881561849803 0 0.00034304552102750997 -0.010341662949800079 0 0.00033954722156855869 -0.01032016178198461 0 0.00034121584695882623 -0.010332881561849803 0 0.00033954722156855869 -0.01032016178198461 0 0.00034317140527084875 -0.010327503443623936 0 -0.00020937736604644328 -0.013225049693864359 0 0.00016579498515493902 -0.011257965217919908 0 0.00034194419159030163 -0.010339547412664598 0 0.00034317140527084875 -0.010327503443623936 0 0.00034442231157856979 -0.010325059194041737 0 0.00034194419159030163 -0.010339547412664598 0 0.00034121584695882623 -0.010332881561849803 0 0.00034317140527084875 -0.010327503443623936 0 0.00034317140527084875 -0.010327503443623936 0 0.00034442231157856979 -0.010325059194041737 0 0.00034392083625119047 -0.010318865029155756 0 0.00065413091507712361 -0.0079027554941273476 0 0.00053083747593477189 -0.007754737411911598 0 0.00064937441869317299 -0.0077144043532462537 0 0.00056437518577765779 -0.0088154849391292815 0 0.00044587164807929555 -0.00911631712755844 0 0.00033780060454474025 -0.010309276080993796 0 0.00034392083625119047 -0.010318865029155756 0 0.00034766383649529031 -0.010321787321167076 0 0.00034317140527084875 -0.010327503443623936 0 0.00034392083625119047 -0.010318865029155756 0 0.00034766383649529031 -0.010321787321167076 0 0.00053083747593477189 -0.007754737411911598 0 0.00052388228724471882 -0.0076728959380519095 0 0.00064937441869317299 -0.0077144043532462537 0 0.00052388228724471882 -0.0076728959380519095 0 0.00046511006365357598 -0.0076517783047400359 0 0.00064430204946360381 -0.0075650805807734953 0 0.00052388228724471882 -0.0076728959380519095 0 0.00064937441869317299 -0.0077144043532462537 0 0.00064430204946360381 -0.0075650805807734953 0 0.00052388228724471882 -0.0076728959380519095 0 0.0004501225960307153 -0.0076728779528490087 0 0.00046511006365357598 -0.0076517783047400359 0 0.0004435714791546016 -0.0087565743273843189 0 0.00066297093097509392 -0.0076818415882424799 0 0.00035047778218218477 -0.0079269400842472207 0 0.00046511006365357598 -0.0076517783047400359 0 0.00034499148221263197 -0.0076187413358760605 0 0.0011034503073425828 -0.0048540627018194759 0 0.0001231395631650398 -0.0083105772356680922 0 7.7226533463103738e-05 -0.0074527950323796891 0 0.00048138147208443694 -0.0075532231262723376 0 0.00034499148221263197 -0.0076187413358760605 0 7.7226533463103738e-05 -0.0074527950323796891 0 0.00048138147208443694 -0.0075532231262723376 0 0.00053018680193649386 -0.0074703861480987441 0 0.00046511006365357598 -0.0076517783047400359 0 0.00048138147208443694 -0.0075532231262723376 0 0.00034499148221263197 -0.0076187413358760605 0 0.00074020819294256233 -0.0057657342467135712 0 0.0011034503073425828 -0.0048540627018194759 0 0.0011034503073425828 -0.0048540627018194759 0 0.0015518266807194546 -0.0037961770738424404 0 0.0029161286947944876 -0.000700109804318223 0 0.0023136809009144093 -0.0003006690848519281 0 0.0023778752757030661 -0.00092019385730276787 0 0.00046511006365357598 -0.0076517783047400359 0 0.00048138147208443694 -0.0075532231262723376 0 0.00064430204946360381 -0.0075650805807734953 0 0.00048138147208443694 -0.0075532231262723376 0 0.0004906195255414454 -0.0075313610131333194 0 0.00064430204946360381 -0.0075650805807734953 0 0.0029161286947944876 -0.000700109804318223 0 0.002758801724617177 -0.001019482851777196 0 0.0023778752757030661 -0.00092019385730276787 0 0.002758801724617177 -0.001019482851777196 0 0.0026012287326117266 -0.0013565745014136106 0 0.0023778752757030661 -0.00092019385730276787 0 0.0016526349517071339 -0.0056319409836807803 0 0.0012077784084965457 -0.0053897599999358572 0 0.0020146232082197827 -0.0048947682411541356 0 0.0024340904921319991 -0.0028774136888803847 0 0.0020708180584053143 -0.0049782445129392637 0 0.0012925362516897469 -0.0063665972077712116 0 0.0011904601389465786 -0.0058601105990339127 0 0.00040981919884573492 -0.0058910048575179352 0 0.0012925362516897469 -0.0063665972077712116 0 0.0016526349517071339 -0.0056319409836807803 0 0.0011904601389465786 -0.0058601105990339127 0 0.0011034503073425828 -0.0048540627018194759 0 0.0024340904921319991 -0.0028774136888803847 0 0.0011904601389465786 -0.0058601105990339127 0 0.0012077784084965457 -0.0053897599999358572 0 0.00040981919884573492 -0.0058910048575179352 0 0.00099963760174751233 -0.0073670051870036559 0 0.0001231395631650398 -0.0083105772356680922 0 0.00098018755519891482 -0.0092113074429264839 0 0.00068075890044595874 -0.0088375989116042976 0 5.2186716677000099e-05 -0.009793239932276666 0 0.0016526349517071339 -0.0056319409836807803 0 0.0011904601389465786 -0.0058601105990339127 0 0.0012077784084965457 -0.0053897599999358572 0 0.00099963760174751233 -0.0073670051870036559 0 0.0020708180584053143 -0.0049782445129392637 0 0.00098018755519891482 -0.0092113074429264839 0 0.00068075890044595874 -0.0088375989116042976 0 0.0019228631449259134 -0.008618498085297353 0 -5.2344495060222084e-06 -0.012280080321194736 0 6.6728729272891264e-05 -0.011946318874478811 0 0.00090038471947167598 -0.012074374616008205 0 0.00036808648538228992 -0.010607216803321674 0 0.0010041804570567335 -0.0084314901274338896 0 -5.2344495060222084e-06 -0.012280080321194736 0 6.6728729272891264e-05 -0.011946318874478811 0 -0.00021335583978453155 -0.011927768029169691 0 0.0026012287326117266 -0.0013565745014136106 0 0.0023778752757030661 -0.00092019385730276787 0 0.0022805286671232728 -0.0012950023123850249 0 0.00068075890044595874 -0.0088375989116042976 0 0.0019228631449259134 -0.008618498085297353 0 0.0020837843910145462 -0.0082796616279708947 0 0.0010802461479519087 -0.005824094010299043 0 0.0011270352183252615 -0.0057287974945509443 0 0.0013982146436381598 -0.0056261785061862057 0 0.0020708180584053143 -0.0049782445129392637 0 0.0010041804570567335 -0.0084314901274338896 0 0.0010041804570567335 -0.0084314901274338896 0 0.00082746252244173684 -0.0088570642393108866 0 0.00090038471947167598 -0.012074374616008205 0 0.00021660107682413646 -0.011624332418350843 0 0.0013230886754998037 -0.011472111148308581 0 0.00024764818457039304 -0.011135365307195255 0 0.00021660107682413646 -0.011624332418350843 0 0.0013230886754998037 -0.011472111148308581 0 1.2860643792322515e-06 -0.010066942179781119 0 0.00024764818457039304 -0.011135365307195255 0 0.0013230886754998037 -0.011472111148308581 0 -1.8783849171212542e-09 -0.010059899634040099 0 4.9946938507462557e-06 -0.0086788114519056429 0 1.2360980070436253e-08 -0.0079789110717892724 0 5.0362770840319654e-07 -0.010065361106953111 0 0.00082746252244173684 -0.0088570642393108866 0 1.2860643792322515e-06 -0.010066942179781119 0 0.00024764818457039304 -0.011135365307195255 0 -0.00011269456228100794 -0.011442506330290595 0 0.00021660107682413646 -0.011624332418350843 0 -0.00011269456228100794 -0.011442506330290595 0 -0.00021335583978453155 -0.011927768029169691 0 6.6728729272891264e-05 -0.011946318874478811 0 0.00021660107682413646 -0.011624332418350843 0 -0.00021335583978453155 -0.011927768029169691 0 6.6728729272891264e-05 -0.011946318874478811 0 0.00090038471947167598 -0.012074374616008205 0 0.00021660107682413646 -0.011624332418350843 0 0.00024764818457039304 -0.011135365307195255 0 0.00021660107682413646 -0.011624332418350843 0 -0.00011269456228100794 -0.011442506330290595 0 -0.00041415423838494169 -0.011820995431104486 0 -0.00011269456228100794 -0.011442506330290595 0 -0.00060004902921401149 -0.011643799105883673 0 -0.00041415423838494169 -0.011820995431104486 0 -0.00011269456228100794 -0.011442506330290595 0 -0.00021335583978453155 -0.011927768029169691 0 1.2860643792322515e-06 -0.010066942179781119 0 -5.0740497923405729e-07 -0.011763876222192602 0 -0.00011269456228100794 -0.011442506330290595 0 -5.0740497923405729e-07 -0.011763876222192602 0 -0.00011269456228100794 -0.011442506330290595 0 -1.1509828453344633e-05 -0.012905895258451473 0 -0.00016787464973849628 -0.011658740765684246 0 -0.000409735304425634 -0.012288170708141363 0 -5.0740497923405729e-07 -0.011763876222192602 0 -1.1509828453344633e-05 -0.012905895258451473 0 -7.1727131424742372e-08 -0.013464218508660241 0 -0.00060004902921401149 -0.011643799105883673 0 -0.00066098249322611041 -0.011902248022058566 0 -0.0010106240655870392 -0.011832045150131013 0 -0.00041415423838494169 -0.011820995431104486 0 -0.00066098249322611041 -0.011902248022058566 0 -0.00051103533548398268 -0.012055319619883046 0 -0.00041415423838494169 -0.011820995431104486 0 -0.00060004902921401149 -0.011643799105883673 0 -0.00066098249322611041 -0.011902248022058566 0 -0.00066098249322611041 -0.011902248022058566 0 -0.00066289910258914247 -0.012090624614989508 0 -0.00082922408386093766 -0.012041336184132442 0 -0.00066289910258914247 -0.012090624614989508 0 -0.00074379846032479645 -0.012303223583516709 0 -0.00082922408386093766 -0.012041336184132442 0 -0.00066289910258914247 -0.012090624614989508 0 -0.00074379846032479645 -0.012303223583516709 0 -0.00052884526581755244 -0.012168938591089251 0 -0.00073125069842511952 -0.015982953882741801 0 -0.00015776391926798904 -0.012780615222022201 0 -0.00064396248874079424 -0.014167167086679132 0 -0.00011182645393527642 -0.01385074825890123 0 -0.00021399486915258512 -0.014403911292108596 0 -0.00015776391926798904 -0.012780615222022201 0 -0.00020364542405989591 -0.013325302328154572 0 -0.00066098249322611041 -0.011902248022058566 0 -0.00066289910258914247 -0.012090624614989508 0 -0.00051103533548398268 -0.012055319619883046 0 -0.00015776391926798904 -0.012780615222022201 0 -0.00018570638874442028 -0.012435022575862931 0 -0.00066289910258914247 -0.012090624614989508 0 -0.00052884526581755244 -0.012168938591089251 0 -0.00051103533548398268 -0.012055319619883046 0 -0.00052766542875328469 -0.012164500020178458 0 -0.00051103533548398268 -0.012055319619883046 0 -0.00021335583978453155 -0.011927768029169691 0 -0.00015776391926798904 -0.012780615222022201 0 -0.00026578874083926752 -0.011983709311614684 0 -5.2344495060222084e-06 -0.012280080321194736 0 -0.00062995967317552273 -0.012187046051878659 0 -0.00062355382844971161 -0.012502739148833566 0 -5.2344495060222084e-06 -0.012280080321194736 0 -0.00062995967317552273 -0.012187046051878659 0 -0.00021335583978453155 -0.011927768029169691 0 -0.00041415423838494169 -0.011820995431104486 0 -0.00051103533548398268 -0.012055319619883046 0 -0.00021335583978453155 -0.011927768029169691 0 0.00068075890044595874 -0.0088375989116042976 0 5.2186716677000099e-05 -0.009793239932276666 0 -0.00069456682731258549 -0.0093892349272470133 0 0.00036808648538228992 -0.010607216803321674 0 -0.00035591695365849653 -0.012199506301314939 0 0.0001231395631650398 -0.0083105772356680922 0 -0.00035591695365849653 -0.012199506301314939 0 -0.00028481191713260217 -0.010810919114332691 0 -0.00019520160899322121 -0.010746645379713038 0 -0.00026901887366298879 -0.010730159938811233 0 -0.00035965711722654644 -0.015857292586630926 0 -2.1785443399852078e-05 -0.016137757643667643 0 -0.00074637385972475725 -0.016437681420114304 0 -3.9506510432276584e-06 -0.014396920172796928 0 8.1098157850584358e-05 -0.013928759323042099 0 -0.00037663316883190329 -0.014117800428439587 0 -0.00023972059491879168 -0.011160720325821031 0 -0.00028725609628509036 -0.013119427836190821 0 -0.00028725609628509036 -0.013119427836190821 0 -0.0005900000485387683 -0.015290453227962894 0 -0.00073125069842511952 -0.015982953882741801 0 -0.00020364542405989591 -0.013325302328154572 0 -0.00035965711722654644 -0.015857292586630926 0 -5.5699469824264991e-06 -0.016046501629430672 0 -2.1785443399852078e-05 -0.016137757643667643 0 -0.00062995967317552273 -0.012187046051878659 0 -0.00067964734706051912 -0.012471727088244223 0 -0.00062355382844971161 -0.012502739148833566 0 -0.00019520160899322121 -0.010746645379713038 0 -0.00025692141682605942 -0.010724523387994121 0 -0.00026901887366298879 -0.010730159938811233 0 -0.00038279389464353127 -0.012294679125641327 0 -3.6516035911734633e-05 -0.012488914570592671 0 -0.00044740638191052232 -0.012645425195662996 0 -0.00035591695365849653 -0.012199506301314939 0 -0.00028725609628509036 -0.013119427836190821 0 -0.00020364542405989591 -0.013325302328154572 0 -0.00035591695365849653 -0.012199506301314939 0 -0.00020364542405989591 -0.013325302328154572 0 -0.00028725609628509036 -0.013119427836190821 0 -0.00076375428695393604 -0.017098376594851368 0 -0.0005900000485387683 -0.015290453227962894 0 -0.0014638548178998103 -0.016737284359595855 0 -0.00098510095122414463 -0.016245095732743346 0 -0.00074637385972475725 -0.016437681420114304 0 -0.00035965711722654644 -0.015857292586630926 0 -0.00098510095122414463 -0.016245095732743346 0 -0.00074637385972475725 -0.016437681420114304 0 -0.00073125069842511952 -0.015982953882741801 0 -0.0014229616325316266 -0.018330298535385335 0 -0.0016030817407637545 -0.016633034791894305 0 -0.0014638548178998103 -0.016737284359595855 0 -0.00098510095122414463 -0.016245095732743346 0 -0.00096308804365122594 -0.019923568576094765 0 -0.0010939452704606272 -0.020190694172224431 0 -0.00090772670051546202 -0.02043122270369575 0 -0.00040400671680277316 -0.019095432615561916 0 -0.0014229616325316266 -0.018330298535385335 0 -0.0013831584197746723 -0.020161046347258849 0 -0.0010939452704606272 -0.020190694172224431 0 -0.0013132269553744014 -0.020681391557255839 0 -0.00096308804365122594 -0.019923568576094765 0 -0.0013831584197746723 -0.020161046347258849 0 -0.0010939452704606272 -0.020190694172224431 0 -0.0010939452704606272 -0.020190694172224431 0 -0.00090772670051546202 -0.02043122270369575 0 -0.0013132269553744014 -0.020681391557255839 0 -0.0013563997965823354 -0.016317801181485157 0 -0.00063627253659658109 -0.017177444766133292 0 -0.00090772670051546202 -0.02043122270369575 0 -0.0013132269553744014 -0.020681391557255839 0 -0.00081495630310460113 -0.020998554094698509 0 -0.00074379846032479645 -0.012303223583516709 0 -0.0010741783019025271 -0.012117761305826986 0 -0.00082922408386093766 -0.012041336184132442 0 -0.0017878920883958799 -0.020371663897071079 0 -0.0013831584197746723 -0.020161046347258849 0 -0.0013132269553744014 -0.020681391557255839 0 -0.00073125069842511952 -0.015982953882741801 0 -0.0013563997965823354 -0.016317801181485157 0 -0.00066098249322611041 -0.011902248022058566 0 -0.00082922408386093766 -0.012041336184132442 0 -0.0010106240655870392 -0.011832045150131013 0 -0.000409735304425634 -0.012288170708141363 0 -0.00051530725459133912 -0.012742827054081687 0 -0.0010741783019025271 -0.012117761305826986 0 -0.00082922408386093766 -0.012041336184132442 0 -0.0010106240655870392 -0.011832045150131013 0 -1.1509828453344633e-05 -0.012905895258451473 0 -0.00010028644004653095 -0.014186568294890232 0 -7.1727131424742372e-08 -0.013464218508660241 0 -0.00010028644004653095 -0.014186568294890232 0 -7.1727131424742372e-08 -0.013464218508660241 0 -0.00012550170997808807 -0.014722960451575163 0 -7.1727131424742372e-08 -0.013464218508660241 0 -3.5773208622027474e-07 -0.015163575217949435 0 -0.00012550170997808807 -0.014722960451575163 0 -3.5773208622027474e-07 -0.015163575217949435 0 -0.00012550170997808807 -0.014722960451575163 0 -6.8397905383111733e-05 -0.015530991841143021 0 -0.00010028644004653095 -0.014186568294890232 0 -0.00012550170997808807 -0.014722960451575163 0 -0.00010708103855461496 -0.014844569727390206 0 -0.0010741783019025271 -0.012117761305826986 0 -0.0010106240655870392 -0.011832045150131013 0 -0.0013689981508754343 -0.011988212431715878 0 -0.00051530725459133912 -0.012742827054081687 0 -0.00063627253659658109 -0.017177444766133292 0 -0.00063627253659658109 -0.017177444766133292 0 9.3828275057815127e-06 -0.01891837445313448 0 -0.00012550170997808807 -0.014722960451575163 0 -0.00010708103855461496 -0.014844569727390206 0 -6.8397905383111733e-05 -0.015530991841143021 0 -0.00010708103855461496 -0.014844569727390206 0 -6.8397905383111733e-05 -0.015530991841143021 0 0.00012039330525152109 -0.016159315920866966 0 -0.00063627253659658109 -0.017177444766133292 0 -0.00041158474113889764 -0.021655885017038971 0 -3.5773208622027474e-07 -0.015163575217949435 0 -6.8397905383111733e-05 -0.015530991841143021 0 -5.8788951871964267e-09 -0.016863165819123518 0 -6.8397905383111733e-05 -0.015530991841143021 0 -5.8788951871964267e-09 -0.016863165819123518 0 0.00012039330525152109 -0.016159315920866966 0 6.494042484206601e-07 -0.018628005062428885 0 -5.8788951871964267e-09 -0.016863165819123518 0 0.00012039330525152109 -0.016159315920866966 0 0.00013674080681524747 -0.021289743646020518 0 -8.1264171468208555e-05 -0.021382360181441781 0 4.5492659057696108e-06 -0.021142573251979973 0 -8.1264171468208555e-05 -0.021382360181441781 0 4.5492659057696108e-06 -0.021142573251979973 0 -0.00013487785204743241 -0.020937313717025167 0 -0.0006817969550960897 -0.021021312207927235 0 -8.1264171468208555e-05 -0.021382360181441781 0 -0.00013487785204743241 -0.020937313717025167 0 0.00010635809386106271 -0.020931125994874712 0 4.5492659057696108e-06 -0.021142573251979973 0 -0.00013487785204743241 -0.020937313717025167 0 0.00020857797053779861 -0.021235079486999403 0 3.5946554533726302e-05 -0.021223739698933559 0 0.00010635809386106271 -0.020931125994874712 0 -0.00013487785204743241 -0.020937313717025167 0 -0.00040544333911901338 -0.020388674290672201 0 0.00042047095948771204 -0.021623044780507954 0 0.00038803169211860955 -0.021630267666819063 0 0.00030214589825250772 -0.021636671625629666 0 -0.00090772670051546202 -0.02043122270369575 0 -0.00081495630310460113 -0.020998554094698509 0 -0.00056857773618941879 -0.020690039709850973 0 -0.00081495630310460113 -0.020998554094698509 0 -0.00013487785204743241 -0.020937313717025167 0 -0.00056857773618941879 -0.020690039709850973 0 -0.00090772670051546202 -0.02043122270369575 0 -0.00056857773618941879 -0.020690039709850973 0 -0.00040544333911901338 -0.020388674290672201 0 -0.00013487785204743241 -0.020937313717025167 0 -0.00056857773618941879 -0.020690039709850973 0 -0.00040544333911901338 -0.020388674290672201 0 0.00011152148823880272 -0.021498834402206683 0 0.00030214589825250772 -0.021636671625629666 0 0.00022693904014183051 -0.021517339725186525 0 -0.00040400671680277316 -0.019095432615561916 0 3.5946554533726302e-05 -0.021223739698933559 0 -0.00096308804365122594 -0.019923568576094765 0 -0.00090772670051546202 -0.02043122270369575 0 -0.00040544333911901338 -0.020388674290672201 0 0.00030214589825250772 -0.021636671625629666 0 0.00022693904014183051 -0.021517339725186525 0 0.00029633636949572033 -0.021562031143444498 0 0.00027156130759861208 -0.021501685046708782 0 0.00022693904014183051 -0.021517339725186525 0 0.00029633636949572033 -0.021562031143444498 0 0.00027156130759861208 -0.021501685046708782 0 0.00029633636949572033 -0.021562031143444498 0 0.00031408831631125195 -0.021530702901445806 0 0.00031408831631125195 -0.021530702901445806 0 0.00035915332375821275 -0.021556686965121138 0 0.0003500757228566904 -0.021602766953637817 0 0.00029633636949572033 -0.021562031143444498 0 0.00031408831631125195 -0.021530702901445806 0 0.0003500757228566904 -0.021602766953637817 0 0.00035915332375821275 -0.021556686965121138 0 0.00040333374789012718 -0.021618966673954829 0 0.0003500757228566904 -0.021602766953637817 0 0.00043711286523786234 -0.021575206527862604 0 0.00035915332375821275 -0.021556686965121138 0 0.00040333374789012718 -0.021618966673954829 0 0.00038803169211860955 -0.021630267666819063 0 0.00040333374789012718 -0.021618966673954829 0 0.0003500757228566904 -0.021602766953637817 0 0.00038803169211860955 -0.021630267666819063 0 0.00030214589825250772 -0.021636671625629666 0 0.0003500757228566904 -0.021602766953637817 0 0.00030214589825250772 -0.021636671625629666 0 0.00029633636949572033 -0.021562031143444498 0 0.0003500757228566904 -0.021602766953637817 0 0.00047238412581815289 2.0510400954552107e-05 0 -0.000129063898517698 3.1480007542594455e-05 0 0.00021706097801177081 0.00046808706818980879 0 0.00047238412581815289 2.0510400954552107e-05 0 -0.000129063898517698 3.1480007542594455e-05 0 6.5652112779478709e-05 -0.00063589983704209979 0 0.00055896740098369108 -7.4462582492564985e-05 0 6.5652112779478709e-05 -0.00063589983704209979 0 0.00073493220991124983 -0.00069254763857787933 0 0.00064064915018547991 0.00060906178275757842 0 -1.1414450593188802e-06 -0.00087847367790759698 0 -0.00059328016943345138 -0.00040878639154116615 0 -0.000129063898517698 3.1480007542594455e-05 0 6.5652112779478709e-05 -0.00063589983704209979 0 -0.00059328016943345138 -0.00040878639154116615 0 -0.00062196951674446199 0.00011303546502746892 0 -0.001225604986993937 2.7422060203660785e-05 0 -0.00059328016943345138 -0.00040878639154116615 0 -0.00062196951674446199 0.00011303546502746892 0 -0.000129063898517698 3.1480007542594455e-05 0 -0.00062196951674446199 0.00011303546502746892 0 -0.000129063898517698 3.1480007542594455e-05 0 -0.00030502619685565061 0.00061962165041754144 0 -0.00062196951674446199 0.00011303546502746892 0 -0.00030502619685565061 0.00061962165041754144 0 -0.0009533363011270321 0.00054775847951676188 0 -0.00076680998896007336 0.0010570220761327437 0 -0.00030502619685565061 0.00061962165041754144 0 -0.0009533363011270321 0.00054775847951676188 0 -0.00029281879680851346 0.0013224335191351021 0 -0.00076680998896007336 0.0010570220761327437 0 -0.00030502619685565061 0.00061962165041754144 0 -0.00030502619685565061 0.00061962165041754144 0 0.00029268388294101182 0.00097551337554067344 0 0.00021706097801177081 0.00046808706818980879 0 -0.00029281879680851346 0.0013224335191351021 0 -0.00030502619685565061 0.00061962165041754144 0 0.00029268388294101182 0.00097551337554067344 0 -0.000129063898517698 3.1480007542594455e-05 0 -0.00030502619685565061 0.00061962165041754144 0 0.00021706097801177081 0.00046808706818980879 0 0.00064064915018547991 0.00060906178275757842 0 0.00092263169493765206 -0.0024435836443707556 0 0.00047238412581815289 2.0510400954552107e-05 0 0.00021706097801177081 0.00046808706818980879 0 0.00086731180329366613 0.00062792351336481231 0 0.00029268388294101182 0.00097551337554067344 0 0.00021706097801177081 0.00046808706818980879 0 0.00086731180329366613 0.00062792351336481231 0 -0.00038644687677041336 -0.00018903114344969465 0 0.00092263169493765206 -0.0024435836443707556 0 -0.00015911701066703904 -0.0014526824940574922 0 -0.00073949816909234299 -0.0018501973511143711 0 6.7982199053878836e-05 -0.0023039488981139119 0 0.00073186283866621103 -0.005136025877079029 0 0.00092263169493765206 -0.0024435836443707556 0 0.0012017556111049803 -0.0081866624333816335 0 0.001405866280753118 -0.007730612257704988 0 0.0010228401916649995 -0.0078632129314574421 0 0.00099674353754655937 0.00050428720536514011 0 0.0016650344166392846 0.00012135447904956215 0 0.0012197648110757655 -0.00023926410133767763 0 0.001405866280753118 -0.007730612257704988 0 0.0010228401916649995 -0.0078632129314574421 0 0.00091178191724901271 -0.0075753723083930519 0 0.00092263169493765206 -0.0024435836443707556 0 0.0013796802964650384 -0.0039477733465263431 0 0.00065413091507712361 -0.0079027554941273476 0 0.00075483780499207155 -0.007801121758793635 0 0.00064937441869317299 -0.0077144043532462537 0 0.00056437518577765779 -0.0088154849391292815 0 0.00085658325691703209 -0.0076739307034070095 0 0.00063091288397155456 -0.0081199871452022846 0 0.00043080807067564304 -0.0080703438887046175 0 0.00075483780499207155 -0.007801121758793635 0 0.00086312144374793033 -0.0080977312901721939 0 0.0010228401916649995 -0.0078632129314574421 0 0.00075483780499207155 -0.007801121758793635 0 0.00086312144374793033 -0.0080977312901721939 0 0.00063091288397155456 -0.0081199871452022846 0 0.00075483780499207155 -0.007801121758793635 0 0.0010228401916649995 -0.0078632129314574421 0 0.00075483780499207155 -0.007801121758793635 0 0.00091178191724901271 -0.0075753723083930519 0 0.00075483780499207155 -0.007801121758793635 0 0.00091178191724901271 -0.0075753723083930519 0 0.00064937441869317299 -0.0077144043532462537 0 0.00091178191724901271 -0.0075753723083930519 0 0.00064937441869317299 -0.0077144043532462537 0 0.00064430204946360381 -0.0075650805807734953 0 0.0016650344166392846 0.00012135447904956215 0 0.0023136809009144093 -0.0003006690848519281 0 0.0018859561133413175 -0.00056977213219470014 0 0.0013796802964650384 -0.0039477733465263431 0 0.0015518266807194546 -0.0037961770738424404 0 0.0023136809009144093 -0.0003006690848519281 0 0.0018859561133413175 -0.00056977213219470014 0 0.0023778752757030661 -0.00092019385730276787 0 0.00055896740098369108 -7.4462582492564985e-05 0 0.00099674353754655937 0.00050428720536514011 0 0.0012197648110757655 -0.00023926410133767763 0 0.0016650344166392846 0.00012135447904956215 0 0.0018859561133413175 -0.00056977213219470014 0 0.0012197648110757655 -0.00023926410133767763 0 0.0018859561133413175 -0.00056977213219470014 0 0.0012197648110757655 -0.00023926410133767763 0 0.0015289939082205803 -0.00079770241585090771 0 0.0012197648110757655 -0.00023926410133767763 0 0.0015289939082205803 -0.00079770241585090771 0 0.00073493220991124983 -0.00069254763857787933 0 0.00055896740098369108 -7.4462582492564985e-05 0 0.0012197648110757655 -0.00023926410133767763 0 0.00073493220991124983 -0.00069254763857787933 0 0.0015289939082205803 -0.00079770241585090771 0 0.00091821718085734324 -0.0011861982197387451 0 0.00073493220991124983 -0.00069254763857787933 0 0.0015289939082205803 -0.00079770241585090771 0 0.0014560336816753824 -0.0015578179027481353 0 0.00091821718085734324 -0.0011861982197387451 0 0.0015289939082205803 -0.00079770241585090771 0 0.0019035882908461585 -0.0015774004313663442 0 0.0014560336816753824 -0.0015578179027481353 0 0.0019035882908461585 -0.0015774004313663442 0 0.0021059363616480944 -0.0018475842301352444 0 0.0017713312688616143 -0.0018751488689755407 0 0.0019035882908461585 -0.0015774004313663442 0 0.0014560336816753824 -0.0015578179027481353 0 0.0017713312688616143 -0.0018751488689755407 0 0.0014560336816753824 -0.0015578179027481353 0 0.00091821718085734324 -0.0011861982197387451 0 0.00080747640620115757 -0.0018316777680234026 0 0.0018859561133413175 -0.00056977213219470014 0 0.0023778752757030661 -0.00092019385730276787 0 0.0018355527731199436 -0.0012140012034363031 0 0.0023778752757030661 -0.00092019385730276787 0 0.0018355527731199436 -0.0012140012034363031 0 0.0022805286671232728 -0.0012950023123850249 0 0.0015289939082205803 -0.00079770241585090771 0 0.0019035882908461585 -0.0015774004313663442 0 0.0022160613613102422 -0.0013390436961656976 0 0.0018859561133413175 -0.00056977213219470014 0 0.0015289939082205803 -0.00079770241585090771 0 0.0018355527731199436 -0.0012140012034363031 0 0.0016384343711443781 -0.00092759534240238251 0 0.0019652832520622413 -0.00097596532517989166 0 0.0022160613613102422 -0.0013390436961656976 0 0.0026781317319121323 -0.0018785324801451557 0 0.0021059363616480944 -0.0018475842301352444 0 0.0019035882908461585 -0.0015774004313663442 0 0.0022160613613102422 -0.0013390436961656976 0 0.0021059363616480944 -0.0018475842301352444 0 0.0019652832520622413 -0.00097596532517989166 0 0.0011355791034550089 -0.0046659314590133559 0 0.0018355527731199436 -0.0012140012034363031 0 0.0022805286671232728 -0.0012950023123850249 0 0.0021758684592719292 -0.0016287637618798492 0 0.0020708180584053143 -0.0049782445129392637 0 0.0011355791034550089 -0.0046659314590133559 0 0.0026012287326117266 -0.0013565745014136106 0 0.0022805286671232728 -0.0012950023123850249 0 0.0021758684592719292 -0.0016287637618798492 0 0.0010041804570567335 -0.0084314901274338896 0 0.0011355791034550089 -0.0046659314590133559 0 0.0009179665216921426 -0.0073085728229504406 0 0.00097221700525505729 -0.0071967620871088147 0 0.0010358736011097055 -0.007254160770310031 0 0.00082746252244173684 -0.0088570642393108866 0 0.0011355791034550089 -0.0046659314590133559 0 0.00069786839057685605 -0.0068472833154575126 0 0.00031126733778195638 -0.0065815690004885586 0 0.00034026364884604763 -0.006782454116139848 0 0.00069786839057685605 -0.0068472833154575126 0 0.00034026364884604763 -0.006782454116139848 0 9.6887071786675436e-05 -0.0070997118980640362 0 0.00031126733778195638 -0.0065815690004885586 0 0.00034026364884604763 -0.006782454116139848 0 9.6887071786675436e-05 -0.0070997118980640362 0 0.0011355791034550089 -0.0046659314590133559 0 0.00090217035060198624 -0.0038469256492945779 0 0.0011355791034550089 -0.0046659314590133559 0 -0.00045923214863582821 -0.0064077881803913531 0 0.00031126733778195638 -0.0065815690004885586 0 -0.00019131702852152034 -0.0067477375408663606 0 9.6887071786675436e-05 -0.0070997118980640362 0 0.0026781317319121323 -0.0018785324801451557 0 0.0021059363616480944 -0.0018475842301352444 0 0.0018352608071577948 -0.0023234221099213241 0 -0.00023779950354272221 -0.0058197755137645605 0 -6.2485585390477665e-05 -0.0057288865562394042 0 3.755959005863086e-05 -0.0057257759886286284 0 -0.00019131702852152034 -0.0067477375408663606 0 5.950325403580889e-07 -0.0079718855433054854 0 -3.3158899230976378e-07 -0.0060993356113951481 0 -0.00019131702852152034 -0.0067477375408663606 0 5.950325403580889e-07 -0.0079718855433054854 0 9.6887071786675436e-05 -0.0070997118980640362 0 0.00069786839057685605 -0.0068472833154575126 0 5.950325403580889e-07 -0.0079718855433054854 0 9.6887071786675436e-05 -0.0070997118980640362 0 0.00082746252244173684 -0.0088570642393108866 0 2.7502716212730892e-07 -0.0079735402649293366 0 0.00098133238025341655 -0.0024088938975931826 0 0.00080747640620115757 -0.0018316777680234026 0 0.00050609341384455888 -0.0024310231309876049 0 0.00098133238025341655 -0.0024088938975931826 0 0.00080747640620115757 -0.0018316777680234026 0 0.0014228091114946715 -0.002012989163869629 0 0.0014560336816753824 -0.0015578179027481353 0 0.00080747640620115757 -0.0018316777680234026 0 0.0014228091114946715 -0.002012989163869629 0 0.00098133238025341655 -0.0024088938975931826 0 0.0014228091114946715 -0.002012989163869629 0 0.0018352608071577948 -0.0023234221099213241 0 0.0014228091114946715 -0.002012989163869629 0 0.0017713312688616143 -0.0018751488689755407 0 0.0018352608071577948 -0.0023234221099213241 0 0.0014560336816753824 -0.0015578179027481353 0 0.0014228091114946715 -0.002012989163869629 0 0.0017713312688616143 -0.0018751488689755407 0 0.0021059363616480944 -0.0018475842301352444 0 0.0017713312688616143 -0.0018751488689755407 0 0.0018352608071577948 -0.0023234221099213241 0 -0.00045923214863582821 -0.0064077881803913531 0 0.00019082145352267502 -0.0054091389801374347 0 -6.2485585390477665e-05 -0.0057288865562394042 0 3.755959005863086e-05 -0.0057257759886286284 0 7.1126320174455114e-05 -0.0052787586228249528 0 -0.00019131702852152034 -0.0067477375408663606 0 -3.3158899230976378e-07 -0.0060993356113951481 0 7.1126320174455114e-05 -0.0052787586228249528 0 0.00090217035060198624 -0.0038469256492945779 0 7.5964612407373436e-05 -0.0038534385757636983 0 -3.3158899230976378e-07 -0.0060993356113951481 0 7.1126320174455114e-05 -0.0052787586228249528 0 9.1095813531413255e-07 -0.0042221050975068701 0 7.1126320174455114e-05 -0.0052787586228249528 0 9.1095813531413255e-07 -0.0042221050975068701 0 0.00016026545580566381 -0.0036754045985991257 0 0.00098133238025341655 -0.0024088938975931826 0 0.0018352608071577948 -0.0023234221099213241 0 0.00016026545580566381 -0.0036754045985991257 0 3.755959005863086e-05 -0.0057257759886286284 0 7.1126320174455114e-05 -0.0052787586228249528 0 0.00016026545580566381 -0.0036754045985991257 0 0.00098133238025341655 -0.0024088938975931826 0 0.00016026545580566381 -0.0036754045985991257 0 0.00050609341384455888 -0.0024310231309876049 0 9.1095813531413255e-07 -0.0042221050975068701 0 0.00016026545580566381 -0.0036754045985991257 0 9.3168112568311677e-06 -0.002631339722021544 0 0.00016026545580566381 -0.0036754045985991257 0 0.00015355886003151208 -0.0026699475272836037 0 9.3168112568311677e-06 -0.002631339722021544 0 0.00016026545580566381 -0.0036754045985991257 0 0.00015355886003151208 -0.0026699475272836037 0 0.00050609341384455888 -0.0024310231309876049 0 9.1095813531413255e-07 -0.0042221050975068701 0 -3.4351771679642688e-07 -0.0023464090377246726 0 9.3168112568311677e-06 -0.002631339722021544 0 -3.4351771679642688e-07 -0.0023464090377246726 0 9.3168112568311677e-06 -0.002631339722021544 0 -0.00015968525544252286 -0.0012390669138199186 0 0.00015935341904123183 -0.0019822084548630891 0 0.00014824301315939599 -0.0011476535258674256 0 -0.00015968525544252286 -0.0012390669138199186 0 9.3168112568311677e-06 -0.002631339722021544 0 0.00015935341904123183 -0.0019822084548630891 0 -0.00015968525544252286 -0.0012390669138199186 0 0.00080747640620115757 -0.0018316777680234026 0 0.00015935341904123183 -0.0019822084548630891 0 0.00014824301315939599 -0.0011476535258674256 0 0.00080747640620115757 -0.0018316777680234026 0 0.00050609341384455888 -0.0024310231309876049 0 0.00015935341904123183 -0.0019822084548630891 0 0.00015355886003151208 -0.0026699475272836037 0 0.00050609341384455888 -0.0024310231309876049 0 0.00015935341904123183 -0.0019822084548630891 0 0.00015355886003151208 -0.0026699475272836037 0 9.3168112568311677e-06 -0.002631339722021544 0 0.00015935341904123183 -0.0019822084548630891 0 0.00091821718085734324 -0.0011861982197387451 0 0.00080747640620115757 -0.0018316777680234026 0 0.00014824301315939599 -0.0011476535258674256 0 0.0001048654625621412 -0.0010345673620314327 0 -0.0003571400141542677 -0.00040621567692779791 0 0.00014824301315939599 -0.0011476535258674256 0 6.5652112779478709e-05 -0.00063589983704209979 0 -0.00041474128436596572 -0.00086951406840986539 0 0.00091821718085734324 -0.0011861982197387451 0 0.00014824301315939599 -0.0011476535258674256 0 0.00073493220991124983 -0.00069254763857787933 0 0.00014824301315939599 -0.0011476535258674256 0 6.5652112779478709e-05 -0.00063589983704209979 0 0.00073493220991124983 -0.00069254763857787933 0 -0.0003571400141542677 -0.00040621567692779791 0 -0.00077426027694205374 8.3397739942361928e-05 0 -0.00059328016943345138 -0.00040878639154116615 0 -0.00041474128436596572 -0.00086951406840986539 0 -0.0010832450888472618 -0.00053408085461686809 0 -0.00035239036121334543 0.00042944933291237739 0 -0.00025184643524330566 0.00010625115229348278 0 -0.00040438953490617855 0.00065223453877317008 0 -0.00059328016943345138 -0.00040878639154116615 0 6.5652112779478709e-05 -0.00063589983704209979 0 -0.00041474128436596572 -0.00086951406840986539 0 0.00014824301315939599 -0.0011476535258674256 0 -0.00025184643524330566 0.00010625115229348278 0 -0.00015968525544252286 -0.0012390669138199186 0 -0.00025184643524330566 0.00010625115229348278 0 -0.00031237071639169777 4.088658699832913e-05 0 -0.00015968525544252286 -0.0012390669138199186 0 -0.00035239036121334543 0.00042944933291237739 0 -0.00025184643524330566 0.00010625115229348278 0 -0.00031237071639169777 4.088658699832913e-05 0 -0.00031237071639169777 4.088658699832913e-05 0 -0.00015968525544252286 -0.0012390669138199186 0 -5.5832591504821227e-07 -0.00047135786955823785 0 -3.4351771679642688e-07 -0.0023464090377246726 0 -0.00015968525544252286 -0.0012390669138199186 0 -5.5832591504821227e-07 -0.00047135786955823785 0 -0.00031237071639169777 4.088658699832913e-05 0 -5.5832591504821227e-07 -0.00047135786955823785 0 -0.00020755886480803082 0.00049709817786773461 0 -5.5832591504821227e-07 -0.00047135786955823785 0 -0.00020755886480803082 0.00049709817786773461 0 -3.8452258621717402e-07 0.0014045593088441175 0 -0.00020755886480803082 0.00049709817786773461 0 -3.8452258621717402e-07 0.0014045593088441175 0 -0.00028825860502864888 0.0012731739787686764 0 -3.8452258621717402e-07 0.0014045593088441175 0 -0.00028825860502864888 0.0012731739787686764 0 -4.6342912086394475e-07 0.0032796694049944202 0 -0.00031237071639169777 4.088658699832913e-05 0 -0.00020755886480803082 0.00049709817786773461 0 -0.00028825860502864888 0.0012731739787686764 0 -4.6342912086394475e-07 0.0032796694049944202 0 -0.00020848156772800965 0.002299808903253459 0 -0.00011409768996049552 0.0032490400936456775 0 -4.6342912086394475e-07 0.0032796694049944202 0 -0.00011409768996049552 0.0032490400936456775 0 -6.7606736638081155e-08 0.0051554437836633018 0 -0.00028825860502864888 0.0012731739787686764 0 -0.00020848156772800965 0.002299808903253459 0 -0.00031598367297547557 0.0015690599675670365 0 -0.00028825860502864888 0.0012731739787686764 0 -4.6342912086394475e-07 0.0032796694049944202 0 -0.00020848156772800965 0.002299808903253459 0 -0.00020848156772800965 0.002299808903253459 0 -0.00011409768996049552 0.0032490400936456775 0 -9.7298750390796337e-05 0.0024698725140941619 0 -9.7298750390796337e-05 0.0024698725140941619 0 -0.00021740254294591707 0.0019543453025572697 0 -3.0264107999083638e-05 0.001961738310764721 0 -0.00020848156772800965 0.002299808903253459 0 -9.7298750390796337e-05 0.0024698725140941619 0 -0.00021740254294591707 0.0019543453025572697 0 -0.00020848156772800965 0.002299808903253459 0 -0.00021740254294591707 0.0019543453025572697 0 -0.00031598367297547557 0.0015690599675670365 0 -0.00021740254294591707 0.0019543453025572697 0 -0.00031598367297547557 0.0015690599675670365 0 -0.00031709536789100953 0.0016174660199563453 0 -0.00028876747634880572 0.00079201630412664204 0 -0.00026089716873321642 0.00078408633769557097 0 -0.0002813593333738233 0.00075870356288285958 0 -0.00028876747634880572 0.00079201630412664204 0 -0.00032225567521700039 0.00074374596301955524 0 -0.0002813593333738233 0.00075870356288285958 0 -0.00034015592451295504 0.0011796412328366208 0 -0.00016551945483107819 0.0012521326747666085 0 -0.00021740254294591707 0.0019543453025572697 0 -0.00031709536789100953 0.0016174660199563453 0 -6.2905619829493648e-05 0.0018235777149134609 0 -0.00026089716873321642 0.00078408633769557097 0 -0.0002813593333738233 0.00075870356288285958 0 -0.00026645701609056356 0.00076557042833433591 0 -0.00026089716873321642 0.00078408633769557097 0 -0.00026645701609056356 0.00076557042833433591 0 -0.00025171124511346284 0.00077732209140465847 0 -0.00021740254294591707 0.0019543453025572697 0 -3.0264107999083638e-05 0.001961738310764721 0 -6.2905619829493648e-05 0.0018235777149134609 0 -3.0264107999083638e-05 0.001961738310764721 0 -6.2905619829493648e-05 0.0018235777149134609 0 0.00025123988026634142 0.0019713970884976382 0 -0.00031237071639169777 4.088658699832913e-05 0 -0.00028825860502864888 0.0012731739787686764 0 -0.00039004028521664503 0.00085506757228673747 0 -0.00035239036121334543 0.00042944933291237739 0 -0.00031237071639169777 4.088658699832913e-05 0 -0.00039004028521664503 0.00085506757228673747 0 -0.00031598367297547557 0.0015690599675670365 0 -0.00031709536789100953 0.0016174660199563453 0 -0.00039004028521664503 0.00085506757228673747 0 -0.00028825860502864888 0.0012731739787686764 0 -0.00031598367297547557 0.0015690599675670365 0 -0.00039004028521664503 0.00085506757228673747 0 -0.00028876747634880572 0.00079201630412664204 0 -0.00039004028521664503 0.00085506757228673747 0 -0.00032225567521700039 0.00074374596301955524 0 -0.00039004028521664503 0.00085506757228673747 0 -0.00032225567521700039 0.00074374596301955524 0 -0.00040438953490617855 0.00065223453877317008 0 -0.00034015592451295504 0.0011796412328366208 0 -0.00042165702779909444 0.00096118949427622139 0 -0.00035239036121334543 0.00042944933291237739 0 -0.00039004028521664503 0.00085506757228673747 0 -0.00040438953490617855 0.00065223453877317008 0 -0.00059328016943345138 -0.00040878639154116615 0 -0.0010832450888472618 -0.00053408085461686809 0 -0.001225604986993937 2.7422060203660785e-05 0 -0.00062196951674446199 0.00011303546502746892 0 -0.001225604986993937 2.7422060203660785e-05 0 -0.0009533363011270321 0.00054775847951676188 0 -0.001225604986993937 2.7422060203660785e-05 0 -0.0018787502784477985 0.0001503817858801901 0 -0.0015207915581732169 0.00054181202011813711 0 -0.001225604986993937 2.7422060203660785e-05 0 -0.0017343733791582007 -0.00018665455176335041 0 -0.0018787502784477985 0.0001503817858801901 0 -0.0010832450888472618 -0.00053408085461686809 0 -0.001225604986993937 2.7422060203660785e-05 0 -0.0017343733791582007 -0.00018665455176335041 0 -0.00077426027694205374 8.3397739942361928e-05 0 -0.00094907975580597003 9.8880004024509745e-05 0 -0.00032225567521700039 0.00074374596301955524 0 -0.00040438953490617855 0.00065223453877317008 0 -0.00030754271332749517 0.00071954234774603183 0 -0.00032225567521700039 0.00074374596301955524 0 -0.00030754271332749517 0.00071954234774603183 0 -0.0002813593333738233 0.00075870356288285958 0 -0.00030754271332749517 0.00071954234774603183 0 -0.0002813593333738233 0.00075870356288285958 0 -0.00027110428520640383 0.0007504395425284462 0 -0.00026645701609056356 0.00076557042833433591 0 -0.00027110428520640383 0.0007504395425284462 0 -0.00025133544254164378 0.00076943931019018475 0 -0.00026645701609056356 0.00076557042833433591 0 -0.00025133544254164378 0.00076943931019018475 0 -0.00025171124511346284 0.00077732209140465847 0 -0.0002813593333738233 0.00075870356288285958 0 -0.00026645701609056356 0.00076557042833433591 0 -0.00027110428520640383 0.0007504395425284462 0 -0.00027110428520640383 0.0007504395425284462 0 -0.00025562981340753881 0.00075148790324665706 0 -0.00025133544254164378 0.00076943931019018475 0 -0.00030754271332749517 0.00071954234774603183 0 -0.00027110428520640383 0.0007504395425284462 0 -0.00026874325156360095 0.00074081270982667138 0 -0.0023743400028223391 0.00016046608019623296 0 -0.0018787502784477985 0.0001503817858801901 0 -0.0021968772487457699 0.00031414490184392688 0 -0.00027110428520640383 0.0007504395425284462 0 -0.00026874325156360095 0.00074081270982667138 0 -0.00025562981340753881 0.00075148790324665706 0 -0.0014919562854050709 0.0014942445027693522 0 -0.0011973455829958574 0.0035702931474057842 0 -0.0015645937098569067 0.002000112201150928 0 -0.0020351087207203314 0.0022268178277062116 0 -0.0010144684939062492 0.0031206676902362277 0 -0.0024337665931105706 0.00021765896473546813 0 -0.0023584340637656364 0.00018188165747730779 0 -0.0021968772487457699 0.00031414490184392688 0 -0.0014919562854050709 0.0014942445027693522 0 -0.0024356815494590515 0.0003547064188524861 0 -0.0019894792555839374 0.0028788630781572265 0 -0.0014919562854050709 0.0014942445027693522 0 -0.0017343733791582007 -0.00018665455176335041 0 -0.0023743400028223391 0.00016046608019623296 0 -0.0018787502784477985 0.0001503817858801901 0 -0.00094907975580597003 9.8880004024509745e-05 0 -0.0014919562854050709 0.0014942445027693522 0 -0.0018787502784477985 0.0001503817858801901 0 -0.0019239368648741578 0.00050835308180808224 0 -0.0015207915581732169 0.00054181202011813711 0 -0.0019239368648741578 0.00050835308180808224 0 -0.0017978693646191867 0.00083504509804659436 0 -0.0015207915581732169 0.00054181202011813711 0 -0.0018787502784477985 0.0001503817858801901 0 -0.0019239368648741578 0.00050835308180808224 0 -0.0021968772487457699 0.00031414490184392688 0 -0.0019894792555839374 0.0028788630781572265 0 -0.0020293842040857196 0.0012009611658636938 0 -0.0024337665931105706 0.00021765896473546813 0 -0.0021968772487457699 0.00031414490184392688 0 -0.0022158538470638126 0.00068548941381307979 0 -0.0015603942545944179 0.0026049481145536671 0 -0.001698229918089045 0.0022422399018701233 0 -0.0015241781289051881 0.0023467172848336904 0 -0.0019239368648741578 0.00050835308180808224 0 -0.0021968772487457699 0.00031414490184392688 0 -0.0022158538470638126 0.00068548941381307979 0 -0.0020293842040857196 0.0012009611658636938 0 -0.0018388390385000938 0.0016306056419308843 0 -0.001698229918089045 0.0022422399018701233 0 -0.00151898008119157 0.0020563154305263233 0 -0.0015241781289051881 0.0023467172848336904 0 -0.001698229918089045 0.0022422399018701233 0 -0.00151898008119157 0.0020563154305263233 0 -0.0017685368495711329 0.0019332501798817959 0 -0.0019239368648741578 0.00050835308180808224 0 -0.0022158538470638126 0.00068548941381307979 0 -0.0017978693646191867 0.00083504509804659436 0 -0.0022158538470638126 0.00068548941381307979 0 -0.0017978693646191867 0.00083504509804659436 0 -0.0019775045733656628 0.0012001017141716145 0 -0.0017978693646191867 0.00083504509804659436 0 -0.0015207915581732169 0.00054181202011813711 0 -0.0013570880764929873 0.0011574178003861673 0 -0.0009533363011270321 0.00054775847951676188 0 -0.0015207915581732169 0.00054181202011813711 0 -0.0013570880764929873 0.0011574178003861673 0 -0.00076680998896007336 0.0010570220761327437 0 -0.0009533363011270321 0.00054775847951676188 0 -0.0013570880764929873 0.0011574178003861673 0 -0.001225604986993937 2.7422060203660785e-05 0 -0.0009533363011270321 0.00054775847951676188 0 -0.0015207915581732169 0.00054181202011813711 0 -0.00049890142720835663 0.0071514699274827535 0 -0.0011691428094755606 0.0069463323221174642 0 -0.00082073450082738308 0.0073813242759643433 0 -0.0007720686566166456 0.0065476535934852311 0 0.00016662366967204475 0.0068580152819901832 0 -0.0011691428094755606 0.0069463323221174642 0 -0.00018952644404833771 0.0069910098951368712 0 -0.0011268685744703151 0.0069631459344097098 0 -0.0011691428094755606 0.0069463323221174642 0 -0.00082073450082738308 0.0073813242759643433 0 -0.0010946671182362094 0.0074702522521835103 0 -0.00049890142720835663 0.0071514699274827535 0 -0.00082073450082738308 0.0073813242759643433 0 -0.00052770688556043777 0.0077171867744414476 0 -0.0007720686566166456 0.0065476535934852311 0 0.00016662366967204475 0.0068580152819901832 0 -0.00013023280720557884 0.0060714046922038505 0 0.00016662366967204475 0.0068580152819901832 0 0.0003224575294608003 0.0063506968655529473 0 -0.00013023280720557884 0.0060714046922038505 0 0.0003224575294608003 0.0063506968655529473 0 -0.00013023280720557884 0.0060714046922038505 0 0.00053050210391964651 0.0058900104242706995 0 -0.00013023280720557884 0.0060714046922038505 0 -0.00071243692388923865 0.0059828199817674151 0 -0.00061386194400570233 0.0054902569141286875 0 -0.0007720686566166456 0.0065476535934852311 0 -0.00013023280720557884 0.0060714046922038505 0 -0.00071243692388923865 0.0059828199817674151 0 -0.0007720686566166456 0.0065476535934852311 0 -0.00071243692388923865 0.0059828199817674151 0 -0.0010566171890739619 0.0061713427407897063 0 -0.00071243692388923865 0.0059828199817674151 0 -0.0010566171890739619 0.0061713427407897063 0 -0.0013096115944204651 0.0057278583949847721 0 -0.0014116594501445054 0.0063690452028410298 0 -0.0010566171890739619 0.0061713427407897063 0 -0.0013096115944204651 0.0057278583949847721 0 -0.0014116594501445054 0.0063690452028410298 0 -0.0022640761003316716 0.0058194155827257493 0 -0.0013096115944204651 0.0057278583949847721 0 -0.0007720686566166456 0.0065476535934852311 0 -0.0014116594501445054 0.0063690452028410298 0 -0.0010566171890739619 0.0061713427407897063 0 -0.0019020703313428445 0.0037077821410813222 0 -0.0017671018205927705 0.0057000015516080133 0 -0.0014116594501445054 0.0063690452028410298 0 -0.0022640761003316716 0.0058194155827257493 0 -0.0017880395562092032 0.00695869888589462 0 -0.00151898008119157 0.0020563154305263233 0 -0.0015241781289051881 0.0023467172848336904 0 -0.0013198931062588304 0.0024978743669820894 0 -0.0019894792555839374 0.0028788630781572265 0 -0.0017671018205927705 0.0057000015516080133 0 -0.0015603942545944179 0.0026049481145536671 0 -0.0015241781289051881 0.0023467172848336904 0 -0.0013198931062588304 0.0024978743669820894 0 -0.0007720686566166456 0.0065476535934852311 0 -0.0014116594501445054 0.0063690452028410298 0 -0.0017880395562092032 0.00695869888589462 0 -0.0007720686566166456 0.0065476535934852311 0 -0.0019947817716045361 0.007209532044732553 0 -0.0011691428094755606 0.0069463323221174642 0 -0.0019947817716045361 0.007209532044732553 0 -0.0011691428094755606 0.0069463323221174642 0 -0.0014362356566756883 0.0075184214499068548 0 -0.00096023354269889234 0.0069772069822006929 0 -0.0017671018205927705 0.0057000015516080133 0 -0.0014362356566756883 0.0075184214499068548 0 -0.0014968923552925737 0.0080753555016514697 0 -0.0012209437728023828 0.0077770437465877673 0 -0.0019947817716045361 0.007209532044732553 0 -0.0014362356566756883 0.0075184214499068548 0 -0.0014968923552925737 0.0080753555016514697 0 -0.0017671018205927705 0.0057000015516080133 0 -0.0015296634601521812 0.0084696518313980961 0 -0.0020477183985461076 0.0065285074427752915 0 -0.0019512588652509657 0.0080091665073777768 0 -0.0014968923552925737 0.0080753555016514697 0 -0.0011691428094755606 0.0069463323221174642 0 -0.0014362356566756883 0.0075184214499068548 0 -0.0010946671182362094 0.0074702522521835103 0 -0.0020477183985461076 0.0065285074427752915 0 -0.0026424020969112272 0.0073704862741922408 0 -0.0019512588652509657 0.0080091665073777768 0 -0.0019894792555839374 0.0028788630781572265 0 -0.0011973455829958574 0.0035702931474057842 0 -0.002864160063977981 0.0069034188779956446 0 -0.0020477183985461076 0.0065285074427752915 0 -0.0026424020969112272 0.0073704862741922408 0 -0.0010417370465383182 0.0039690055419481906 0 -0.00076082339123963508 0.0042130271172178156 0 -0.00076577146307698122 0.0045130809428592126 0 -0.00025562981340753881 0.00075148790324665706 0 -0.00025133544254164378 0.00076943931019018475 0 -0.00022794466524593001 0.00079005769149067932 0 -0.0011973455829958574 0.0035702931474057842 0 0.0002351938294501416 0.0020112857971608519 0 -0.0011973455829958574 0.0035702931474057842 0 -0.0011801388905387756 0.0061731595428399857 0 -0.00025133544254164378 0.00076943931019018475 0 -0.00025171124511346284 0.00077732209140465847 0 -0.00022794466524593001 0.00079005769149067932 0 -0.00076082339123963508 0.0042130271172178156 0 -0.00076577146307698122 0.0045130809428592126 0 -0.00048478635052770134 0.0044596772111160634 0 -0.0019512588652509657 0.0080091665073777768 0 -0.0014968923552925737 0.0080753555016514697 0 -0.0013670823753736687 0.0084341804968572735 0 -0.0011801388905387756 0.0061731595428399857 0 -0.00098869861588414586 0.0060768544109313363 0 -0.0014968923552925737 0.0080753555016514697 0 -0.001089031216497465 0.0080955535610217726 0 -0.0013670823753736687 0.0084341804968572735 0 -0.0012181126363803398 0.0086474398500894552 0 -0.00098869861588414586 0.0060768544109313363 0 -0.001089031216497465 0.0080955535610217726 0 -0.00071197063807709781 0.0082561232638429256 0 -0.0013670823753736687 0.0084341804968572735 0 -0.001089031216497465 0.0080955535610217726 0 -0.00090831744339372068 0.0077845693182399612 0 -0.00071197063807709781 0.0082561232638429256 0 -0.001089031216497465 0.0080955535610217726 0 -0.0012209437728023828 0.0077770437465877673 0 -0.00090831744339372068 0.0077845693182399612 0 -0.0014968923552925737 0.0080753555016514697 0 -0.001089031216497465 0.0080955535610217726 0 -0.0012209437728023828 0.0077770437465877673 0 -0.0012209437728023828 0.0077770437465877673 0 -0.00090831744339372068 0.0077845693182399612 0 -0.0010946671182362094 0.0074702522521835103 0 -0.00090831744339372068 0.0077845693182399612 0 -0.00082073450082738308 0.0073813242759643433 0 -0.0010946671182362094 0.0074702522521835103 0 -0.0014362356566756883 0.0075184214499068548 0 -0.0012209437728023828 0.0077770437465877673 0 -0.0010946671182362094 0.0074702522521835103 0 -0.00049890142720835663 0.0071514699274827535 0 -0.00052770688556043777 0.0077171867744414476 0 -4.3445970257968528e-05 0.0075063363867852902 0 -0.00090831744339372068 0.0077845693182399612 0 -0.00082073450082738308 0.0073813242759643433 0 -0.00052770688556043777 0.0077171867744414476 0 -0.00090831744339372068 0.0077845693182399612 0 -0.00052770688556043777 0.0077171867744414476 0 -0.00071197063807709781 0.0082561232638429256 0 -0.00052770688556043777 0.0077171867744414476 0 -0.00071197063807709781 0.0082561232638429256 0 -0.00014455707375859541 0.0082824252802768551 0 -0.0012181126363803398 0.0086474398500894552 0 -9.1038451008789429e-05 0.0082215557354487889 0 -0.0012627234839072189 0.0085363484890860816 0 -0.0014480600724275934 0.0095053470627601798 0 -0.00030407636119801293 0.0093454690385985795 0 -0.0012627234839072189 0.0085363484890860816 0 -0.0014480600724275934 0.0095053470627601798 0 -0.0022761508895278726 0.0087411372594546153 0 1.1842294261375758e-06 0.0057863830762977242 0 -0.00098869861588414586 0.0060768544109313363 0 0.0014510135755686016 0.0022480170384571257 0 0.00084964166419704116 0.0016990967529076713 0 0.00080753379668151127 0.0023753706668266108 0 0.0014510135755686016 0.0022480170384571257 0 0.00080753379668151127 0.0023753706668266108 0 0.0011714663033455194 0.0027893856318624809 0 0.0014510135755686016 0.0022480170384571257 0 0.0016058429333017932 0.0030679088839092932 0 0.0011714663033455194 0.0027893856318624809 0 0.0014510135755686016 0.0022480170384571257 0 0.0016058429333017932 0.0030679088839092932 0 0.0020504305894941273 0.0028374245774270405 0 1.1842294261375758e-06 0.0057863830762977242 0 0.00073330482410035355 0.0064396650203439832 0 -0.0014480600724275934 0.0095053470627601798 0 -0.00061769936315719711 0.01027144825222474 0 -0.00030407636119801293 0.0093454690385985795 0 -0.00026089716873321642 0.00078408633769557097 0 -0.00025171124511346284 0.00077732209140465847 0 -0.00022794466524593001 0.00079005769149067932 0 -0.00016551945483107819 0.0012521326747666085 0 0.0002351938294501416 0.0020112857971608519 0 -6.2905619829493648e-05 0.0018235777149134609 0 0.00025123988026634142 0.0019713970884976382 0 0.00046170598106157277 0.0017723989214069571 0 0.00025123988026634142 0.0019713970884976382 0 0.00046170598106157277 0.0017723989214069571 0 0.00057433297369046267 0.0019963500505430416 0 0.00025123988026634142 0.0019713970884976382 0 0.00057433297369046267 0.0019963500505430416 0 0.00040240986905004075 0.0022572225081127035 0 0.00057433297369046267 0.0019963500505430416 0 0.00084964166419704116 0.0016990967529076713 0 0.00080753379668151127 0.0023753706668266108 0 0.00046382585307187682 0.0017780978701551532 0 0.00057433297369046267 0.0019963500505430416 0 0.00084964166419704116 0.0016990967529076713 0 0.0002351938294501416 0.0020112857971608519 0 -0.00098869861588414586 0.0060768544109313363 0 0.0002351938294501416 0.0020112857971608519 0 0.0003857859262588612 0.0019944484818167642 0 0.00080753379668151127 0.0023753706668266108 0 0.00085041966891489737 0.0028899088820135126 0 0.0011714663033455194 0.0027893856318624809 0 0.00080753379668151127 0.0023753706668266108 0 0.00040240986905004075 0.0022572225081127035 0 0.00034208203949515645 0.0027219226214966136 0 0.00080753379668151127 0.0023753706668266108 0 0.00034208203949515645 0.0027219226214966136 0 0.00085041966891489737 0.0028899088820135126 0 0.00057433297369046267 0.0019963500505430416 0 0.00080753379668151127 0.0023753706668266108 0 0.00040240986905004075 0.0022572225081127035 0 -1.246783446921901e-05 0.0020972892093767135 0 0.00027841699883408594 0.0026746159780869955 0 -3.0264107999083638e-05 0.001961738310764721 0 0.00040240986905004075 0.0022572225081127035 0 0.00034208203949515645 0.0027219226214966136 0 -9.7298750390796337e-05 0.0024698725140941619 0 -3.0264107999083638e-05 0.001961738310764721 0 0.00033972930982656961 0.0029683091925254905 0 -3.0264107999083638e-05 0.001961738310764721 0 0.00025123988026634142 0.0019713970884976382 0 0.00040240986905004075 0.0022572225081127035 0 -0.00011409768996049552 0.0032490400936456775 0 0.00033972930982656961 0.0029683091925254905 0 0.0001459166999734027 0.0040539461579632138 0 -0.00011409768996049552 0.0032490400936456775 0 -9.7298750390796337e-05 0.0024698725140941619 0 0.00033972930982656961 0.0029683091925254905 0 0.00033972930982656961 0.0029683091925254905 0 0.00038220785501314641 0.0048558584600134017 0 0.0001459166999734027 0.0040539461579632138 0 0.00033972930982656961 0.0029683091925254905 0 0.00054455808405386478 0.004969012050332549 0 0.00038220785501314641 0.0048558584600134017 0 0.00027841699883408594 0.0026746159780869955 0 0.00029432290325559415 0.0052557584953884726 0 0.00034208203949515645 0.0027219226214966136 0 0.00085041966891489737 0.0028899088820135126 0 0.00084076113192008172 0.0034022616784487171 0 0.00085041966891489737 0.0028899088820135126 0 0.00084076113192008172 0.0034022616784487171 0 0.0011283673238053158 0.0031594680590970275 0 0.00038323731231257075 0.0051281102989181428 0 -6.7606736638081155e-08 0.0051554437836633018 0 1.7071652023735652e-06 0.0070297994922888978 0 0.00038323731231257075 0.0051281102989181428 0 0.00038220785501314641 0.0048558584600134017 0 -6.7606736638081155e-08 0.0051554437836633018 0 0.00029432290325559415 0.0052557584953884726 0 0.00029974261424813996 0.0052148883876332076 0 -0.00011409768996049552 0.0032490400936456775 0 0.0001459166999734027 0.0040539461579632138 0 -6.7606736638081155e-08 0.0051554437836633018 0 0.00038220785501314641 0.0048558584600134017 0 0.0001459166999734027 0.0040539461579632138 0 -6.7606736638081155e-08 0.0051554437836633018 0 0.0016058429333017932 0.0030679088839092932 0 0.0020228227479611493 0.0036479234932702805 0 0.0020504305894941273 0.0028374245774270405 0 0.0016058429333017932 0.0030679088839092932 0 0.0011714663033455194 0.0027893856318624809 0 0.0011283673238053158 0.0031594680590970275 0 0.00085041966891489737 0.0028899088820135126 0 0.0011714663033455194 0.0027893856318624809 0 0.0011283673238053158 0.0031594680590970275 0 0.0016058429333017932 0.0030679088839092932 0 0.0011283673238053158 0.0031594680590970275 0 0.0014399781756938648 0.0035205857701527711 0 0.00029432290325559415 0.0052557584953884726 0 0.00075723418553592676 0.0054415631360139795 0 0.00084076113192008172 0.0034022616784487171 0 0.0011283673238053158 0.0031594680590970275 0 0.0014399781756938648 0.0035205857701527711 0 0.00032345444034529965 0.0073826453417345402 0 -0.00013676676730523378 0.0073851968870151724 0 -1.0323061172314976e-07 0.0070340273571984644 0 0.00029432290325559415 0.0052557584953884726 0 4.7821284951788585e-07 0.0070316241853540396 0 -0.00013676676730523378 0.0073851968870151724 0 -1.0323061172314976e-07 0.0070340273571984644 0 1.136225531820519e-07 0.0078215379534708543 0 -0.00013676676730523378 0.0073851968870151724 0 1.136225531820519e-07 0.0078215379534708543 0 0.00067313360816939247 0.0075234763043139086 0 0.00075723418553592676 0.0054415631360139795 0 0.00098195771380454617 0.0072042877866916608 0 0.0016058429333017932 0.0030679088839092932 0 0.0014399781756938648 0.0035205857701527711 0 0.0020228227479611493 0.0036479234932702805 0 1.5118874968983039e-07 0.0078245956415315728 0 1.1022736456025058e-06 0.008914774796893973 0 -1.3516967534602815e-07 0.009542570854347383 0 -7.3404430795846879e-07 0.0078242468175374596 0 0.00098195771380454617 0.0072042877866916608 0 0.00098195771380454617 0.0072042877866916608 0 0.00092400921556082954 0.0082464484237221736 0 1.1022736456025058e-06 0.008914774796893973 0 -1.3516967534602815e-07 0.009542570854347383 0 2.7051520648238351e-07 0.0099248236273423943 0 0.00098195771380454617 0.0072042877866916608 0 0.00013921711898316459 0.0094337416248515046 0 0.00042858389929582321 0.0089067827337646083 0 0.00095522436869488491 0.0090073897265443049 0 0.0010036308618869311 0.0086658929723827226 0 0.0020228227479611493 0.0036479234932702805 0 0.0020504305894941273 0.0028374245774270405 0 0.0026278132361752505 0.0034117075255654808 0 -0.00061769936315719711 0.01027144825222474 0 0.00013229941033705083 0.010970667222212734 0 0.00030903792818203873 0.010207327663884758 0 0.00073330482410035355 0.0064396650203439832 0 0.00092400921556082954 0.0082464484237221736 0 0.00092400921556082954 0.0082464484237221736 0 0.00017499549652734295 0.011497744154178622 0 0.00013229941033705083 0.010970667222212734 0 0.00088988488605916101 0.010786785556291381 0 0.00030903792818203873 0.010207327663884758 0 -0.00049206740893001214 0.011478332861780032 0 0.0004639024242853816 0.012129051902506674 0 0.00054426822027511216 0.012137628752994446 0 0.00013921711898316459 0.0094337416248515046 0 0.0015625182666261139 0.01086356710120819 0 0.00095522436869488491 0.0090073897265443049 0 0.0010036308618869311 0.0086658929723827226 0 0.0014960861435183658 0.0091101883838689019 0 -1.3516967534602815e-07 0.009542570854347383 0 2.7051520648238351e-07 0.0099248236273423943 0 1.4484307523596859e-07 0.011202236582530991 0 0.00092400921556082954 0.0082464484237221736 0 0.0015625182666261139 0.01086356710120819 0 -0.00049206740893001214 0.011478332861780032 0 0.00054426822027511216 0.012137628752994446 0 0.00088988488605916101 0.010786785556291381 0 0.0015625182666261139 0.01086356710120819 0 -1.5791797209580529e-06 0.011527021991853991 0 0.0004639024242853816 0.012129051902506674 0 0.00054426822027511216 0.012137628752994446 0 3.657562768728087e-06 0.011531849194424312 0 0.00054426822027511216 0.012137628752994446 0 3.657562768728087e-06 0.011531849194424312 0 0.00027019761540428831 0.013534249708674331 0 0.00027019761540428831 0.013534249708674331 0 -7.1212061512545877e-07 0.013367964206282338 0 0.00018063674620136187 0.015287627859746215 0 3.657562768728087e-06 0.011531849194424312 0 0.00027019761540428831 0.013534249708674331 0 -7.1212061512545877e-07 0.013367964206282338 0 0.00054426822027511216 0.012137628752994446 0 0.00027019761540428831 0.013534249708674331 0 0.00084716359682623194 0.01542466796644193 0 0.00027019761540428831 0.013534249708674331 0 0.00084716359682623194 0.01542466796644193 0 0.00018063674620136187 0.015287627859746215 0 0.00054426822027511216 0.012137628752994446 0 0.0016434561304440017 0.010289048882413979 0 0.00088988488605916101 0.010786785556291381 0 0.00065728235119832327 0.012306473793077741 0 0.0011176694916300003 0.012809047360151055 0 0.0016434561304440017 0.010289048882413979 0 0.00088988488605916101 0.010786785556291381 0 0.00094364754687689852 0.0099580949274353982 0 0.0016434561304440017 0.010289048882413979 0 0.00094364754687689852 0.0099580949274353982 0 0.0013516555624243599 0.009207653214799839 0 0.00088988488605916101 0.010786785556291381 0 0.00094364754687689852 0.0099580949274353982 0 0.00030903792818203873 0.010207327663884758 0 0.00084716359682623194 0.01542466796644193 0 0.00018063674620136187 0.015287627859746215 0 0.00045814816558484409 0.016737579247667288 0 0.0011176694916300003 0.012809047360151055 0 0.0016271507442093276 0.013098571576354717 0 0.0016434561304440017 0.010289048882413979 0 0.0013516555624243599 0.009207653214799839 0 0.002217061231238385 0.0090519537160145078 0 0.00094364754687689852 0.0099580949274353982 0 0.0013516555624243599 0.009207653214799839 0 0.00062087991937365508 0.0093658535257706999 0 0.0013516555624243599 0.009207653214799839 0 0.00062087991937365508 0.0093658535257706999 0 0.0007838496616513834 0.0084746650154527096 0 0.00024872130576074884 0.0088523379518588401 0 0.00062087991937365508 0.0093658535257706999 0 0.0007838496616513834 0.0084746650154527096 0 0.00024872130576074884 0.0088523379518588401 0 0.00062087991937365508 0.0093658535257706999 0 -0.00030407636119801293 0.0093454690385985795 0 0.00024872130576074884 0.0088523379518588401 0 -0.00030407636119801293 0.0093454690385985795 0 -0.00014455707375859541 0.0082824252802768551 0 -0.00061769936315719711 0.01027144825222474 0 -0.00030407636119801293 0.0093454690385985795 0 0.00030903792818203873 0.010207327663884758 0 0.00094364754687689852 0.0099580949274353982 0 0.00062087991937365508 0.0093658535257706999 0 0.00030903792818203873 0.010207327663884758 0 0.00062087991937365508 0.0093658535257706999 0 -0.00030407636119801293 0.0093454690385985795 0 0.00030903792818203873 0.010207327663884758 0 -0.00014522420275508158 0.01780933020010346 0 -4.3149843913952175e-07 0.017045765336800148 0 -0.0001601661624707724 0.016770158574677153 0 -4.3149843913952175e-07 0.017045765336800148 0 -0.0001601661624707724 0.016770158574677153 0 -3.1785082452520274e-08 0.015207429570448577 0 -0.0001601661624707724 0.016770158574677153 0 -5.0187680795037165e-05 0.015415324621944735 0 5.3774941324817306e-05 0.016286092913145461 0 -5.0187680795037165e-05 0.015415324621944735 0 -3.1785082452520274e-08 0.015207429570448577 0 -7.1212061512545877e-07 0.013367964206282338 0 -0.0001601661624707724 0.016770158574677153 0 -5.0187680795037165e-05 0.015415324621944735 0 -3.1785082452520274e-08 0.015207429570448577 0 -5.0187680795037165e-05 0.015415324621944735 0 -7.1212061512545877e-07 0.013367964206282338 0 0.00018063674620136187 0.015287627859746215 0 -5.0187680795037165e-05 0.015415324621944735 0 0.00018063674620136187 0.015287627859746215 0 5.3774941324817306e-05 0.016286092913145461 0 0.00018063674620136187 0.015287627859746215 0 0.00045814816558484409 0.016737579247667288 0 5.3774941324817306e-05 0.016286092913145461 0 0.0016271507442093276 0.013098571576354717 0 9.541359830358833e-05 0.017725701645361532 0 0.00087814577578283813 0.017496479390768208 0 0.00014089111670217532 0.017535714106970364 0 5.3774941324817306e-05 0.016286092913145461 0 0.00014089111670217532 0.017535714106970364 0 5.3774941324817306e-05 0.016286092913145461 0 -0.00010401707223070699 0.017703330339347748 0 0.00014089111670217532 0.017535714106970364 0 -0.00010401707223070699 0.017703330339347748 0 -8.9405609724176654e-05 0.01801349972900694 0 -0.0001601661624707724 0.016770158574677153 0 -0.00010401707223070699 0.017703330339347748 0 -0.00010919836885094856 0.018064067998455391 0 -0.0001601661624707724 0.016770158574677153 0 5.3774941324817306e-05 0.016286092913145461 0 -0.00010401707223070699 0.017703330339347748 0 -0.00010401707223070699 0.017703330339347748 0 -0.00010919836885094856 0.018064067998455391 0 6.049668752784123e-05 0.018481936847906236 0 -0.00014522420275508158 0.01780933020010346 0 -0.00010919836885094856 0.018064067998455391 0 -0.00017404447473541378 0.018522892694252693 0 -0.00014522420275508158 0.01780933020010346 0 -0.0001601661624707724 0.016770158574677153 0 -0.00010919836885094856 0.018064067998455391 0 0.00014667067206269532 0.01788975930221964 0 6.049668752784123e-05 0.018481936847906236 0 -8.9405609724176654e-05 0.01801349972900694 0 -0.00010401707223070699 0.017703330339347748 0 6.049668752784123e-05 0.018481936847906236 0 -8.9405609724176654e-05 0.01801349972900694 0 -8.9405609724176654e-05 0.01801349972900694 0 -2.467849708066768e-05 0.01784320485593403 0 -7.0138407816682712e-05 0.017893004819192971 0 0.00014667067206269532 0.01788975930221964 0 -2.467849708066768e-05 0.01784320485593403 0 5.2860837631091494e-05 0.017634815491594204 0 0.00014667067206269532 0.01788975930221964 0 -8.9405609724176654e-05 0.01801349972900694 0 -2.467849708066768e-05 0.01784320485593403 0 -7.0138407816682712e-05 0.017893004819192971 0 -0.00013667118602182887 0.017893297827117433 0 -0.00022377378908852748 0.01754319376256188 0 0.00088771014478928169 0.018177570650507898 0 0.00090459663837746279 0.014315678844182177 0 -7.0138407816682712e-05 0.017893004819192971 0 6.3693918269811469e-05 0.017971372786907396 0 -0.00013667118602182887 0.017893297827117433 0 -8.9405609724176654e-05 0.01801349972900694 0 -7.0138407816682712e-05 0.017893004819192971 0 6.3693918269811469e-05 0.017971372786907396 0 0.00014089111670217532 0.017535714106970364 0 -8.9405609724176654e-05 0.01801349972900694 0 6.3693918269811469e-05 0.017971372786907396 0 0.00087814577578283813 0.017496479390768208 0 6.3693918269811469e-05 0.017971372786907396 0 0.00024476217513667153 0.018310054953564046 0 0.00087814577578283813 0.017496479390768208 0 0.00014089111670217532 0.017535714106970364 0 6.3693918269811469e-05 0.017971372786907396 0 0.0016271507442093276 0.013098571576354717 0 0.00090459663837746279 0.014315678844182177 0 0.0026122903438837494 0.009786548278104875 0 0.0033676871058182351 0.0081936038704950986 0 0.0024506765482721466 0.0079589584815634804 0 0.0033676871058182351 0.0081936038704950986 0 0.002727117375983116 0.0070518137314562702 0 0.0024506765482721466 0.0079589584815634804 0 0.00090459663837746279 0.014315678844182177 0 0.0017898038544524697 0.010819314251385761 0 0.00061904591733466497 0.015020101289005966 0 0.0009721848730571799 0.015736232406516261 0 0.00022515053992841643 0.015878267198229525 0 0.0009721848730571799 0.015736232406516261 0 0.00085119995542243948 0.016237651955098471 0 0.00022515053992841643 0.015878267198229525 0 0.0009721848730571799 0.015736232406516261 0 0.00085119995542243948 0.016237651955098471 0 0.0013053105846621399 0.016399432096382772 0 0.00085119995542243948 0.016237651955098471 0 0.0012346947856661146 0.016389457522800306 0 0.00078475701125922594 0.016555160436255448 0 0.001409907084769709 0.015984676041450846 0 0.0016289819130384715 0.012386689937457972 0 0.00085119995542243948 0.016237651955098471 0 0.00036060608414242764 0.016469478775181481 0 0.00078475701125922594 0.016555160436255448 0 0.00036060608414242764 0.016469478775181481 0 0.00022515053992841643 0.015878267198229525 0 -1.0203015971109398e-05 0.016847551543719412 0 0.00085119995542243948 0.016237651955098471 0 0.00036060608414242764 0.016469478775181481 0 0.00022515053992841643 0.015878267198229525 0 0.00090459663837746279 0.014315678844182177 0 -0.00016446296416041631 0.017172650867052879 0 -2.467849708066768e-05 0.01784320485593403 0 -7.0138407816682712e-05 0.017893004819192971 0 -0.00022377378908852748 0.01754319376256188 0 -2.467849708066768e-05 0.01784320485593403 0 -0.00022377378908852748 0.01754319376256188 0 5.2860837631091494e-05 0.017634815491594204 0 -0.00022377378908852748 0.01754319376256188 0 5.2860837631091494e-05 0.017634815491594204 0 7.2138169630670804e-05 0.017352510315904516 0 -0.00016446296416041631 0.017172650867052879 0 7.3552846697898916e-05 0.016627868892026967 0 -0.00022377378908852748 0.01754319376256188 0 7.2138169630670804e-05 0.017352510315904516 0 -1.0203015971109398e-05 0.016847551543719412 0 7.2138169630670804e-05 0.017352510315904516 0 0.00022727895262434733 0.017128265774208673 0 -1.0203015971109398e-05 0.016847551543719412 0 0.00022727895262434733 0.017128265774208673 0 0.00025280447338521512 0.017494241870874998 0 0.00044780335095135249 0.017242163116555478 0 7.2138169630670804e-05 0.017352510315904516 0 0.00022727895262434733 0.017128265774208673 0 0.00025280447338521512 0.017494241870874998 0 0.00022727895262434733 0.017128265774208673 0 0.00037626892864755401 0.017058672088980008 0 0.00044780335095135249 0.017242163116555478 0 0.00014667067206269532 0.01788975930221964 0 5.2860837631091494e-05 0.017634815491594204 0 0.00025280447338521512 0.017494241870874998 0 0.00014667067206269532 0.01788975930221964 0 0.00025280447338521512 0.017494241870874998 0 0.00055199447247635794 0.017593805582097149 0 5.2860837631091494e-05 0.017634815491594204 0 7.2138169630670804e-05 0.017352510315904516 0 0.00025280447338521512 0.017494241870874998 0 0.00038930157960497268 0.0079012382713268287 0 0.0007838496616513834 0.0084746650154527096 0 0.00091320861185180727 0.0079290920210696517 0 0.00038930157960497268 0.0079012382713268287 0 0.0005262852284642417 0.007522733666250417 0 0.00091320861185180727 0.0079290920210696517 0 0.0005262852284642417 0.007522733666250417 0 0.00091320861185180727 0.0079290920210696517 0 0.0010184716685718552 0.0074139070783416699 0 0.00038930157960497268 0.0079012382713268287 0 0.0005262852284642417 0.007522733666250417 0 -4.3445970257968528e-05 0.0075063363867852902 0 -0.00052770688556043777 0.0077171867744414476 0 -4.3445970257968528e-05 0.0075063363867852902 0 -0.00014455707375859541 0.0082824252802768551 0 0.00038930157960497268 0.0079012382713268287 0 -4.3445970257968528e-05 0.0075063363867852902 0 -0.00014455707375859541 0.0082824252802768551 0 -0.0012627234839072189 0.0085363484890860816 0 -0.00030407636119801293 0.0093454690385985795 0 -0.00014455707375859541 0.0082824252802768551 0 0.00024872130576074884 0.0088523379518588401 0 -0.00014455707375859541 0.0082824252802768551 0 0.0007838496616513834 0.0084746650154527096 0 0.00038930157960497268 0.0079012382713268287 0 -0.00014455707375859541 0.0082824252802768551 0 0.0007838496616513834 0.0084746650154527096 0 0.0013516555624243599 0.009207653214799839 0 0.0007838496616513834 0.0084746650154527096 0 0.0015468795218804858 0.0081632876593677895 0 0.0007838496616513834 0.0084746650154527096 0 0.0015468795218804858 0.0081632876593677895 0 0.00091320861185180727 0.0079290920210696517 0 0.0016271507442093276 0.013098571576354717 0 0.0015593532469209657 0.0077664599684857151 0 0.0026122903438837494 0.009786548278104875 0 0.001787513449474937 0.0086043527025473198 0 0.0024506765482721466 0.0079589584815634804 0 0.0013516555624243599 0.009207653214799839 0 0.002217061231238385 0.0090519537160145078 0 0.0015468795218804858 0.0081632876593677895 0 0.001787513449474937 0.0086043527025473198 0 0.0024506765482721466 0.0079589584815634804 0 0.0017853420072208249 0.0069945542332957977 0 0.0015593532469209657 0.0077664599684857151 0 0.0011464180279318226 0.0076981613677396324 0 0.001787513449474937 0.0086043527025473198 0 0.0010184716685718552 0.0074139070783416699 0 0.0017853420072208249 0.0069945542332957977 0 0.0015468795218804858 0.0081632876593677895 0 0.00091320861185180727 0.0079290920210696517 0 0.0010184716685718552 0.0074139070783416699 0 0.0017423913392607686 0.0069793367953469698 0 0.00082853529777413969 0.006956470250553134 0 0.0010184716685718552 0.0074139070783416699 0 0.0017853420072208249 0.0069945542332957977 0 0.00035044235795776658 0.0070805294991240185 0 0.0017853420072208249 0.0069945542332957977 0 0.001577555986130014 0.0066003185865432029 0 0.0012591766740753386 0.0068065417571264728 0 0.002727117375983116 0.0070518137314562702 0 0.0017853420072208249 0.0069945542332957977 0 0.0021233617970487068 0.006701750587058514 0 0.002727117375983116 0.0070518137314562702 0 0.0024506765482721466 0.0079589584815634804 0 0.0017853420072208249 0.0069945542332957977 0 0.0017898038544524697 0.010819314251385761 0 0.0016289819130384715 0.012386689937457972 0 0.002727117375983116 0.0070518137314562702 0 0.0021233617970487068 0.006701750587058514 0 0.0021630875092768136 0.0063010961083969624 0 0.0017853420072208249 0.0069945542332957977 0 0.0021233617970487068 0.006701750587058514 0 0.0018605812192932754 0.0065002268446189013 0 0.0021233617970487068 0.006701750587058514 0 0.0018605812192932754 0.0065002268446189013 0 0.0021630875092768136 0.0063010961083969624 0 0.0018605812192932754 0.0065002268446189013 0 0.0021630875092768136 0.0063010961083969624 0 0.0017410715086374302 0.0062219885927041968 0 0.001577555986130014 0.0066003185865432029 0 0.0012922237485595703 0.006567982050241789 0 0.0017410715086374302 0.0062219885927041968 0 0.00141327348737895 0.0061791487689221028 0 0.0020848128456024272 0.0070137004668444601 0 0.0018605812192932754 0.0065002268446189013 0 0.001577555986130014 0.0066003185865432029 0 0.0017410715086374302 0.0062219885927041968 0 0.0017853420072208249 0.0069945542332957977 0 0.0018605812192932754 0.0065002268446189013 0 0.001577555986130014 0.0066003185865432029 0 0.0014242709414101506 0.0060056713324500542 0 0.0012922237485595703 0.006567982050241789 0 0.0023857105549032016 0.0056296815312279185 0 0.0014242709414101506 0.0060056713324500542 0 0.0012922237485595703 0.006567982050241789 0 0.0010212712418840996 0.006169487504258513 0 0.0014242709414101506 0.0060056713324500542 0 0.0010212712418840996 0.006169487504258513 0 0.0010388827100071827 0.0057140318045035719 0 0.0010781562332627037 0.0065478028066468337 0 0.0012922237485595703 0.006567982050241789 0 0.0010212712418840996 0.006169487504258513 0 0.001577555986130014 0.0066003185865432029 0 0.0012922237485595703 0.006567982050241789 0 0.0012591766740753386 0.0068065417571264728 0 0.0010781562332627037 0.0065478028066468337 0 0.0012922237485595703 0.006567982050241789 0 0.0012591766740753386 0.0068065417571264728 0 0.0005262852284642417 0.007522733666250417 0 -4.3445970257968528e-05 0.0075063363867852902 0 0.00035044235795776658 0.0070805294991240185 0 0.0005262852284642417 0.007522733666250417 0 0.0010184716685718552 0.0074139070783416699 0 0.00035044235795776658 0.0070805294991240185 0 0.00016662366967204475 0.0068580152819901832 0 0.0012591766740753386 0.0068065417571264728 0 0.00071543640318342497 0.0065800684588195177 0 -0.00018952644404833771 0.0069910098951368712 0 0.00082853529777413969 0.006956470250553134 0 -0.00049890142720835663 0.0071514699274827535 0 -4.3445970257968528e-05 0.0075063363867852902 0 0.00035044235795776658 0.0070805294991240185 0 0.0010781562332627037 0.0065478028066468337 0 0.0012591766740753386 0.0068065417571264728 0 0.00071543640318342497 0.0065800684588195177 0 0.00016662366967204475 0.0068580152819901832 0 0.0003224575294608003 0.0063506968655529473 0 0.00071543640318342497 0.0065800684588195177 0 0.0003224575294608003 0.0063506968655529473 0 0.00071543640318342497 0.0065800684588195177 0 0.00053050210391964651 0.0058900104242706995 0 0.0010781562332627037 0.0065478028066468337 0 0.00071543640318342497 0.0065800684588195177 0 0.0010212712418840996 0.006169487504258513 0 0.0010212712418840996 0.006169487504258513 0 0.00053050210391964651 0.0058900104242706995 0 0.0010388827100071827 0.0057140318045035719 0 0.00071543640318342497 0.0065800684588195177 0 0.0010212712418840996 0.006169487504258513 0 0.00053050210391964651 0.0058900104242706995 0 0.00053050210391964651 0.0058900104242706995 0 0.00061618957510288671 0.0053226361707815386 0 5.0873726075933602e-06 0.0053658712551961953 0 0.00053050210391964651 0.0058900104242706995 0 0.00061618957510288671 0.0053226361707815386 0 0.0010388827100071827 0.0057140318045035719 0 0.00061618957510288671 0.0053226361707815386 0 0.0011752412190190221 0.0051136909524943227 0 0.0010388827100071827 0.0057140318045035719 0 0.00061618957510288671 0.0053226361707815386 0 0.0011752412190190221 0.0051136909524943227 0 0.00011299734258865103 0.0045707957556277486 0 0.0014166744950047854 0.0050688325285180988 0 0.00023931833830131608 0.0046492272765908758 0 0.0013013158957857556 0.0048639347868493126 0 0.0016357998231757759 0.0053820699220691083 0 0.00037515568771815923 0.0047022297251987444 0 0.0013013158957857556 0.0048639347868493126 0 0.00086976025981692602 0.0041298036080578129 0 0.00037515568771815923 0.0047022297251987444 0 0.0013013158957857556 0.0048639347868493126 0 0.002464173992170849 0.0049201874523391543 0 0.0016346212551352568 0.0041455612446598348 0 0.0013013158957857556 0.0048639347868493126 0 0.0016357998231757759 0.0053820699220691083 0 0.0020828240750961351 0.0051046068489363433 0 0.0013686629917600318 0.0048225276547792682 0 0.0022411770006318249 0.0057801955186065476 0 0.0016357998231757759 0.0053820699220691083 0 0.0020279005321635754 0.0054356908246087519 0 0.0020828240750961351 0.0051046068489363433 0 0.0014166744950047854 0.0050688325285180988 0 0.0020848128456024272 0.0070137004668444601 0 0.0011752412190190221 0.0051136909524943227 0 0.0015448810888520981 0.0056588129219956335 0 0.0023857105549032016 0.0056296815312279185 0 0.0011752412190190221 0.0051136909524943227 0 0.0010388827100071827 0.0057140318045035719 0 0.0015448810888520981 0.0056588129219956335 0 0.0014242709414101506 0.0060056713324500542 0 0.0010388827100071827 0.0057140318045035719 0 0.0015448810888520981 0.0056588129219956335 0 0.0016357998231757759 0.0053820699220691083 0 0.0023191977809982056 0.0057686580968358877 0 0.0020279005321635754 0.0054356908246087519 0 0.0014242709414101506 0.0060056713324500542 0 0.0015448810888520981 0.0056588129219956335 0 0.0023857105549032016 0.0056296815312279185 0 0.0023191977809982056 0.0057686580968358877 0 0.0023306154670445015 0.0055867045560258361 0 0.0022328629865305256 0.0055317807096008087 0 0.0023191977809982056 0.0057686580968358877 0 0.0023306154670445015 0.0055867045560258361 0 0.0024320068845419909 0.0056143386907921214 0 0.0023306154670445015 0.0055867045560258361 0 0.0022328629865305256 0.0055317807096008087 0 0.0023352927469474259 0.0054827439240614853 0 0.0023191977809982056 0.0057686580968358877 0 0.0022328629865305256 0.0055317807096008087 0 0.0020279005321635754 0.0054356908246087519 0 0.0012346947856661146 0.016389457522800306 0 0.0014171392942382644 0.016728313226556924 0 0.0010508722678513663 0.016711239752523855 0 0.0016289819130384715 0.012386689937457972 0 0.0020848128456024272 0.0070137004668444601 0 0.0022675552043995321 0.010284241423726095 0 0.0012726154531257962 0.0098383219394103782 0 0.0018065594196500097 0.0093737305987595283 0 0.0016289819130384715 0.012386689937457972 0 0.0017285847252463515 0.010183120522783992 0 0.0020848128456024272 0.0070137004668444601 0 0.0017285847252463515 0.010183120522783992 0 0.0023306154670445015 0.0055867045560258361 0 0.0024320068845419909 0.0056143386907921214 0 0.0023352927469474259 0.0054827439240614853 0 0.0017285847252463515 0.010183120522783992 0 0.0011221165361950274 0.0065850842031500226 0 0.0014171392942382644 0.016728313226556924 0 0.0010508722678513663 0.016711239752523855 0 0.0010287289859341501 0.017090183933492955 0 0.0023579260798794245 0.0055554973750154791 0 0.0023352927469474259 0.0054827439240614853 0 0.0024514197396102136 0.0054920083626212087 0 0.001577560271382708 0.0081799065761815424 0 0.0014328754295382629 0.0082568627038197527 0 0.0013595123119729199 0.0081954890670265946 0 0.0023352927469474259 0.0054827439240614853 0 0.0023332517576329587 0.0054184308871256231 0 0.0024514197396102136 0.0054920083626212087 0 0.0019794218139701568 0.0068744698768225098 0 0.0012113808566118864 0.01090865647542987 0 0.0017285847252463515 0.010183120522783992 0 0.0012113808566118864 0.01090865647542987 0 0.001577560271382708 0.0081799065761815424 0 0.0014328754295382629 0.0082568627038197527 0 0.0015319179683645392 0.008361886424422935 0 0.001577560271382708 0.0081799065761815424 0 0.0017902080242158541 0.0081714761596029216 0 0.0016783369040803044 0.0082912266001492884 0 0.0019794218139701568 0.0068744698768225098 0 0.0022411770006318249 0.0057801955186065476 0 0.0023332517576329587 0.0054184308871256231 0 0.0022013967972625767 0.0054352699920030443 0 0.0020542707661677668 0.0053248599855521758 0 0.0022328629865305256 0.0055317807096008087 0 0.0020279005321635754 0.0054356908246087519 0 0.0022013967972625767 0.0054352699920030443 0 0.0021369760043122884 0.0053556937788282874 0 0.0022411770006318249 0.0057801955186065476 0 0.0020279005321635754 0.0054356908246087519 0 0.0022013967972625767 0.0054352699920030443 0 0.0020542707661677668 0.0053248599855521758 0 0.0023352927469474259 0.0054827439240614853 0 0.0023332517576329587 0.0054184308871256231 0 0.0022013967972625767 0.0054352699920030443 0 0.0022328629865305256 0.0055317807096008087 0 0.0023352927469474259 0.0054827439240614853 0 0.0022013967972625767 0.0054352699920030443 0 0.0022411770006318249 0.0057801955186065476 0 0.0019323548486683655 0.0071786409963806239 0 0.0017902080242158541 0.0081714761596029216 0 0.0016783369040803044 0.0082912266001492884 0 0.0017940299982475529 0.0084419806811192842 0 0.0016783369040803044 0.0082912266001492884 0 0.0015319179683645392 0.008361886424422935 0 0.0017940299982475529 0.0084419806811192842 0 0.0012803599049868704 0.0094981418217650326 0 0.0019323548486683655 0.0071786409963806239 0 0.0010855937743627995 0.010570099368214767 0 0.0010713739521874249 0.010526531568442571 0 0.0010393112231686678 0.010530567156338072 0 0.001577560271382708 0.0081799065761815424 0 0.0016783369040803044 0.0082912266001492884 0 0.0015319179683645392 0.008361886424422935 0 0.0010855937743627995 0.010570099368214767 0 0.001115940741260907 0.010534121952075745 0 0.0011335311416581643 0.010567212556838705 0 0.0014328754295382629 0.0082568627038197527 0 0.0015319179683645392 0.008361886424422935 0 0.0012626746872212936 0.0082900430247476835 0 0.0012803599049868704 0.0094981418217650326 0 0.00097243223203429398 0.011213546374614875 0 0.0010855937743627995 0.010570099368214767 0 0.001115940741260907 0.010534121952075745 0 0.0010713739521874249 0.010526531568442571 0 0.001115940741260907 0.010534121952075745 0 0.0010713739521874249 0.010526531568442571 0 0.0010935843611626745 0.010499980600274492 0 0.0010713739521874249 0.010526531568442571 0 0.0010393112231686678 0.010530567156338072 0 0.001025517674893287 0.010494191978773104 0 0.0017254675296005631 0.0056791226541701269 0 0.0025081190772440506 0.0060137855351546964 0 0.0024976875113872045 0.0053438950921731419 0 0.0014423100705796611 0.004165551320198988 0 0.0019323548486683655 0.0071786409963806239 0 0.0019323548486683655 0.0071786409963806239 0 0.001784761686747665 0.0079530754448879394 0 0.0010929656075684296 0.0031920209575929783 0 0.00086976025981692602 0.0041298036080578129 0 0.0016346212551352568 0.0041455612446598348 0 0.0013013158957857556 0.0048639347868493126 0 0.00086976025981692602 0.0041298036080578129 0 0.0016346212551352568 0.0041455612446598348 0 0.002464173992170849 0.0049201874523391543 0 0.0024317289360342637 0.0037443957351137444 0 0.0016346212551352568 0.0041455612446598348 0 0.0010929656075684296 0.0031920209575929783 0 0.0024317289360342637 0.0037443957351137444 0 0.0016346212551352568 0.0041455612446598348 0 0.00076654114492439099 0.01689036602098138 0 0.00058693819433773748 0.017044471790312776 0 0.00050900642074321338 0.016794988470962117 0 0.00017609332049323294 0.016752274276169033 0 0.00036344066934018942 0.016831677598765363 0 0.0002123777248568603 0.0168352871712787 0 0.00017609332049323294 0.016752274276169033 0 0.0002123777248568603 0.0168352871712787 0 0.00012154391356629606 0.016820413631789207 0 0.00047580101133898583 0.016746398710761206 0 0.00051426055505875634 0.01678462534917952 0 0.00076654114492439099 0.01689036602098138 0 0.00082617351995968613 0.016795436787901619 0 0.00050900642074321338 0.016794988470962117 0 0.00017609332049323294 0.016752274276169033 0 0.00036344066934018942 0.016831677598765363 0 0.00050900642074321338 0.016794988470962117 0 0.00036344066934018942 0.016831677598765363 0 0.00050900642074321338 0.016794988470962117 0 0.00044471089531101951 0.016872613716510554 0 0.00031311227073703858 0.016907871084559267 0 0.00037626892864755401 0.017058672088980008 0 0.00044471089531101951 0.016872613716510554 0 0.00036344066934018942 0.016831677598765363 0 0.00031311227073703858 0.016907871084559267 0 0.00044471089531101951 0.016872613716510554 0 0.00022727895262434733 0.017128265774208673 0 0.00031311227073703858 0.016907871084559267 0 0.00037626892864755401 0.017058672088980008 0 0.00022727895262434733 0.017128265774208673 0 0.00031311227073703858 0.016907871084559267 0 0.00014055057195801144 0.016873614115501548 0 0.00031311227073703858 0.016907871084559267 0 0.0002123777248568603 0.0168352871712787 0 0.00014055057195801144 0.016873614115501548 0 0.00036344066934018942 0.016831677598765363 0 0.00031311227073703858 0.016907871084559267 0 0.0002123777248568603 0.0168352871712787 0 0.00014055057195801144 0.016873614115501548 0 -1.0203015971109398e-05 0.016847551543719412 0 6.9050671090509631e-05 0.016848474782750054 0 0.00014055057195801144 0.016873614115501548 0 6.9050671090509631e-05 0.016848474782750054 0 0.00012154391356629606 0.016820413631789207 0 0.0002123777248568603 0.0168352871712787 0 0.00014055057195801144 0.016873614115501548 0 0.00012154391356629606 0.016820413631789207 0 0.00022727895262434733 0.017128265774208673 0 0.00014055057195801144 0.016873614115501548 0 -1.0203015971109398e-05 0.016847551543719412 0 -1.0203015971109398e-05 0.016847551543719412 0 0.00015225154496703878 0.016862759946671562 0 0.0002247857863552171 0.016732199227113536 0 -1.0203015971109398e-05 0.016847551543719412 0 6.9050671090509631e-05 0.016848474782750054 0 0.00015225154496703878 0.016862759946671562 0 6.9050671090509631e-05 0.016848474782750054 0 7.5569908973158645e-05 0.016838390399232604 0 0.00015225154496703878 0.016862759946671562 0 0.00076654114492439099 0.01689036602098138 0 0.00082617351995968613 0.016795436787901619 0 0.0010514119244904403 0.016801280289164108 0 6.9050671090509631e-05 0.016848474782750054 0 7.5569908973158645e-05 0.016838390399232604 0 0.00012154391356629606 0.016820413631789207 0 0.00076654114492439099 0.01689036602098138 0 0.0010514119244904403 0.016801280289164108 0 0.00090346975568939437 0.017101919344049938 0 0.00084054433177897499 0.015982526522639959 0 0.00021924162433322372 0.016976004908648683 0 0.00047580101133898583 0.016746398710761206 0 0.00084054433177897499 0.015982526522639959 0 0.00017609332049323294 0.016752274276169033 0 7.5569908973158645e-05 0.016838390399232604 0 0.00012154391356629606 0.016820413631789207 0 0.0011491193213795273 0.013824543591674249 0 0.0010156743598332134 0.013813311833610856 0 0.0011466332259862113 0.013537502839421798 0 0.00038961457302431375 0.01693202276087075 0 0.00022987395745975865 0.017107210491612432 0 0.0010287289859341501 0.017090183933492955 0 0.0010156743598332134 0.013813311833610856 0 0.0006111906087526356 0.013629322317700095 0 0.00092173929419226211 0.013587724021445723 0 0.0007323142519276018 0.015059745289459052 0 0.00097243223203429398 0.011213546374614875 0 0.0010156743598332134 0.013813311833610856 0 0.00092173929419226211 0.013587724021445723 0 0.0011466332259862113 0.013537502839421798 0 5.345268711779995e-05 0.017096609624791943 0 0.00022987395745975865 0.017107210491612432 0 0.00015225154496703878 0.016862759946671562 0 0.00038961457302431375 0.01693202276087075 0 0.00022987395745975865 0.017107210491612432 0 0.00015225154496703878 0.016862759946671562 0 0.00084054433177897499 0.015982526522639959 0 0.0007323142519276018 0.015059745289459052 0 0.00038961457302431375 0.01693202276087075 0 0.00015225154496703878 0.016862759946671562 0 0.0004366072104747767 0.016729124064370653 0 0.00015225154496703878 0.016862759946671562 0 0.0002247857863552171 0.016732199227113536 0 0.0004366072104747767 0.016729124064370653 0 0.00036060608414242764 0.016469478775181481 0 0.0002247857863552171 0.016732199227113536 0 0.0004366072104747767 0.016729124064370653 0 0.00036060608414242764 0.016469478775181481 0 -1.0203015971109398e-05 0.016847551543719412 0 0.0002247857863552171 0.016732199227113536 0 0.00036060608414242764 0.016469478775181481 0 0.0004366072104747767 0.016729124064370653 0 0.00078475701125922594 0.016555160436255448 0 0.00038961457302431375 0.01693202276087075 0 0.0004366072104747767 0.016729124064370653 0 0.0007374711787237055 0.016803429178706371 0 0.0004366072104747767 0.016729124064370653 0 0.0007374711787237055 0.016803429178706371 0 0.00078475701125922594 0.016555160436255448 0 0.0012346947856661146 0.016389457522800306 0 0.00078475701125922594 0.016555160436255448 0 0.0010508722678513663 0.016711239752523855 0 0.0007374711787237055 0.016803429178706371 0 0.0010508722678513663 0.016711239752523855 0 0.0010287289859341501 0.017090183933492955 0 0.0007374711787237055 0.016803429178706371 0 0.00078475701125922594 0.016555160436255448 0 0.0010508722678513663 0.016711239752523855 0 0.00038961457302431375 0.01693202276087075 0 0.0007374711787237055 0.016803429178706371 0 0.0010287289859341501 0.017090183933492955 0 0.0007323142519276018 0.015059745289459052 0 0.0012113808566118864 0.01090865647542987 0 0.0010034200360309025 0.01270329533269024 0 0.0010329807782399919 0.012664863056521574 0 0.0010247850135286743 0.01267985106653978 0 0.0014328754295382629 0.0082568627038197527 0 0.0013595123119729199 0.0081954890670265946 0 0.0012626746872212936 0.0082900430247476835 0 0.0012113808566118864 0.01090865647542987 0 0.00097243223203429398 0.011213546374614875 0 0.0010855937743627995 0.010570099368214767 0 0.0011336655002734575 0.010604145903381591 0 0.0011335311416581643 0.010567212556838705 0 0.0011336655002734575 0.010604145903381591 0 0.0011335311416581643 0.010567212556838705 0 0.0011678120383674508 0.01058020533923648 0 0.001115940741260907 0.010534121952075745 0 0.0011335311416581643 0.010567212556838705 0 0.0011557423893373416 0.010537610475731388 0 0.001115940741260907 0.010534121952075745 0 0.0011557423893373416 0.010537610475731388 0 0.0011379132037619606 0.010503487837300653 0 0.0011335311416581643 0.010567212556838705 0 0.0011557423893373416 0.010537610475731388 0 0.0011678120383674508 0.01058020533923648 0 0.0011557423893373416 0.010537610475731388 0 0.0011678120383674508 0.01058020533923648 0 0.0012035282621214961 0.010555825139500522 0 0.0009317010899847002 0.01209246849473925 0 0.0014252289879943601 0.011726229665687773 0 0.00091585901691456956 0.01337106525692622 0 0.0011466332259862113 0.013537502839421798 0 0.0012253332051962201 0.01309948094393402 0 0.00097243223203429398 0.011213546374614875 0 0.0009317010899847002 0.01209246849473925 0 0.0006111906087526356 0.013629322317700095 0 0.00091585901691456956 0.01337106525692622 0 0.00092173929419226211 0.013587724021445723 0 0.00091585901691456956 0.01337106525692622 0 0.00092173929419226211 0.013587724021445723 0 0.0011466332259862113 0.013537502839421798 0 0.0011491193213795273 0.013824543591674249 0 0.0011466332259862113 0.013537502839421798 0 0.0013670512675117224 0.013363209384321445 0 0.0011466332259862113 0.013537502839421798 0 0.0013670512675117224 0.013363209384321445 0 0.0012253332051962201 0.01309948094393402 0 0.00084054433177897499 0.015982526522639959 0 0.0014521257809276193 0.015224793040083862 0 0.0022082520546965979 0.01284145669767349 0 0.0022230520791653007 0.012202484659751028 0 0.0019714838836806733 0.012402878595218868 0 0.0014521257809276193 0.015224793040083862 0 0.0014252289879943601 0.011726229665687773 0 0.00085471139004590104 0.017361002167467339 0 0.00086717136995039467 0.017570407113993044 0 0.00079702590167301331 0.017435398308324385 0 0.00096513477823776631 0.017267284195926318 0 0.00085471139004590104 0.017361002167467339 0 0.00086717136995039467 0.017570407113993044 0 0.0014521257809276193 0.015224793040083862 0 0.0018464684346846676 0.014110693960772833 0 0.0022082520546965979 0.01284145669767349 0 0.0022230520791653007 0.012202484659751028 0 0.0026161895649498617 0.011884569489853574 0 0.00085471139004590104 0.017361002167467339 0 0.00080683676700242458 0.01738277315111646 0 0.00079702590167301331 0.017435398308324385 0 0.00097881420779615674 0.01739606529306963 0 0.0014521257809276193 0.015224793040083862 0 0.00076654114492439099 0.01689036602098138 0 0.00096513477823776631 0.017267284195926318 0 0.00079464733155606342 0.017161459431032009 0 0.00085471139004590104 0.017361002167467339 0 0.00079464733155606342 0.017161459431032009 0 0.00058693819433773748 0.017044471790312776 0 0.00085471139004590104 0.017361002167467339 0 0.00080683676700242458 0.01738277315111646 0 0.0007920214973027315 0.017384827055186874 0 0.00085459974148407428 0.017415303162212823 0 0.00059658618719802365 0.017012942720626333 0 0.00096513477823776631 0.017267284195926318 0 0.00085471139004590104 0.017361002167467339 0 0.00079464733155606342 0.017161459431032009 0 0.00076654114492439099 0.01689036602098138 0 0.00079464733155606342 0.017161459431032009 0 0.00058693819433773748 0.017044471790312776 0 0.002523021741210415 0.011444921561773833 0 0.0027063220573878707 0.011098192101309409 0 0.0028887392181795287 0.011209816394719213 0 0.0018464684346846676 0.014110693960772833 0 0.0018997710824177067 0.017430329790020561 0 0.002523021741210415 0.011444921561773833 0 0.0021254557638816195 0.011096547966098436 0 0.0027841740920092699 0.010847947153046883 0 0.002523021741210415 0.011444921561773833 0 0.0026161895649498617 0.011884569489853574 0 0.0028887392181795287 0.011209816394719213 0 0.0029223359133030628 0.010510419649119382 0 0.0022946219338195388 0.013841518527987783 0 0.002523021741210415 0.011444921561773833 0 0.0026161895649498617 0.011884569489853574 0 0.0020591223981230437 0.011743819039073185 0 0.0022230520791653007 0.012202484659751028 0 0.0026161895649498617 0.011884569489853574 0 0.0020591223981230437 0.011743819039073185 0 0.0019714838836806733 0.012402878595218868 0 0.0020591223981230437 0.011743819039073185 0 0.0015257385336671784 0.01147726346438141 0 0.0022230520791653007 0.012202484659751028 0 0.0019714838836806733 0.012402878595218868 0 0.0020591223981230437 0.011743819039073185 0 0.002523021741210415 0.011444921561773833 0 0.0020591223981230437 0.011743819039073185 0 0.0021254557638816195 0.011096547966098436 0 0.0020591223981230437 0.011743819039073185 0 0.0021254557638816195 0.011096547966098436 0 0.0015257385336671784 0.01147726346438141 0 0.0013730717836127765 0.01093469142723137 0 0.0011965977393211147 0.010544436504727929 0 0.0021254557638816195 0.011096547966098436 0 0.0015257385336671784 0.01147726346438141 0 0.0017207828577001821 0.010635076834523085 0 0.0011557423893373416 0.010537610475731388 0 0.0012035282621214961 0.010555825139500522 0 0.0011717923312345585 0.010491890895144866 0 0.0014252289879943601 0.011726229665687773 0 0.0013730717836127765 0.01093469142723137 0 0.0011557423893373416 0.010537610475731388 0 0.0011717923312345585 0.010491890895144866 0 0.0011379132037619606 0.010503487837300653 0 0.0011717923312345585 0.010491890895144866 0 0.0011996671409175335 0.010489947241659281 0 0.0011412882407187837 0.01047167274479187 0 0.0011717923312345585 0.010491890895144866 0 0.0011379132037619606 0.010503487837300653 0 0.0011412882407187837 0.01047167274479187 0 0.0011996671409175335 0.010489947241659281 0 0.0011412882407187837 0.01047167274479187 0 0.0010954629128753942 0.010356671413287622 0 0.0011996671409175335 0.010489947241659281 0 0.0016138024501085536 0.010126966376682547 0 0.0010915923564470381 0.010209540159144269 0 0.0022559198345249477 0.011617444641878942 0 0.0016479873312728215 0.0099201129877368888 0 0.0011996671409175335 0.010489947241659281 0 0.0016138024501085536 0.010126966376682547 0 0.0017207828577001821 0.010635076834523085 0 0.0022559198345249477 0.011617444641878942 0 0.0025436522437115023 0.013739663156030299 0 0.0015257385336671784 0.01147726346438141 0 0.0011996671409175335 0.010489947241659281 0 0.0017207828577001821 0.010635076834523085 0 0.0021254557638816195 0.011096547966098436 0 0.0017207828577001821 0.010635076834523085 0 0.0021736381550716212 0.010428910228427568 0 0.0025436522437115023 0.013739663156030299 0 0.0021218121149488398 0.01597318193714287 0 0.002267600495579549 0.015158034996165718 0 0.0021684885403997997 0.015127227770978106 0 0.0021056480260527618 0.015089169261898515 0 0.0021684885403997997 0.015127227770978106 0 0.0022084974181610984 0.015195549053888757 0 0.0020051153595348446 0.015246202558353317 0 0.0022559198345249477 0.011617444641878942 0 0.0021061063733188229 0.012754186721149505 0 0.0016138024501085536 0.010126966376682547 0 0.0017207828577001821 0.010635076834523085 0 0.0021736381550716212 0.010428910228427568 0 0.002652981302118444 0.014700373463388355 0 0.0025436522437115023 0.013739663156030299 0 0.002267600495579549 0.015158034996165718 0 0.0021684885403997997 0.015127227770978106 0 0.0022016619809784861 0.015166161627786345 0 0.0021684885403997997 0.015127227770978106 0 0.0021056480260527618 0.015089169261898515 0 0.0020051153595348446 0.015246202558353317 0 0.0019438949154551069 0.015127063003905837 0 0.0018895634099879675 0.014943462534703777 0 0.001755100549568948 0.015269855294666788 0 0.0021056480260527618 0.015089169261898515 0 0.0020051153595348446 0.015246202558353317 0 0.0019438949154551069 0.015127063003905837 0 0.0020051153595348446 0.015246202558353317 0 0.0019438949154551069 0.015127063003905837 0 0.001755100549568948 0.015269855294666788 0 0.0021218121149488398 0.01597318193714287 0 0.0017254959952834985 0.020980145206720029 0 0.0021061063733188229 0.012754186721149505 0 0.0022946219338195388 0.013841518527987783 0 0.0021254557638816195 0.011096547966098436 0 0.0021736381550716212 0.010428910228427568 0 0.0027841740920092699 0.010847947153046883 0 0.0021056480260527618 0.015089169261898515 0 0.0019438949154551069 0.015127063003905837 0 0.0018895634099879675 0.014943462534703777 0 0.0024871531147486565 0.004679235779514135 0 0.0017134393322951337 0.0049477251778693235 0 0.0017314186464828648 0.0040433609001637259 0 0.0017254675296005631 0.0056791226541701269 0 0.0017134393322951337 0.0049477251778693235 0 0.0024976875113872045 0.0053438950921731419 0 0.0024871531147486565 0.004679235779514135 0 0.0017134393322951337 0.0049477251778693235 0 0.0024976875113872045 0.0053438950921731419 0 0.001092749082009895 0.0084676189269502575 0 0.001784761686747665 0.0079530754448879394 0 0.0010713739521874249 0.010526531568442571 0 0.001025517674893287 0.010494191978773104 0 0.0010935843611626745 0.010499980600274492 0 0.001025517674893287 0.010494191978773104 0 0.0010935843611626745 0.010499980600274492 0 0.0010490396612721899 0.010457103404678451 0 0.0011379132037619606 0.010503487837300653 0 0.0010935843611626745 0.010499980600274492 0 0.0011412882407187837 0.01047167274479187 0 0.001115940741260907 0.010534121952075745 0 0.0011379132037619606 0.010503487837300653 0 0.0010935843611626745 0.010499980600274492 0 0.0010935843611626745 0.010499980600274492 0 0.0011412882407187837 0.01047167274479187 0 0.0010490396612721899 0.010457103404678451 0 0.0011412882407187837 0.01047167274479187 0 0.0010490396612721899 0.010457103404678451 0 0.0010608464300947368 0.010376226887775829 0 0.00098552250287780858 0.010444959184250729 0 0.001025517674893287 0.010494191978773104 0 0.0010490396612721899 0.010457103404678451 0 0.00098552250287780858 0.010444959184250729 0 0.0010490396612721899 0.010457103404678451 0 0.0010087907226764144 0.010431562457457237 0 0.0010490396612721899 0.010457103404678451 0 0.0010087907226764144 0.010431562457457237 0 0.0010142381248811698 0.010378455991602829 0 0.00098552250287780858 0.010444959184250729 0 0.0010087907226764144 0.010431562457457237 0 0.0010142381248811698 0.010378455991602829 0 0.0010066414211698203 0.010296503143369518 0 0.0010608464300947368 0.010376226887775829 0 0.0010246519723554677 0.010243606639017556 0 0.0010490396612721899 0.010457103404678451 0 0.0010142381248811698 0.010378455991602829 0 0.0010608464300947368 0.010376226887775829 0 0.0010142381248811698 0.010378455991602829 0 0.0010066414211698203 0.010296503143369518 0 0.00093647712775542734 0.010222681398129534 0 0.00098552250287780858 0.010444959184250729 0 0.0010142381248811698 0.010378455991602829 0 0.00093647712775542734 0.010222681398129534 0 0.0010142381248811698 0.010378455991602829 0 0.0010066414211698203 0.010296503143369518 0 0.0010608464300947368 0.010376226887775829 0 0.0010608464300947368 0.010376226887775829 0 0.0010954629128753942 0.010356671413287622 0 0.0010246519723554677 0.010243606639017556 0 0.0011412882407187837 0.01047167274479187 0 0.0010608464300947368 0.010376226887775829 0 0.0010954629128753942 0.010356671413287622 0 0.0011996671409175335 0.010489947241659281 0 0.0010954629128753942 0.010356671413287622 0 0.0010915923564470381 0.010209540159144269 0 0.0010954629128753942 0.010356671413287622 0 0.0010915923564470381 0.010209540159144269 0 0.0010246519723554677 0.010243606639017556 0 0.0010915923564470381 0.010209540159144269 0 0.0010246519723554677 0.010243606639017556 0 0.00095620740159788303 0.010170202604275881 0 0.0016479873312728215 0.0099201129877368888 0 0.0012008342158060458 0.010111244905148028 0 0.00098099473079506509 0.010229790229482238 0 0.00095620740159788303 0.010170202604275881 0 0.00093647712775542734 0.010222681398129534 0 0.0010066414211698203 0.010296503143369518 0 0.00098099473079506509 0.010229790229482238 0 0.00093647712775542734 0.010222681398129534 0 0.0010066414211698203 0.010296503143369518 0 0.00098099473079506509 0.010229790229482238 0 0.0010246519723554677 0.010243606639017556 0 0.00098099473079506509 0.010229790229482238 0 0.0010246519723554677 0.010243606639017556 0 0.00095620740159788303 0.010170202604275881 0 0.0012008342158060458 0.010111244905148028 0 0.00075139695295892226 0.0099852123300435865 0 0.00095620740159788303 0.010170202604275881 0 0.00087596294733068231 0.010167306981057585 0 0.0007353435491355908 0.009971587859978143 0 0.00087596294733068231 0.010167306981057585 0 0.00093647712775542734 0.010222681398129534 0 0.00089348397964452298 0.0102295650124869 0 0.00095620740159788303 0.010170202604275881 0 0.00087596294733068231 0.010167306981057585 0 0.00093647712775542734 0.010222681398129534 0 0.001092749082009895 0.0084676189269502575 0 0.0013404149135289127 0.0069491648339515362 0 0.001092749082009895 0.0084676189269502575 0 0.00091526916161950274 0.011028824467198085 0 0.00093252232052871151 0.010269091702754288 0 0.00089348397964452298 0.0102295650124869 0 0.00080976948460301289 0.01023879907220538 0 0.00093252232052871151 0.010269091702754288 0 0.00093647712775542734 0.010222681398129534 0 0.00089348397964452298 0.0102295650124869 0 0.00087596294733068231 0.010167306981057585 0 0.00089348397964452298 0.0102295650124869 0 0.00080976948460301289 0.01023879907220538 0 0.00087596294733068231 0.010167306981057585 0 0.00080976948460301289 0.01023879907220538 0 0.0007353435491355908 0.009971587859978143 0 0.00080976948460301289 0.01023879907220538 0 0.0007353435491355908 0.009971587859978143 0 0.00035870289644754106 0.009928660953820263 0 0.0013404149135289127 0.0069491648339515362 0 0.00062333026578163299 0.0069111999241587051 0 0.0017314186464828648 0.0040433609001637259 0 0.000967470211472464 0.0033988128468719413 0 0.0007912770737290687 0.0040007759504406409 0 0.000967470211472464 0.0033988128468719413 0 0.0007912770737290687 0.0040007759504406409 0 0.00024085847389933876 0.0036645360988642583 0 0.000967470211472464 0.0033988128468719413 0 0.00024085847389933876 0.0036645360988642583 0 0.00029542005109835348 0.0032176211918861493 0 0.0007912770737290687 0.0040007759504406409 0 0.00088273182201417861 0.0045953968948075586 0 0.00012570676329429054 0.0043050978413263236 0 0.0017314186464828648 0.0040433609001637259 0 0.0007912770737290687 0.0040007759504406409 0 0.00088273182201417861 0.0045953968948075586 0 0.0017134393322951337 0.0049477251778693235 0 0.0017314186464828648 0.0040433609001637259 0 0.00088273182201417861 0.0045953968948075586 0 -0.00016955680470385034 0.002668371961428574 0 -0.0013208714409379317 0.0022284809570670863 0 -0.00088973509721333212 0.0030830719858465079 0 0.00036058976280489686 0.0040250796729131583 0 -0.0004820498145543926 0.0037290105263744254 0 0.00088273182201417861 0.0045953968948075586 0 0.0009354990356074365 0.0053453418270595042 0 0.00012618784403879807 0.0050152150858021249 0 0.0017254675296005631 0.0056791226541701269 0 0.0017134393322951337 0.0049477251778693235 0 0.0009354990356074365 0.0053453418270595042 0 0.0017134393322951337 0.0049477251778693235 0 0.00088273182201417861 0.0045953968948075586 0 0.0009354990356074365 0.0053453418270595042 0 -0.0019532220132059499 0.0025066489960172654 0 -0.0013208714409379317 0.0022284809570670863 0 -0.0023038845137437077 0.0018660919696205029 0 -0.0019532220132059499 0.0025066489960172654 0 -0.0013208714409379317 0.0022284809570670863 0 -0.0015892582013808513 0.0030284449510659429 0 -0.0019532220132059499 0.0025066489960172654 0 -0.0023038845137437077 0.0018660919696205029 0 -0.0023873055964296745 0.002515022270289693 0 -0.0019532220132059499 0.0025066489960172654 0 -0.0023873055964296745 0.002515022270289693 0 -0.0021051383162709503 0.0029024331774685822 0 0.00088273182201417861 0.0045953968948075586 0 0.00012618784403879807 0.0050152150858021249 0 0.00012570676329429054 0.0043050978413263236 0 -0.0004820498145543926 0.0037290105263744254 0 -0.0019609997649919909 0.0025288145606351471 0 0.00012618784403879807 0.0050152150858021249 0 0.00012570676329429054 0.0043050978413263236 0 -0.00075996811278890666 0.0046688037338380268 0 0.00012570676329429054 0.0043050978413263236 0 -0.00060696005744243419 0.0036151683108620243 0 -0.00075996811278890666 0.0046688037338380268 0 0.00010795709721541524 0.0048203391856741131 0 -4.5026096384340442e-05 0.0017343532901218641 0 0.0007912770737290687 0.0040007759504406409 0 0.00012570676329429054 0.0043050978413263236 0 0.00024085847389933876 0.0036645360988642583 0 0.00012570676329429054 0.0043050978413263236 0 0.00024085847389933876 0.0036645360988642583 0 -0.00050061956295971096 0.0037268680277431124 0 0.00024085847389933876 0.0036645360988642583 0 -6.0674136331942387e-05 0.0033131051611853548 0 0.00029542005109835348 0.0032176211918861493 0 -0.00050061956295971096 0.0037268680277431124 0 -6.0674136331942387e-05 0.0033131051611853548 0 -0.00040892522130446193 0.0030267038812313535 0 -4.5026096384340442e-05 0.0017343532901218641 0 0.0014530346360236929 -0.00045483807072072452 0 0.00024085847389933876 0.0036645360988642583 0 -0.00050061956295971096 0.0037268680277431124 0 -6.0674136331942387e-05 0.0033131051611853548 0 0.0028170745687764037 -0.0012977801986127485 0 0.002918935222452864 -0.0037099681252526335 0 0.0031424351485771751 -0.0038006347399071917 0 0.0028170745687764037 -0.0012977801986127485 0 0.0012936981136133614 -0.0026347031272679826 0 0.002918935222452864 -0.0037099681252526335 0 -0.0027024543334261937 0.0007551205498028961 0 -0.0027691749381708818 0.00067595350168717463 0 -0.0028210508396946101 0.00081335925654876914 0 -4.5026096384340442e-05 0.0017343532901218641 0 0.00066043005131281244 -0.0023216550778377598 0 0.0030476960119030778 -0.003073034853331318 0 0.0019476143126181946 -0.0023239793219746703 0 0.0021854317957217188 -0.0038763550413544383 0 0.00066043005131281244 -0.0023216550778377598 0 -0.00063384997720209086 -0.00056310347743370489 0 -0.0027691749381708818 0.00067595350168717463 0 -0.0029371541074045327 0.00083143162215779652 0 -0.0028210508396946101 0.00081335925654876914 0 -0.0029371541074045327 0.00083143162215779652 0 -0.0028210508396946101 0.00081335925654876914 0 -0.0029970420453368624 0.00087233027243472847 0 -4.5026096384340442e-05 0.0017343532901218641 0 -0.0019609997649919909 0.0025288145606351471 0 -0.0027024543334261937 0.0007551205498028961 0 -0.0028210508396946101 0.00081335925654876914 0 -0.0027538664945036214 0.00088603675092638085 0 -0.00042394535868536213 -0.0026019363641710241 0 0.0008067324162769425 -0.0024822146924444507 0 0.00033856886616382374 -0.0032721064880701332 0 0.0008067324162769425 -0.0024822146924444507 0 0.0013800951743709129 -0.0032062424294477042 0 0.00033856886616382374 -0.0032721064880701332 0 0.0019476143126181946 -0.0023239793219746703 0 0.0008067324162769425 -0.0024822146924444507 0 0.0013800951743709129 -0.0032062424294477042 0 0.0019476143126181946 -0.0023239793219746703 0 0.0013800951743709129 -0.0032062424294477042 0 0.0021854317957217188 -0.0038763550413544383 0 -0.00063384997720209086 -0.00056310347743370489 0 -0.00087454050119794777 -0.00036272888770470276 0 -0.0029371541074045327 0.00083143162215779652 0 -0.0026767977626884244 0.00092764281505093734 0 -0.0029970420453368624 0.00087233027243472847 0 0.0019476143126181946 -0.0023239793219746703 0 0.0008067324162769425 -0.0024822146924444507 0 0.00083330719866385537 -0.0015601791288817088 0 1.5435573633435078e-05 -0.0018443662406461339 0 0.0008067324162769425 -0.0024822146924444507 0 0.00083330719866385537 -0.0015601791288817088 0 -0.0020882402370888745 0.00062335347694440616 0 -0.0026767977626884244 0.00092764281505093734 0 -0.0026492602137542665 0.00054298783548292664 0 -0.0012202945337118757 -0.00010787349892496512 0 -0.00087454050119794777 -0.00036272888770470276 0 -0.0026492602137542665 0.00054298783548292664 0 -0.0029970420453368624 0.00087233027243472847 0 -0.003204102891460588 0.00086441052612288888 0 -0.0026767977626884244 0.00092764281505093734 0 -0.0026492602137542665 0.00054298783548292664 0 -0.0029970420453368624 0.00087233027243472847 0 -0.0026492602137542665 0.00054298783548292664 0 -0.003204102891460588 0.00086441052612288888 0 -0.0029478898955861356 0.0001439673329278786 0 -0.0028210508396946101 0.00081335925654876914 0 -0.0027538664945036214 0.00088603675092638085 0 -0.0028061509039129478 0.00084048848670678893 0 -0.0023227819330389251 0.00087647015714230759 0 -0.0028061509039129478 0.00084048848670678893 0 -0.002725766435633427 0.0011364630788102156 0 -0.0019609997649919909 0.0025288145606351471 0 -0.0030663020550686149 0.0010354396495088748 0 -0.0028061509039129478 0.00084048848670678893 0 -0.003204102891460588 0.00086441052612288888 0 -0.002725766435633427 0.0011364630788102156 0 -0.0028210508396946101 0.00081335925654876914 0 -0.0028061509039129478 0.00084048848670678893 0 -0.0029970420453368624 0.00087233027243472847 0 -0.0028061509039129478 0.00084048848670678893 0 -0.0029970420453368624 0.00087233027243472847 0 -0.003204102891460588 0.00086441052612288888 0 -0.003204102891460588 0.00086441052612288888 0 -0.002890352849886636 0.00179700700802334 0 -0.002725766435633427 0.0011364630788102156 0 -0.0023227819330389251 0.00087647015714230759 0 -0.002725766435633427 0.0011364630788102156 0 -0.0022317516281976338 0.0015879327134668041 0 -0.002890352849886636 0.00179700700802334 0 -0.002725766435633427 0.0011364630788102156 0 -0.0022317516281976338 0.0015879327134668041 0 -0.0019609997649919909 0.0025288145606351471 0 -0.0023065463653292356 0.0019127356887448496 0 -0.0022317516281976338 0.0015879327134668041 0 -0.002489074315022734 0.0030046484961756595 0 -0.003029263447282301 0.0028102116689937059 0 -0.0023873055964296745 0.002515022270289693 0 -0.002489074315022734 0.0030046484961756595 0 -0.0021051383162709503 0.0029024331774685822 0 -0.0023065463653292356 0.0019127356887448496 0 -0.0024658024810963507 0.0029339751515337687 0 -0.002489074315022734 0.0030046484961756595 0 -0.003029263447282301 0.0028102116689937059 0 -0.0031998800408717942 0.0029441444496004585 0 -0.002890352849886636 0.00179700700802334 0 -0.0022317516281976338 0.0015879327134668041 0 -0.003029263447282301 0.0028102116689937059 0 -0.0034749456503769555 0.00078618492443222748 0 -0.0026184185596761873 0.0017455444975903406 0 -0.002890352849886636 0.00179700700802334 0 -0.003029263447282301 0.0028102116689937059 0 -0.0032695409293303874 0.0028992794907101694 0 -0.003204102891460588 0.00086441052612288888 0 -0.0036076032542294717 -5.3970010901645174e-05 0 -0.0029478898955861356 0.0001439673329278786 0 -0.003204102891460588 0.00086441052612288888 0 -0.002890352849886636 0.00179700700802334 0 -0.0032695409293303874 0.0028992794907101694 0 -0.0028517212858659145 0.0019595248730285082 0 -0.0026184185596761873 0.0017455444975903406 0 -0.0017457008474463219 0.0019308109798710647 0 -0.0014966461103887259 0.0019081094175352391 0 -0.0016999242137254774 0.0017513438447736604 0 -0.0026184185596761873 0.0017455444975903406 0 -0.0021352643392658888 0.00060277922478282257 0 -0.0017457008474463219 0.0019308109798710647 0 -0.0016963731189767637 0.0017885295962386217 0 -0.0016999242137254774 0.0017513438447736604 0 -0.002489074315022734 0.0030046484961756595 0 -0.0031998800408717942 0.0029441444496004585 0 -0.0027207756850798691 0.0045248071799403244 0 -0.0026184185596761873 0.0017455444975903406 0 -0.0021505676673654424 0.0033616760928714194 0 -0.002489074315022734 0.0030046484961756595 0 -0.0027207756850798691 0.0045248071799403244 0 -0.0019437300554749856 0.0038794155261180482 0 -0.0022834466950015452 -0.00021728526587363323 0 -0.0029478898955861356 0.0001439673329278786 0 -0.0028407459203735855 -0.00047032692837841865 0 -0.002012537168308258 7.7874891323964906e-05 0 -0.0026492602137542665 0.00054298783548292664 0 -0.0022834466950015452 -0.00021728526587363323 0 -0.0026492602137542665 0.00054298783548292664 0 -0.0022834466950015452 -0.00021728526587363323 0 -0.0029478898955861356 0.0001439673329278786 0 -0.0036076032542294717 -5.3970010901645174e-05 0 -0.0029478898955861356 0.0001439673329278786 0 -0.0028407459203735855 -0.00047032692837841865 0 -0.0022666260730257659 -0.00080000998252985475 0 -0.0022834466950015452 -0.00021728526587363323 0 -0.0028407459203735855 -0.00047032692837841865 0 -0.00089315045719467621 0.0016622477583838986 0 -0.0014966461103887259 0.0019081094175352391 0 -0.001357701588596349 0.0016050596552818364 0 -0.0015982547015525607 0.00044395307715694064 0 -0.0021352643392658888 0.00060277922478282257 0 -0.00089315045719467621 0.0016622477583838986 0 -0.001357701588596349 0.0016050596552818364 0 -0.0013570880764929873 0.0011574178003861673 0 -0.001357701588596349 0.0016050596552818364 0 -0.0013570880764929873 0.0011574178003861673 0 -0.0016999242137254774 0.0017513438447736604 0 -0.0014966461103887259 0.0019081094175352391 0 -0.001357701588596349 0.0016050596552818364 0 -0.0016999242137254774 0.0017513438447736604 0 -0.0013570880764929873 0.0011574178003861673 0 -0.0016999242137254774 0.0017513438447736604 0 -0.0019775045733656628 0.0012001017141716145 0 -0.00076680998896007336 0.0010570220761327437 0 -0.00089315045719467621 0.0016622477583838986 0 -0.0013570880764929873 0.0011574178003861673 0 -0.0017309798150632332 0.0017276828188894744 0 -0.0018388390385000938 0.0016306056419308843 0 -0.0016963731189767637 0.0017885295962386217 0 -0.0016999242137254774 0.0017513438447736604 0 -0.0017685368495711329 0.0019332501798817959 0 -0.0017978693646191867 0.00083504509804659436 0 -0.0013570880764929873 0.0011574178003861673 0 -0.0019775045733656628 0.0012001017141716145 0 -0.00151898008119157 0.0020563154305263233 0 -0.0016963731189767637 0.0017885295962386217 0 -0.0017685368495711329 0.0019332501798817959 0 -0.0019020703313428445 0.0037077821410813222 0 -0.0021505676673654424 0.0033616760928714194 0 -0.0022640761003316716 0.0058194155827257493 0 -0.001908163153070396 0.0048730641178876899 0 -0.0013096115944204651 0.0057278583949847721 0 -0.0022640761003316716 0.0058194155827257493 0 -0.0027207756850798691 0.0045248071799403244 0 -0.001908163153070396 0.0048730641178876899 0 -0.0027207756850798691 0.0045248071799403244 0 -0.001908163153070396 0.0048730641178876899 0 -0.0019437300554749856 0.0038794155261180482 0 -0.001908163153070396 0.0048730641178876899 0 -0.0011119203703969373 0.004868373445518312 0 -0.0019437300554749856 0.0038794155261180482 0 -0.0011119203703969373 0.004868373445518312 0 -0.00091514817670126827 0.0039686267830741587 0 -0.0019437300554749856 0.0038794155261180482 0 -0.001908163153070396 0.0048730641178876899 0 -0.0011119203703969373 0.004868373445518312 0 -0.0013096115944204651 0.0057278583949847721 0 -0.0011119203703969373 0.004868373445518312 0 -0.0013096115944204651 0.0057278583949847721 0 -0.00061386194400570233 0.0054902569141286875 0 -0.00071243692388923865 0.0059828199817674151 0 -0.0013096115944204651 0.0057278583949847721 0 -0.00061386194400570233 0.0054902569141286875 0 -0.00061386194400570233 0.0054902569141286875 0 5.0873726075933602e-06 0.0053658712551961953 0 -0.00048823443880875944 0.0048765514796592479 0 -0.0011119203703969373 0.004868373445518312 0 -0.00061386194400570233 0.0054902569141286875 0 -0.00048823443880875944 0.0048765514796592479 0 -0.00013023280720557884 0.0060714046922038505 0 0.00053050210391964651 0.0058900104242706995 0 5.0873726075933602e-06 0.0053658712551961953 0 -0.00013023280720557884 0.0060714046922038505 0 -0.00061386194400570233 0.0054902569141286875 0 5.0873726075933602e-06 0.0053658712551961953 0 0.00061618957510288671 0.0053226361707815386 0 5.0873726075933602e-06 0.0053658712551961953 0 0.00011299734258865103 0.0045707957556277486 0 5.0873726075933602e-06 0.0053658712551961953 0 0.00011299734258865103 0.0045707957556277486 0 -0.00048823443880875944 0.0048765514796592479 0 -0.0011119203703969373 0.004868373445518312 0 -0.00048823443880875944 0.0048765514796592479 0 -0.00091514817670126827 0.0039686267830741587 0 0.00011299734258865103 0.0045707957556277486 0 -0.00048823443880875944 0.0048765514796592479 0 -0.00091514817670126827 0.0039686267830741587 0 -0.00091514817670126827 0.0039686267830741587 0 3.7855472180861568e-06 0.0036834457008165498 0 -0.00088973509721333212 0.0030830719858465079 0 0.00023931833830131608 0.0046492272765908758 0 -0.00086437811550486344 0.0040152633260033613 0 0.00037515568771815923 0.0047022297251987444 0 -0.00091514817670126827 0.0039686267830741587 0 3.7855472180861568e-06 0.0036834457008165498 0 0.0010929656075684296 0.0031920209575929783 0 0.00086976025981692602 0.0041298036080578129 0 3.7855472180861568e-06 0.0036834457008165498 0 0.00086976025981692602 0.0041298036080578129 0 0.00037515568771815923 0.0047022297251987444 0 3.7855472180861568e-06 0.0036834457008165498 0 0.0010929656075684296 0.0031920209575929783 0 -0.00016955680470385034 0.002668371961428574 0 3.7855472180861568e-06 0.0036834457008165498 0 0.0014423100705796611 0.004165551320198988 0 0.00036058976280489686 0.0040250796729131583 0 -0.00016955680470385034 0.002668371961428574 0 3.7855472180861568e-06 0.0036834457008165498 0 -0.00088973509721333212 0.0030830719858465079 0 -0.00091514817670126827 0.0039686267830741587 0 -0.00088973509721333212 0.0030830719858465079 0 -0.0015892582013808513 0.0030284449510659429 0 -0.0013208714409379317 0.0022284809570670863 0 -0.00088973509721333212 0.0030830719858465079 0 -0.0015892582013808513 0.0030284449510659429 0 -0.002489074315022734 0.0030046484961756595 0 -0.0021051383162709503 0.0029024331774685822 0 -0.0019437300554749856 0.0038794155261180482 0 -0.0019532220132059499 0.0025066489960172654 0 -0.0015892582013808513 0.0030284449510659429 0 -0.0021051383162709503 0.0029024331774685822 0 -0.0015892582013808513 0.0030284449510659429 0 -0.0021051383162709503 0.0029024331774685822 0 -0.0019437300554749856 0.0038794155261180482 0 -0.00091514817670126827 0.0039686267830741587 0 -0.0015892582013808513 0.0030284449510659429 0 -0.0019437300554749856 0.0038794155261180482 0 -3.4652870952993069e-05 0.034986303088198126 0 -1.454919769186924e-05 0.034987101814542759 0 -1.2047874444667873e-05 0.034998541425099422 0 -3.4652870952993069e-05 0.034986303088198126 0 -3.1777465825775757e-05 0.035001973486173447 0 -1.2047874444667873e-05 0.034998541425099422 0 -1.1103789206119936e-08 0.034999981224675451 0 -1.454919769186924e-05 0.034987101814542759 0 -1.2047874444667873e-05 0.034998541425099422 0 -1.1103789206119936e-08 0.034999981224675451 0 -1.454919769186924e-05 0.034987101814542759 0 -1.7005138034069366e-08 0.034999969797832917 0 -3.4652870952993069e-05 0.034986303088198126 0 -1.454919769186924e-05 0.034987101814542759 0 -4.5632023937635382e-05 0.034965872734723048 0 -4.5632023937635382e-05 0.034965872734723048 0 -7.3403689873852477e-05 0.034947302782869352 0 -7.3472488923129173e-05 0.034976625426347399 0 -4.5632023937635382e-05 0.034965872734723048 0 -7.3403689873852477e-05 0.034947302782869352 0 -6.4527336634961295e-05 0.034950285093477411 0 -3.4652870952993069e-05 0.034986303088198126 0 -4.5632023937635382e-05 0.034965872734723048 0 -7.3472488923129173e-05 0.034976625426347399 0 -7.3403689873852477e-05 0.034947302782869352 0 -0.00010459013135391294 0.034925017942256609 0 -7.3472488923129173e-05 0.034976625426347399 0 -6.6852957705486018e-05 0.034873728848586305 0 -9.4900030363805982e-05 0.034937044858145971 0 -8.947486228254443e-05 0.034935493693788976 0 -0.0004366773167668403 0.031297340479896268 0 -0.00022689813864024041 0.031739613390654245 0 -6.6852957705486018e-05 0.034873728848586305 0 -8.3090323009603242e-05 0.034937209500187333 0 -8.947486228254443e-05 0.034935493693788976 0 -6.6852957705486018e-05 0.034873728848586305 0 -0.00010459013135391294 0.034925017942256609 0 -9.4900030363805982e-05 0.034937044858145971 0 -7.3403689873852477e-05 0.034947302782869352 0 -0.00010459013135391294 0.034925017942256609 0 -8.4979803821572727e-05 0.034940507893471945 0 -0.00010459013135391294 0.034925017942256609 0 -8.4979803821572727e-05 0.034940507893471945 0 -9.4900030363805982e-05 0.034937044858145971 0 -6.6852957705486018e-05 0.034873728848586305 0 -0.00010459013135391294 0.034925017942256609 0 -0.00027970294287118168 0.034559708601330688 0 -0.0004366773167668403 0.031297340479896268 0 -0.00051623336474523971 0.032585193317231462 0 0.00018765920817054277 0.035514405060893851 0 -0.00051623336474523971 0.032585193317231462 0 -0.00051817366886627728 0.027949723303736639 0 -0.00037345918480256358 0.027940315464496698 0 -0.00055126095354552371 0.027968715601285998 0 -0.00037345918480256358 0.027940315464496698 0 -0.00039972474797098556 0.028079387808363887 0 -0.00055126095354552371 0.027968715601285998 0 -0.00039972474797098556 0.028079387808363887 0 -0.00055809632055024813 0.028065923334062295 0 -0.00055126095354552371 0.027968715601285998 0 -0.00051623336474523971 0.032585193317231462 0 -0.00019490640820265422 0.034738140540807386 0 -3.4652870952993069e-05 0.034986303088198126 0 -7.3472488923129173e-05 0.034976625426347399 0 -3.1777465825775757e-05 0.035001973486173447 0 -0.00037345918480256358 0.027940315464496698 0 3.1837693849833512e-05 0.028239452881305135 0 -0.00039972474797098556 0.028079387808363887 0 3.1837693849833512e-05 0.028239452881305135 0 -0.00039972474797098556 0.028079387808363887 0 -0.00042133782652841546 0.028331275485979794 0 -0.0010371158177964806 0.033281005192375299 0 -0.00063575552328088163 0.034151474149969635 0 -0.00051198173818354056 0.033960770241056253 0 -0.00051623336474523971 0.032585193317231462 0 -0.0004036295401529545 0.030794198460372409 0 -0.00039972474797098556 0.028079387808363887 0 -0.00042133782652841546 0.028331275485979794 0 -0.00055809632055024813 0.028065923334062295 0 -0.00042133782652841546 0.028331275485979794 0 -0.00022548198142491535 0.028861177034856224 0 -0.00069266803898819116 0.028562465952103547 0 3.1837693849833512e-05 0.028239452881305135 0 0.00052647427725568518 0.029299382114361366 0 -0.00022548198142491535 0.028861177034856224 0 3.1837693849833512e-05 0.028239452881305135 0 -0.00042133782652841546 0.028331275485979794 0 -0.00022548198142491535 0.028861177034856224 0 -0.00063575552328088163 0.034151474149969635 0 -0.0001147654419698588 0.034570931226941284 0 -0.00026537523780178872 0.034832765234472839 0 -0.00063575552328088163 0.034151474149969635 0 -0.00051198173818354056 0.033960770241056253 0 -0.0001147654419698588 0.034570931226941284 0 -0.00019490640820265422 0.034738140540807386 0 -9.9822305617659063e-05 0.034733320884510865 0 -0.0004036295401529545 0.030794198460372409 0 0.00015042314408373608 0.032157180562185771 0 -3.1777465825775757e-05 0.035001973486173447 0 -1.2047874444667873e-05 0.034998541425099422 0 -8.5071750462310773e-06 0.035003775571387896 0 -1.2047874444667873e-05 0.034998541425099422 0 -8.5071750462310773e-06 0.035003775571387896 0 -1.1150106849457506e-08 0.035000009935471296 0 -1.1103789206119936e-08 0.034999981224675451 0 -1.2047874444667873e-05 0.034998541425099422 0 -1.1150106849457506e-08 0.035000009935471296 0 -8.5071750462310773e-06 0.035003775571387896 0 -1.1150106849457506e-08 0.035000009935471296 0 8.440054747883837e-10 0.035000003897489501 0 -7.256365980471237e-07 0.035001466542610625 0 -9.3520699293605565e-05 0.03136312407216648 0 1.7362897174273762e-07 0.030507494248711787 0 -0.0001147654419698588 0.034570931226941284 0 1.5365773036401348e-07 0.034999574378096837 0 -0.00026537523780178872 0.034832765234472839 0 -9.9822305617659063e-05 0.034733320884510865 0 2.855900271550876e-08 0.034999981689955231 0 0.00015042314408373608 0.032157180562185771 0 0.00029746170275654111 0.033108813713579981 0 0.00052647427725568518 0.029299382114361366 0 0.00086671503786643622 0.031336871574893975 0 8.1080128476928806e-05 0.031138705117174682 0 1.5365773036401348e-07 0.034999574378096837 0 -0.00026537523780178872 0.034832765234472839 0 -4.2857606578621905e-05 0.035018961007972825 0 1.5365773036401348e-07 0.034999574378096837 0 -1.1445584844789507e-07 0.035000177188968321 0 -4.2857606578621905e-05 0.035018961007972825 0 -7.256365980471237e-07 0.035001466542610625 0 3.0700350617504431e-06 0.03499371280450022 0 -9.3520699293605565e-05 0.03136312407216648 0 0.00029746170275654111 0.033108813713579981 0 1.3014214938313716e-07 0.034999179397090602 0 8.1080128476928806e-05 0.031138705117174682 0 3.0700350617504431e-06 0.03499371280450022 0 -9.3520699293605565e-05 0.03136312407216648 0 -1.1445584844789507e-07 0.035000177188968321 0 -4.2857606578621905e-05 0.035018961007972825 0 6.8622492989382593e-08 0.034999924411818532 0 0.00086671503786643622 0.031336871574893975 0 8.1080128476928806e-05 0.031138705117174682 0 3.0700350617504431e-06 0.03499371280450022 0 -9.3520699293605565e-05 0.03136312407216648 0 4.0417288013523868e-05 0.029492732070942905 0 1.7362897174273762e-07 0.030507494248711787 0 8.1080128476928806e-05 0.031138705117174682 0 -9.3520699293605565e-05 0.03136312407216648 0 -0.00044955188659079949 0.029752819512015624 0 -9.3520699293605565e-05 0.03136312407216648 0 -0.00044955188659079949 0.029752819512015624 0 -0.00084571649736078661 0.029826790585671177 0 -8.1614316294769599e-05 0.031061019755975042 0 -0.00041533182377703 0.029693498209321309 0 0.00052647427725568518 0.029299382114361366 0 8.1080128476928806e-05 0.031138705117174682 0 -0.00044955188659079949 0.029752819512015624 0 0.00052647427725568518 0.029299382114361366 0 -0.00044955188659079949 0.029752819512015624 0 -0.00022548198142491535 0.028861177034856224 0 -0.00044955188659079949 0.029752819512015624 0 -0.00022548198142491535 0.028861177034856224 0 -0.00069266803898819116 0.028562465952103547 0 -0.00069266803898819116 0.028562465952103547 0 -0.00083765948729069666 0.028778486648646219 0 -0.00077244304787623232 0.027779777701616857 0 -0.00083765948729069666 0.028778486648646219 0 -0.0008639149346311545 0.028262338255640233 0 -0.00077244304787623232 0.027779777701616857 0 -0.00044955188659079949 0.029752819512015624 0 -0.00083765948729069666 0.028778486648646219 0 -0.00084571649736078661 0.029826790585671177 0 -0.00044955188659079949 0.029752819512015624 0 -0.00069266803898819116 0.028562465952103547 0 -0.00083765948729069666 0.028778486648646219 0 4.0417288013523868e-05 0.029492732070942905 0 -0.00016198243794771208 0.027882359949318203 0 1.7362897174273762e-07 0.030507494248711787 0 -0.00016198243794771208 0.027882359949318203 0 1.7362897174273762e-07 0.030507494248711787 0 -1.6942324696143947e-06 0.027103378051917638 0 -0.00083765948729069666 0.028778486648646219 0 -0.00084571649736078661 0.029826790585671177 0 -0.0008639149346311545 0.028262338255640233 0 -0.00041533182377703 0.029693498209321309 0 -0.000490251788223673 0.028079741514003175 0 -0.00016198243794771208 0.027882359949318203 0 -1.6942324696143947e-06 0.027103378051917638 0 -0.00032192213208656807 0.026901664892691263 0 -0.0008639149346311545 0.028262338255640233 0 -0.00032192213208656807 0.026901664892691263 0 -0.00077244304787623232 0.027779777701616857 0 -0.000490251788223673 0.028079741514003175 0 -0.00035385787301012834 0.027121510623806258 0 -0.00032192213208656807 0.026901664892691263 0 -0.00037640788597490221 0.027104645902497643 0 0.00017848362068946958 0.026243959806708038 0 -0.00032192213208656807 0.026901664892691263 0 -0.00077244304787623232 0.027779777701616857 0 -0.00037640788597490221 0.027104645902497643 0 -0.00037640788597490221 0.027104645902497643 0 -0.00045550843156021826 0.027580214608684997 0 0.00015535583138893351 0.027093892964008888 0 -0.00045550843156021826 0.027580214608684997 0 -0.00035154694652851084 0.02781720163266865 0 1.1762867698684097e-05 0.02761215781055671 0 -0.00045550843156021826 0.027580214608684997 0 -0.00066608765699231374 0.027861751452069775 0 -0.00057399095588127444 0.027895272807218631 0 -0.00045550843156021826 0.027580214608684997 0 -0.00035154694652851084 0.02781720163266865 0 -0.00057399095588127444 0.027895272807218631 0 -0.00077244304787623232 0.027779777701616857 0 -0.00045550843156021826 0.027580214608684997 0 -0.00066608765699231374 0.027861751452069775 0 -0.00077244304787623232 0.027779777701616857 0 -0.00037640788597490221 0.027104645902497643 0 -0.00045550843156021826 0.027580214608684997 0 -0.00077244304787623232 0.027779777701616857 0 -0.00071499662462855057 0.028088365617320379 0 -0.00066608765699231374 0.027861751452069775 0 -0.00069266803898819116 0.028562465952103547 0 -0.00077244304787623232 0.027779777701616857 0 -0.00071499662462855057 0.028088365617320379 0 -0.00042133782652841546 0.028331275485979794 0 -0.00069266803898819116 0.028562465952103547 0 -0.00071499662462855057 0.028088365617320379 0 -0.00071499662462855057 0.028088365617320379 0 -0.00055809632055024813 0.028065923334062295 0 -0.00064847413159409555 0.027960514497372423 0 -0.00042133782652841546 0.028331275485979794 0 -0.00071499662462855057 0.028088365617320379 0 -0.00055809632055024813 0.028065923334062295 0 -0.00071499662462855057 0.028088365617320379 0 -0.00064847413159409555 0.027960514497372423 0 -0.00066608765699231374 0.027861751452069775 0 -0.00064847413159409555 0.027960514497372423 0 -0.00066608765699231374 0.027861751452069775 0 -0.00057399095588127444 0.027895272807218631 0 -0.00064847413159409555 0.027960514497372423 0 -0.00060511390124740278 0.027966098326598399 0 -0.00057399095588127444 0.027895272807218631 0 -0.00060511390124740278 0.027966098326598399 0 -0.0005348577246415446 0.027997266270686487 0 -0.00057399095588127444 0.027895272807218631 0 -0.00055809632055024813 0.028065923334062295 0 -0.00064847413159409555 0.027960514497372423 0 -0.00055126095354552371 0.027968715601285998 0 -0.00060511390124740278 0.027966098326598399 0 -0.00055126095354552371 0.027968715601285998 0 -0.00057751094569162835 0.027974978357926526 0 -0.00064847413159409555 0.027960514497372423 0 -0.00060511390124740278 0.027966098326598399 0 -0.00055126095354552371 0.027968715601285998 0 -0.00057751094569162835 0.027974978357926526 0 -0.00057794621757036393 0.028020627497883231 0 -0.00057982073181344436 0.028006928901107432 0 -0.00051817366886627728 0.027949723303736639 0 -0.00055126095354552371 0.027968715601285998 0 -0.00057751094569162835 0.027974978357926526 0 -0.00051817366886627728 0.027949723303736639 0 -0.00057751094569162835 0.027974978357926526 0 -0.00057982073181344436 0.028006928901107432 0 -0.00060511390124740278 0.027966098326598399 0 -0.00057794621757036393 0.028020627497883231 0 -0.0005348577246415446 0.027997266270686487 0 -0.00060511390124740278 0.027966098326598399 0 -0.00057751094569162835 0.027974978357926526 0 -0.00057794621757036393 0.028020627497883231 0 -0.00057794621757036393 0.028020627497883231 0 -0.0005348577246415446 0.027997266270686487 0 -0.00049184563802867967 0.028089854092609067 0 -0.0005348577246415446 0.027997266270686487 0 -0.00040882381723452717 0.027996148528496922 0 -0.00049184563802867967 0.028089854092609067 0 -0.0005348577246415446 0.027997266270686487 0 -0.00040882381723452717 0.027996148528496922 0 -0.00057399095588127444 0.027895272807218631 0 -0.00040882381723452717 0.027996148528496922 0 -0.00036943056976690669 0.028148183709470836 0 -0.00049184563802867967 0.028089854092609067 0 -0.00040882381723452717 0.027996148528496922 0 -0.00016146472648285572 0.028117084811546216 0 -0.00036943056976690669 0.028148183709470836 0 -0.00040882381723452717 0.027996148528496922 0 -0.00016146472648285572 0.028117084811546216 0 -0.00014702591720560878 0.027922875453315912 0 -0.00035154694652851084 0.02781720163266865 0 -0.00014702591720560878 0.027922875453315912 0 1.1762867698684097e-05 0.02761215781055671 0 -0.00040882381723452717 0.027996148528496922 0 -0.00035154694652851084 0.02781720163266865 0 -0.00014702591720560878 0.027922875453315912 0 -0.00040882381723452717 0.027996148528496922 0 -0.00035154694652851084 0.02781720163266865 0 -0.00057399095588127444 0.027895272807218631 0 0.00047622850301223932 0.027649944263172768 0 0.0001457474452166985 0.027841256438682394 0 1.1762867698684097e-05 0.02761215781055671 0 0.00047622850301223932 0.027649944263172768 0 0.0001457474452166985 0.027841256438682394 0 0.00040261958441859365 0.02800386358959869 0 -0.00014702591720560878 0.027922875453315912 0 0.0001457474452166985 0.027841256438682394 0 1.1762867698684097e-05 0.02761215781055671 0 -0.00014702591720560878 0.027922875453315912 0 0.0001457474452166985 0.027841256438682394 0 -8.1692224563880959e-06 0.028073182426996818 0 -0.00016146472648285572 0.028117084811546216 0 -0.00014702591720560878 0.027922875453315912 0 -8.1692224563880959e-06 0.028073182426996818 0 0.0001457474452166985 0.027841256438682394 0 -8.1692224563880959e-06 0.028073182426996818 0 0.00040261958441859365 0.02800386358959869 0 -8.1692224563880959e-06 0.028073182426996818 0 0.00040261958441859365 0.02800386358959869 0 0.00047482909007160357 0.028423328748733212 0 -0.00017486569443627979 0.024404155874145655 0 -8.9534511062836961e-05 0.02505947707224181 0 0.00040261958441859365 0.02800386358959869 0 0.00082786286459202261 0.027912937194971028 0 0.00047482909007160357 0.028423328748733212 0 -0.0010646272067240323 0.02059321503486998 0 -0.00072000256905042448 0.020835698064848508 0 -0.0010444601483695093 0.021054825198676855 0 -0.0010646272067240323 0.02059321503486998 0 -0.00072000256905042448 0.020835698064848508 0 -0.00057270414307445815 0.020506090437637899 0 -0.00017486569443627979 0.024404155874145655 0 -2.4853734231746346e-05 0.022721953544244815 0 -0.0010646272067240323 0.02059321503486998 0 -0.00068710367066637497 0.020057263611214744 0 -0.00057270414307445815 0.020506090437637899 0 0.00047622850301223932 0.027649944263172768 0 0.00082786286459202261 0.027912937194971028 0 0.00077025663546565479 0.027444190325193386 0 0.00047622850301223932 0.027649944263172768 0 0.00040261958441859365 0.02800386358959869 0 0.00082786286459202261 0.027912937194971028 0 0.00082786286459202261 0.027912937194971028 0 0.00077025663546565479 0.027444190325193386 0 0.0011511470880791982 0.027399346776773397 0 -0.0004533752503642712 0.021830098512614013 0 -0.00069874513168487 0.022503539740772995 0 -0.00088365057583520508 0.022328651085351564 0 0.00077025663546565479 0.027444190325193386 0 0.0011511470880791982 0.027399346776773397 0 0.00073151765424248473 0.027075056986103529 0 -2.4853734231746346e-05 0.022721953544244815 0 9.4927792924284345e-05 0.025170249892712552 0 0.00077025663546565479 0.027444190325193386 0 0.00073151765424248473 0.027075056986103529 0 0.00046050543831862266 0.027347009402618572 0 -0.0004533752503642712 0.021830098512614013 0 -0.00040848796171418281 0.021462136731522186 0 -5.7247168874747596e-05 0.020433096988327522 0 -0.0004533752503642712 0.021830098512614013 0 -0.00040848796171418281 0.021462136731522186 0 -0.00088365057583520508 0.022328651085351564 0 -0.00040848796171418281 0.021462136731522186 0 -0.00029170499781088838 0.020972168060918037 0 -5.7247168874747596e-05 0.020433096988327522 0 -0.00040848796171418281 0.021462136731522186 0 -0.00029170499781088838 0.020972168060918037 0 -0.00088365057583520508 0.022328651085351564 0 -0.00029170499781088838 0.020972168060918037 0 -0.00088365057583520508 0.022328651085351564 0 -0.00040941612634732915 0.020166885529943349 0 -0.00069874513168487 0.022503539740772995 0 -0.00088365057583520508 0.022328651085351564 0 -0.000356028760422248 0.024862292536683931 0 0.00073151765424248473 0.027075056986103529 0 0.00015535583138893351 0.027093892964008888 0 0.00017848362068946958 0.026243959806708038 0 0.00073151765424248473 0.027075056986103529 0 0.00046050543831862266 0.027347009402618572 0 0.00015535583138893351 0.027093892964008888 0 9.4927792924284345e-05 0.025170249892712552 0 2.3210640138813166e-05 0.025839063281930873 0 -0.00069874513168487 0.022503539740772995 0 0.00017848362068946958 0.026243959806708038 0 -0.000356028760422248 0.024862292536683931 0 0.00047622850301223932 0.027649944263172768 0 0.00046050543831862266 0.027347009402618572 0 1.1762867698684097e-05 0.02761215781055671 0 0.00046050543831862266 0.027347009402618572 0 1.1762867698684097e-05 0.02761215781055671 0 0.00015535583138893351 0.027093892964008888 0 0.00047622850301223932 0.027649944263172768 0 0.00077025663546565479 0.027444190325193386 0 0.00046050543831862266 0.027347009402618572 0 -0.00045550843156021826 0.027580214608684997 0 1.1762867698684097e-05 0.02761215781055671 0 0.00015535583138893351 0.027093892964008888 0 -0.00037640788597490221 0.027104645902497643 0 0.00015535583138893351 0.027093892964008888 0 0.00017848362068946958 0.026243959806708038 0 -0.00032192213208656807 0.026901664892691263 0 0.00017848362068946958 0.026243959806708038 0 -0.00016618096508606723 0.025927598261590912 0 -0.00032192213208656807 0.026901664892691263 0 -0.00016618096508606723 0.025927598261590912 0 -0.00025470147575850304 0.025557471931975193 0 -1.6942324696143947e-06 0.027103378051917638 0 -0.00025470147575850304 0.025557471931975193 0 1.4343664339584301e-06 0.022567804870192491 0 0.00017848362068946958 0.026243959806708038 0 -0.000356028760422248 0.024862292536683931 0 -0.00016618096508606723 0.025927598261590912 0 -1.6942324696143947e-06 0.027103378051917638 0 -0.00032192213208656807 0.026901664892691263 0 -0.00025470147575850304 0.025557471931975193 0 -0.00016618096508606723 0.025927598261590912 0 -0.00025470147575850304 0.025557471931975193 0 0.00012326716180236113 0.025203466329444656 0 1.371278094959228e-06 0.022557981046193457 0 0.00022472199421495433 0.020401331326411545 0 -0.00027000431066780752 0.019847054862441846 0 -0.00025470147575850304 0.025557471931975193 0 1.4343664339584301e-06 0.022567804870192491 0 0.00012326716180236113 0.025203466329444656 0 9.6595435000430877e-08 0.022562706141976165 0 7.3125436564164853e-05 0.022816274587539074 0 0.00022472199421495433 0.020401331326411545 0 -0.00040941612634732915 0.020166885529943349 0 -0.00013079379793616555 0.019854626856225101 0 -0.00016618096508606723 0.025927598261590912 0 0.00012326716180236113 0.025203466329444656 0 -0.00077375487162464798 0.025571976232686887 0 7.3125436564164853e-05 0.022816274587539074 0 -0.00054442873217355715 0.0228232916514284 0 -0.00081990626715340294 0.022349250259661824 0 -0.00054442873217355715 0.0228232916514284 0 -0.00088365057583520508 0.022328651085351564 0 -0.000356028760422248 0.024862292536683931 0 -0.00077375487162464798 0.025571976232686887 0 -0.000356028760422248 0.024862292536683931 0 -0.00016618096508606723 0.025927598261590912 0 -0.00077375487162464798 0.025571976232686887 0 -0.00040941612634732915 0.020166885529943349 0 -0.00011121707176843 0.020276503728470303 0 -0.00013079379793616555 0.019854626856225101 0 -0.00029170499781088838 0.020972168060918037 0 -0.00040941612634732915 0.020166885529943349 0 -0.00011121707176843 0.020276503728470303 0 -0.00011121707176843 0.020276503728470303 0 -0.00013737592427153297 0.019766505836897198 0 -5.7247168874747596e-05 0.020433096988327522 0 -0.00011121707176843 0.020276503728470303 0 -0.00013737592427153297 0.019766505836897198 0 -0.00013079379793616555 0.019854626856225101 0 -0.00013737592427153297 0.019766505836897198 0 -0.00013079379793616555 0.019854626856225101 0 -0.00021593062183580236 0.019187837218121579 0 -0.00013079379793616555 0.019854626856225101 0 -0.00027000431066780752 0.019847054862441846 0 -0.00021593062183580236 0.019187837218121579 0 0.00022472199421495433 0.020401331326411545 0 -0.00013079379793616555 0.019854626856225101 0 -0.00027000431066780752 0.019847054862441846 0 -0.00027000431066780752 0.019847054862441846 0 -7.2744068652301469e-07 0.020724079745749822 0 -3.2286810050093398e-07 0.018884279999628158 0 1.371278094959228e-06 0.022557981046193457 0 -0.00027000431066780752 0.019847054862441846 0 -7.2744068652301469e-07 0.020724079745749822 0 -4.3149843913952175e-07 0.017045765336800148 0 -3.2286810050093398e-07 0.018884279999628158 0 -0.00017353763879735806 0.018579062700276393 0 -0.00027000431066780752 0.019847054862441846 0 -3.2286810050093398e-07 0.018884279999628158 0 -0.00017353763879735806 0.018579062700276393 0 -0.00027000431066780752 0.019847054862441846 0 -0.00017353763879735806 0.018579062700276393 0 -0.00021593062183580236 0.019187837218121579 0 -0.00014522420275508158 0.01780933020010346 0 -4.3149843913952175e-07 0.017045765336800148 0 -0.00017353763879735806 0.018579062700276393 0 -0.00014522420275508158 0.01780933020010346 0 -0.00017353763879735806 0.018579062700276393 0 -0.00017404447473541378 0.018522892694252693 0 -0.00017353763879735806 0.018579062700276393 0 -0.00017404447473541378 0.018522892694252693 0 -0.00021593062183580236 0.019187837218121579 0 -0.00017404447473541378 0.018522892694252693 0 -0.00021593062183580236 0.019187837218121579 0 -0.00012371972231758638 0.018960048301593289 0 -0.00013737592427153297 0.019766505836897198 0 -0.00021593062183580236 0.019187837218121579 0 -0.00012371972231758638 0.018960048301593289 0 -0.00010919836885094856 0.018064067998455391 0 -0.00017404447473541378 0.018522892694252693 0 -0.00012371972231758638 0.018960048301593289 0 -0.00010919836885094856 0.018064067998455391 0 6.049668752784123e-05 0.018481936847906236 0 -0.00012371972231758638 0.018960048301593289 0 7.6979172482153732e-05 0.018609038301430805 0 0.0003059666832139345 0.018719936663923981 0 6.049668752784123e-05 0.018481936847906236 0 -0.00012371972231758638 0.018960048301593289 0 -2.6381473973422512e-05 0.01958243900059756 0 0.00014667067206269532 0.01788975930221964 0 6.049668752784123e-05 0.018481936847906236 0 0.00063668489934622433 0.018058154415732924 0 0.00014667067206269532 0.01788975930221964 0 0.00063668489934622433 0.018058154415732924 0 0.00055199447247635794 0.017593805582097149 0 -2.6381473973422512e-05 0.01958243900059756 0 -0.00015402063696443434 0.019601207480681931 0 -0.00014353821894058587 0.019929443237961548 0 0.0003059666832139345 0.018719936663923981 0 0.00037054696617803181 0.019302552249318962 0 -0.00013737592427153297 0.019766505836897198 0 -0.00012371972231758638 0.018960048301593289 0 -0.00015402063696443434 0.019601207480681931 0 -0.00012371972231758638 0.018960048301593289 0 -2.6381473973422512e-05 0.01958243900059756 0 -0.00015402063696443434 0.019601207480681931 0 -0.00013737592427153297 0.019766505836897198 0 -5.7247168874747596e-05 0.020433096988327522 0 -0.00016115227365181287 0.019969825979603582 0 -0.00013737592427153297 0.019766505836897198 0 -0.00015402063696443434 0.019601207480681931 0 -0.00016115227365181287 0.019969825979603582 0 -0.00029170499781088838 0.020972168060918037 0 -0.00011121707176843 0.020276503728470303 0 -5.7247168874747596e-05 0.020433096988327522 0 -0.00011890347762393842 0.020131325920200692 0 -0.00016115227365181287 0.019969825979603582 0 -0.00010871549662999061 0.020142183946048654 0 -2.4853734231746346e-05 0.022721953544244815 0 2.3398759938758567e-05 0.019941184961639418 0 -0.00011890347762393842 0.020131325920200692 0 -5.7247168874747596e-05 0.020433096988327522 0 -0.00016115227365181287 0.019969825979603582 0 -0.00016115227365181287 0.019969825979603582 0 -0.00010871549662999061 0.020142183946048654 0 0.00011708996244747922 0.020185171221650009 0 -0.00010836228866420684 0.020172467805171054 0 0.00037054696617803181 0.019302552249318962 0 -0.00015402063696443434 0.019601207480681931 0 -0.00016115227365181287 0.019969825979603582 0 -0.00014353821894058587 0.019929443237961548 0 -0.00010871549662999061 0.020142183946048654 0 -0.00013107934352681489 0.020369605829203222 0 0.00011708996244747922 0.020185171221650009 0 -0.00022006505029202494 0.020773009277816883 0 0.00037054696617803181 0.019302552249318962 0 0.00040282758271986105 0.020407966866893151 0 0.00065760411180641385 0.020325930388724225 0 0.00067817997866080355 0.019776901209870704 0 -0.00013107934352681489 0.020369605829203222 0 -0.00029577468412136091 0.020707469597385206 0 0.00011708996244747922 0.020185171221650009 0 -0.00068710367066637497 0.020057263611214744 0 -0.00013107934352681489 0.020369605829203222 0 -0.00057270414307445815 0.020506090437637899 0 -2.4853734231746346e-05 0.022721953544244815 0 -0.00046609351536520645 0.019473507124300439 0 -0.00011890347762393842 0.020131325920200692 0 -0.00010871549662999061 0.020142183946048654 0 -0.00013107934352681489 0.020369605829203222 0 -0.00013107934352681489 0.020369605829203222 0 -0.00057270414307445815 0.020506090437637899 0 -0.00029577468412136091 0.020707469597385206 0 -0.00072000256905042448 0.020835698064848508 0 -0.00057270414307445815 0.020506090437637899 0 -0.00029577468412136091 0.020707469597385206 0 -7.2937077195151391e-05 0.020553507657946096 0 0.00040282758271986105 0.020407966866893151 0 0.00067817997866080355 0.019776901209870704 0 -7.2937077195151391e-05 0.020553507657946096 0 0.00040282758271986105 0.020407966866893151 0 0.00049324470067289904 0.020818166562886195 0 0.00040282758271986105 0.020407966866893151 0 0.00065760411180641385 0.020325930388724225 0 0.00049324470067289904 0.020818166562886195 0 0.0011202351836739277 0.020605678843816009 0 0.00065760411180641385 0.020325930388724225 0 0.00067817997866080355 0.019776901209870704 0 0.0011202351836739277 0.020605678843816009 0 0.00065760411180641385 0.020325930388724225 0 0.00049324470067289904 0.020818166562886195 0 0.0010305217593477483 0.018948470628718805 0 0.00037054696617803181 0.019302552249318962 0 0.00076826580338862978 0.017212300078442933 0 0.00044780335095135249 0.017242163116555478 0 0.00055199447247635794 0.017593805582097149 0 0.00076826580338862978 0.017212300078442933 0 0.00044780335095135249 0.017242163116555478 0 0.00052097376955130006 0.016978572109237824 0 0.00025280447338521512 0.017494241870874998 0 0.00044780335095135249 0.017242163116555478 0 0.00055199447247635794 0.017593805582097149 0 0.00063668489934622433 0.018058154415732924 0 0.00055199447247635794 0.017593805582097149 0 0.0010123844856091662 0.017701514894663973 0 0.00076826580338862978 0.017212300078442933 0 0.00055199447247635794 0.017593805582097149 0 0.0010123844856091662 0.017701514894663973 0 0.0008946339056032451 0.02153236367577252 0 0.0012010895664508515 0.021634239304894116 0 0.0010477096591174834 0.021237218594215429 0 0.0008946339056032451 0.02153236367577252 0 0.00067010106793653182 0.021170385643217583 0 0.00047019802600417062 0.021551588326052806 0 0.0008946339056032451 0.02153236367577252 0 0.00059206418122980135 0.02206086841172664 0 0.001036438110771093 0.021938878886250183 0 0.0008946339056032451 0.02153236367577252 0 0.0012010895664508515 0.021634239304894116 0 0.001036438110771093 0.021938878886250183 0 0.0012010895664508515 0.021634239304894116 0 0.0015508694880235819 0.021423482874314559 0 0.0014488614170293159 0.022278098370576819 0 0.00089681025863471678 0.018461774202255109 0 0.0011279082956689116 0.020024662906379873 0 0.00058693819433773748 0.017044471790312776 0 0.00050900642074321338 0.016794988470962117 0 0.00047367334402227614 0.016776365915753488 0 0.00059658618719802365 0.017012942720626333 0 0.00089681025863471678 0.018461774202255109 0 0.00050900642074321338 0.016794988470962117 0 0.00047367334402227614 0.016776365915753488 0 0.00044471089531101951 0.016872613716510554 0 0.0012010895664508515 0.021634239304894116 0 0.0015508694880235819 0.021423482874314559 0 0.0010477096591174834 0.021237218594215429 0 0.0011202351836739277 0.020605678843816009 0 0.0015508694880235819 0.021423482874314559 0 0.0010477096591174834 0.021237218594215429 0 0.00076826580338862978 0.017212300078442933 0 0.00054162525915707384 0.016778127899325142 0 0.00052097376955130006 0.016978572109237824 0 0.0010305217593477483 0.018948470628718805 0 0.00089681025863471678 0.018461774202255109 0 0.00047367334402227614 0.016776365915753488 0 0.00044471089531101951 0.016872613716510554 0 0.00052097376955130006 0.016978572109237824 0 0.00037626892864755401 0.017058672088980008 0 0.00044471089531101951 0.016872613716510554 0 0.00052097376955130006 0.016978572109237824 0 0.00089681025863471678 0.018461774202255109 0 0.00070481249775792036 0.016707732892690962 0 0.00037626892864755401 0.017058672088980008 0 0.00044780335095135249 0.017242163116555478 0 0.00052097376955130006 0.016978572109237824 0 0.0011202351836739277 0.020605678843816009 0 0.0010477096591174834 0.021237218594215429 0 0.00067010106793653182 0.021170385643217583 0 0.0011202351836739277 0.020605678843816009 0 0.00067010106793653182 0.021170385643217583 0 0.00049324470067289904 0.020818166562886195 0 0.0008946339056032451 0.02153236367577252 0 0.0010477096591174834 0.021237218594215429 0 0.00067010106793653182 0.021170385643217583 0 -7.2937077195151391e-05 0.020553507657946096 0 0.00049324470067289904 0.020818166562886195 0 0.00025116820873969482 0.02117341062438674 0 0.00067010106793653182 0.021170385643217583 0 0.00049324470067289904 0.020818166562886195 0 0.00025116820873969482 0.02117341062438674 0 0.00067010106793653182 0.021170385643217583 0 0.00025116820873969482 0.02117341062438674 0 0.00047019802600417062 0.021551588326052806 0 -7.2937077195151391e-05 0.020553507657946096 0 -6.8974074713540646e-05 0.021224809696473529 0 -0.00039684065363688353 0.021353810053458776 0 -7.2937077195151391e-05 0.020553507657946096 0 0.00025116820873969482 0.02117341062438674 0 -6.8974074713540646e-05 0.021224809696473529 0 -7.2937077195151391e-05 0.020553507657946096 0 -0.00039684065363688353 0.021353810053458776 0 -0.00080922070050168762 0.021344266557061051 0 -0.00022006505029202494 0.020773009277816883 0 -0.00076605526760120343 0.021258586354300998 0 -0.00039684065363688353 0.021353810053458776 0 -1.7199752228145762e-05 0.021680418119431066 0 -0.00060567889399710075 0.021720460234353745 0 -1.7199752228145762e-05 0.021680418119431066 0 -0.00042011932020069711 0.022121586309707838 0 -0.00060567889399710075 0.021720460234353745 0 0.00025116820873969482 0.02117341062438674 0 -6.8974074713540646e-05 0.021224809696473529 0 -1.7199752228145762e-05 0.021680418119431066 0 -6.8974074713540646e-05 0.021224809696473529 0 -0.00039684065363688353 0.021353810053458776 0 -1.7199752228145762e-05 0.021680418119431066 0 -1.7199752228145762e-05 0.021680418119431066 0 0.00047019802600417062 0.021551588326052806 0 0.00059206418122980135 0.02206086841172664 0 0.00025116820873969482 0.02117341062438674 0 -1.7199752228145762e-05 0.021680418119431066 0 0.00047019802600417062 0.021551588326052806 0 0.0008946339056032451 0.02153236367577252 0 0.00047019802600417062 0.021551588326052806 0 0.00059206418122980135 0.02206086841172664 0 -1.7199752228145762e-05 0.021680418119431066 0 0.00059206418122980135 0.02206086841172664 0 0.00010786739621541799 0.022130455436621229 0 0.00059206418122980135 0.02206086841172664 0 0.00026716149042565638 0.022677680053490058 0 0.00078685337996195134 0.022550217645691574 0 0.00059206418122980135 0.02206086841172664 0 0.00010786739621541799 0.022130455436621229 0 0.00026716149042565638 0.022677680053490058 0 -0.00042011932020069711 0.022121586309707838 0 0.00010786739621541799 0.022130455436621229 0 0.00026716149042565638 0.022677680053490058 0 -9.9647389628020945e-05 0.022508976983191768 0 0.00020182295662603221 0.022651119769588935 0 -1.7199752228145762e-05 0.021680418119431066 0 -0.00042011932020069711 0.022121586309707838 0 0.00010786739621541799 0.022130455436621229 0 0.00027670261044026277 0.024947874929555809 0 0.00022247817057944669 0.024779120890842991 0 3.638917422359869e-05 0.022738242319698662 0 0.00026716149042565638 0.022677680053490058 0 6.2131747329765573e-06 0.022784980353358294 0 0.00026716149042565638 0.022677680053490058 0 0.00027610814102616444 0.023085729843590468 0 6.2131747329765573e-06 0.022784980353358294 0 0.00026716149042565638 0.022677680053490058 0 0.00057512084059046012 0.022816671683946157 0 0.00027610814102616444 0.023085729843590468 0 0.00026716149042565638 0.022677680053490058 0 0.00057512084059046012 0.022816671683946157 0 0.00078685337996195134 0.022550217645691574 0 0.00093131355842916578 0.022777771049439538 0 0.0013521715036369049 0.022894204962912772 0 0.00082347120383911615 0.023059538082445877 0 0.00057512084059046012 0.022816671683946157 0 0.00093131355842916578 0.022777771049439538 0 0.00078685337996195134 0.022550217645691574 0 0.00057512084059046012 0.022816671683946157 0 0.00093131355842916578 0.022777771049439538 0 0.00082347120383911615 0.023059538082445877 0 0.00093131355842916578 0.022777771049439538 0 0.0011385596873745598 0.022565006007792418 0 0.0013521715036369049 0.022894204962912772 0 0.0011385596873745598 0.022565006007792418 0 0.00078685337996195134 0.022550217645691574 0 0.0010006428511182802 0.022280220163270338 0 0.00093131355842916578 0.022777771049439538 0 0.0011385596873745598 0.022565006007792418 0 0.00078685337996195134 0.022550217645691574 0 0.00059206418122980135 0.02206086841172664 0 0.00078685337996195134 0.022550217645691574 0 0.0010006428511182802 0.022280220163270338 0 0.0010006428511182802 0.022280220163270338 0 0.001036438110771093 0.021938878886250183 0 0.0014488614170293159 0.022278098370576819 0 0.00059206418122980135 0.02206086841172664 0 0.0010006428511182802 0.022280220163270338 0 0.001036438110771093 0.021938878886250183 0 0.0012010895664508515 0.021634239304894116 0 0.001036438110771093 0.021938878886250183 0 0.0014488614170293159 0.022278098370576819 0 0.0007920214973027315 0.017384827055186874 0 0.00080645402035864333 0.01741603641445744 0 0.00078086056850595149 0.017382885358881273 0 0.0011385596873745598 0.022565006007792418 0 0.0010006428511182802 0.022280220163270338 0 0.0014488614170293159 0.022278098370576819 0 0.00080683676700242458 0.01738277315111646 0 0.0007920214973027315 0.017384827055186874 0 0.00078086056850595149 0.017382885358881273 0 0.00078086056850595149 0.017382885358881273 0 0.00079702590167301331 0.017435398308324385 0 0.00071895218428925304 0.017503863044351642 0 0.00080683676700242458 0.01738277315111646 0 0.00078086056850595149 0.017382885358881273 0 0.00079702590167301331 0.017435398308324385 0 0.0011385596873745598 0.022565006007792418 0 0.0014488614170293159 0.022278098370576819 0 0.0013521715036369049 0.022894204962912772 0 0.0011279082956689116 0.020024662906379873 0 0.0010951302436041897 0.020322663375395907 0 0.00079702590167301331 0.017435398308324385 0 0.00071895218428925304 0.017503863044351642 0 0.00071216628551007248 0.017555049794734493 0 0.0015452597146111936 0.020320511906894864 0 0.0015066034033255917 0.020732198389627275 0 0.00046189280165687141 0.022055935884504024 0 0.00086717136995039467 0.017570407113993044 0 0.00079702590167301331 0.017435398308324385 0 0.00071216628551007248 0.017555049794734493 0 0.0011254938923278106 0.018949061146163633 0 0.0013818106551800493 0.02161681369334259 0 0.00086717136995039467 0.017570407113993044 0 0.00071216628551007248 0.017555049794734493 0 0.00070229454830527554 0.017800156624808858 0 0.0010951302436041897 0.020322663375395907 0 0.0011254938923278106 0.018949061146163633 0 0.0013521715036369049 0.022894204962912772 0 0.00082347120383911615 0.023059538082445877 0 0.00090196330849244609 0.023569208145365481 0 0.0010951302436041897 0.020322663375395907 0 0.00094843923217576779 0.024316120028452015 0 0.0015066034033255917 0.020732198389627275 0 0.00046189280165687141 0.022055935884504024 0 0.0013261149790906282 0.022632161928697197 0 0.0013126376548720359 0.024374065386176633 0 0.0017663277477233661 0.024669338173563985 0 0.0017342632615122387 0.025062254805041668 0 0.00094843923217576779 0.024316120028452015 0 0.0013818106551800493 0.02161681369334259 0 0.00086717136995039467 0.017570407113993044 0 0.00070229454830527554 0.017800156624808858 0 0.00077725537647894082 0.01784370233588968 0 0.0013818106551800493 0.02161681369334259 0 0.0018997710824177067 0.017430329790020561 0 0.0022946219338195388 0.013841518527987783 0 0.0018997710824177067 0.017430329790020561 0 0.0028114169891601489 0.017516147053779154 0 0.0017630308132094966 0.016816599549428744 0 0.0017663866269449131 0.018319490116045445 0 0.0017630308132094966 0.016816599549428744 0 0.0017663866269449131 0.018319490116045445 0 0.00099985969153394542 0.018449980706976697 0 0.0018493821599595379 0.025429190898833047 0 0.0017342632615122387 0.025062254805041668 0 0.0015205436600938989 0.025155523344573324 0 0.0018997710824177067 0.017430329790020561 0 0.0015602670870360532 0.022170920258996727 0 0.0013818106551800493 0.02161681369334259 0 0.0014322685692132731 0.025044829152985532 0 0.0021823737265293966 0.024802769970374436 0 0.0018493821599595379 0.025429190898833047 0 0.0017342632615122387 0.025062254805041668 0 0.0017689382688438689 0.024507344909435184 0 0.0021823737265293966 0.024802769970374436 0 0.0017342632615122387 0.025062254805041668 0 0.00094843923217576779 0.024316120028452015 0 0.00047504569716466297 0.026240958054644437 0 0.0013126376548720359 0.024374065386176633 0 0.0017342632615122387 0.025062254805041668 0 0.0015205436600938989 0.025155523344573324 0 0.0013126376548720359 0.024374065386176633 0 0.0012434468468213316 0.025441484434865068 0 0.00076199864206647752 0.025409518521621453 0 0.0013126376548720359 0.024374065386176633 0 0.0015205436600938989 0.025155523344573324 0 0.0012434468468213316 0.025441484434865068 0 0.0015205436600938989 0.025155523344573324 0 0.0012434468468213316 0.025441484434865068 0 0.0015233545878247112 0.025554280179679208 0 0.0018493821599595379 0.025429190898833047 0 0.0015205436600938989 0.025155523344573324 0 0.0015233545878247112 0.025554280179679208 0 0.0012434468468213316 0.025441484434865068 0 0.0015233545878247112 0.025554280179679208 0 0.0013485833669523331 0.025924550756424112 0 0.0015233545878247112 0.025554280179679208 0 0.0013485833669523331 0.025924550756424112 0 0.0016460463416304179 0.02579196401018748 0 0.0012434468468213316 0.025441484434865068 0 0.0013485833669523331 0.025924550756424112 0 0.00095718169591890473 0.026054069165434672 0 0.0013485833669523331 0.025924550756424112 0 0.00095718169591890473 0.026054069165434672 0 0.0011431473119354633 0.026438374662034372 0 0.0013485833669523331 0.025924550756424112 0 0.0015494947498631672 0.026125319923422877 0 0.0016460463416304179 0.02579196401018748 0 0.0013485833669523331 0.025924550756424112 0 0.0015494947498631672 0.026125319923422877 0 0.0011431473119354633 0.026438374662034372 0 0.0028114169891601489 0.017516147053779154 0 0.0017663866269449131 0.018319490116045445 0 0.0014915706931388681 0.020496048217141658 0 0.0015494947498631672 0.026125319923422877 0 0.0019801300902327927 0.026099396568951692 0 0.0019587348132371384 0.026028858241186829 0 0.0015494947498631672 0.026125319923422877 0 0.0019587348132371384 0.026028858241186829 0 0.0016460463416304179 0.02579196401018748 0 0.0016412513515943633 0.024233889149213764 0 0.0017254959952834985 0.020980145206720029 0 0.0022946219338195388 0.013841518527987783 0 0.0017792110697825187 0.020480565821854122 0 0.0020051153595348446 0.015246202558353317 0 0.001762200339909811 0.01529550606241052 0 0.001755100549568948 0.015269855294666788 0 0.0017663866269449131 0.018319490116045445 0 0.00099985969153394542 0.018449980706976697 0 0.0014915706931388681 0.020496048217141658 0 0.0017254959952834985 0.020980145206720029 0 0.0017792110697825187 0.020480565821854122 0 0.0018493821599595379 0.025429190898833047 0 0.0015233545878247112 0.025554280179679208 0 0.0016460463416304179 0.02579196401018748 0 0.0015602670870360532 0.022170920258996727 0 0.0017792110697825187 0.020480565821854122 0 0.0018493821599595379 0.025429190898833047 0 0.0019587348132371384 0.026028858241186829 0 0.0016460463416304179 0.02579196401018748 0 0.00035149917591240592 0.02659084515902032 0 0.00034772538913112474 0.026590675161768183 0 0.00041635932868189452 0.026494273165922712 0 0.00031879724525082508 0.026570692400089285 0 0.00035149917591240592 0.02659084515902032 0 0.00041635932868189452 0.026494273165922712 0 0.00095718169591890473 0.026054069165434672 0 0.00076199864206647752 0.025409518521621453 0 0.00041635932868189452 0.026494273165922712 0 0.00047504569716466297 0.026240958054644437 0 0.00045334699796536793 0.026347103011285154 0 0.0012434468468213316 0.025441484434865068 0 0.00095718169591890473 0.026054069165434672 0 0.00076199864206647752 0.025409518521621453 0 0.00031879724525082508 0.026570692400089285 0 0.00035149917591240592 0.02659084515902032 0 0.00032610813907793366 0.02660630228650018 0 0.00035149917591240592 0.02659084515902032 0 0.00032610813907793366 0.02660630228650018 0 0.00035039378406339717 0.026622601003443061 0 0.00032610813907793366 0.02660630228650018 0 0.0003489104592782655 0.026647540627386893 0 0.00035039378406339717 0.026622601003443061 0 0.00029720004697971034 0.026595993818644522 0 0.00032610813907793366 0.02660630228650018 0 0.00031934944833497827 0.026636465367435046 0 0.00029720004697971034 0.026595993818644522 0 0.00031879724525082508 0.026570692400089285 0 0.00032610813907793366 0.02660630228650018 0 0.00082347120383911615 0.023059538082445877 0 0.00090196330849244609 0.023569208145365481 0 0.00027610814102616444 0.023085729843590468 0 0.00057512084059046012 0.022816671683946157 0 0.00082347120383911615 0.023059538082445877 0 0.00027610814102616444 0.023085729843590468 0 0.00094843923217576779 0.024316120028452015 0 0.00027670261044026277 0.024947874929555809 0 0.00032610813907793366 0.02660630228650018 0 0.00031934944833497827 0.026636465367435046 0 0.0003489104592782655 0.026647540627386893 0 0.00031934944833497827 0.026636465367435046 0 0.0003489104592782655 0.026647540627386893 0 0.00037199823743937584 0.026691551712428509 0 0.0003489104592782655 0.026647540627386893 0 0.00034818178187956877 0.026665278488132202 0 0.00037199823743937584 0.026691551712428509 0 0.0003489104592782655 0.026647540627386893 0 0.00034818178187956877 0.026665278488132202 0 0.00035039378406339717 0.026622601003443061 0 0.00034818178187956877 0.026665278488132202 0 0.00036493348705773855 0.026665010057682521 0 0.00031230912934895985 0.026684924611594843 0 0.00034818178187956877 0.026665278488132202 0 0.0003582278774100336 0.026640075992301542 0 0.00036493348705773855 0.026665010057682521 0 0.00034818178187956877 0.026665278488132202 0 0.0003582278774100336 0.026640075992301542 0 0.00035039378406339717 0.026622601003443061 0 0.00035149917591240592 0.02659084515902032 0 0.00035039378406339717 0.026622601003443061 0 0.00034772538913112474 0.026590675161768183 0 0.0003582278774100336 0.026640075992301542 0 0.00035039378406339717 0.026622601003443061 0 0.00034772538913112474 0.026590675161768183 0 0.0003582278774100336 0.026640075992301542 0 0.00034772538913112474 0.026590675161768183 0 0.0003473384728710213 0.026637926703185263 0 0.00034772538913112474 0.026590675161768183 0 0.0003473384728710213 0.026637926703185263 0 0.00026850803046770094 0.026655712141887992 0 0.00034772538913112474 0.026590675161768183 0 0.00026850803046770094 0.026655712141887992 0 0.00041635932868189452 0.026494273165922712 0 -0.00029685016317454672 0.034700957058560501 0 -0.00027696480380908731 0.034707758444408376 0 -0.00031217535098916518 0.034682883141789619 0 -0.00026512543525482481 0.034739373160124397 0 -0.00027696480380908731 0.034707758444408376 0 -0.00024224925982494974 0.034742378841123835 0 -0.00029685016317454672 0.034700957058560501 0 -0.00026512543525482481 0.034739373160124397 0 -0.00027696480380908731 0.034707758444408376 0 -0.00027696480380908731 0.034707758444408376 0 -0.0002246188479406953 0.0347300103378025 0 -0.00025691272457260968 0.034698088543765666 0 -0.00027696480380908731 0.034707758444408376 0 -0.00031217535098916518 0.034682883141789619 0 -0.0002857430082800472 0.034685238313357437 0 -0.00031217535098916518 0.034682883141789619 0 -0.00028646922544050754 0.034688492469754716 0 -0.00030759020417213867 0.034665899342818579 0 -0.00031217535098916518 0.034682883141789619 0 -0.00034585337476305785 0.034624708649279412 0 -0.00028646922544050754 0.034688492469754716 0 -0.00029685016317454672 0.034700957058560501 0 -0.00031217535098916518 0.034682883141789619 0 -0.00034585337476305785 0.034624708649279412 0 -0.00034585337476305785 0.034624708649279412 0 -0.00028646922544050754 0.034688492469754716 0 -0.00059126014328209997 0.034181447248171584 0 4.7794973052789707e-05 0.030801612198465736 0 -0.00011978936935946488 0.029679534174492365 0 0.0003582278774100336 0.026640075992301542 0 0.0003473384728710213 0.026637926703185263 0 0.0003710664594400018 0.026671151245834263 0 -0.00033009871648039592 0.034711779029952504 0 -0.00050799622938311876 0.034280589840825527 0 -0.00029685016317454672 0.034700957058560501 0 -0.00034585337476305785 0.034624708649279412 0 -0.00025613249851362009 0.034797815144956064 0 -0.00034585337476305785 0.034624708649279412 0 -0.00059126014328209997 0.034181447248171584 0 -0.00078723395612802336 0.03439747223789804 0 -0.00029685016317454672 0.034700957058560501 0 -0.00026512543525482481 0.034739373160124397 0 -0.00025613249851362009 0.034797815144956064 0 0.00011151850726183535 0.032427959438308347 0 -0.00024454510596623013 0.032427437504890064 0 -0.00020461933896472878 0.032784456709076489 0 -0.00011978936935946488 0.029679534174492365 0 -0.00050799622938311876 0.034280589840825527 0 -0.00011978936935946488 0.029679534174492365 0 -0.0002604691737456743 0.030886293690377282 0 0.0003582278774100336 0.026640075992301542 0 0.0003710664594400018 0.026671151245834263 0 0.00036493348705773855 0.026665010057682521 0 -0.00011978936935946488 0.029679534174492365 0 0.00035336361452196601 0.026454408684538491 0 -0.00034167915322018709 0.027712002666570409 0 4.8909218152692548e-05 0.027208482370133 0 -0.00032408650768339019 0.027136790145033476 0 -0.00034167915322018709 0.027712002666570409 0 -0.00032408650768339019 0.027136790145033476 0 -0.00073849644474213076 0.027222172556196182 0 -0.00032408650768339019 0.027136790145033476 0 -0.00044195655958648378 0.02675635656513629 0 -3.2693512619207425e-05 0.026791074479019097 0 -0.00032408650768339019 0.027136790145033476 0 -0.00044195655958648378 0.02675635656513629 0 -0.00073849644474213076 0.027222172556196182 0 0.00019124036992296958 0.030285787079931563 0 0.00018714126455704138 0.030221521090422355 0 0.00023670008869329886 0.030187840544116461 0 -7.6343402092711121e-05 0.028402499401006507 0 -0.00014565204209613224 0.026822808722759044 0 -0.00044195655958648378 0.02675635656513629 0 -3.2693512619207425e-05 0.026791074479019097 0 -0.00016405682936090145 0.026342629202353009 0 0.00010536019024003245 0.022794867098722728 0 0.00016576995663543541 0.02290445343471172 0 0.00030600041894973586 0.022951089609363956 0 -3.2693512619207425e-05 0.026791074479019097 0 0.00023078129191273048 0.026618460889097487 0 -0.00016405682936090145 0.026342629202353009 0 9.3717550702936673e-05 0.024411260266144465 0 -0.00014565204209613224 0.026822808722759044 0 4.8909218152692548e-05 0.027208482370133 0 -0.00032408650768339019 0.027136790145033476 0 -3.2693512619207425e-05 0.026791074479019097 0 0.00035336361452196601 0.026454408684538491 0 0.00021858742673113899 0.026892434410576694 0 4.8909218152692548e-05 0.027208482370133 0 -3.2693512619207425e-05 0.026791074479019097 0 0.00031230912934895985 0.026684924611594843 0 0.00022247817057944669 0.024779120890842991 0 9.3717550702936673e-05 0.024411260266144465 0 0.00037199823743937584 0.026691551712428509 0 0.00031230912934895985 0.026684924611594843 0 0.00023078129191273048 0.026618460889097487 0 0.00034818178187956877 0.026665278488132202 0 0.00037199823743937584 0.026691551712428509 0 0.00031230912934895985 0.026684924611594843 0 3.638917422359869e-05 0.022738242319698662 0 4.8048704664311471e-05 0.022798422380540757 0 5.2364271495470225e-05 0.02290501481188776 0 6.2131747329765573e-06 0.022784980353358294 0 4.8048704664311471e-05 0.022798422380540757 0 0.00010536019024003245 0.022794867098722728 0 3.638917422359869e-05 0.022738242319698662 0 6.2131747329765573e-06 0.022784980353358294 0 4.8048704664311471e-05 0.022798422380540757 0 -3.2693512619207425e-05 0.026791074479019097 0 0.00031230912934895985 0.026684924611594843 0 0.00023078129191273048 0.026618460889097487 0 4.8048704664311471e-05 0.022798422380540757 0 0.00010536019024003245 0.022794867098722728 0 8.8142496707630224e-05 0.022847508615417633 0 4.8048704664311471e-05 0.022798422380540757 0 8.8142496707630224e-05 0.022847508615417633 0 5.2364271495470225e-05 0.02290501481188776 0 0.00010536019024003245 0.022794867098722728 0 8.8142496707630224e-05 0.022847508615417633 0 0.00016576995663543541 0.02290445343471172 0 5.2364271495470225e-05 0.02290501481188776 0 4.7522509353037345e-05 0.022925401095694201 0 0.00036771562105215205 0.023014250892899935 0 -0.00072816668111271856 0.021879529247394894 0 -8.9534511062836961e-05 0.02505947707224181 0 0.00016576995663543541 0.02290445343471172 0 5.2364271495470225e-05 0.02290501481188776 0 0.00026788650893973303 0.023006353396485379 0 4.7522509353037345e-05 0.022925401095694201 0 0.00027487130497627865 0.023157470002983772 0 0.00036771562105215205 0.023014250892899935 0 6.6480245108155507e-05 0.022440141944466713 0 9.3536396432763617e-05 0.025299047425982157 0 8.8142496707630224e-05 0.022847508615417633 0 0.00016576995663543541 0.02290445343471172 0 5.2364271495470225e-05 0.02290501481188776 0 -0.0010040690094430705 0.021610142072929505 0 -0.0009255123662198849 0.021465162663091748 0 -0.0011505669670272038 0.021293148707151328 0 -0.00042011932020069711 0.022121586309707838 0 -0.0010040690094430705 0.021610142072929505 0 -0.00060567889399710075 0.021720460234353745 0 -9.9647389628020945e-05 0.022508976983191768 0 -0.00072816668111271856 0.021879529247394894 0 3.638917422359869e-05 0.022738242319698662 0 5.2364271495470225e-05 0.02290501481188776 0 4.7522509353037345e-05 0.022925401095694201 0 -0.0010040690094430705 0.021610142072929505 0 -0.00060567889399710075 0.021720460234353745 0 -0.00077745417054218022 0.021547354576238402 0 -0.0010040690094430705 0.021610142072929505 0 -0.0009255123662198849 0.021465162663091748 0 -0.00077745417054218022 0.021547354576238402 0 -0.0009255123662198849 0.021465162663091748 0 -0.00077745417054218022 0.021547354576238402 0 -0.00080922070050168762 0.021344266557061051 0 -0.00039684065363688353 0.021353810053458776 0 -0.00077745417054218022 0.021547354576238402 0 -0.00080922070050168762 0.021344266557061051 0 -0.00039684065363688353 0.021353810053458776 0 -0.00060567889399710075 0.021720460234353745 0 -0.00077745417054218022 0.021547354576238402 0 -0.00072000256905042448 0.020835698064848508 0 -0.00080922070050168762 0.021344266557061051 0 -0.0010444601483695093 0.021054825198676855 0 -0.00072000256905042448 0.020835698064848508 0 -0.00029577468412136091 0.020707469597385206 0 -0.00080922070050168762 0.021344266557061051 0 -0.0009255123662198849 0.021465162663091748 0 -0.00080922070050168762 0.021344266557061051 0 -0.0011505669670272038 0.021293148707151328 0 -0.0011505669670272038 0.021293148707151328 0 -0.0010444601483695093 0.021054825198676855 0 -0.0014770114419681759 0.021224500958428507 0 -0.0010646272067240323 0.02059321503486998 0 -0.0010444601483695093 0.021054825198676855 0 -0.0014770114419681759 0.021224500958428507 0 -0.0010040690094430705 0.021610142072929505 0 -0.0011505669670272038 0.021293148707151328 0 -0.0014770114419681759 0.021224500958428507 0 -0.00080922070050168762 0.021344266557061051 0 -0.0011505669670272038 0.021293148707151328 0 -0.0010444601483695093 0.021054825198676855 0 -8.1692224563880959e-06 0.028073182426996818 0 0.00018427535419533294 0.028210347482155448 0 3.5271569234428984e-05 0.028210475201857661 0 0.00047077352996086725 0.029079577278345023 0 -8.9534511062836961e-05 0.02505947707224181 0 -8.9534511062836961e-05 0.02505947707224181 0 9.3536396432763617e-05 0.025299047425982157 0 0.00018427535419533294 0.028210347482155448 0 3.5271569234428984e-05 0.028210475201857661 0 0.00011875944830029911 0.028325096761095514 0 3.5271569234428984e-05 0.028210475201857661 0 -8.4732880733766314e-05 0.028320577972283111 0 0.00011875944830029911 0.028325096761095514 0 -0.00016146472648285572 0.028117084811546216 0 3.5271569234428984e-05 0.028210475201857661 0 -8.4732880733766314e-05 0.028320577972283111 0 -0.00016146472648285572 0.028117084811546216 0 -8.1692224563880959e-06 0.028073182426996818 0 3.5271569234428984e-05 0.028210475201857661 0 0.00020502817405383488 0.02847676795153662 0 9.3536396432763617e-05 0.025299047425982157 0 0.0005316117729317443 0.027162764307039428 0 -0.00019150369148450148 0.026662177036174475 0 -0.00038654108103249453 0.02696427459963029 0 0.00020502817405383488 0.02847676795153662 0 -0.00014565204209613224 0.026822808722759044 0 0.00018432953055748648 0.030173252823398857 0 0.00018714126455704138 0.030221521090422355 0 0.00023670008869329886 0.030187840544116461 0 -0.00014565204209613224 0.026822808722759044 0 9.3536396432763617e-05 0.025299047425982157 0 0.00016576995663543541 0.02290445343471172 0 0.00030600041894973586 0.022951089609363956 0 0.00026788650893973303 0.023006353396485379 0 8.7672085884845592e-05 0.030240581649529554 0 0.00011235153126290935 0.030187110934173145 0 5.2220481469440209e-05 0.030202563817730108 0 8.7672085884845592e-05 0.030240581649529554 0 0.00011235153126290935 0.030187110934173145 0 0.0001380128914649715 0.030242372198951768 0 0.00018432953055748648 0.030173252823398857 0 0.00011235153126290935 0.030187110934173145 0 0.0001380128914649715 0.030242372198951768 0 0.00018432953055748648 0.030173252823398857 0 0.00018714126455704138 0.030221521090422355 0 0.0001380128914649715 0.030242372198951768 0 -0.00016372942644061027 0.028284721103948567 0 -0.00036943056976690669 0.028148183709470836 0 -0.00039240630081232799 0.028231335361353846 0 0.00020502817405383488 0.02847676795153662 0 -0.00048163249297239339 0.028078661723190526 0 -0.00016146472648285572 0.028117084811546216 0 -8.4732880733766314e-05 0.028320577972283111 0 -0.00036943056976690669 0.028148183709470836 0 0.00020502817405383488 0.02847676795153662 0 -0.00013387922787700269 0.029273629825550655 0 -0.00013387922787700269 0.029273629825550655 0 -0.00032309112806486076 0.028951169930668381 0 -0.00039240630081232799 0.028231335361353846 0 -0.00049184563802867967 0.028089854092609067 0 -0.00056839835591918487 0.028101118144018861 0 -0.00036943056976690669 0.028148183709470836 0 -0.00039240630081232799 0.028231335361353846 0 -0.00049184563802867967 0.028089854092609067 0 -0.00057794621757036393 0.028020627497883231 0 -0.00049184563802867967 0.028089854092609067 0 -0.00056839835591918487 0.028101118144018861 0 -0.00057794621757036393 0.028020627497883231 0 -0.00056839835591918487 0.028101118144018861 0 -0.00057982073181344436 0.028006928901107432 0 -0.00022689813864024041 0.031739613390654245 0 -2.2620323064706531e-05 0.032674889638696136 0 -0.00032309112806486076 0.028951169930668381 0 -0.00022689813864024041 0.031739613390654245 0 5.2220481469440209e-05 0.030202563817730108 0 5.3447466774251026e-06 0.030213959049836477 0 4.4154557883326766e-05 0.030249442288260101 0 -0.00022689813864024041 0.031739613390654245 0 6.9404831673852102e-05 0.032408560683544758 0 -0.00010986088587621144 0.034915694806130132 0 -0.00016257344293269085 0.034899970527786102 0 -0.00014982073746908927 0.034869286440285412 0 -0.00010500454794764947 0.034933480638719767 0 -0.00010986088587621144 0.034915694806130132 0 -0.00016257344293269085 0.034899970527786102 0 8.7672085884845592e-05 0.030240581649529554 0 5.2220481469440209e-05 0.030202563817730108 0 4.4154557883326766e-05 0.030249442288260101 0 -0.00016257344293269085 0.034899970527786102 0 -0.00014982073746908927 0.034869286440285412 0 -0.00022552152996086337 0.034834482734439072 0 8.7672085884845592e-05 0.030240581649529554 0 4.4154557883326766e-05 0.030249442288260101 0 8.652103032628633e-05 0.030306241991233728 0 -2.2620323064706531e-05 0.032674889638696136 0 2.4340480052542437e-05 0.032857861757001547 0 -0.00014982073746908927 0.034869286440285412 0 -0.00013606192872229073 0.03483980295278425 0 -0.00010757623075005119 0.034889535132452611 0 -0.00010986088587621144 0.034915694806130132 0 -0.00014982073746908927 0.034869286440285412 0 -0.00010757623075005119 0.034889535132452611 0 -0.00014982073746908927 0.034869286440285412 0 -0.00013606192872229073 0.03483980295278425 0 -0.00017481300323380727 0.034825403006169806 0 -0.00013606192872229073 0.03483980295278425 0 -0.00017481300323380727 0.034825403006169806 0 -0.00016241618985200892 0.034796777301709464 0 -0.00017481300323380727 0.034825403006169806 0 -0.00022552152996086337 0.034834482734439072 0 -0.00020380768451037543 0.034783205795202707 0 -0.00014982073746908927 0.034869286440285412 0 -0.00017481300323380727 0.034825403006169806 0 -0.00022552152996086337 0.034834482734439072 0 -0.00017481300323380727 0.034825403006169806 0 -0.00016241618985200892 0.034796777301709464 0 -0.00020380768451037543 0.034783205795202707 0 2.4340480052542437e-05 0.032857861757001547 0 -0.0002604691737456743 0.030886293690377282 0 -0.00022552152996086337 0.034834482734439072 0 -0.00028786981743052014 0.034742294946873149 0 -0.00023993624676795069 0.034757114687690376 0 -0.00022552152996086337 0.034834482734439072 0 -0.00023993624676795069 0.034757114687690376 0 -0.00020380768451037543 0.034783205795202707 0 8.7672085884845592e-05 0.030240581649529554 0 8.652103032628633e-05 0.030306241991233728 0 0.0001380128914649715 0.030242372198951768 0 0.00019124036992296958 0.030285787079931563 0 0.00018714126455704138 0.030221521090422355 0 0.0001380128914649715 0.030242372198951768 0 0.00019124036992296958 0.030285787079931563 0 8.652103032628633e-05 0.030306241991233728 0 0.0001380128914649715 0.030242372198951768 0 0.00019124036992296958 0.030285787079931563 0 8.652103032628633e-05 0.030306241991233728 0 0.00014262851982399513 0.030377439031254005 0 -7.6343402092711121e-05 0.028402499401006507 0 -0.0002604691737456743 0.030886293690377282 0 -0.0002604691737456743 0.030886293690377282 0 -0.00050539145646027496 0.033929629197686911 0 -0.00028786981743052014 0.034742294946873149 0 -0.00023993624676795069 0.034757114687690376 0 -0.00025071385928278876 0.034702603691170314 0 -0.00023993624676795069 0.034757114687690376 0 -0.00021542858782033325 0.034740019272731688 0 -0.00025071385928278876 0.034702603691170314 0 -0.00023993624676795069 0.034757114687690376 0 -0.00021542858782033325 0.034740019272731688 0 -0.00020380768451037543 0.034783205795202707 0 -0.0002704853731816691 0.034832732978709292 0 -0.00023547806555015646 0.03478221679561537 0 -8.9297735456799528e-05 0.034878365798621774 0 -0.00080896867439016922 0.032252078947955058 0 -0.00097143973594880314 0.032509913700813214 0 -0.00056207948232818493 0.032272865036397674 0 -0.00050539145646027496 0.033929629197686911 0 -0.00038210635769767476 0.034092208874084463 0 0.00011151850726183535 0.032427959438308347 0 -0.00047112254267354871 0.031702699259944851 0 -0.00024454510596623013 0.032427437504890064 0 -0.00047112254267354871 0.031702699259944851 0 -0.00081444898891286583 0.032247814278834087 0 -0.00056207948232818493 0.032272865036397674 0 -0.00097143973594880314 0.032509913700813214 0 -0.00056207948232818493 0.032272865036397674 0 -0.00020461933896472878 0.032784456709076489 0 -0.00047112254267354871 0.031702699259944851 0 -0.00056207948232818493 0.032272865036397674 0 -0.00024454510596623013 0.032427437504890064 0 -0.00056207948232818493 0.032272865036397674 0 -0.00024454510596623013 0.032427437504890064 0 -0.00020461933896472878 0.032784456709076489 0 -0.00050539145646027496 0.033929629197686911 0 -0.00072788558422576298 0.033187539993263668 0 -0.00038210635769767476 0.034092208874084463 0 -0.00050799622938311876 0.034280589840825527 0 -0.00015590373589679016 0.034848153601153502 0 -0.00024966047560395701 0.034801109390203214 0 -0.00019740511971927106 0.034799213804961773 0 -0.00026512543525482481 0.034739373160124397 0 -0.00025613249851362009 0.034797815144956064 0 -0.00023304118082202179 0.03478003614589284 0 -0.00024966047560395701 0.034801109390203214 0 -0.00023304118082202179 0.03478003614589284 0 -0.00019740511971927106 0.034799213804961773 0 -0.00050799622938311876 0.034280589840825527 0 -0.00048498542216553523 0.034496019556691258 0 -0.00023304118082202179 0.03478003614589284 0 -0.00019740511971927106 0.034799213804961773 0 -0.00020838278987568443 0.034764858977174802 0 -0.00019740511971927106 0.034799213804961773 0 -0.00016849826493214575 0.03478908297807401 0 -0.00020838278987568443 0.034764858977174802 0 -0.00015590373589679016 0.034848153601153502 0 -0.00019740511971927106 0.034799213804961773 0 -0.00016156183500666823 0.03481545948631419 0 -0.00038210635769767476 0.034092208874084463 0 -0.00026727526953758375 0.034903380374208273 0 -0.00015590373589679016 0.034848153601153502 0 -0.00016156183500666823 0.03481545948631419 0 -0.00012720944756148327 0.034819315494793356 0 -0.00016156183500666823 0.03481545948631419 0 -0.00016849826493214575 0.03478908297807401 0 -0.00012720944756148327 0.034819315494793356 0 -0.00019740511971927106 0.034799213804961773 0 -0.00016156183500666823 0.03481545948631419 0 -0.00016849826493214575 0.03478908297807401 0 -0.00016849826493214575 0.03478908297807401 0 -0.0001858724098533626 0.034757059612851922 0 -0.00020838278987568443 0.034764858977174802 0 -0.00016849826493214575 0.03478908297807401 0 -0.00013779181676701135 0.034777013901461408 0 -0.0001858724098533626 0.034757059612851922 0 -0.00016849826493214575 0.03478908297807401 0 -0.00013779181676701135 0.034777013901461408 0 -0.00012720944756148327 0.034819315494793356 0 -0.00013779181676701135 0.034777013901461408 0 -0.0001858724098533626 0.034757059612851922 0 -0.00017758150641116534 0.034737538098341736 0 -0.0001858724098533626 0.034757059612851922 0 -0.0002246188479406953 0.0347300103378025 0 -0.00017758150641116534 0.034737538098341736 0 -0.0001858724098533626 0.034757059612851922 0 -0.0002246188479406953 0.0347300103378025 0 -0.00020838278987568443 0.034764858977174802 0 -0.00027696480380908731 0.034707758444408376 0 -0.0002246188479406953 0.0347300103378025 0 -0.00024224925982494974 0.034742378841123835 0 -0.00023304118082202179 0.03478003614589284 0 -0.00024224925982494974 0.034742378841123835 0 -0.00020838278987568443 0.034764858977174802 0 -0.00026512543525482481 0.034739373160124397 0 -0.00023304118082202179 0.03478003614589284 0 -0.00024224925982494974 0.034742378841123835 0 -0.0002246188479406953 0.0347300103378025 0 -0.00024224925982494974 0.034742378841123835 0 -0.00020838278987568443 0.034764858977174802 0 -6.2961608334137956e-05 0.034830814819906818 0 -9.0600536771051062e-05 0.034792024410092784 0 -5.0020838264687792e-05 0.034824115673978612 0 -6.2961608334137956e-05 0.034830814819906818 0 -9.6729075610812819e-05 0.034816691319356843 0 -9.0600536771051062e-05 0.034792024410092784 0 -0.00013779181676701135 0.034777013901461408 0 -9.6729075610812819e-05 0.034816691319356843 0 -0.00012720944756148327 0.034819315494793356 0 -0.00013779181676701135 0.034777013901461408 0 -9.6729075610812819e-05 0.034816691319356843 0 -9.0600536771051062e-05 0.034792024410092784 0 -9.6729075610812819e-05 0.034816691319356843 0 -9.6219759742426924e-05 0.034836765119489486 0 -7.4629106616807579e-05 0.034841896616981116 0 -9.6729075610812819e-05 0.034816691319356843 0 -0.00012720944756148327 0.034819315494793356 0 -9.6219759742426924e-05 0.034836765119489486 0 -0.00014540053339802923 0.034852656786755414 0 -0.00012720944756148327 0.034819315494793356 0 -0.00010551029453491803 0.034848944715758896 0 -0.00012720944756148327 0.034819315494793356 0 -9.6219759742426924e-05 0.034836765119489486 0 -0.00010551029453491803 0.034848944715758896 0 -9.6219759742426924e-05 0.034836765119489486 0 -0.00010551029453491803 0.034848944715758896 0 -8.2498280807465424e-05 0.03485454980400466 0 -7.4629106616807579e-05 0.034841896616981116 0 -6.6677922991747253e-05 0.034855396820416315 0 -8.2498280807465424e-05 0.03485454980400466 0 -9.6219759742426924e-05 0.034836765119489486 0 -7.4629106616807579e-05 0.034841896616981116 0 -8.2498280807465424e-05 0.03485454980400466 0 -6.2961608334137956e-05 0.034830814819906818 0 -9.6729075610812819e-05 0.034816691319356843 0 -7.4629106616807579e-05 0.034841896616981116 0 -6.2961608334137956e-05 0.034830814819906818 0 -7.4629106616807579e-05 0.034841896616981116 0 -4.8749854211515111e-05 0.034851365387426447 0 -6.6677922991747253e-05 0.034855396820416315 0 -5.1781100397952692e-05 0.034862109388148425 0 -4.8749854211515111e-05 0.034851365387426447 0 -7.4629106616807579e-05 0.034841896616981116 0 -6.6677922991747253e-05 0.034855396820416315 0 -4.8749854211515111e-05 0.034851365387426447 0 -8.0170157442679282e-05 0.034871971584077364 0 -8.9297735456799528e-05 0.034878365798621774 0 -3.4073362771128171e-05 0.03487125540176305 0 -6.3854371686954193e-05 0.034924518785478038 0 -8.1663461762528951e-05 0.034822989559528159 0 -8.0170157442679282e-05 0.034871971584077364 0 -3.4073362771128171e-05 0.03487125540176305 0 -5.1781100397952692e-05 0.034862109388148425 0 -6.6677922991747253e-05 0.034855396820416315 0 -8.0170157442679282e-05 0.034871971584077364 0 -5.1781100397952692e-05 0.034862109388148425 0 -6.6677922991747253e-05 0.034855396820416315 0 -8.2498280807465424e-05 0.03485454980400466 0 -8.0170157442679282e-05 0.034871971584077364 0 -0.00014540053339802923 0.034852656786755414 0 -0.00010551029453491803 0.034848944715758896 0 -8.0170157442679282e-05 0.034871971584077364 0 -0.00050539145646027496 0.033929629197686911 0 -6.3854371686954193e-05 0.034924518785478038 0 -0.00038210635769767476 0.034092208874084463 0 3.4188818175752055e-05 0.035064879437259847 0 -0.00021542858782033325 0.034740019272731688 0 -0.00016050438456979884 0.034750194280881205 0 -0.00018015611655710536 0.034758688064440164 0 -0.00023547806555015646 0.03478221679561537 0 -8.0170157442679282e-05 0.034871971584077364 0 -8.9297735456799528e-05 0.034878365798621774 0 -0.00021542858782033325 0.034740019272731688 0 -0.00025071385928278876 0.034702603691170314 0 -0.00016050438456979884 0.034750194280881205 0 -0.00010551029453491803 0.034848944715758896 0 -8.2498280807465424e-05 0.03485454980400466 0 -8.0170157442679282e-05 0.034871971584077364 0 -0.00021542858782033325 0.034740019272731688 0 -0.00018376897872254453 0.034769652823974588 0 -0.00018015611655710536 0.034758688064440164 0 -0.00021542858782033325 0.034740019272731688 0 -0.00018376897872254453 0.034769652823974588 0 -0.00020380768451037543 0.034783205795202707 0 -0.00018376897872254453 0.034769652823974588 0 -0.00018015611655710536 0.034758688064440164 0 -0.00016161095219351083 0.034774581455546912 0 -0.00016050438456979884 0.034750194280881205 0 -0.00018015611655710536 0.034758688064440164 0 -0.00016161095219351083 0.034774581455546912 0 -0.00018376897872254453 0.034769652823974588 0 -0.00016161095219351083 0.034774581455546912 0 -0.00016241618985200892 0.034796777301709464 0 -0.00018376897872254453 0.034769652823974588 0 -0.00016241618985200892 0.034796777301709464 0 -0.00020380768451037543 0.034783205795202707 0 -0.00013606192872229073 0.03483980295278425 0 -0.00016241618985200892 0.034796777301709464 0 -0.00012826255073003113 0.034799465789315517 0 -0.00016050438456979884 0.034750194280881205 0 -0.00012826255073003113 0.034799465789315517 0 -9.0431973309812916e-05 0.034806000503182263 0 -0.00016050438456979884 0.034750194280881205 0 -0.00016161095219351083 0.034774581455546912 0 -0.00012826255073003113 0.034799465789315517 0 -0.00016161095219351083 0.034774581455546912 0 -0.00016241618985200892 0.034796777301709464 0 -0.00012826255073003113 0.034799465789315517 0 -0.00012826255073003113 0.034799465789315517 0 -9.0431973309812916e-05 0.034806000503182263 0 -8.6123529512172718e-05 0.034867090422581598 0 -5.7661035657507643e-05 0.034862543244310526 0 -9.0431973309812916e-05 0.034806000503182263 0 -8.6123529512172718e-05 0.034867090422581598 0 -8.1663461762528951e-05 0.034822989559528159 0 -2.5389729233722737e-05 0.034858584659554596 0 -5.7661035657507643e-05 0.034862543244310526 0 -9.0431973309812916e-05 0.034806000503182263 0 -2.8880086187793354e-05 0.034857206258686907 0 -3.4073362771128171e-05 0.03487125540176305 0 -2.8078133587900769e-05 0.034860760642179557 0 -3.0114911984154499e-05 0.034858498074384084 0 -3.4073362771128171e-05 0.03487125540176305 0 -3.0114911984154499e-05 0.034858498074384084 0 -2.8880086187793354e-05 0.034857206258686907 0 -3.4073362771128171e-05 0.03487125540176305 0 -5.1781100397952692e-05 0.034862109388148425 0 -2.8078133587900769e-05 0.034860760642179557 0 -5.1781100397952692e-05 0.034862109388148425 0 -4.8749854211515111e-05 0.034851365387426447 0 -2.8078133587900769e-05 0.034860760642179557 0 -4.8749854211515111e-05 0.034851365387426447 0 -2.8078133587900769e-05 0.034860760642179557 0 -3.4717664430179475e-05 0.034853607747787181 0 -2.8078133587900769e-05 0.034860760642179557 0 -2.1807610583115087e-05 0.034874523576896056 0 -3.5558788552630556e-05 0.034860997213876414 0 -2.8078133587900769e-05 0.034860760642179557 0 -2.1807610583115087e-05 0.034874523576896056 0 -3.4717664430179475e-05 0.034853607747787181 0 -2.1807610583115087e-05 0.034874523576896056 0 -2.2718790823419935e-05 0.034924729990252291 0 -2.511578313059448e-05 0.034866296384797518 0 -2.1807610583115087e-05 0.034874523576896056 0 -3.4717664430179475e-05 0.034853607747787181 0 -2.511578313059448e-05 0.034866296384797518 0 -6.2961608334137956e-05 0.034830814819906818 0 -3.4717664430179475e-05 0.034853607747787181 0 -5.0020838264687792e-05 0.034824115673978612 0 -3.4717664430179475e-05 0.034853607747787181 0 -2.511578313059448e-05 0.034866296384797518 0 -5.0020838264687792e-05 0.034824115673978612 0 -6.2961608334137956e-05 0.034830814819906818 0 -4.8749854211515111e-05 0.034851365387426447 0 -3.4717664430179475e-05 0.034853607747787181 0 -2.1116941393706689e-06 0.034982706331020449 0 3.9617411718723862e-09 0.035000008776125358 0 4.4083688668444411e-09 0.034999899204518285 0 -2.1116941393706689e-06 0.034982706331020449 0 -2.2718790823419935e-05 0.034924729990252291 0 4.4083688668444411e-09 0.034999899204518285 0 -2.1637850923125971e-05 0.034931335917538983 0 -2.3483068536048404e-05 0.034925795512798875 0 -2.1807610583115087e-05 0.034874523576896056 0 -3.5558788552630556e-05 0.034860997213876414 0 -2.2718790823419935e-05 0.034924729990252291 0 -2.1116941393706689e-06 0.034982706331020449 0 -1.1875542472298756e-05 0.035003530847566751 0 -2.2718790823419935e-05 0.034924729990252291 0 -2.8078133587900769e-05 0.034860760642179557 0 -3.5558788552630556e-05 0.034860997213876414 0 -3.0114911984154499e-05 0.034858498074384084 0 -2.1116941393706689e-06 0.034982706331020449 0 -1.1875542472298756e-05 0.035003530847566751 0 3.9617411718723862e-09 0.035000008776125358 0 -1.1875542472298756e-05 0.035003530847566751 0 3.9617411718723862e-09 0.035000008776125358 0 -2.51544857643545e-06 0.035002299572828161 0 3.9617411718723862e-09 0.035000008776125358 0 -2.51544857643545e-06 0.035002299572828161 0 -9.645621554874185e-09 0.035000004778669686 0 -1.1875542472298756e-05 0.035003530847566751 0 -2.51544857643545e-06 0.035002299572828161 0 3.7441751639618867e-06 0.035001096972646473 0 -2.51544857643545e-06 0.035002299572828161 0 -9.645621554874185e-09 0.035000004778669686 0 3.7441751639618867e-06 0.035001096972646473 0 -3.5558788552630556e-05 0.034860997213876414 0 -3.0114911984154499e-05 0.034858498074384084 0 -1.5352625654190146e-05 0.03485253682306963 0 -3.0114911984154499e-05 0.034858498074384084 0 -2.8880086187793354e-05 0.034857206258686907 0 -1.5352625654190146e-05 0.03485253682306963 0 -2.1637850923125971e-05 0.034931335917538983 0 -7.6180681986192633e-06 0.034929273573949135 0 -2.8880086187793354e-05 0.034857206258686907 0 -2.7472298018825496e-05 0.034872957517498707 0 -1.5352625654190146e-05 0.03485253682306963 0 -2.8880086187793354e-05 0.034857206258686907 0 -2.7472298018825496e-05 0.034872957517498707 0 -3.7414903896786119e-05 0.034879298543324826 0 -2.7472298018825496e-05 0.034872957517498707 0 -1.5352625654190146e-05 0.03485253682306963 0 -2.264217221955333e-05 0.034907432377902704 0 -2.7472298018825496e-05 0.034872957517498707 0 -3.7414903896786119e-05 0.034879298543324826 0 -2.264217221955333e-05 0.034907432377902704 0 -5.7661035657507643e-05 0.034862543244310526 0 -2.8880086187793354e-05 0.034857206258686907 0 -3.7414903896786119e-05 0.034879298543324826 0 -9.645621554874185e-09 0.035000004778669686 0 3.7441751639618867e-06 0.035001096972646473 0 9.0207067920999043e-07 0.03497483363885226 0 -7.6180681986192633e-06 0.034929273573949135 0 1.1354051201681626e-06 0.034970710990488735 0 -9.645621554874185e-09 0.035000004778669686 0 9.0207067920999043e-07 0.03497483363885226 0 1.8319582839592716e-09 0.03499989406858537 0 -1.5352625654190146e-05 0.03485253682306963 0 9.0207067920999043e-07 0.03497483363885226 0 -2.264217221955333e-05 0.034907432377902704 0 9.0207067920999043e-07 0.03497483363885226 0 -2.165948297297077e-05 0.034939290135355405 0 -2.264217221955333e-05 0.034907432377902704 0 9.0207067920999043e-07 0.03497483363885226 0 1.8319582839592716e-09 0.03499989406858537 0 -8.3493166236827548e-06 0.034981128833988476 0 9.0207067920999043e-07 0.03497483363885226 0 -8.3493166236827548e-06 0.034981128833988476 0 -2.72334420095785e-05 0.034948555195143997 0 -2.72334420095785e-05 0.034948555195143997 0 -4.9511206597235454e-05 0.034943413807829934 0 -2.2047403175994754e-05 0.034969890036674674 0 -2.72334420095785e-05 0.034948555195143997 0 -5.6835317700379622e-05 0.03491575750891595 0 -4.9511206597235454e-05 0.034943413807829934 0 -8.3493166236827548e-06 0.034981128833988476 0 -2.72334420095785e-05 0.034948555195143997 0 -2.2047403175994754e-05 0.034969890036674674 0 -2.72334420095785e-05 0.034948555195143997 0 -4.3861220620209017e-05 0.034903154098203264 0 -5.6835317700379622e-05 0.03491575750891595 0 -2.72334420095785e-05 0.034948555195143997 0 -2.165948297297077e-05 0.034939290135355405 0 -4.3861220620209017e-05 0.034903154098203264 0 9.0207067920999043e-07 0.03497483363885226 0 -2.72334420095785e-05 0.034948555195143997 0 -2.165948297297077e-05 0.034939290135355405 0 -2.165948297297077e-05 0.034939290135355405 0 -2.264217221955333e-05 0.034907432377902704 0 -4.3861220620209017e-05 0.034903154098203264 0 -5.7661035657507643e-05 0.034862543244310526 0 -3.7414903896786119e-05 0.034879298543324826 0 -4.3861220620209017e-05 0.034903154098203264 0 -3.7414903896786119e-05 0.034879298543324826 0 -2.264217221955333e-05 0.034907432377902704 0 -4.3861220620209017e-05 0.034903154098203264 0 -4.3861220620209017e-05 0.034903154098203264 0 -8.6123529512172718e-05 0.034867090422581598 0 -5.6835317700379622e-05 0.03491575750891595 0 -5.7661035657507643e-05 0.034862543244310526 0 -4.3861220620209017e-05 0.034903154098203264 0 -8.6123529512172718e-05 0.034867090422581598 0 -0.00013606192872229073 0.03483980295278425 0 -0.00012826255073003113 0.034799465789315517 0 -8.6123529512172718e-05 0.034867090422581598 0 -0.00013606192872229073 0.03483980295278425 0 -8.6123529512172718e-05 0.034867090422581598 0 -0.00010757623075005119 0.034889535132452611 0 -8.6123529512172718e-05 0.034867090422581598 0 -0.00010757623075005119 0.034889535132452611 0 -7.7229974567990777e-05 0.034908781970146602 0 -0.00010757623075005119 0.034889535132452611 0 -7.7229974567990777e-05 0.034908781970146602 0 -7.85760230067181e-05 0.034926454685394258 0 -8.6123529512172718e-05 0.034867090422581598 0 -5.6835317700379622e-05 0.03491575750891595 0 -7.7229974567990777e-05 0.034908781970146602 0 -7.7229974567990777e-05 0.034908781970146602 0 -4.9511206597235454e-05 0.034943413807829934 0 -7.85760230067181e-05 0.034926454685394258 0 -5.6835317700379622e-05 0.03491575750891595 0 -7.7229974567990777e-05 0.034908781970146602 0 -4.9511206597235454e-05 0.034943413807829934 0 -4.9511206597235454e-05 0.034943413807829934 0 -6.4205362980865254e-05 0.034945000104783894 0 -3.4771096456369005e-05 0.034966177046607358 0 -4.9511206597235454e-05 0.034943413807829934 0 -6.4205362980865254e-05 0.034945000104783894 0 -7.85760230067181e-05 0.034926454685394258 0 -6.4205362980865254e-05 0.034945000104783894 0 -7.85760230067181e-05 0.034926454685394258 0 -8.0363466373293299e-05 0.034936714307308332 0 -0.00010986088587621144 0.034915694806130132 0 -0.00010757623075005119 0.034889535132452611 0 -7.85760230067181e-05 0.034926454685394258 0 -0.00010986088587621144 0.034915694806130132 0 -7.85760230067181e-05 0.034926454685394258 0 -8.0363466373293299e-05 0.034936714307308332 0 -0.00010986088587621144 0.034915694806130132 0 -8.0363466373293299e-05 0.034936714307308332 0 -9.3465631504772696e-05 0.034933115982105911 0 -0.00010500454794764947 0.034933480638719767 0 -0.00010986088587621144 0.034915694806130132 0 -9.3465631504772696e-05 0.034933115982105911 0 -9.3465631504772696e-05 0.034933115982105911 0 -8.2992617241535899e-05 0.034940099473165821 0 -9.160365052521014e-05 0.034936987325837138 0 -8.0363466373293299e-05 0.034936714307308332 0 -9.3465631504772696e-05 0.034933115982105911 0 -8.2992617241535899e-05 0.034940099473165821 0 -8.2992617241535899e-05 0.034940099473165821 0 -8.4979803821572727e-05 0.034940507893471945 0 -9.4900030363805982e-05 0.034937044858145971 0 -8.2992617241535899e-05 0.034940099473165821 0 -9.4900030363805982e-05 0.034937044858145971 0 -9.160365052521014e-05 0.034936987325837138 0 -0.00010500454794764947 0.034933480638719767 0 -9.3465631504772696e-05 0.034933115982105911 0 -8.947486228254443e-05 0.034935493693788976 0 -9.3465631504772696e-05 0.034933115982105911 0 -9.160365052521014e-05 0.034936987325837138 0 -8.947486228254443e-05 0.034935493693788976 0 -9.4900030363805982e-05 0.034937044858145971 0 -9.160365052521014e-05 0.034936987325837138 0 -8.947486228254443e-05 0.034935493693788976 0 -4.5632023937635382e-05 0.034965872734723048 0 -6.4527336634961295e-05 0.034950285093477411 0 -3.4771096456369005e-05 0.034966177046607358 0 -6.4205362980865254e-05 0.034945000104783894 0 -6.4527336634961295e-05 0.034950285093477411 0 -3.4771096456369005e-05 0.034966177046607358 0 -6.4205362980865254e-05 0.034945000104783894 0 -8.2992617241535899e-05 0.034940099473165821 0 -6.4527336634961295e-05 0.034950285093477411 0 -6.4205362980865254e-05 0.034945000104783894 0 -8.0363466373293299e-05 0.034936714307308332 0 -8.2992617241535899e-05 0.034940099473165821 0 -7.3403689873852477e-05 0.034947302782869352 0 -8.4979803821572727e-05 0.034940507893471945 0 -6.4527336634961295e-05 0.034950285093477411 0 -8.2992617241535899e-05 0.034940099473165821 0 -8.4979803821572727e-05 0.034940507893471945 0 -6.4527336634961295e-05 0.034950285093477411 0 -1.454919769186924e-05 0.034987101814542759 0 -4.5632023937635382e-05 0.034965872734723048 0 -3.4771096456369005e-05 0.034966177046607358 0 -1.454919769186924e-05 0.034987101814542759 0 -3.4771096456369005e-05 0.034966177046607358 0 -1.7005138034069366e-08 0.034999969797832917 0 -8.3493166236827548e-06 0.034981128833988476 0 -1.7005138034069366e-08 0.034999969797832917 0 -2.2047403175994754e-05 0.034969890036674674 0 -3.4771096456369005e-05 0.034966177046607358 0 -1.7005138034069366e-08 0.034999969797832917 0 -2.2047403175994754e-05 0.034969890036674674 0 1.8319582839592716e-09 0.03499989406858537 0 -8.3493166236827548e-06 0.034981128833988476 0 -1.7005138034069366e-08 0.034999969797832917 0 -4.9511206597235454e-05 0.034943413807829934 0 -3.4771096456369005e-05 0.034966177046607358 0 -2.2047403175994754e-05 0.034969890036674674 0 -2.8883273311464169e-06 0.034689005018080782 0 -1.4945949521619802e-05 0.034661162418901548 0 -3.0654613356740941e-05 0.034685852488946289 0 -2.8883273311464169e-06 0.034689005018080782 0 -3.0654613356740941e-05 0.034685852488946289 0 -7.2453584388333224e-06 0.034746843214329422 0 -2.8883273311464169e-06 0.034689005018080782 0 1.8465292094522713e-05 0.034701541682458391 0 -7.2453584388333224e-06 0.034746843214329422 0 2.3285030601232043e-05 0.034869267214703251 0 8.1651863842020097e-06 0.034827499779963467 0 1.2857030601836928e-06 0.034999974467307619 0 7.8143759022786537e-10 0.0349999897143441 0 -2.4992636275839371e-09 0.035000034371119239 0 5.788967045487421e-05 0.034731149082444339 0 1.8465292094522713e-05 0.034701541682458391 0 -7.2453584388333224e-06 0.034746843214329422 0 5.788967045487421e-05 0.034731149082444339 0 1.8465292094522713e-05 0.034701541682458391 0 1.3720700481325656e-05 0.034655094435596917 0 -2.8883273311464169e-06 0.034689005018080782 0 1.8465292094522713e-05 0.034701541682458391 0 1.3720700481325656e-05 0.034655094435596917 0 1.2857030601836928e-06 0.034999974467307619 0 7.8143759022786537e-10 0.0349999897143441 0 -3.5453185682517916e-08 0.034999329933172424 0 1.3720700481325656e-05 0.034655094435596917 0 -1.4945949521619802e-05 0.034661162418901548 0 -1.1773842951615923e-05 0.034645407951799101 0 -2.8883273311464169e-06 0.034689005018080782 0 1.3720700481325656e-05 0.034655094435596917 0 -1.4945949521619802e-05 0.034661162418901548 0 -1.4945949521619802e-05 0.034661162418901548 0 -2.3352839115751881e-05 0.03464741537115653 0 -1.1773842951615923e-05 0.034645407951799101 0 -3.5735731231476319e-05 0.034656499908066185 0 -3.4914453670454879e-05 0.034643592367165923 0 -2.3352839115751881e-05 0.03464741537115653 0 -1.4945949521619802e-05 0.034661162418901548 0 -3.5735731231476319e-05 0.034656499908066185 0 -3.0654613356740941e-05 0.034685852488946289 0 -1.4945949521619802e-05 0.034661162418901548 0 -3.5735731231476319e-05 0.034656499908066185 0 -2.3352839115751881e-05 0.03464741537115653 0 -3.5735731231476319e-05 0.034656499908066185 0 -4.2876932516845976e-05 0.034640236008610895 0 -3.4914453670454879e-05 0.034643592367165923 0 -3.5735731231476319e-05 0.034656499908066185 0 -4.2876932516845976e-05 0.034640236008610895 0 -4.4119315734342672e-05 0.034662729444772632 0 -4.2876932516845976e-05 0.034640236008610895 0 -4.4119315734342672e-05 0.034662729444772632 0 -4.0266485717971977e-05 0.034601038649824861 0 -3.5735731231476319e-05 0.034656499908066185 0 -4.4119315734342672e-05 0.034662729444772632 0 -3.0654613356740941e-05 0.034685852488946289 0 -4.4119315734342672e-05 0.034662729444772632 0 -3.0654613356740941e-05 0.034685852488946289 0 -3.0449353509062005e-05 0.034737533747558787 0 -4.4119315734342672e-05 0.034662729444772632 0 -3.0449353509062005e-05 0.034737533747558787 0 -3.3646255195223456e-05 0.034721654395937121 0 -4.4119315734342672e-05 0.034662729444772632 0 -3.3646255195223456e-05 0.034721654395937121 0 -3.3831048750273453e-05 0.034626304134281548 0 -4.4119315734342672e-05 0.034662729444772632 0 -3.3831048750273453e-05 0.034626304134281548 0 -4.0266485717971977e-05 0.034601038649824861 0 -3.3646255195223456e-05 0.034721654395937121 0 -2.6461051406521536e-05 0.034770429981635119 0 -3.3831048750273453e-05 0.034626304134281548 0 -3.0449353509062005e-05 0.034737533747558787 0 -3.3646255195223456e-05 0.034721654395937121 0 -1.9040490548773888e-05 0.034813709708532127 0 -3.3646255195223456e-05 0.034721654395937121 0 -1.9040490548773888e-05 0.034813709708532127 0 -2.6461051406521536e-05 0.034770429981635119 0 -3.0449353509062005e-05 0.034737533747558787 0 -1.9040490548773888e-05 0.034813709708532127 0 -1.186318144336987e-05 0.034826734040015975 0 -1.9040490548773888e-05 0.034813709708532127 0 -3.7508449446105131e-06 0.034890409462245781 0 -1.186318144336987e-05 0.034826734040015975 0 -3.7508449446105131e-06 0.034890409462245781 0 -1.186318144336987e-05 0.034826734040015975 0 6.5230106084057286e-07 0.034901288466044011 0 -3.0449353509062005e-05 0.034737533747558787 0 -1.186318144336987e-05 0.034826734040015975 0 -7.2453584388333224e-06 0.034746843214329422 0 -1.186318144336987e-05 0.034826734040015975 0 -7.2453584388333224e-06 0.034746843214329422 0 6.3965339087940606e-06 0.034839381981041556 0 -3.0654613356740941e-05 0.034685852488946289 0 -3.0449353509062005e-05 0.034737533747558787 0 -7.2453584388333224e-06 0.034746843214329422 0 2.3285030601232043e-05 0.034869267214703251 0 1.611861164885615e-05 0.034970917119217439 0 1.2857030601836928e-06 0.034999974467307619 0 -2.4992636275839371e-09 0.035000034371119239 0 9.271811387418911e-06 0.034987885904527394 0 5.788967045487421e-05 0.034731149082444339 0 6.3965339087940606e-06 0.034839381981041556 0 9.271811387418911e-06 0.034987885904527394 0 5.788967045487421e-05 0.034731149082444339 0 -7.2453584388333224e-06 0.034746843214329422 0 6.3965339087940606e-06 0.034839381981041556 0 -2.4992636275839371e-09 0.035000034371119239 0 6.5011283004017497e-08 0.034999743058521007 0 9.271811387418911e-06 0.034987885904527394 0 6.3965339087940606e-06 0.034839381981041556 0 6.5230106084057286e-07 0.034901288466044011 0 9.271811387418911e-06 0.034987885904527394 0 -1.186318144336987e-05 0.034826734040015975 0 6.3965339087940606e-06 0.034839381981041556 0 6.5230106084057286e-07 0.034901288466044011 0 -3.7508449446105131e-06 0.034890409462245781 0 6.5230106084057286e-07 0.034901288466044011 0 3.6016388413467144e-06 0.034946683920804904 0 3.6016388413467144e-06 0.034946683920804904 0 6.5011283004017497e-08 0.034999743058521007 0 9.271811387418911e-06 0.034987885904527394 0 6.5230106084057286e-07 0.034901288466044011 0 3.6016388413467144e-06 0.034946683920804904 0 9.271811387418911e-06 0.034987885904527394 0 3.6016388413467144e-06 0.034946683920804904 0 6.5011283004017497e-08 0.034999743058521007 0 2.0764896466501972e-06 0.034944780940757723 0 6.5011283004017497e-08 0.034999743058521007 0 2.0764896466501972e-06 0.034944780940757723 0 -1.3946092993569954e-08 0.034999904521332489 0 -3.7508449446105131e-06 0.034890409462245781 0 3.6016388413467144e-06 0.034946683920804904 0 2.0764896466501972e-06 0.034944780940757723 0 -3.7508449446105131e-06 0.034890409462245781 0 2.0764896466501972e-06 0.034944780940757723 0 -1.0528814029448806e-05 0.034865029693590094 0 -1.9040490548773888e-05 0.034813709708532127 0 -3.7508449446105131e-06 0.034890409462245781 0 -1.0528814029448806e-05 0.034865029693590094 0 2.0764896466501972e-06 0.034944780940757723 0 -1.0528814029448806e-05 0.034865029693590094 0 -7.4746415318983491e-06 0.034918507329574675 0 2.0764896466501972e-06 0.034944780940757723 0 -1.3946092993569954e-08 0.034999904521332489 0 -7.4746415318983491e-06 0.034918507329574675 0 -1.3946092993569954e-08 0.034999904521332489 0 -7.4746415318983491e-06 0.034918507329574675 0 4.4083688668444411e-09 0.034999899204518285 0 -7.4746415318983491e-06 0.034918507329574675 0 -2.2718790823419935e-05 0.034924729990252291 0 -2.0573898639847507e-05 0.034874379503520771 0 -7.4746415318983491e-06 0.034918507329574675 0 -2.2718790823419935e-05 0.034924729990252291 0 4.4083688668444411e-09 0.034999899204518285 0 -2.511578313059448e-05 0.034866296384797518 0 -3.7683012799526404e-05 0.034820525342295405 0 -5.0020838264687792e-05 0.034824115673978612 0 -2.511578313059448e-05 0.034866296384797518 0 -2.0573898639847507e-05 0.034874379503520771 0 -3.7683012799526404e-05 0.034820525342295405 0 -2.2718790823419935e-05 0.034924729990252291 0 -2.511578313059448e-05 0.034866296384797518 0 -2.0573898639847507e-05 0.034874379503520771 0 -7.4746415318983491e-06 0.034918507329574675 0 -2.0573898639847507e-05 0.034874379503520771 0 -2.2964932199815078e-05 0.034828121932071729 0 -2.0573898639847507e-05 0.034874379503520771 0 -3.7683012799526404e-05 0.034820525342295405 0 -2.2964932199815078e-05 0.034828121932071729 0 -3.7683012799526404e-05 0.034820525342295405 0 -2.2964932199815078e-05 0.034828121932071729 0 -4.5055914529018407e-05 0.034764709091167752 0 -2.2964932199815078e-05 0.034828121932071729 0 -2.6461051406521536e-05 0.034770429981635119 0 -4.5055914529018407e-05 0.034764709091167752 0 -1.0528814029448806e-05 0.034865029693590094 0 -7.4746415318983491e-06 0.034918507329574675 0 -2.2964932199815078e-05 0.034828121932071729 0 -1.0528814029448806e-05 0.034865029693590094 0 -2.2964932199815078e-05 0.034828121932071729 0 -2.6461051406521536e-05 0.034770429981635119 0 -1.9040490548773888e-05 0.034813709708532127 0 -1.0528814029448806e-05 0.034865029693590094 0 -2.6461051406521536e-05 0.034770429981635119 0 -2.6461051406521536e-05 0.034770429981635119 0 -4.2084198506223434e-05 0.03469027591122633 0 -3.3831048750273453e-05 0.034626304134281548 0 -2.6461051406521536e-05 0.034770429981635119 0 -4.2084198506223434e-05 0.03469027591122633 0 -4.5055914529018407e-05 0.034764709091167752 0 -4.2084198506223434e-05 0.03469027591122633 0 -7.0878755492193322e-05 0.034677799225639967 0 -4.422328808737166e-05 0.03458949041564046 0 -7.0878755492193322e-05 0.034677799225639967 0 -0.00012726239424032309 0.034605152977050593 0 -4.422328808737166e-05 0.03458949041564046 0 -7.0878755492193322e-05 0.034677799225639967 0 -8.6795844924283233e-05 0.034726052708953278 0 -0.00012833957955602716 0.034674463360849998 0 -7.0878755492193322e-05 0.034677799225639967 0 -0.00012833957955602716 0.034674463360849998 0 -0.00012726239424032309 0.034605152977050593 0 -7.0878755492193322e-05 0.034677799225639967 0 -4.5055914529018407e-05 0.034764709091167752 0 -8.6795844924283233e-05 0.034726052708953278 0 -4.2084198506223434e-05 0.03469027591122633 0 -7.0878755492193322e-05 0.034677799225639967 0 -4.5055914529018407e-05 0.034764709091167752 0 -3.7683012799526404e-05 0.034820525342295405 0 -4.5055914529018407e-05 0.034764709091167752 0 -7.0560218177850747e-05 0.034776654023672256 0 -4.5055914529018407e-05 0.034764709091167752 0 -7.0560218177850747e-05 0.034776654023672256 0 -8.6795844924283233e-05 0.034726052708953278 0 -7.0560218177850747e-05 0.034776654023672256 0 -8.6795844924283233e-05 0.034726052708953278 0 -0.00012885723141900846 0.03473566380400122 0 -8.6795844924283233e-05 0.034726052708953278 0 -0.00012885723141900846 0.03473566380400122 0 -0.00012833957955602716 0.034674463360849998 0 -0.00013779181676701135 0.034777013901461408 0 -0.00012885723141900846 0.03473566380400122 0 -9.0600536771051062e-05 0.034792024410092784 0 -7.0560218177850747e-05 0.034776654023672256 0 -0.00012885723141900846 0.03473566380400122 0 -9.0600536771051062e-05 0.034792024410092784 0 -7.0560218177850747e-05 0.034776654023672256 0 -9.0600536771051062e-05 0.034792024410092784 0 -5.0020838264687792e-05 0.034824115673978612 0 -3.7683012799526404e-05 0.034820525342295405 0 -7.0560218177850747e-05 0.034776654023672256 0 -5.0020838264687792e-05 0.034824115673978612 0 -0.00022280906244233798 0.034702789928343636 0 -0.00018868529479774122 0.034703570317611086 0 -0.000226321310937009 0.034674175113538146 0 -0.00022280906244233798 0.034702789928343636 0 -0.00017758150641116534 0.034737538098341736 0 -0.00018868529479774122 0.034703570317611086 0 -0.00022280906244233798 0.034702789928343636 0 -0.000226321310937009 0.034674175113538146 0 -0.00026901508275441926 0.03466810010772764 0 -0.0002246188479406953 0.0347300103378025 0 -0.00022280906244233798 0.034702789928343636 0 -0.00025691272457260968 0.034698088543765666 0 -0.0002246188479406953 0.0347300103378025 0 -0.00022280906244233798 0.034702789928343636 0 -0.00017758150641116534 0.034737538098341736 0 -0.00013779181676701135 0.034777013901461408 0 -0.00012885723141900846 0.03473566380400122 0 -0.00017758150641116534 0.034737538098341736 0 -0.00012885723141900846 0.03473566380400122 0 -0.00017758150641116534 0.034737538098341736 0 -0.00018868529479774122 0.034703570317611086 0 -0.00012885723141900846 0.03473566380400122 0 -0.00018508456212522377 0.034668706577384877 0 -0.00018868529479774122 0.034703570317611086 0 -0.00012885723141900846 0.03473566380400122 0 -0.00018508456212522377 0.034668706577384877 0 -0.00012833957955602716 0.034674463360849998 0 -0.00018508456212522377 0.034668706577384877 0 -0.000226321310937009 0.034674175113538146 0 -0.00025810818829619949 0.034629100707612298 0 -0.00018508456212522377 0.034668706577384877 0 -0.00018868529479774122 0.034703570317611086 0 -0.000226321310937009 0.034674175113538146 0 -0.00012726239424032309 0.034605152977050593 0 -0.00022033926773889185 0.034459406014500045 0 -4.422328808737166e-05 0.03458949041564046 0 -0.00018508456212522377 0.034668706577384877 0 -0.00021328018520537181 0.034595774202064625 0 -0.00025810818829619949 0.034629100707612298 0 -0.00018508456212522377 0.034668706577384877 0 -0.00021328018520537181 0.034595774202064625 0 -0.00012833957955602716 0.034674463360849998 0 -0.00021328018520537181 0.034595774202064625 0 -0.00012833957955602716 0.034674463360849998 0 -0.00012726239424032309 0.034605152977050593 0 -0.00021328018520537181 0.034595774202064625 0 -0.00022033926773889185 0.034459406014500045 0 -0.00031132214435617783 0.034537606546992533 0 -0.00021328018520537181 0.034595774202064625 0 -0.00012726239424032309 0.034605152977050593 0 -0.00022033926773889185 0.034459406014500045 0 -0.00022033926773889185 0.034459406014500045 0 -4.422328808737166e-05 0.03458949041564046 0 4.9175487334058054e-06 0.034476769885631642 0 -0.00022033926773889185 0.034459406014500045 0 -0.00026686539520540668 0.034158142032101352 0 -0.00012022297284591854 0.03423472825498252 0 -0.00022033926773889185 0.034459406014500045 0 4.9175487334058054e-06 0.034476769885631642 0 -0.00012022297284591854 0.03423472825498252 0 -4.422328808737166e-05 0.03458949041564046 0 -3.3831048750273453e-05 0.034626304134281548 0 4.9175487334058054e-06 0.034476769885631642 0 -4.2084198506223434e-05 0.03469027591122633 0 -4.422328808737166e-05 0.03458949041564046 0 -3.3831048750273453e-05 0.034626304134281548 0 -3.3831048750273453e-05 0.034626304134281548 0 4.9175487334058054e-06 0.034476769885631642 0 -4.0266485717971977e-05 0.034601038649824861 0 1.4630518822389368e-05 0.034462961015056193 0 4.543650543400892e-05 0.034311748603418589 0 4.9175487334058054e-06 0.034476769885631642 0 -4.0266485717971977e-05 0.034601038649824861 0 -8.3607433821076573e-06 0.034640373878020089 0 4.9175487334058054e-06 0.034476769885631642 0 0.00011782862528178106 0.033982963250167725 0 -0.00012022297284591854 0.03423472825498252 0 -4.2876932516845976e-05 0.034640236008610895 0 -4.0266485717971977e-05 0.034601038649824861 0 -8.3607433821076573e-06 0.034640373878020089 0 -4.2876932516845976e-05 0.034640236008610895 0 -8.3607433821076573e-06 0.034640373878020089 0 -3.3008031037845322e-05 0.034642959881982197 0 0.00011782862528178106 0.033982963250167725 0 -0.00014036889766658785 0.033948838774719846 0 -4.9891579852560099e-05 0.033783830422976655 0 -0.00014036889766658785 0.033948838774719846 0 -0.00031686386043565493 0.033914502632304541 0 -0.00023793706362051589 0.033758452178923162 0 -0.00014036889766658785 0.033948838774719846 0 -0.00026686539520540668 0.034158142032101352 0 -0.00012022297284591854 0.03423472825498252 0 -0.00014036889766658785 0.033948838774719846 0 -0.00026686539520540668 0.034158142032101352 0 -0.00031686386043565493 0.033914502632304541 0 0.00011782862528178106 0.033982963250167725 0 -0.00014036889766658785 0.033948838774719846 0 -0.00012022297284591854 0.03423472825498252 0 -0.00051325437426715166 0.034070393312580528 0 -0.00039195390835437648 0.034059876225494438 0 -0.00046181569784871845 0.033864238066626577 0 -0.00026686539520540668 0.034158142032101352 0 -0.00039195390835437648 0.034059876225494438 0 -0.00031686386043565493 0.033914502632304541 0 -0.00031686386043565493 0.033914502632304541 0 -0.00046181569784871845 0.033864238066626577 0 -0.00038197107584755642 0.033711361115642276 0 -0.00039195390835437648 0.034059876225494438 0 -0.00031686386043565493 0.033914502632304541 0 -0.00046181569784871845 0.033864238066626577 0 -0.00046181569784871845 0.033864238066626577 0 -0.00064130356988122443 0.03382358831127346 0 -0.00052531593061211552 0.033591956486275956 0 -0.00078208564515063188 0.033313152978584573 0 -0.00074368891184084344 0.03340641331368005 0 -0.00064130356988122443 0.03382358831127346 0 -0.0009324837257062836 0.033831579618729693 0 -0.00072398337882187554 0.033429446469802976 0 -0.00064130356988122443 0.03382358831127346 0 -0.00076524249967156461 0.034085173154946663 0 -0.0009324837257062836 0.033831579618729693 0 -0.00050955131126510832 0.034050673867876448 0 -0.00073296864729395744 0.034186898867621766 0 -0.00051325437426715166 0.034070393312580528 0 -0.00046181569784871845 0.033864238066626577 0 -0.00064130356988122443 0.03382358831127346 0 -0.00051325437426715166 0.034070393312580528 0 -0.00064130356988122443 0.03382358831127346 0 -0.00076524249967156461 0.034085173154946663 0 -0.00051325437426715166 0.034070393312580528 0 -0.00065120418232689789 0.03410150774037194 0 -0.00056110723799142901 0.034242419167649356 0 -0.00065120418232689789 0.03410150774037194 0 -0.00068120294372254054 0.034193777762385941 0 -0.00056110723799142901 0.034242419167649356 0 -0.00068120294372254054 0.034193777762385941 0 -0.00056110723799142901 0.034242419167649356 0 -0.00063040390885840908 0.034266178724266412 0 -0.00068120294372254054 0.034193777762385941 0 -0.00063040390885840908 0.034266178724266412 0 -0.00069827465622888864 0.034236775349455406 0 -0.00056110723799142901 0.034242419167649356 0 -0.00040511347026513068 0.034238057961738351 0 -0.00042222130886095848 0.034389866929656288 0 -0.00051325437426715166 0.034070393312580528 0 -0.00039195390835437648 0.034059876225494438 0 -0.00040511347026513068 0.034238057961738351 0 -0.00051325437426715166 0.034070393312580528 0 -0.00056110723799142901 0.034242419167649356 0 -0.00040511347026513068 0.034238057961738351 0 -0.00022033926773889185 0.034459406014500045 0 -0.00026686539520540668 0.034158142032101352 0 -0.00040511347026513068 0.034238057961738351 0 -0.00026686539520540668 0.034158142032101352 0 -0.00039195390835437648 0.034059876225494438 0 -0.00040511347026513068 0.034238057961738351 0 -0.00022033926773889185 0.034459406014500045 0 -0.00040511347026513068 0.034238057961738351 0 -0.00042222130886095848 0.034389866929656288 0 -0.00025130753031269023 0.034475573288074185 0 -0.00030036829859434372 0.034381911698669686 0 -0.00030036829859434372 0.034381911698669686 0 -0.00064062047938748159 0.034958776480917664 0 -0.00031132214435617783 0.034537606546992533 0 -0.00032658348639837511 0.034606869743233605 0 -0.00036627818489649671 0.034548563741788996 0 -0.00021328018520537181 0.034595774202064625 0 -0.00031132214435617783 0.034537606546992533 0 -0.00025810818829619949 0.034629100707612298 0 -0.00031132214435617783 0.034537606546992533 0 -0.00025810818829619949 0.034629100707612298 0 -0.00032658348639837511 0.034606869743233605 0 -0.00025810818829619949 0.034629100707612298 0 -0.00032658348639837511 0.034606869743233605 0 -0.00026901508275441926 0.03466810010772764 0 -0.000226321310937009 0.034674175113538146 0 -0.00025810818829619949 0.034629100707612298 0 -0.00026901508275441926 0.03466810010772764 0 -0.00032658348639837511 0.034606869743233605 0 -0.00030759020417213867 0.034665899342818579 0 -0.00026901508275441926 0.03466810010772764 0 -0.00031217535098916518 0.034682883141789619 0 -0.00030759020417213867 0.034665899342818579 0 -0.0002857430082800472 0.034685238313357437 0 -0.00027696480380908731 0.034707758444408376 0 -0.0002857430082800472 0.034685238313357437 0 -0.00025691272457260968 0.034698088543765666 0 -0.0002857430082800472 0.034685238313357437 0 -0.00025691272457260968 0.034698088543765666 0 -0.00026901508275441926 0.03466810010772764 0 -0.00022280906244233798 0.034702789928343636 0 -0.00025691272457260968 0.034698088543765666 0 -0.00026901508275441926 0.03466810010772764 0 -0.00030759020417213867 0.034665899342818579 0 -0.0002857430082800472 0.034685238313357437 0 -0.00026901508275441926 0.03466810010772764 0 -0.00028646922544050754 0.034688492469754716 0 -0.00030759020417213867 0.034665899342818579 0 -0.00037874948602489866 0.034617619708977851 0 -0.00032658348639837511 0.034606869743233605 0 -0.00030759020417213867 0.034665899342818579 0 -0.00037874948602489866 0.034617619708977851 0 4.7794973052789707e-05 0.030801612198465736 0 -4.3111312920246077e-06 0.030605228217433729 0 -0.00032658348639837511 0.034606869743233605 0 -0.00037874948602489866 0.034617619708977851 0 -0.00037774139210749297 0.034575512508276139 0 -4.3111312920246077e-06 0.030605228217433729 0 -0.00037250222954500565 0.030922892572752742 0 -0.00037874948602489866 0.034617619708977851 0 -0.00037774139210749297 0.034575512508276139 0 -0.00042968760697426712 0.034534582855335089 0 0.00026850803046770094 0.026655712141887992 0 0.00037824650583906177 0.027022338190982171 0 0.00041635932868189452 0.026494273165922712 0 -0.0005748920141927169 0.034361489443030829 0 -0.00066051746393509575 0.034303199544442144 0 -0.00069169757395499216 0.034358565164715076 0 -0.00037774139210749297 0.034575512508276139 0 -0.00036627818489649671 0.034548563741788996 0 -0.00042968760697426712 0.034534582855335089 0 -0.00064062047938748159 0.034958776480917664 0 -0.00037250222954500565 0.030922892572752742 0 -0.00032658348639837511 0.034606869743233605 0 -0.00037774139210749297 0.034575512508276139 0 -0.00036627818489649671 0.034548563741788996 0 -0.00056110723799142901 0.034242419167649356 0 -0.0005748920141927169 0.034361489443030829 0 -0.00063040390885840908 0.034266178724266412 0 -0.00056110723799142901 0.034242419167649356 0 -0.00042222130886095848 0.034389866929656288 0 -0.0005748920141927169 0.034361489443030829 0 -0.0005748920141927169 0.034361489443030829 0 -0.00066051746393509575 0.034303199544442144 0 -0.00063040390885840908 0.034266178724266412 0 -0.00066051746393509575 0.034303199544442144 0 -0.00063040390885840908 0.034266178724266412 0 -0.00069827465622888864 0.034236775349455406 0 -0.00069827465622888864 0.034236775349455406 0 -0.00075179686319786073 0.034214334434102059 0 -0.00070817476011210433 0.034282407096330673 0 -0.00066051746393509575 0.034303199544442144 0 -0.00069827465622888864 0.034236775349455406 0 -0.00070817476011210433 0.034282407096330673 0 -0.00075179686319786073 0.034214334434102059 0 -0.00075955471114023585 0.034304141931175633 0 -0.00070817476011210433 0.034282407096330673 0 0.0005196709105062307 0.028077688214280031 0 0.001527570422137159 0.027598609727241125 0 0.00067765118283109199 0.029513717670903581 0 -0.00014357613243820837 0.028489145380976678 0 0.0005196709105062307 0.028077688214280031 0 0.00067765118283109199 0.029513717670903581 0 -0.00075179686319786073 0.034214334434102059 0 -0.00075955471114023585 0.034304141931175633 0 -0.00096708294207885977 0.034062737805926675 0 -0.00031934503057292723 0.031632759930137769 0 -1.1217533876550711e-05 0.029315407287774507 0 -0.00014357613243820837 0.028489145380976678 0 0.0005196709105062307 0.028077688214280031 0 0.00017291307514261198 0.02762322431904448 0 0.0005196709105062307 0.028077688214280031 0 0.00017291307514261198 0.02762322431904448 0 0.0008258900480652649 0.027350891631783083 0 0.0005196709105062307 0.028077688214280031 0 0.0008258900480652649 0.027350891631783083 0 0.001527570422137159 0.027598609727241125 0 0.0008258900480652649 0.027350891631783083 0 0.00063281509551703038 0.026714306607667781 0 0.0015279349377814435 0.027590977977239792 0 0.00017291307514261198 0.02762322431904448 0 0.0008258900480652649 0.027350891631783083 0 0.00063281509551703038 0.026714306607667781 0 0.00017291307514261198 0.02762322431904448 0 -0.00096607429448631785 0.027478498666458483 0 0.00063281509551703038 0.026714306607667781 0 -0.00066051746393509575 0.034303199544442144 0 -0.00070817476011210433 0.034282407096330673 0 -0.00069169757395499216 0.034358565164715076 0 -0.00014357613243820837 0.028489145380976678 0 0.00017291307514261198 0.02762322431904448 0 -0.00096607429448631785 0.027478498666458483 0 -0.00075955471114023585 0.034304141931175633 0 -0.00070817476011210433 0.034282407096330673 0 -0.00069169757395499216 0.034358565164715076 0 -0.00031934503057292723 0.031632759930137769 0 -0.00037250222954500565 0.030922892572752742 0 0.00037824650583906177 0.027022338190982171 0 0.00080589076056201156 0.026920745908002339 0 0.00041635932868189452 0.026494273165922712 0 -0.00037250222954500565 0.030922892572752742 0 0.00090359114970803083 0.026537867063969739 0 0.00095718169591890473 0.026054069165434672 0 0.00041635932868189452 0.026494273165922712 0 0.0011431473119354633 0.026438374662034372 0 0.00080589076056201156 0.026920745908002339 0 0.00041635932868189452 0.026494273165922712 0 0.0011431473119354633 0.026438374662034372 0 0.0017254959952834985 0.020980145206720029 0 0.001919245896043716 0.01831012657536444 0 0.0013153864280333184 0.021626199484753833 0 0.0012233102774858418 0.021825568580096173 0 0.0014002765695087661 0.021947542720881615 0 0.0013153864280333184 0.021626199484753833 0 0.0012233102774858418 0.021825568580096173 0 0.0012011221861034965 0.021836798910346292 0 0.0015985375926039691 0.024653884116559655 0 0.0015371684113955621 0.024776944981236344 0 0.0017254959952834985 0.020980145206720029 0 0.0015371684113955621 0.024776944981236344 0 0.0015494947498631672 0.026125319923422877 0 0.0019204409038488428 0.026096073949252917 0 0.0015989928033656579 0.026656533694508825 0 0.0015494947498631672 0.026125319923422877 0 0.0015989928033656579 0.026656533694508825 0 0.0011431473119354633 0.026438374662034372 0 0.00080589076056201156 0.026920745908002339 0 0.0015989928033656579 0.026656533694508825 0 0.0011431473119354633 0.026438374662034372 0 0.00090359114970803083 0.026537867063969739 0 0.0015371684113955621 0.024776944981236344 0 0.0015371684113955621 0.024776944981236344 0 0.00089317817089135511 0.025097317213458578 0 0.001200650631763542 0.021837520773389605 0 0.0012669301760457037 0.021950577389034408 0 0.0010688738835502917 0.022145381786866182 0 0.00063281509551703038 0.026714306607667781 0 0.0022427604546552135 0.025961756052199979 0 0.0015279349377814435 0.027590977977239792 0 0.0012669301760457037 0.021950577389034408 0 0.0012838519051970032 0.022198158303227487 0 0.0014002765695087661 0.021947542720881615 0 0.0012233102774858418 0.021825568580096173 0 0.001200650631763542 0.021837520773389605 0 0.0012669301760457037 0.021950577389034408 0 0.0012233102774858418 0.021825568580096173 0 0.0012669301760457037 0.021950577389034408 0 0.0014002765695087661 0.021947542720881615 0 0.0012838519051970032 0.022198158303227487 0 0.0014002765695087661 0.021947542720881615 0 0.0014895370350702401 0.022252333994148246 0 0.0012669301760457037 0.021950577389034408 0 0.0012838519051970032 0.022198158303227487 0 0.0010688738835502917 0.022145381786866182 0 0.0012550518970254275 0.023669610183224544 0 0.0019407586207593475 0.020616245755185173 0 0.0011719268949481475 0.025122594076800162 0 0.00014511985984296677 0.024762453076088743 0 0.000482876006238074 0.025771086893358174 0 0.0012550518970254275 0.023669610183224544 0 0.00089317817089135511 0.025097317213458578 0 0.0014289751312052828 0.026726859976769372 0 0.00089317817089135511 0.025097317213458578 0 0.00014511985984296677 0.024762453076088743 0 0.000482876006238074 0.025771086893358174 0 -0.0006129840179109709 0.026471894468654139 0 0.000482876006238074 0.025771086893358174 0 0.00014994642127248546 0.026631329099132503 0 -0.0006129840179109709 0.026471894468654139 0 0.00089317817089135511 0.025097317213458578 0 -1.1217533876550711e-05 0.029315407287774507 0 0.000482876006238074 0.025771086893358174 0 0.00070216793823821137 0.02630217754559867 0 0.00014994642127248546 0.026631329099132503 0 0.0011719268949481475 0.025122594076800162 0 0.0013485940552569521 0.026074514789657485 0 0.0021946268184912547 0.025466447696307227 0 0.0011719268949481475 0.025122594076800162 0 0.000482876006238074 0.025771086893358174 0 0.0013485940552569521 0.026074514789657485 0 0.000482876006238074 0.025771086893358174 0 0.00070216793823821137 0.02630217754559867 0 0.0013485940552569521 0.026074514789657485 0 0.0013485940552569521 0.026074514789657485 0 0.00076957116158791528 0.026978884268418671 0 0.0017043572478668524 0.026968527779400835 0 0.00070216793823821137 0.02630217754559867 0 0.0013485940552569521 0.026074514789657485 0 0.00076957116158791528 0.026978884268418671 0 0.00076957116158791528 0.026978884268418671 0 0.00097076986625613108 0.027688469206956189 0 0.0017043572478668524 0.026968527779400835 0 0.00049703435379042668 0.025962995084762502 0 0.0010128714583224373 0.025263144533806511 0 -4.7047267799348871e-05 0.024295701424385287 0 -2.95278863449852e-05 0.02464827539448728 0 -0.00042482566598257018 0.024693978340804671 0 -4.7047267799348871e-05 0.024295701424385287 0 -2.95278863449852e-05 0.02464827539448728 0 0.0004346113325929959 0.024501872380919103 0 0.00049703435379042668 0.025962995084762502 0 -0.00017247298010534447 0.029679614635151987 0 0.00097076986625613108 0.027688469206956189 0 -2.6527785750097774e-05 0.027826914355110276 0 0.00015322201533884053 0.027409359803078275 0 0.00084247242571883132 0.027864571688334033 0 -0.00042762927187609093 0.028100948169705063 0 3.276104939015198e-06 0.028704562647546873 0 -0.00017247298010534447 0.029679614635151987 0 0.00010776847626899058 0.029354930879222675 0 -0.00016126959419661324 0.032337367803007444 0 -0.00010783519373320483 0.032190847595013006 0 1.2069896015998626e-05 0.03235407887408543 0 0.00049703435379042668 0.025962995084762502 0 0.00010776847626899058 0.029354930879222675 0 -2.6527785750097774e-05 0.027826914355110276 0 0.00015322201533884053 0.027409359803078275 0 -0.00051113066025410437 0.027098566450103011 0 -0.00039223018359062738 0.026641494734963061 0 -1.1217533876550711e-05 0.029315407287774507 0 0.00076957116158791528 0.026978884268418671 0 0.00097076986625613108 0.027688469206956189 0 0.00015322201533884053 0.027409359803078275 0 0.00076957116158791528 0.026978884268418671 0 0.00015322201533884053 0.027409359803078275 0 0.00014994642127248546 0.026631329099132503 0 0.00070216793823821137 0.02630217754559867 0 0.00076957116158791528 0.026978884268418671 0 0.00014994642127248546 0.026631329099132503 0 0.00015322201533884053 0.027409359803078275 0 0.00014994642127248546 0.026631329099132503 0 -0.0006129840179109709 0.026471894468654139 0 -0.00077311916906219161 0.03418037091966563 0 -0.00073338912488287269 0.034191942812120665 0 -0.00075198092731578771 0.034113789206760274 0 -0.00017247298010534447 0.029679614635151987 0 -0.00083834585389628495 0.03141278370225481 0 -1.1217533876550711e-05 0.029315407287774507 0 -0.00083834585389628495 0.03141278370225481 0 -0.00032239927841520058 0.034714987217429924 0 -0.00083834585389628495 0.03141278370225481 0 -0.00075179686319786073 0.034214334434102059 0 -0.00096708294207885977 0.034062737805926675 0 -0.00091041548104044492 0.033924223938347563 0 0.00015322201533884053 0.027409359803078275 0 -0.00038067240222344062 0.02681657485312279 0 -0.00051113066025410437 0.027098566450103011 0 -0.00068120294372254054 0.034193777762385941 0 -0.00073338912488287269 0.034191942812120665 0 -0.00075198092731578771 0.034113789206760274 0 -0.00068120294372254054 0.034193777762385941 0 -0.00069827465622888864 0.034236775349455406 0 -0.00073338912488287269 0.034191942812120665 0 -0.00075179686319786073 0.034214334434102059 0 -0.00077311916906219161 0.03418037091966563 0 -0.00073338912488287269 0.034191942812120665 0 -0.00069827465622888864 0.034236775349455406 0 -0.00075179686319786073 0.034214334434102059 0 -0.00073338912488287269 0.034191942812120665 0 -0.00065120418232689789 0.03410150774037194 0 -0.00068120294372254054 0.034193777762385941 0 -0.00075198092731578771 0.034113789206760274 0 -0.00073296864729395744 0.034186898867621766 0 -0.00086561756286399527 0.033183421821929529 0 -0.00037612716475573989 0.031547179362200098 0 -0.00067000946317255939 0.031142331822016762 0 -0.00089341584370764297 0.031649564287717584 0 -0.00016126959419661324 0.032337367803007444 0 -0.00010783519373320483 0.032190847595013006 0 -0.00050468675703655992 0.032289026776731358 0 -0.00016126959419661324 0.032337367803007444 0 -0.00050468675703655992 0.032289026776731358 0 -0.00026516080375637972 0.032440596407295186 0 -0.00083834585389628495 0.03141278370225481 0 -0.00086561756286399527 0.033183421821929529 0 -0.00017247298010534447 0.029679614635151987 0 -0.00086561756286399527 0.033183421821929529 0 -0.00050468675703655992 0.032289026776731358 0 -0.00034427168057181754 0.03271981034187494 0 -0.00044241469402581107 0.032730316569060496 0 -0.00050468675703655992 0.032289026776731358 0 -0.00026516080375637972 0.032440596407295186 0 -0.00034427168057181754 0.03271981034187494 0 -0.00026516080375637972 0.032440596407295186 0 -0.00034427168057181754 0.03271981034187494 0 1.2069896015998626e-05 0.03235407887408543 0 -0.00025715083841178655 0.032657636690843053 0 -0.00034427168057181754 0.03271981034187494 0 0.00046635265389844495 0.031792490429489867 0 -0.00050468675703655992 0.032289026776731358 0 -0.00067976150986223519 0.032793688184883839 0 -0.00044241469402581107 0.032730316569060496 0 -0.00086561756286399527 0.033183421821929529 0 -0.00078208564515063188 0.033313152978584573 0 -0.00076524249967156461 0.034085173154946663 0 -0.001057541595312796 0.034122729193683816 0 -0.0009324837257062836 0.033831579618729693 0 -0.00067976150986223519 0.032793688184883839 0 -0.00044327212897617494 0.032924290456424025 0 -0.00048617045198160597 0.033178789087016824 0 -0.00067976150986223519 0.032793688184883839 0 -0.00044241469402581107 0.032730316569060496 0 -0.00044327212897617494 0.032924290456424025 0 -0.00019435373951293179 0.032689486846335526 0 -0.00025715083841178655 0.032657636690843053 0 -0.0001204719658215015 0.032678418768535444 0 -0.00025747273175688145 0.032768275633981818 0 -0.00033423307711643414 0.032866019582582319 0 -0.00024615170872268873 0.0328523183894937 0 -0.00025747273175688145 0.032768275633981818 0 -0.00028101799370596099 0.032726188292908742 0 -0.00033811414864844634 0.032770603344722204 0 -0.00025747273175688145 0.032768275633981818 0 -0.00016550754859289779 0.032773544333082279 0 -0.00024615170872268873 0.0328523183894937 0 -0.00025747273175688145 0.032768275633981818 0 -0.00016550754859289779 0.032773544333082279 0 -0.00019435373951293179 0.032689486846335526 0 -0.00016550754859289779 0.032773544333082279 0 -0.00019435373951293179 0.032689486846335526 0 -0.0001204719658215015 0.032678418768535444 0 -0.00025747273175688145 0.032768275633981818 0 -0.00019435373951293179 0.032689486846335526 0 -0.00028101799370596099 0.032726188292908742 0 -0.00019435373951293179 0.032689486846335526 0 -0.00028101799370596099 0.032726188292908742 0 -0.00025715083841178655 0.032657636690843053 0 -0.00028101799370596099 0.032726188292908742 0 -0.00025715083841178655 0.032657636690843053 0 -0.00034427168057181754 0.03271981034187494 0 -0.00034427168057181754 0.03271981034187494 0 -0.00044241469402581107 0.032730316569060496 0 -0.00033811414864844634 0.032770603344722204 0 -0.00044241469402581107 0.032730316569060496 0 -0.00033423307711643414 0.032866019582582319 0 -0.00044327212897617494 0.032924290456424025 0 -0.00028101799370596099 0.032726188292908742 0 -0.00034427168057181754 0.03271981034187494 0 -0.00033811414864844634 0.032770603344722204 0 -0.00025747273175688145 0.032768275633981818 0 -0.00033811414864844634 0.032770603344722204 0 -0.00033423307711643414 0.032866019582582319 0 -0.00044241469402581107 0.032730316569060496 0 -0.00033811414864844634 0.032770603344722204 0 -0.00033423307711643414 0.032866019582582319 0 -0.00033423307711643414 0.032866019582582319 0 -0.00044327212897617494 0.032924290456424025 0 -0.00030026039351204126 0.032983933867518848 0 -0.00030026039351204126 0.032983933867518848 0 -0.00024615170872268873 0.0328523183894937 0 -0.00017315121373793216 0.032887188398757518 0 -0.00033423307711643414 0.032866019582582319 0 -0.00030026039351204126 0.032983933867518848 0 -0.00024615170872268873 0.0328523183894937 0 -0.00016550754859289779 0.032773544333082279 0 -0.00024615170872268873 0.0328523183894937 0 -0.00017315121373793216 0.032887188398757518 0 -0.00030026039351204126 0.032983933867518848 0 -0.00017315121373793216 0.032887188398757518 0 -0.00016333962024203056 0.032979391692100658 0 -0.00017315121373793216 0.032887188398757518 0 -7.4863788317963199e-05 0.032910190396172052 0 -0.00016333962024203056 0.032979391692100658 0 -7.4863788317963199e-05 0.032910190396172052 0 -0.0001025135532127261 0.032826202031480609 0 -3.0809181411456008e-06 0.03279156777927858 0 -0.00016550754859289779 0.032773544333082279 0 -0.00017315121373793216 0.032887188398757518 0 -0.0001025135532127261 0.032826202031480609 0 -0.00017315121373793216 0.032887188398757518 0 -7.4863788317963199e-05 0.032910190396172052 0 -0.0001025135532127261 0.032826202031480609 0 -0.00016550754859289779 0.032773544333082279 0 -0.0001025135532127261 0.032826202031480609 0 -8.4518216729857727e-05 0.032746883622841297 0 -0.00016550754859289779 0.032773544333082279 0 -8.4518216729857727e-05 0.032746883622841297 0 -0.0001204719658215015 0.032678418768535444 0 -0.0001025135532127261 0.032826202031480609 0 -8.4518216729857727e-05 0.032746883622841297 0 -3.0809181411456008e-06 0.03279156777927858 0 -8.4518216729857727e-05 0.032746883622841297 0 -1.1701155694711111e-06 0.032682498567226818 0 -3.0809181411456008e-06 0.03279156777927858 0 -8.4518216729857727e-05 0.032746883622841297 0 -0.0001204719658215015 0.032678418768535444 0 -1.1701155694711111e-06 0.032682498567226818 0 6.1281574702820298e-05 0.032692532357953115 0 0.00011935962121171554 0.032750484936456929 0 0.00012527810249542519 0.032553204319485225 0 6.1281574702820298e-05 0.032692532357953115 0 -1.1701155694711111e-06 0.032682498567226818 0 0.00012527810249542519 0.032553204319485225 0 6.1281574702820298e-05 0.032692532357953115 0 -1.1701155694711111e-06 0.032682498567226818 0 -3.0809181411456008e-06 0.03279156777927858 0 6.1281574702820298e-05 0.032692532357953115 0 -3.0809181411456008e-06 0.03279156777927858 0 0.00011935962121171554 0.032750484936456929 0 -3.0809181411456008e-06 0.03279156777927858 0 0.00011935962121171554 0.032750484936456929 0 4.9938415622303645e-05 0.032938386888214495 0 -7.4863788317963199e-05 0.032910190396172052 0 -3.0809181411456008e-06 0.03279156777927858 0 4.9938415622303645e-05 0.032938386888214495 0 0.00035032984993336097 0.032829792071196524 0 0.00011935962121171554 0.032750484936456929 0 0.00012527810249542519 0.032553204319485225 0 -0.0015174627834176947 0.026838521875333903 0 0.00037052412542564329 0.030079853961107253 0 0.00035032984993336097 0.032829792071196524 0 0.00011935962121171554 0.032750484936456929 0 4.9938415622303645e-05 0.032938386888214495 0 -0.00068639044928046347 0.026179158969894298 0 -0.00036457259134942854 0.026633018955619505 0 -0.00066832515507778449 0.026687851019504022 0 0.00029787732243403471 0.027802196911255187 0 -0.00018625762702832835 0.027904020899994417 0 0.00049380892484517938 0.028080636406586295 0 0.00037052412542564329 0.030079853961107253 0 -0.0001865529573822721 0.025924169626738446 0 -2.95278863449852e-05 0.02464827539448728 0 0.00021639295609610781 0.024925389468157668 0 -0.0003287491734611997 0.024823651661099636 0 -0.0001865529573822721 0.025924169626738446 0 4.1826830412307537e-05 0.028835121806820317 0 -2.95278863449852e-05 0.02464827539448728 0 0.00021639295609610781 0.024925389468157668 0 0.0004346113325929959 0.024501872380919103 0 -0.00025715083841178655 0.032657636690843053 0 0.00046635265389844495 0.031792490429489867 0 0.00048727395688320904 0.031968158026449825 0 -2.95278863449852e-05 0.02464827539448728 0 -0.0003287491734611997 0.024823651661099636 0 -0.00042482566598257018 0.024693978340804671 0 -0.00056199543139140776 0.033476591627467113 0 0.00010776847626899058 0.029354930879222675 0 -0.00025715083841178655 0.032657636690843053 0 -0.0001204719658215015 0.032678418768535444 0 0.00012527810249542519 0.032553204319485225 0 -0.00025715083841178655 0.032657636690843053 0 0.00083914688174964501 0.032313805951986858 0 0.00048727395688320904 0.031968158026449825 0 -0.00029022311422398611 0.033083165217433604 0 0.00037052412542564329 0.030079853961107253 0 0.00083914688174964501 0.032313805951986858 0 0.00060883621649930402 0.031995031608683354 0 0.00048727395688320904 0.031968158026449825 0 0.00037052412542564329 0.030079853961107253 0 4.1826830412307537e-05 0.028835121806820317 0 4.1826830412307537e-05 0.028835121806820317 0 0.00026315638331915616 0.029081000319626894 0 4.1826830412307537e-05 0.028835121806820317 0 0.00010776847626899058 0.029354930879222675 0 0.00061668212605853288 0.031994844691536545 0 0.00046635265389844495 0.031792490429489867 0 0.00048727395688320904 0.031968158026449825 0 -0.00016126959419661324 0.032337367803007444 0 -0.00026516080375637972 0.032440596407295186 0 1.2069896015998626e-05 0.03235407887408543 0 -0.0001204719658215015 0.032678418768535444 0 -1.1701155694711111e-06 0.032682498567226818 0 0.00012527810249542519 0.032553204319485225 0 -0.0018309313860123118 0.022387371846541455 0 -0.0021115040586351928 0.022475819085665989 0 -0.0018093334900873761 0.02243383216361404 0 -0.0018309313860123118 0.022387371846541455 0 -0.0019310895111901674 0.022564387675440476 0 -0.0018093334900873761 0.02243383216361404 0 -0.0018309313860123118 0.022387371846541455 0 -0.0019310895111901674 0.022564387675440476 0 -0.0018488594976536713 0.022583086419005888 0 -0.0020160414632860268 0.022108366160255504 0 -0.0015599626552167014 0.02273876771423558 0 -0.0018309313860123118 0.022387371846541455 0 -0.0022150456739356309 0.022188220690035506 0 -0.0022189996488844975 0.021535237225326121 0 -0.0022150456739356309 0.022188220690035506 0 -0.0022189996488844975 0.021535237225326121 0 -0.0026944100586758619 0.02204933410068538 0 -0.0022150456739356309 0.022188220690035506 0 -0.0024087893612717032 0.022429630979914208 0 -0.0026944100586758619 0.02204933410068538 0 -0.0022150456739356309 0.022188220690035506 0 -0.0021115040586351928 0.022475819085665989 0 -0.0024087893612717032 0.022429630979914208 0 -0.0018309313860123118 0.022387371846541455 0 -0.0022150456739356309 0.022188220690035506 0 -0.0021115040586351928 0.022475819085665989 0 0.00035032984993336097 0.032829792071196524 0 4.9938415622303645e-05 0.032938386888214495 0 -7.1258919387853732e-05 0.033229196724833453 0 -0.0015174627834176947 0.026838521875333903 0 -0.00091171478748441231 0.028009003376875126 0 -0.0023719682675171767 0.023058982763288643 0 -0.0021115040586351928 0.022475819085665989 0 -0.0024087893612717032 0.022429630979914208 0 -0.0023719682675171767 0.023058982763288643 0 -0.0021115040586351928 0.022475819085665989 0 -0.0018093334900873761 0.02243383216361404 0 -7.1258919387853732e-05 0.033229196724833453 0 -9.0270397047759676e-05 0.033029069362256275 0 -0.00019960282362837292 0.033083178214747169 0 4.9938415622303645e-05 0.032938386888214495 0 -7.1258919387853732e-05 0.033229196724833453 0 -9.0270397047759676e-05 0.033029069362256275 0 -7.4863788317963199e-05 0.032910190396172052 0 4.9938415622303645e-05 0.032938386888214495 0 -9.0270397047759676e-05 0.033029069362256275 0 -7.4863788317963199e-05 0.032910190396172052 0 -9.0270397047759676e-05 0.033029069362256275 0 -0.00016333962024203056 0.032979391692100658 0 -9.0270397047759676e-05 0.033029069362256275 0 -0.00016333962024203056 0.032979391692100658 0 -0.00019960282362837292 0.033083178214747169 0 -0.00030026039351204126 0.032983933867518848 0 -0.00019960282362837292 0.033083178214747169 0 -0.00029518497839766457 0.03318385151143035 0 -7.1258919387853732e-05 0.033229196724833453 0 -0.00029518497839766457 0.03318385151143035 0 -0.00040104894100372604 0.033302581387576038 0 -0.00030026039351204126 0.032983933867518848 0 -0.00016333962024203056 0.032979391692100658 0 -0.00019960282362837292 0.033083178214747169 0 -0.00044327212897617494 0.032924290456424025 0 -0.00030026039351204126 0.032983933867518848 0 -0.00048617045198160597 0.033178789087016824 0 -0.00030026039351204126 0.032983933867518848 0 -0.00029518497839766457 0.03318385151143035 0 -0.00048617045198160597 0.033178789087016824 0 -0.00029518497839766457 0.03318385151143035 0 -0.00048617045198160597 0.033178789087016824 0 -0.00040104894100372604 0.033302581387576038 0 -7.1258919387853732e-05 0.033229196724833453 0 -0.00019960282362837292 0.033083178214747169 0 -0.00029518497839766457 0.03318385151143035 0 -0.00067976150986223519 0.032793688184883839 0 -0.00048617045198160597 0.033178789087016824 0 -0.00072398337882187554 0.033429446469802976 0 -0.00048617045198160597 0.033178789087016824 0 -0.00056874226990171872 0.033383219054132454 0 -0.00072398337882187554 0.033429446469802976 0 -0.00048617045198160597 0.033178789087016824 0 -0.00056874226990171872 0.033383219054132454 0 -0.00040104894100372604 0.033302581387576038 0 -0.00056874226990171872 0.033383219054132454 0 -0.00050068334625783656 0.033456065211112107 0 -0.00059840463057163644 0.033433245337838223 0 -0.00056874226990171872 0.033383219054132454 0 -0.00040104894100372604 0.033302581387576038 0 -0.00050068334625783656 0.033456065211112107 0 -0.0019310895111901674 0.022564387675440476 0 -0.0018093334900873761 0.02243383216361404 0 -0.0021405464941072062 0.022651989436311006 0 -0.00091171478748441231 0.028009003376875126 0 -0.0013011105597885587 0.028024772944683498 0 -7.1258919387853732e-05 0.033229196724833453 0 -0.00040104894100372604 0.033302581387576038 0 -0.00050068334625783656 0.033456065211112107 0 -0.0019310895111901674 0.022564387675440476 0 -0.0020102160269878122 0.022714680090795296 0 -0.0019149823493318011 0.022714853642816821 0 -0.0019310895111901674 0.022564387675440476 0 -0.0020102160269878122 0.022714680090795296 0 -0.0021405464941072062 0.022651989436311006 0 -0.0020102160269878122 0.022714680090795296 0 -0.0021405464941072062 0.022651989436311006 0 -0.0020794558697730422 0.022829717975418776 0 -0.0020102160269878122 0.022714680090795296 0 -0.0019743647476048562 0.022825881353896491 0 -0.0019149823493318011 0.022714853642816821 0 -0.0020102160269878122 0.022714680090795296 0 -0.0020794558697730422 0.022829717975418776 0 -0.0019743647476048562 0.022825881353896491 0 -0.0013011105597885587 0.028024772944683498 0 -0.0014336207755667539 0.028257329083263345 0 -0.0021405464941072062 0.022651989436311006 0 -0.0022182151730228698 0.022907839104289719 0 -0.0023207141461616615 0.023134791835162569 0 -0.00050068334625783656 0.033456065211112107 0 -0.00058302063290421348 0.033388680210522319 0 -0.00059840463057163644 0.033433245337838223 0 -0.0021405464941072062 0.022651989436311006 0 -0.0020794558697730422 0.022829717975418776 0 -0.0022182151730228698 0.022907839104289719 0 -0.0022182151730228698 0.022907839104289719 0 -0.0022609245676860038 0.023052122912647584 0 -0.0020942102453639692 0.023121807733926893 0 -0.0022609245676860038 0.023052122912647584 0 -0.0022419217994063823 0.023122050716458464 0 -0.0020942102453639692 0.023121807733926893 0 -0.0022182151730228698 0.022907839104289719 0 -0.0022609245676860038 0.023052122912647584 0 -0.0023207141461616615 0.023134791835162569 0 -0.0020794558697730422 0.022829717975418776 0 -0.0022182151730228698 0.022907839104289719 0 -0.0020605068693838173 0.022924609986474408 0 -0.0021285067581113945 0.023137752493484067 0 -0.0017964095291094443 0.021912758881602233 0 -0.0022419217994063823 0.023122050716458464 0 -0.0022687371941235608 0.023125972392974994 0 -0.0022629819977419709 0.023116074782498906 0 -0.002322834012855172 0.022805179205605649 0 -0.0017964095291094443 0.021912758881602233 0 -0.0022419217994063823 0.023122050716458464 0 -0.0022908277982555143 0.023131173034804924 0 -0.0023079916618168909 0.023141687948827216 0 -0.0022609245676860038 0.023052122912647584 0 -0.0022419217994063823 0.023122050716458464 0 -0.0022908277982555143 0.023131173034804924 0 -0.0020794558697730422 0.022829717975418776 0 -0.0019743647476048562 0.022825881353896491 0 -0.0020605068693838173 0.022924609986474408 0 -0.0019743647476048562 0.022825881353896491 0 -0.0017852140923470801 0.022870264225913504 0 -0.0019149823493318011 0.022714853642816821 0 -0.0017964095291094443 0.021912758881602233 0 -0.0019779695620437557 0.021569711895328067 0 -0.0019743647476048562 0.022825881353896491 0 -0.0020605068693838173 0.022924609986474408 0 -0.0017852140923470801 0.022870264225913504 0 -0.0017852140923470801 0.022870264225913504 0 -0.0019149823493318011 0.022714853642816821 0 -0.0016687293443088515 0.022679807107477405 0 -0.0018309313860123118 0.022387371846541455 0 -0.0018488594976536713 0.022583086419005888 0 -0.0016687293443088515 0.022679807107477405 0 -0.0019149823493318011 0.022714853642816821 0 -0.0018488594976536713 0.022583086419005888 0 -0.0016687293443088515 0.022679807107477405 0 -0.0019310895111901674 0.022564387675440476 0 -0.0019149823493318011 0.022714853642816821 0 -0.0018488594976536713 0.022583086419005888 0 -0.0015599626552167014 0.02273876771423558 0 -0.0033138250840661489 0.018217471995399852 0 -0.0019779695620437557 0.021569711895328067 0 -0.0033138250840661489 0.018217471995399852 0 -0.0017852140923470801 0.022870264225913504 0 -0.0016687293443088515 0.022679807107477405 0 -0.0015719168726120564 0.022799164143356289 0 -0.0024780397374930458 0.019776895810834142 0 -0.0032084957464014597 0.018417991250081225 0 -0.0038863971594203833 0.019795809205189349 0 -0.0028929302236385293 0.021762612687578217 0 -0.003557696727458906 0.020132236536968398 0 -0.0010809918503090069 0.019754192101679346 0 -0.0024780397374930458 0.019776895810834142 0 -0.002020621562954981 0.018757830462198095 0 -0.0024780397374930458 0.019776895810834142 0 -0.002020621562954981 0.018757830462198095 0 -0.0032084957464014597 0.018417991250081225 0 -0.0030621569103068337 0.02306744725117978 0 -0.0031187025449406791 0.02277079413684973 0 -0.0029009951845306984 0.022895350239824943 0 -0.0028929302236385293 0.021762612687578217 0 -0.0036206379833555809 0.0224975624765619 0 -0.0030621569103068337 0.02306744725117978 0 -0.0031187025449406791 0.02277079413684973 0 -0.0034142895688606266 0.02271753069197846 0 -0.0031187025449406791 0.02277079413684973 0 -0.0034142895688606266 0.02271753069197846 0 -0.0032072478714233305 0.022506855584999375 0 -0.0031187025449406791 0.02277079413684973 0 -0.0029839710881037337 0.022670886876778887 0 -0.0029009951845306984 0.022895350239824943 0 -0.003831655263950946 0.022076195687890671 0 -0.0037765955757325916 0.02209799459868874 0 -0.0038015454094873849 0.022136220332515673 0 -0.0037765955757325916 0.02209799459868874 0 -0.0038015454094873849 0.022136220332515673 0 -0.0037455443809147008 0.022144076801657055 0 -0.0034142895688606266 0.02271753069197846 0 -0.0034195957430570635 0.022357651311611017 0 -0.0037197377047542201 0.022244574608776008 0 -0.0038015454094873849 0.022136220332515673 0 -0.0037455443809147008 0.022144076801657055 0 -0.0037197377047542201 0.022244574608776008 0 -0.0036206379833555809 0.0224975624765619 0 -0.003715610890414551 0.022253568851103151 0 -0.0034142895688606266 0.02271753069197846 0 -0.0034195957430570635 0.022357651311611017 0 -0.0032072478714233305 0.022506855584999375 0 -0.0031187025449406791 0.02277079413684973 0 -0.0032072478714233305 0.022506855584999375 0 -0.0029839710881037337 0.022670886876778887 0 -0.0032072478714233305 0.022506855584999375 0 -0.0029839710881037337 0.022670886876778887 0 -0.0029923806963056162 0.022451439763567411 0 -0.0029923806963056162 0.022451439763567411 0 -0.0031784997255056521 0.022339955658504024 0 -0.0029804612722577617 0.022287083612326647 0 -0.0032072478714233305 0.022506855584999375 0 -0.0029923806963056162 0.022451439763567411 0 -0.0031784997255056521 0.022339955658504024 0 -0.0034195957430570635 0.022357651311611017 0 -0.0032072478714233305 0.022506855584999375 0 -0.0031784997255056521 0.022339955658504024 0 -0.0031784997255056521 0.022339955658504024 0 -0.0031383291882918314 0.022185168989654877 0 -0.003333307412471319 0.022217423615853705 0 -0.0031784997255056521 0.022339955658504024 0 -0.0029804612722577617 0.022287083612326647 0 -0.0031383291882918314 0.022185168989654877 0 -0.0029804612722577617 0.022287083612326647 0 -0.0031383291882918314 0.022185168989654877 0 -0.0029510742812765877 0.022160563960212234 0 -0.0031383291882918314 0.022185168989654877 0 -0.0030842036387955566 0.022066312947816708 0 -0.0029510742812765877 0.022160563960212234 0 -0.0031383291882918314 0.022185168989654877 0 -0.0030842036387955566 0.022066312947816708 0 -0.0033023637450987722 0.022066747481022619 0 -0.0031383291882918314 0.022185168989654877 0 -0.0033023637450987722 0.022066747481022619 0 -0.003333307412471319 0.022217423615853705 0 -0.0033023637450987722 0.022066747481022619 0 -0.0035202810941353051 0.022129532671600505 0 -0.003333307412471319 0.022217423615853705 0 -0.0033023637450987722 0.022066747481022619 0 -0.0035202810941353051 0.022129532671600505 0 -0.0035119082202618467 0.021934262896791876 0 -0.0034195957430570635 0.022357651311611017 0 -0.0035202810941353051 0.022129532671600505 0 -0.0037197377047542201 0.022244574608776008 0 -0.0034195957430570635 0.022357651311611017 0 -0.0035202810941353051 0.022129532671600505 0 -0.003333307412471319 0.022217423615853705 0 -0.0034195957430570635 0.022357651311611017 0 -0.0031784997255056521 0.022339955658504024 0 -0.003333307412471319 0.022217423615853705 0 -0.0015862014425850127 0.023565042092299756 0 -0.00074652111658099669 0.024814045316670166 0 0.00014468621298178709 0.02584222289102606 0 -0.00074652111658099669 0.024814045316670166 0 -0.00020487378362830689 0.025374290988326768 0 -0.00013801129112368327 0.025371078189355727 0 -0.00046179085980567025 0.025307151015295272 0 4.4948235012840986e-05 0.02600616122252242 0 0.00025526759415744801 0.026762329849687218 0 0.00021344867498981074 0.026169538594766506 0 -0.0025206641435531487 0.022330344461970492 0 -0.0027176549522413087 0.022063516373754762 0 -0.0022364988069847901 0.022354341144650496 0 -0.0025206641435531487 0.022330344461970492 0 -0.0027014065484198433 0.022286098269390271 0 -0.0026405982292685868 0.022438881221022368 0 -0.0025206641435531487 0.022330344461970492 0 -0.0024395313711714642 0.022529407837443123 0 -0.0022364988069847901 0.022354341144650496 0 -0.0027176549522413087 0.022063516373754762 0 -0.0028224824239984534 0.02222368630100071 0 -0.0027014065484198433 0.022286098269390271 0 -0.0025206641435531487 0.022330344461970492 0 -0.0027176549522413087 0.022063516373754762 0 -0.0027014065484198433 0.022286098269390271 0 -0.0030842036387955566 0.022066312947816708 0 -0.0027176549522413087 0.022063516373754762 0 -0.0029510742812765877 0.022160563960212234 0 -0.0027176549522413087 0.022063516373754762 0 -0.0028224824239984534 0.02222368630100071 0 -0.0029510742812765877 0.022160563960212234 0 -0.0029923806963056162 0.022451439763567411 0 -0.0029804612722577617 0.022287083612326647 0 -0.002809725819706229 0.022362688208287306 0 -0.0029804612722577617 0.022287083612326647 0 -0.0028224824239984534 0.02222368630100071 0 -0.0029510742812765877 0.022160563960212234 0 -0.0029804612722577617 0.022287083612326647 0 -0.0028224824239984534 0.02222368630100071 0 -0.002809725819706229 0.022362688208287306 0 -0.002809725819706229 0.022362688208287306 0 -0.0027014065484198433 0.022286098269390271 0 -0.0026405982292685868 0.022438881221022368 0 -0.0028224824239984534 0.02222368630100071 0 -0.002809725819706229 0.022362688208287306 0 -0.0027014065484198433 0.022286098269390271 0 -0.0026405982292685868 0.022438881221022368 0 -0.0027840131013668989 0.02256189272763108 0 -0.0026193876809759175 0.022620609668896476 0 -0.002809725819706229 0.022362688208287306 0 -0.0026405982292685868 0.022438881221022368 0 -0.0027840131013668989 0.02256189272763108 0 -0.0029923806963056162 0.022451439763567411 0 -0.002809725819706229 0.022362688208287306 0 -0.0027840131013668989 0.02256189272763108 0 -0.0029839710881037337 0.022670886876778887 0 -0.0027840131013668989 0.02256189272763108 0 -0.0026696408728501472 0.022820452692434517 0 -0.0029839710881037337 0.022670886876778887 0 -0.0029923806963056162 0.022451439763567411 0 -0.0027840131013668989 0.02256189272763108 0 -0.0027840131013668989 0.02256189272763108 0 -0.0026193876809759175 0.022620609668896476 0 -0.0026696408728501472 0.022820452692434517 0 -0.0026193876809759175 0.022620609668896476 0 -0.0024395313711714642 0.022529407837443123 0 -0.0024747535362395598 0.022735636088247472 0 -0.0026405982292685868 0.022438881221022368 0 -0.0026193876809759175 0.022620609668896476 0 -0.0024395313711714642 0.022529407837443123 0 -0.0025206641435531487 0.022330344461970492 0 -0.0026405982292685868 0.022438881221022368 0 -0.0024395313711714642 0.022529407837443123 0 -0.0024395313711714642 0.022529407837443123 0 -0.002347330420524004 0.02267158570825269 0 -0.0022358586532560702 0.022553899640817842 0 -0.0024395313711714642 0.022529407837443123 0 -0.002347330420524004 0.02267158570825269 0 -0.0024747535362395598 0.022735636088247472 0 -0.0024747535362395598 0.022735636088247472 0 -0.0024421635274894742 0.022903974304517585 0 -0.0023192094356096994 0.022830799002071245 0 -0.002347330420524004 0.02267158570825269 0 -0.0024747535362395598 0.022735636088247472 0 -0.0023192094356096994 0.022830799002071245 0 -0.0024747535362395598 0.022735636088247472 0 -0.0024421635274894742 0.022903974304517585 0 -0.0026696408728501472 0.022820452692434517 0 -0.0026193876809759175 0.022620609668896476 0 -0.0024747535362395598 0.022735636088247472 0 -0.0026696408728501472 0.022820452692434517 0 -0.0024421635274894742 0.022903974304517585 0 -0.0026696408728501472 0.022820452692434517 0 -0.0024714473186136609 0.023042175391043789 0 -0.0024421635274894742 0.022903974304517585 0 -0.0024714473186136609 0.023042175391043789 0 -0.0022777957293259581 0.023012322899252806 0 -0.0024421635274894742 0.022903974304517585 0 -0.0022777957293259581 0.023012322899252806 0 -0.0023192094356096994 0.022830799002071245 0 -0.0026696408728501472 0.022820452692434517 0 -0.0029009951845306984 0.022895350239824943 0 -0.0026848394038361152 0.023138088084804713 0 -0.0029839710881037337 0.022670886876778887 0 -0.0026696408728501472 0.022820452692434517 0 -0.0029009951845306984 0.022895350239824943 0 -0.0017964095291094443 0.021912758881602233 0 -0.0028929302236385293 0.021762612687578217 0 -0.0028929302236385293 0.021762612687578217 0 -0.0023899697060700566 0.023138631680443358 0 -0.0026696408728501472 0.022820452692434517 0 -0.0026848394038361152 0.023138088084804713 0 -0.0024714473186136609 0.023042175391043789 0 -0.0030621569103068337 0.02306744725117978 0 -0.0029009951845306984 0.022895350239824943 0 -0.0026848394038361152 0.023138088084804713 0 -0.0022687371941235608 0.023125972392974994 0 -0.0023148167809146471 0.02307526205482276 0 -0.0022624346233720461 0.02310133702271441 0 -0.0022687371941235608 0.023125972392974994 0 -0.0022624346233720461 0.02310133702271441 0 -0.0022629819977419709 0.023116074782498906 0 -0.0022624346233720461 0.02310133702271441 0 -0.0022629819977419709 0.023116074782498906 0 -0.0023079916618168909 0.023141687948827216 0 -0.0023899697060700566 0.023138631680443358 0 -0.0023683169571311296 0.023133054208683616 0 -0.0026848394038361152 0.023138088084804713 0 -0.0024714473186136609 0.023042175391043789 0 -0.0023079916618168909 0.023141687948827216 0 -0.0024714473186136609 0.023042175391043789 0 -0.0023079916618168909 0.023141687948827216 0 -0.0022777957293259581 0.023012322899252806 0 -0.0022419217994063823 0.023122050716458464 0 -0.0022629819977419709 0.023116074782498906 0 -0.0023079916618168909 0.023141687948827216 0 -0.0022908277982555143 0.023131173034804924 0 -0.0022591081942584692 0.023101719194232404 0 -0.0022305150439800841 0.023122619309109933 0 -0.0022908277982555143 0.023131173034804924 0 -0.0023079916618168909 0.023141687948827216 0 -0.0022591081942584692 0.023101719194232404 0 -0.0022591081942584692 0.023101719194232404 0 -0.0022305150439800841 0.023122619309109933 0 -0.0021688603076901441 0.023084471911565343 0 -0.0021688603076901441 0.023084471911565343 0 -0.0020358629975081462 0.023062990839198584 0 -0.0021433358353402663 0.022998816361638405 0 -0.0021688603076901441 0.023084471911565343 0 -0.0022777957293259581 0.023012322899252806 0 -0.0021433358353402663 0.022998816361638405 0 -0.0023079916618168909 0.023141687948827216 0 -0.0022591081942584692 0.023101719194232404 0 -0.0022777957293259581 0.023012322899252806 0 -0.0022591081942584692 0.023101719194232404 0 -0.0021688603076901441 0.023084471911565343 0 -0.0022777957293259581 0.023012322899252806 0 -0.0021688603076901441 0.023084471911565343 0 -0.0019528688107331149 0.023156957126238348 0 -0.0020358629975081462 0.023062990839198584 0 -0.0022305150439800841 0.023122619309109933 0 -0.0021688603076901441 0.023084471911565343 0 -0.0019528688107331149 0.023156957126238348 0 -0.0019528688107331149 0.023156957126238348 0 -0.0020358629975081462 0.023062990839198584 0 -0.0018532345022545214 0.023053673524375571 0 -0.0020300967828891909 0.022973995526457132 0 -0.0019190735016282419 0.022922405031106097 0 -0.0018532345022545214 0.023053673524375571 0 -0.0020358629975081462 0.023062990839198584 0 -0.0020300967828891909 0.022973995526457132 0 -0.0018532345022545214 0.023053673524375571 0 -0.0020358629975081462 0.023062990839198584 0 -0.0020300967828891909 0.022973995526457132 0 -0.0021433358353402663 0.022998816361638405 0 -0.0020300967828891909 0.022973995526457132 0 -0.0020816814738805738 0.022798061527269597 0 -0.0021790949741218612 0.022881716038612027 0 -0.0020300967828891909 0.022973995526457132 0 -0.0020816814738805738 0.022798061527269597 0 -0.0019707299789348868 0.022801071040318369 0 -0.0020300967828891909 0.022973995526457132 0 -0.0019190735016282419 0.022922405031106097 0 -0.0019707299789348868 0.022801071040318369 0 -0.0019190735016282419 0.022922405031106097 0 -0.0019707299789348868 0.022801071040318369 0 -0.0018111877443784217 0.022857654889122433 0 -0.0022777957293259581 0.023012322899252806 0 -0.0021790949741218612 0.022881716038612027 0 -0.0023192094356096994 0.022830799002071245 0 -0.0020300967828891909 0.022973995526457132 0 -0.0021433358353402663 0.022998816361638405 0 -0.0021790949741218612 0.022881716038612027 0 -0.0022777957293259581 0.023012322899252806 0 -0.0021433358353402663 0.022998816361638405 0 -0.0021790949741218612 0.022881716038612027 0 -0.0020816814738805738 0.022798061527269597 0 -0.0021790949741218612 0.022881716038612027 0 -0.0022162591838580182 0.022736671449555056 0 -0.002347330420524004 0.02267158570825269 0 -0.0023192094356096994 0.022830799002071245 0 -0.0022162591838580182 0.022736671449555056 0 -0.0021790949741218612 0.022881716038612027 0 -0.0023192094356096994 0.022830799002071245 0 -0.0022162591838580182 0.022736671449555056 0 -0.002347330420524004 0.02267158570825269 0 -0.0022162591838580182 0.022736671449555056 0 -0.0022358586532560702 0.022553899640817842 0 -0.0024395313711714642 0.022529407837443123 0 -0.0022358586532560702 0.022553899640817842 0 -0.0022364988069847901 0.022354341144650496 0 -0.0022358586532560702 0.022553899640817842 0 -0.0021057394241578591 0.022658334329144211 0 -0.0019926880512049199 0.022516609105794901 0 -0.0022162591838580182 0.022736671449555056 0 -0.0022358586532560702 0.022553899640817842 0 -0.0021057394241578591 0.022658334329144211 0 -0.0020816814738805738 0.022798061527269597 0 -0.0022162591838580182 0.022736671449555056 0 -0.0021057394241578591 0.022658334329144211 0 -0.001846466535399628 0.022635961758966858 0 -0.002017912585148727 0.022586841886666108 0 -0.001747194485691009 0.022696904406306801 0 -0.0020816814738805738 0.022798061527269597 0 -0.0021057394241578591 0.022658334329144211 0 -0.0019662968054274524 0.022688370618797356 0 -0.0011273543833600786 0.024142891395109948 0 -0.0022260249407611982 0.022448039012914589 0 -0.0019662968054274524 0.022688370618797356 0 -0.0019926880512049199 0.022516609105794901 0 -0.001747194485691009 0.022696904406306801 0 -0.0020816814738805738 0.022798061527269597 0 -0.0019707299789348868 0.022801071040318369 0 -0.0019662968054274524 0.022688370618797356 0 -0.0019707299789348868 0.022801071040318369 0 -0.0018430541652849841 0.022763840141725743 0 -0.0018111877443784217 0.022857654889122433 0 -0.0019662968054274524 0.022688370618797356 0 -0.001747194485691009 0.022696904406306801 0 -0.0018430541652849841 0.022763840141725743 0 -0.0019707299789348868 0.022801071040318369 0 -0.0019662968054274524 0.022688370618797356 0 -0.0018430541652849841 0.022763840141725743 0 -0.00022681817309653555 0.025197658911297809 0 -0.0011273543833600786 0.024142891395109948 0 -0.0021057394241578591 0.022658334329144211 0 -0.0019662968054274524 0.022688370618797356 0 -0.0019926880512049199 0.022516609105794901 0 0.00070156558453792048 0.027042132536195675 0 0.0012566380020758508 0.027619526032217165 0 0.0009197011905224241 0.02653719955038647 0 0.00095979253243319584 0.027977905908381881 0 0.00070156558453792048 0.027042132536195675 0 0.0012566380020758508 0.027619526032217165 0 0.00064044435085595475 0.027476535513196357 0 0.00070156558453792048 0.027042132536195675 0 0.00025526759415744801 0.026762329849687218 0 0.00095979253243319584 0.027977905908381881 0 0.00064044435085595475 0.027476535513196357 0 0.00070156558453792048 0.027042132536195675 0 0.00070156558453792048 0.027042132536195675 0 0.00025526759415744801 0.026762329849687218 0 0.00045220401471956953 0.026349562939831424 0 -0.0011273543833600786 0.024142891395109948 0 -0.00074652111658099669 0.024814045316670166 0 -0.0022358586532560702 0.022553899640817842 0 -0.0019926880512049199 0.022516609105794901 0 -0.0022364988069847901 0.022354341144650496 0 0.00025526759415744801 0.026762329849687218 0 0.00045220401471956953 0.026349562939831424 0 0.00021344867498981074 0.026169538594766506 0 0.0011524407724653426 0.031561343945634673 0 0.001700206712605035 0.032503283650910625 0 0.00068725539731401394 0.032522210492257661 0 0.0017577399961079311 0.02703521319507237 0 0.001541545921585577 0.028431976347295846 0 0.0015953626386174696 0.029682757772933568 0 0.0011524407724653426 0.031561343945634673 0 0.001700206712605035 0.032503283650910625 0 0.0015953626386174696 0.029682757772933568 0 0.001640972747220438 0.02970562900503914 0 0.0015473946699459881 0.029560215044213096 0 0.0017577399961079311 0.02703521319507237 0 0.0012566380020758508 0.027619526032217165 0 0.0009197011905224241 0.02653719955038647 0 0.0017577399961079311 0.02703521319507237 0 0.0012566380020758508 0.027619526032217165 0 0.001541545921585577 0.028431976347295846 0 0.0012566380020758508 0.027619526032217165 0 0.0013938918121406563 0.028371089508694491 0 0.001541545921585577 0.028431976347295846 0 0.00095979253243319584 0.027977905908381881 0 0.0013938918121406563 0.028371089508694491 0 0.0018076226875141923 0.029365634879807815 0 -0.001846466535399628 0.022635961758966858 0 -0.001747194485691009 0.022696904406306801 0 -0.001374444132399953 0.022804640340170927 0 -0.001747194485691009 0.022696904406306801 0 -0.0016340650741734795 0.022833412133763959 0 -0.001374444132399953 0.022804640340170927 0 -0.00022681817309653555 0.025197658911297809 0 -0.00020757081512032328 0.026502585176159287 0 0.00095979253243319584 0.027977905908381881 0 0.0012566380020758508 0.027619526032217165 0 0.0013938918121406563 0.028371089508694491 0 -0.0017457943984713201 0.02278975599949588 0 -0.0016340650741734795 0.022833412133763959 0 -0.0018111877443784217 0.022857654889122433 0 -0.001747194485691009 0.022696904406306801 0 -0.0017457943984713201 0.02278975599949588 0 -0.0018430541652849841 0.022763840141725743 0 -0.0017457943984713201 0.02278975599949588 0 -0.0018430541652849841 0.022763840141725743 0 -0.0018111877443784217 0.022857654889122433 0 -0.001747194485691009 0.022696904406306801 0 -0.0017457943984713201 0.02278975599949588 0 -0.0016340650741734795 0.022833412133763959 0 0.0011524407724653426 0.031561343945634673 0 0.0015953626386174696 0.029682757772933568 0 0.00091591647980258277 0.03091288098649057 0 0.0013938918121406563 0.028371089508694491 0 0.001541545921585577 0.028431976347295846 0 0.0018076226875141923 0.029365634879807815 0 0.001541545921585577 0.028431976347295846 0 0.0015953626386174696 0.029682757772933568 0 0.0018076226875141923 0.029365634879807815 0 -0.00020757081512032328 0.026502585176159287 0 -0.00049483132045015474 0.027819144868675247 0 -0.0015814154201192875 0.023068517239928588 0 -0.0016686823823622277 0.023087020586629318 0 -0.0018532345022545214 0.023053673524375571 0 -0.0015814154201192875 0.023068517239928588 0 -0.0015639163461616439 0.023082109575211614 0 -0.0016686823823622277 0.023087020586629318 0 -0.00049483132045015474 0.027819144868675247 0 -0.0010576982362623299 0.028358020498868975 0 -0.00034966351134970054 0.033729609608908799 0 -0.00032752571638297931 0.033565026236040546 0 -0.00040464821151466762 0.033707010408131441 0 -0.00032752571638297931 0.033565026236040546 0 -0.00038138119811983545 0.033581312536193376 0 -0.00040464821151466762 0.033707010408131441 0 -0.00032752571638297931 0.033565026236040546 0 -0.00038138119811983545 0.033581312536193376 0 -0.00037647353692296757 0.033489193876752324 0 -0.00020757081512032328 0.026502585176159287 0 -0.0020558773195765326 0.022051799209822955 0 -0.0016340650741734795 0.022833412133763959 0 -0.001374444132399953 0.022804640340170927 0 -0.0018532345022545214 0.023053673524375571 0 -0.0019528688107331149 0.023156957126238348 0 -0.0016686823823622277 0.023087020586629318 0 -0.0018532345022545214 0.023053673524375571 0 -0.0016340650741734795 0.022833412133763959 0 -0.0018111877443784217 0.022857654889122433 0 -0.0018532345022545214 0.023053673524375571 0 -0.0019190735016282419 0.022922405031106097 0 -0.0018111877443784217 0.022857654889122433 0 -0.0018532345022545214 0.023053673524375571 0 -0.00041812376158931007 0.033358770698610457 0 -0.00032752571638297931 0.033565026236040546 0 -0.00038287826440718941 0.033435744302598137 0 -0.0011764353649975383 0.028251812763486647 0 -0.0010576982362623299 0.028358020498868975 0 -0.00038287826440718941 0.033435744302598137 0 -0.00039509753887994009 0.033417354176217079 0 -0.00041342578525355687 0.033396066100922862 0 -0.00041812376158931007 0.033358770698610457 0 -0.00038287826440718941 0.033435744302598137 0 -0.00041342578525355687 0.033396066100922862 0 -0.00032752571638297931 0.033565026236040546 0 -0.00038287826440718941 0.033435744302598137 0 -0.00037647353692296757 0.033489193876752324 0 -0.00038138119811983545 0.033581312536193376 0 -0.00040361515687683988 0.033528821615681485 0 -0.00037647353692296757 0.033489193876752324 0 -0.00040361515687683988 0.033528821615681485 0 -0.00037647353692296757 0.033489193876752324 0 -0.00040768907795162197 0.033454271066764747 0 -0.00040361515687683988 0.033528821615681485 0 -0.00040768907795162197 0.033454271066764747 0 -0.00046028371352560955 0.033504450330081377 0 -0.00038287826440718941 0.033435744302598137 0 -0.00037647353692296757 0.033489193876752324 0 -0.00039509753887994009 0.033417354176217079 0 -0.00037647353692296757 0.033489193876752324 0 -0.00040768907795162197 0.033454271066764747 0 -0.00039509753887994009 0.033417354176217079 0 -0.0004101224643531716 0.0334110686209644 0 -0.00041528238156400766 0.033377932655859199 0 -0.00045466743029952671 0.03342753922623834 0 -0.00040768907795162197 0.033454271066764747 0 -0.0004101224643531716 0.0334110686209644 0 -0.00045466743029952671 0.03342753922623834 0 -0.00040941562845795397 0.033401100895118836 0 -0.00041528238156400766 0.033377932655859199 0 -0.00042461117969619697 0.033411992146767724 0 -0.00040768907795162197 0.033454271066764747 0 -0.0004101224643531716 0.0334110686209644 0 -0.00039509753887994009 0.033417354176217079 0 -0.0004101224643531716 0.0334110686209644 0 -0.00040941562845795397 0.033401100895118836 0 -0.00039509753887994009 0.033417354176217079 0 -0.0004101224643531716 0.0334110686209644 0 -0.00040941562845795397 0.033401100895118836 0 -0.00041528238156400766 0.033377932655859199 0 -0.00036571710862982778 0.033471761941687328 0 -0.00028030175153873337 0.033455949053680392 0 -0.00040981490165978865 0.033413829429893238 0 -0.00028030175153873337 0.033455949053680392 0 -0.00040981490165978865 0.033413829429893238 0 -0.00017259576640892262 0.033374384869435204 0 -0.00037445535482177682 0.033417866638417414 0 -0.00040981490165978865 0.033413829429893238 0 -0.00034364866619327898 0.033433653373638447 0 -0.00040187524797106073 0.033401553991081356 0 -0.00042348501518408611 0.033409254495406243 0 -0.00040629010037803007 0.033436946139747153 0 -0.0002470989978772033 0.033318059057221516 0 -0.00037445535482177682 0.033417866638417414 0 -0.00040981490165978865 0.033413829429893238 0 -0.00042461117969619697 0.033411992146767724 0 -0.00036571710862982778 0.033471761941687328 0 -0.00028030175153873337 0.033455949053680392 0 -0.00027137059989469251 0.033529464355233442 0 -0.00036571710862982778 0.033471761941687328 0 -0.00042050910836510016 0.033443830029202246 0 -0.00042605099665892594 0.033488700299957742 0 -0.00046625725864240749 0.033448141761703014 0 -0.00042050910836510016 0.033443830029202246 0 -0.00042605099665892594 0.033488700299957742 0 -0.00036571710862982778 0.033471761941687328 0 -0.00042050910836510016 0.033443830029202246 0 -0.00040981490165978865 0.033413829429893238 0 -0.00042050910836510016 0.033443830029202246 0 -0.00040981490165978865 0.033413829429893238 0 -0.00042461117969619697 0.033411992146767724 0 -0.00046625725864240749 0.033448141761703014 0 -0.00042050910836510016 0.033443830029202246 0 -0.00042461117969619697 0.033411992146767724 0 -0.00042461117969619697 0.033411992146767724 0 -0.00044867751193473671 0.033402465324695089 0 -0.00049442854934969127 0.033424361270598973 0 -0.00046625725864240749 0.033448141761703014 0 -0.00042461117969619697 0.033411992146767724 0 -0.00049442854934969127 0.033424361270598973 0 -0.00044867751193473671 0.033402465324695089 0 -0.00041317883118325335 0.033402483938557444 0 -0.00041342578525355687 0.033396066100922862 0 -0.00042461117969619697 0.033411992146767724 0 -0.00044867751193473671 0.033402465324695089 0 -0.00041317883118325335 0.033402483938557444 0 -0.00040941562845795397 0.033401100895118836 0 -0.00042461117969619697 0.033411992146767724 0 -0.00041317883118325335 0.033402483938557444 0 -0.00041317883118325335 0.033402483938557444 0 -0.00039509753887994009 0.033417354176217079 0 -0.00041342578525355687 0.033396066100922862 0 -0.00040941562845795397 0.033401100895118836 0 -0.00041317883118325335 0.033402483938557444 0 -0.00039509753887994009 0.033417354176217079 0 -0.00041812376158931007 0.033358770698610457 0 -0.00047029311095801317 0.033390367096027267 0 -0.00058302063290421348 0.033388680210522319 0 -0.00041812376158931007 0.033358770698610457 0 -0.00041342578525355687 0.033396066100922862 0 -0.00047029311095801317 0.033390367096027267 0 -0.0011764353649975383 0.028251812763486647 0 -0.0014336207755667539 0.028257329083263345 0 -0.00044867751193473671 0.033402465324695089 0 -0.00041342578525355687 0.033396066100922862 0 -0.00047029311095801317 0.033390367096027267 0 -0.00047029311095801317 0.033390367096027267 0 -0.00050325169729552061 0.033405007079981182 0 -0.00058302063290421348 0.033388680210522319 0 -0.00044867751193473671 0.033402465324695089 0 -0.00050325169729552061 0.033405007079981182 0 -0.00049442854934969127 0.033424361270598973 0 -0.00044867751193473671 0.033402465324695089 0 -0.00047029311095801317 0.033390367096027267 0 -0.00050325169729552061 0.033405007079981182 0 -0.0022305150439800841 0.023122619309109933 0 -0.0019528688107331149 0.023156957126238348 0 -0.0023207141461616615 0.023134791835162569 0 -0.0022908277982555143 0.023131173034804924 0 -0.0022305150439800841 0.023122619309109933 0 -0.0023207141461616615 0.023134791835162569 0 -0.0022609245676860038 0.023052122912647584 0 -0.0022908277982555143 0.023131173034804924 0 -0.0023207141461616615 0.023134791835162569 0 -0.00059840463057163644 0.033433245337838223 0 -0.00055175370578855075 0.033425898864993218 0 -0.00056805223958484685 0.033454851762389347 0 -0.00058302063290421348 0.033388680210522319 0 -0.00059840463057163644 0.033433245337838223 0 -0.00055175370578855075 0.033425898864993218 0 -0.00050325169729552061 0.033405007079981182 0 -0.00058302063290421348 0.033388680210522319 0 -0.00055175370578855075 0.033425898864993218 0 -0.00050325169729552061 0.033405007079981182 0 -0.00049442854934969127 0.033424361270598973 0 -0.00055175370578855075 0.033425898864993218 0 -0.00049442854934969127 0.033424361270598973 0 -0.00055175370578855075 0.033425898864993218 0 -0.00056805223958484685 0.033454851762389347 0 -0.00046625725864240749 0.033448141761703014 0 -0.00049442854934969127 0.033424361270598973 0 -0.00056805223958484685 0.033454851762389347 0 -0.00056805223958484685 0.033454851762389347 0 -0.00052531593061211552 0.033591956486275956 0 -0.00048615620314614992 0.033503223401396567 0 -0.00056805223958484685 0.033454851762389347 0 -0.00072398337882187554 0.033429446469802976 0 -0.00052531593061211552 0.033591956486275956 0 -0.00046625725864240749 0.033448141761703014 0 -0.00056805223958484685 0.033454851762389347 0 -0.00048615620314614992 0.033503223401396567 0 -0.00056874226990171872 0.033383219054132454 0 -0.00059840463057163644 0.033433245337838223 0 -0.00072398337882187554 0.033429446469802976 0 -0.00059840463057163644 0.033433245337838223 0 -0.00056805223958484685 0.033454851762389347 0 -0.00072398337882187554 0.033429446469802976 0 -0.00064130356988122443 0.03382358831127346 0 -0.00072398337882187554 0.033429446469802976 0 -0.00052531593061211552 0.033591956486275956 0 -0.00046181569784871845 0.033864238066626577 0 -0.00052531593061211552 0.033591956486275956 0 -0.00038197107584755642 0.033711361115642276 0 -0.00052531593061211552 0.033591956486275956 0 -0.00038197107584755642 0.033711361115642276 0 -0.00043361560449954286 0.033567310787406449 0 -0.00031686386043565493 0.033914502632304541 0 -0.00038197107584755642 0.033711361115642276 0 -0.00023793706362051589 0.033758452178923162 0 -0.00038197107584755642 0.033711361115642276 0 -0.0003068815738720322 0.033624053811467235 0 -0.00023793706362051589 0.033758452178923162 0 -0.00038197107584755642 0.033711361115642276 0 -0.0003068815738720322 0.033624053811467235 0 -0.00043361560449954286 0.033567310787406449 0 -0.0003068815738720322 0.033624053811467235 0 -0.00036664786157255148 0.033536271010349401 0 -0.00043361560449954286 0.033567310787406449 0 -0.0003068815738720322 0.033624053811467235 0 -0.00027137059989469251 0.033529464355233442 0 -0.00036664786157255148 0.033536271010349401 0 -0.00036571710862982778 0.033471761941687328 0 -0.00027137059989469251 0.033529464355233442 0 -0.00036664786157255148 0.033536271010349401 0 -0.00036571710862982778 0.033471761941687328 0 -0.00036664786157255148 0.033536271010349401 0 -0.00042605099665892594 0.033488700299957742 0 -0.00036664786157255148 0.033536271010349401 0 -0.00042605099665892594 0.033488700299957742 0 -0.00043361560449954286 0.033567310787406449 0 -0.00042605099665892594 0.033488700299957742 0 -0.00048615620314614992 0.033503223401396567 0 -0.00043361560449954286 0.033567310787406449 0 -0.00046625725864240749 0.033448141761703014 0 -0.00042605099665892594 0.033488700299957742 0 -0.00048615620314614992 0.033503223401396567 0 -0.00052531593061211552 0.033591956486275956 0 -0.00048615620314614992 0.033503223401396567 0 -0.00043361560449954286 0.033567310787406449 0 -0.0001390584946453449 0.033620125034541343 0 0.00011174120960447352 0.03363877530615636 0 -3.8962739632879131e-05 0.033512221218921556 0 -0.0001390584946453449 0.033620125034541343 0 -3.8962739632879131e-05 0.033512221218921556 0 -0.00016991609633121573 0.033487477974683599 0 -0.00027137059989469251 0.033529464355233442 0 -0.0001390584946453449 0.033620125034541343 0 -0.00016991609633121573 0.033487477974683599 0 -0.0003068815738720322 0.033624053811467235 0 -0.00027137059989469251 0.033529464355233442 0 -0.0001390584946453449 0.033620125034541343 0 -0.00014036889766658785 0.033948838774719846 0 -0.00023793706362051589 0.033758452178923162 0 -4.9891579852560099e-05 0.033783830422976655 0 -0.0001390584946453449 0.033620125034541343 0 -0.00023793706362051589 0.033758452178923162 0 -4.9891579852560099e-05 0.033783830422976655 0 -0.0003068815738720322 0.033624053811467235 0 -0.0001390584946453449 0.033620125034541343 0 -0.00023793706362051589 0.033758452178923162 0 -0.0001390584946453449 0.033620125034541343 0 -4.9891579852560099e-05 0.033783830422976655 0 0.00011174120960447352 0.03363877530615636 0 -8.3607433821076573e-06 0.034640373878020089 0 -3.3008031037845322e-05 0.034642959881982197 0 -3.1889420526259451e-05 0.034636629744901941 0 4.543650543400892e-05 0.034311748603418589 0 6.3057301100060185e-05 0.034132283075711874 0 0.00011782862528178106 0.033982963250167725 0 -4.9891579852560099e-05 0.033783830422976655 0 0.00011174120960447352 0.03363877530615636 0 -3.3008031037845322e-05 0.034642959881982197 0 -3.1889420526259451e-05 0.034636629744901941 0 -3.1674254089275833e-05 0.034635473985257799 0 -3.1889420526259451e-05 0.034636629744901941 0 -3.2471843619202925e-05 0.034631504782929 0 -3.1674254089275833e-05 0.034635473985257799 0 0.00011174120960447352 0.03363877530615636 0 0.00010382322036814055 0.033355012321711078 0 -3.8962739632879131e-05 0.033512221218921556 0 6.3057301100060185e-05 0.034132283075711874 0 -0.00011690889184794215 0.034013745481277079 0 -3.1889420526259451e-05 0.034636629744901941 0 -3.2471843619202925e-05 0.034631504782929 0 -3.7775324437575015e-05 0.034622154076976726 0 -3.1351739199696955e-05 0.034630290834363468 0 -3.2471843619202925e-05 0.034631504782929 0 -3.1674254089275833e-05 0.034635473985257799 0 -3.1351739199696955e-05 0.034630290834363468 0 -3.2471843619202925e-05 0.034631504782929 0 -3.2869713484968203e-05 0.034627862526950562 0 -3.2471843619202925e-05 0.034631504782929 0 -3.2869713484968203e-05 0.034627862526950562 0 -3.7775324437575015e-05 0.034622154076976726 0 -3.1351739199696955e-05 0.034630290834363468 0 -3.2869713484968203e-05 0.034627862526950562 0 -3.1023237218906449e-05 0.034627105012845633 0 -0.00028706058666081542 0.03500532120909533 0 -0.00041372096619139622 0.034210806026100458 0 -3.2869713484968203e-05 0.034627862526950562 0 -3.7775324437575015e-05 0.034622154076976726 0 -3.1023237218906449e-05 0.034627105012845633 0 -9.607471808467438e-05 0.034611659717129942 0 -0.00015768970634898129 0.034633546357849029 0 -8.8047333536576117e-05 0.034634815266343356 0 -0.00044517752158642037 0.035316895111201223 0 -0.00063799114100911115 0.035340797814156028 0 -0.00056039895982333424 0.035242927859197151 0 -0.00011690889184794215 0.034013745481277079 0 -6.1593293516633475e-05 0.034680818821570009 0 -9.607471808467438e-05 0.034611659717129942 0 -0.00015768970634898129 0.034633546357849029 0 -0.00015784068649465717 0.034614358082608723 0 -0.00028745304875810325 0.03345067261808389 0 -0.00028778219768205388 0.033439197444966519 0 -0.00032827262233365 0.033430319337481793 0 -0.00011690889184794215 0.034013745481277079 0 -0.00041372096619139622 0.034210806026100458 0 -0.00041372096619139622 0.034210806026100458 0 -0.00046797193316346634 0.033337145477611553 0 -0.00011690889184794215 0.034013745481277079 0 -0.0002470989978772033 0.033318059057221516 0 -0.00082074754772626401 0.033367855363553647 0 -0.00057900817572040578 0.033346224865763552 0 -0.00067859516919076474 0.033487664079016023 0 -0.00028745304875810325 0.03345067261808389 0 -0.00032827262233365 0.033430319337481793 0 -0.00034364866619327898 0.033433653373638447 0 -0.00057900817572040578 0.033346224865763552 0 -0.00067859516919076474 0.033487664079016023 0 -0.00054997592153596501 0.033452525774146535 0 0.00010382322036814055 0.033355012321711078 0 -6.9714066136918198e-05 0.033432618633808482 0 -0.00017259576640892262 0.033374384869435204 0 0.00010382322036814055 0.033355012321711078 0 -6.9714066136918198e-05 0.033432618633808482 0 -3.8962739632879131e-05 0.033512221218921556 0 -6.9714066136918198e-05 0.033432618633808482 0 -3.8962739632879131e-05 0.033512221218921556 0 -0.00016991609633121573 0.033487477974683599 0 -0.00028030175153873337 0.033455949053680392 0 -0.00027137059989469251 0.033529464355233442 0 -0.00016991609633121573 0.033487477974683599 0 -6.9714066136918198e-05 0.033432618633808482 0 -0.00016991609633121573 0.033487477974683599 0 -0.00017259576640892262 0.033374384869435204 0 -0.00028030175153873337 0.033455949053680392 0 -0.00016991609633121573 0.033487477974683599 0 -0.00017259576640892262 0.033374384869435204 0 -0.00041528238156400766 0.033377932655859199 0 -0.00057900817572040578 0.033346224865763552 0 -0.0004969081341161545 0.033397100172391482 0 -0.00040187524797106073 0.033401553991081356 0 -0.00046797193316346634 0.033337145477611553 0 -0.00037445535482177682 0.033417866638417414 0 -0.00032827262233365 0.033430319337481793 0 -0.00034364866619327898 0.033433653373638447 0 -0.00057900817572040578 0.033346224865763552 0 -0.0004969081341161545 0.033397100172391482 0 -0.00054997592153596501 0.033452525774146535 0 -0.0004969081341161545 0.033397100172391482 0 -0.00045466743029952671 0.03342753922623834 0 -0.00054997592153596501 0.033452525774146535 0 -0.00041528238156400766 0.033377932655859199 0 -0.0004969081341161545 0.033397100172391482 0 -0.00045466743029952671 0.03342753922623834 0 -0.00040768907795162197 0.033454271066764747 0 -0.00045466743029952671 0.03342753922623834 0 -0.00046028371352560955 0.033504450330081377 0 -0.00045466743029952671 0.03342753922623834 0 -0.00046028371352560955 0.033504450330081377 0 -0.00054997592153596501 0.033452525774146535 0 -0.00046028371352560955 0.033504450330081377 0 -0.00054997592153596501 0.033452525774146535 0 -0.00055626563496588945 0.033577328197248839 0 -0.00046028371352560955 0.033504450330081377 0 -0.00055626563496588945 0.033577328197248839 0 -0.00044924595611537218 0.033602837612069184 0 -0.00040361515687683988 0.033528821615681485 0 -0.00046028371352560955 0.033504450330081377 0 -0.00044924595611537218 0.033602837612069184 0 -0.00067859516919076474 0.033487664079016023 0 -0.00054997592153596501 0.033452525774146535 0 -0.00055626563496588945 0.033577328197248839 0 -0.00067859516919076474 0.033487664079016023 0 -0.00055626563496588945 0.033577328197248839 0 -0.00066557550882348883 0.033648631796691426 0 -0.00055626563496588945 0.033577328197248839 0 -0.00066557550882348883 0.033648631796691426 0 -0.00054133553552518485 0.033753276757957917 0 -0.00066557550882348883 0.033648631796691426 0 -0.00054133553552518485 0.033753276757957917 0 -0.00071764950473829781 0.033809260564768136 0 -0.00038138119811983545 0.033581312536193376 0 -0.00044924595611537218 0.033602837612069184 0 -0.00040464821151466762 0.033707010408131441 0 -0.00038138119811983545 0.033581312536193376 0 -0.00040361515687683988 0.033528821615681485 0 -0.00044924595611537218 0.033602837612069184 0 -0.00055626563496588945 0.033577328197248839 0 -0.00054133553552518485 0.033753276757957917 0 -0.00044924595611537218 0.033602837612069184 0 -0.00054133553552518485 0.033753276757957917 0 -0.00044924595611537218 0.033602837612069184 0 -0.00040464821151466762 0.033707010408131441 0 -0.00034966351134970054 0.033729609608908799 0 -0.00040464821151466762 0.033707010408131441 0 -0.00042139609851028607 0.03397223586894757 0 0.00075783223793568543 0.028709310202625196 0 0.00035421840499557804 0.028524796098968779 0 -0.0017897193498583892 0.030348348763384568 0 -0.00020757081512032328 0.026502585176159287 0 -0.00055679219107995336 0.032346806497814774 0 0.0015953626386174696 0.029682757772933568 0 0.0018076226875141923 0.029365634879807815 0 0.00031925867465391373 0.030689961275768868 0 -0.00049483132045015474 0.027819144868675247 0 -0.00055679219107995336 0.032346806497814774 0 0.0015953626386174696 0.029682757772933568 0 0.00091591647980258277 0.03091288098649057 0 0.00031925867465391373 0.030689961275768868 0 -0.00054133553552518485 0.033753276757957917 0 -0.00040464821151466762 0.033707010408131441 0 -0.00042139609851028607 0.03397223586894757 0 -0.00054133553552518485 0.033753276757957917 0 -0.00042139609851028607 0.03397223586894757 0 -0.00065712773453181187 0.03399995395594671 0 -0.00042139609851028607 0.03397223586894757 0 -0.00065712773453181187 0.03399995395594671 0 -0.00063632205964487632 0.034147315137665002 0 -0.00054133553552518485 0.033753276757957917 0 -0.00071764950473829781 0.033809260564768136 0 -0.00065712773453181187 0.03399995395594671 0 -0.00065712773453181187 0.03399995395594671 0 -0.00063632205964487632 0.034147315137665002 0 -0.00073790516456499083 0.034230712610037101 0 -0.00055679219107995336 0.032346806497814774 0 -0.00031450705242568587 0.033330477297827378 0 -0.00055679219107995336 0.032346806497814774 0 -0.00068627236898797215 0.034645483324168037 0 0.00031925867465391373 0.030689961275768868 0 -0.00036181110466690868 0.032368702724831909 0 0.0002658749258941067 0.032042078729687173 0 -0.00042139609851028607 0.03397223586894757 0 -0.00063632205964487632 0.034147315137665002 0 -0.00071957339403092924 0.034388093581286701 0 -0.00029241377536639435 0.034116716207518348 0 -0.00053122254285910991 0.034444305222248443 0 -0.00056918494522635945 0.034435442697628244 0 -0.00063632205964487632 0.034147315137665002 0 -0.00071957339403092924 0.034388093581286701 0 -0.00073790516456499083 0.034230712610037101 0 -0.00036181110466690868 0.032368702724831909 0 0.0002658749258941067 0.032042078729687173 0 9.1212919954727028e-05 0.032791091538551649 0 0.0002658749258941067 0.032042078729687173 0 0.00067038624152641489 0.031587975128536061 0 0.00068725539731401394 0.032522210492257661 0 0.0011524407724653426 0.031561343945634673 0 0.00067038624152641489 0.031587975128536061 0 0.00068725539731401394 0.032522210492257661 0 0.00091591647980258277 0.03091288098649057 0 0.00031925867465391373 0.030689961275768868 0 0.00067038624152641489 0.031587975128536061 0 0.0011524407724653426 0.031561343945634673 0 0.00091591647980258277 0.03091288098649057 0 0.00067038624152641489 0.031587975128536061 0 0.00031925867465391373 0.030689961275768868 0 0.0002658749258941067 0.032042078729687173 0 0.00067038624152641489 0.031587975128536061 0 -0.00055196340410586004 0.034764904530710981 0 -0.0004353978224073857 0.034791100623670246 0 -0.00053827524434374018 0.034639303220143025 0 -0.0004353978224073857 0.034791100623670246 0 -0.00053827524434374018 0.034639303220143025 0 -0.0004193370048231255 0.034675944818904132 0 -0.00055196340410586004 0.034764904530710981 0 -0.00053827524434374018 0.034639303220143025 0 -0.00067528569687378315 0.034486969080050951 0 -0.00053827524434374018 0.034639303220143025 0 -0.00067528569687378315 0.034486969080050951 0 -0.00057067948232874513 0.03457387762649923 0 -0.00053122254285910991 0.034444305222248443 0 -0.00056918494522635945 0.034435442697628244 0 -0.00060697309520288574 0.034551674823873231 0 -0.00071957339403092924 0.034388093581286701 0 -0.00067528569687378315 0.034486969080050951 0 -0.00057067948232874513 0.03457387762649923 0 -0.00070579383571704062 0.034471478855088326 0 -0.00076961342926683588 0.034439474506113635 0 -0.00067528569687378315 0.034486969080050951 0 -0.00073790516456499083 0.034230712610037101 0 -0.00090534941123490481 0.033996281934490551 0 -0.00055196340410586004 0.034764904530710981 0 -0.00067528569687378315 0.034486969080050951 0 -0.00067938762165779159 0.034911192246066841 0 -0.00071957339403092924 0.034388093581286701 0 -0.00067528569687378315 0.034486969080050951 0 -0.00073790516456499083 0.034230712610037101 0 -0.00065712773453181187 0.03399995395594671 0 -0.00073790516456499083 0.034230712610037101 0 -0.00090534941123490481 0.033996281934490551 0 -0.00071764950473829781 0.033809260564768136 0 -0.00065712773453181187 0.03399995395594671 0 -0.00090534941123490481 0.033996281934490551 0 -0.00055196340410586004 0.034764904530710981 0 -0.00067938762165779159 0.034911192246066841 0 -0.00049245122955604939 0.034956080691193395 0 -0.00055196340410586004 0.034764904530710981 0 -0.0004353978224073857 0.034791100623670246 0 -0.00049245122955604939 0.034956080691193395 0 -0.00049245122955604939 0.034956080691193395 0 -0.00064756709765989291 0.035137802905324339 0 -0.00038768027709836823 0.035092046709502153 0 -0.00076961342926683588 0.034439474506113635 0 -0.0007802688937854625 0.034410898844047966 0 -0.00067938762165779159 0.034911192246066841 0 -0.00049245122955604939 0.034956080691193395 0 -0.00064756709765989291 0.035137802905324339 0 -0.00071764950473829781 0.033809260564768136 0 -0.00090534941123490481 0.033996281934490551 0 -0.00085727911356776464 0.033614484466764037 0 -0.00066557550882348883 0.033648631796691426 0 -0.00071764950473829781 0.033809260564768136 0 -0.00085727911356776464 0.033614484466764037 0 -0.00041372096619139622 0.034210806026100458 0 -0.0007802688937854625 0.034410898844047966 0 -0.00082074754772626401 0.033367855363553647 0 -0.00067859516919076474 0.033487664079016023 0 -0.00085727911356776464 0.033614484466764037 0 -0.00063799114100911115 0.035340797814156028 0 -0.00064756709765989291 0.035137802905324339 0 -0.00056039895982333424 0.035242927859197151 0 -0.00067859516919076474 0.033487664079016023 0 -0.00066557550882348883 0.033648631796691426 0 -0.00085727911356776464 0.033614484466764037 0 -0.00064756709765989291 0.035137802905324339 0 -0.00047967796839976302 0.035202417461220548 0 -0.00038768027709836823 0.035092046709502153 0 -0.00064756709765989291 0.035137802905324339 0 -0.00047967796839976302 0.035202417461220548 0 -0.00056039895982333424 0.035242927859197151 0 -0.00044517752158642037 0.035316895111201223 0 -0.00047967796839976302 0.035202417461220548 0 -0.00036104403135359483 0.035220752101474052 0 -0.00044517752158642037 0.035316895111201223 0 -0.00047967796839976302 0.035202417461220548 0 -0.00056039895982333424 0.035242927859197151 0 -0.00044517752158642037 0.035316895111201223 0 -0.00036104403135359483 0.035220752101474052 0 -0.00024855452237310539 0.035281964242954315 0 -0.00036104403135359483 0.035220752101474052 0 -0.0002783479294513732 0.035166176766420032 0 -0.00024855452237310539 0.035281964242954315 0 -0.00036104403135359483 0.035220752101474052 0 -0.0002783479294513732 0.035166176766420032 0 -0.00038768027709836823 0.035092046709502153 0 -0.00047967796839976302 0.035202417461220548 0 -0.00036104403135359483 0.035220752101474052 0 -0.00038768027709836823 0.035092046709502153 0 -7.1581173032257581e-05 0.034974219449778264 0 -0.00013641379370375422 0.034940705724054333 0 -0.00017310008883096153 0.035175664670908678 0 -6.9527044955975574e-05 0.035246230077385365 0 -0.00024855452237310539 0.035281964242954315 0 -0.0002783479294513732 0.035166176766420032 0 -0.00017310008883096153 0.035175664670908678 0 -0.00024855452237310539 0.035281964242954315 0 -0.000227127872813687 0.035060950810248119 0 -0.0001248603213742102 0.034926966324903601 0 -0.00010602700697857543 0.035072865122087821 0 -0.00017310008883096153 0.035175664670908678 0 -0.000227127872813687 0.035060950810248119 0 -0.00010602700697857543 0.035072865122087821 0 -0.0002783479294513732 0.035166176766420032 0 -0.00017310008883096153 0.035175664670908678 0 -0.000227127872813687 0.035060950810248119 0 -0.000227127872813687 0.035060950810248119 0 -0.00038768027709836823 0.035092046709502153 0 -0.00032219900960357375 0.034938013667861409 0 -0.0002783479294513732 0.035166176766420032 0 -0.000227127872813687 0.035060950810248119 0 -0.00038768027709836823 0.035092046709502153 0 -0.00049245122955604939 0.034956080691193395 0 -0.00038768027709836823 0.035092046709502153 0 -0.00032219900960357375 0.034938013667861409 0 -0.0004353978224073857 0.034791100623670246 0 -0.00049245122955604939 0.034956080691193395 0 -0.00032219900960357375 0.034938013667861409 0 -0.0004353978224073857 0.034791100623670246 0 -0.00032219900960357375 0.034938013667861409 0 -0.0003045765085855666 0.034805820198211511 0 -0.000227127872813687 0.035060950810248119 0 -0.00032219900960357375 0.034938013667861409 0 -0.0001248603213742102 0.034926966324903601 0 -0.00032219900960357375 0.034938013667861409 0 -0.0001248603213742102 0.034926966324903601 0 -0.0003045765085855666 0.034805820198211511 0 -0.0001248603213742102 0.034926966324903601 0 -0.00017983172009962211 0.034834690970443588 0 -0.0003045765085855666 0.034805820198211511 0 -0.00017983172009962211 0.034834690970443588 0 -0.0003045765085855666 0.034805820198211511 0 -0.00025072133342453177 0.034715835938082758 0 -0.0004193370048231255 0.034675944818904132 0 -0.0003045765085855666 0.034805820198211511 0 -0.00025072133342453177 0.034715835938082758 0 -0.0004353978224073857 0.034791100623670246 0 -0.0004193370048231255 0.034675944818904132 0 -0.0003045765085855666 0.034805820198211511 0 -1.449153243763931e-08 0.034999900517675368 0 -2.9436017584625864e-05 0.034985379361541072 0 -8.3033256536451562e-05 0.034869045441169561 0 -0.0001248603213742102 0.034926966324903601 0 -0.00017983172009962211 0.034834690970443588 0 -8.3033256536451562e-05 0.034869045441169561 0 -0.0001248603213742102 0.034926966324903601 0 -2.9436017584625864e-05 0.034985379361541072 0 -8.3033256536451562e-05 0.034869045441169561 0 -0.0001248603213742102 0.034926966324903601 0 -2.9436017584625864e-05 0.034985379361541072 0 -6.1830580854115019e-05 0.035005621878693008 0 -0.00012054884776393587 0.034921217069795181 0 -8.0150531873433788e-05 0.035065500668398031 0 -1.449153243763931e-08 0.034999900517675368 0 -2.9436017584625864e-05 0.034985379361541072 0 -2.2282428595455978e-08 0.035000022083953641 0 -2.9436017584625864e-05 0.034985379361541072 0 -2.2282428595455978e-08 0.035000022083953641 0 -2.696310535911503e-05 0.035005819490474877 0 -2.9436017584625864e-05 0.034985379361541072 0 -2.696310535911503e-05 0.035005819490474877 0 -6.1830580854115019e-05 0.035005621878693008 0 -0.00017310008883096153 0.035175664670908678 0 -0.00010602700697857543 0.035072865122087821 0 -6.9527044955975574e-05 0.035246230077385365 0 -8.0150531873433788e-05 0.035065500668398031 0 -7.1581173032257581e-05 0.034974219449778264 0 -2.696310535911503e-05 0.035005819490474877 0 -6.1830580854115019e-05 0.035005621878693008 0 -3.0904160585263593e-05 0.03501788069017743 0 -2.696310535911503e-05 0.035005819490474877 0 -3.0904160585263593e-05 0.03501788069017743 0 -1.5077100724989071e-05 0.035010145587140599 0 -7.1581173032257581e-05 0.034974219449778264 0 -1.7893701899188385e-05 0.034991030293986598 0 -2.2282428595455978e-08 0.035000022083953641 0 -2.696310535911503e-05 0.035005819490474877 0 -1.5077100724989071e-05 0.035010145587140599 0 -2.2282428595455978e-08 0.035000022083953641 0 -1.5077100724989071e-05 0.035010145587140599 0 -1.1077685373506215e-08 0.035000012103998036 0 -1.5077100724989071e-05 0.035010145587140599 0 -1.1077685373506215e-08 0.035000012103998036 0 -6.4495375507250186e-06 0.035002020815462428 0 -1.1077685373506215e-08 0.035000012103998036 0 -6.4495375507250186e-06 0.035002020815462428 0 -1.0942346757813431e-09 0.034999999426535984 0 -6.4495375507250186e-06 0.035002020815462428 0 -3.8190740729347682e-06 0.03499943742296259 0 -1.0942346757813431e-09 0.034999999426535984 0 -1.5914318605663008e-05 0.034631464703487734 0 -2.4640212313441023e-05 0.034632352002985173 0 -2.0721538119669356e-05 0.034637593988871646 0 -7.477346246075744e-06 0.035006945387199791 0 -6.4495375507250186e-06 0.035002020815462428 0 -3.8190740729347682e-06 0.03499943742296259 0 -7.1581173032257581e-05 0.034974219449778264 0 -6.7778576197715958e-06 0.034781899279681686 0 -1.6440415204855498e-05 0.034616280856593747 0 -1.5914318605663008e-05 0.034631464703487734 0 -2.919517535329504e-05 0.034627300597261955 0 -7.477346246075744e-06 0.035006945387199791 0 -1.5077100724989071e-05 0.035010145587140599 0 -6.4495375507250186e-06 0.035002020815462428 0 -1.6440415204855498e-05 0.034616280856593747 0 -2.919517535329504e-05 0.034627300597261955 0 -4.0461610562562285e-05 0.034610039698771251 0 -9.607471808467438e-05 0.034611659717129942 0 -4.0461610562562285e-05 0.034610039698771251 0 -8.8047333536576117e-05 0.034634815266343356 0 -2.919517535329504e-05 0.034627300597261955 0 -3.1023237218906449e-05 0.034627105012845633 0 -2.9277560082613861e-05 0.034630830406558982 0 -2.919517535329504e-05 0.034627300597261955 0 -4.0461610562562285e-05 0.034610039698771251 0 -8.8047333536576117e-05 0.034634815266343356 0 -2.9778469143007583e-05 0.034619588531774138 0 -6.1593293516633475e-05 0.034680818821570009 0 -0.00028706058666081542 0.03500532120909533 0 -0.00013641379370375422 0.034940705724054333 0 -3.1351739199696955e-05 0.034630290834363468 0 -3.1023237218906449e-05 0.034627105012845633 0 -2.9277560082613861e-05 0.034630830406558982 0 -3.1351739199696955e-05 0.034630290834363468 0 -2.9277560082613861e-05 0.034630830406558982 0 -3.1674254089275833e-05 0.034635473985257799 0 -1.5914318605663008e-05 0.034631464703487734 0 -2.919517535329504e-05 0.034627300597261955 0 -2.4640212313441023e-05 0.034632352002985173 0 -2.919517535329504e-05 0.034627300597261955 0 -2.9277560082613861e-05 0.034630830406558982 0 -2.4640212313441023e-05 0.034632352002985173 0 -2.4640212313441023e-05 0.034632352002985173 0 -2.0721538119669356e-05 0.034637593988871646 0 -2.9844983719662343e-05 0.034637197482420806 0 -2.9277560082613861e-05 0.034630830406558982 0 -2.4640212313441023e-05 0.034632352002985173 0 -2.9844983719662343e-05 0.034637197482420806 0 -2.9277560082613861e-05 0.034630830406558982 0 -2.9844983719662343e-05 0.034637197482420806 0 -3.1674254089275833e-05 0.034635473985257799 0 -3.3008031037845322e-05 0.034642959881982197 0 -2.9844983719662343e-05 0.034637197482420806 0 -3.1674254089275833e-05 0.034635473985257799 0 -3.3008031037845322e-05 0.034642959881982197 0 -2.9844983719662343e-05 0.034637197482420806 0 -3.4914453670454879e-05 0.034643592367165923 0 -4.2876932516845976e-05 0.034640236008610895 0 -3.3008031037845322e-05 0.034642959881982197 0 -3.4914453670454879e-05 0.034643592367165923 0 -2.0721538119669356e-05 0.034637593988871646 0 -3.4914453670454879e-05 0.034643592367165923 0 -2.3352839115751881e-05 0.03464741537115653 0 -2.0721538119669356e-05 0.034637593988871646 0 -2.9844983719662343e-05 0.034637197482420806 0 -3.4914453670454879e-05 0.034643592367165923 0 -2.0721538119669356e-05 0.034637593988871646 0 -1.1773842951615923e-05 0.034645407951799101 0 -9.3916619632470384e-06 0.034637556670752745 0 1.3720700481325656e-05 0.034655094435596917 0 -1.1773842951615923e-05 0.034645407951799101 0 -9.3916619632470384e-06 0.034637556670752745 0 -2.0721538119669356e-05 0.034637593988871646 0 -2.3352839115751881e-05 0.03464741537115653 0 -1.1773842951615923e-05 0.034645407951799101 0 7.8143759022786537e-10 0.0349999897143441 0 -1.0942346757813431e-09 0.034999999426535984 0 -8.9835013799097266e-07 0.034999236907478137 0 7.8143759022786537e-10 0.0349999897143441 0 -3.5453185682517916e-08 0.034999329933172424 0 -8.9835013799097266e-07 0.034999236907478137 0 8.1651863842020097e-06 0.034827499779963467 0 -4.1963001118753112e-06 0.034825883176741797 0 -3.8190740729347682e-06 0.03499943742296259 0 -1.0942346757813431e-09 0.034999999426535984 0 -8.9835013799097266e-07 0.034999236907478137 0 -6.7778576197715958e-06 0.034781899279681686 0 -4.1963001118753112e-06 0.034825883176741797 0 -1.5914318605663008e-05 0.034631464703487734 0 -2.0721538119669356e-05 0.034637593988871646 0 -9.3916619632470384e-06 0.034637556670752745 0 0.00070536392538527077 0.00068354528565248672 0 0.00078372832892737896 0.00067364448257795475 0 0.00074802466599921511 0.00056347513679256384 0 0.00070536392538527077 0.00068354528565248672 0 0.00078372832892737896 0.00067364448257795475 0 0.00073933890428632678 0.00076211997155284632 0 0.0010093241769171186 -0.00030345592602527485 0 0.0010494821124097133 -3.780317045179194e-05 0 0.00089270204783738769 -0.00011427656737481681 0 0.00095171248901669396 0.00028708610501008362 0 0.00097898744036724003 8.5750926279470725e-05 0 0.00078372832892737896 0.00067364448257795475 0 0.00087150214739731703 0.00058692349069857676 0 0.00085509737654747395 0.00075823472957626289 0 0.0010093241769171186 -0.00030345592602527485 0 0.0010494821124097133 -3.780317045179194e-05 0 0.001063352749259207 -0.00039627313316186206 0 0.00087150214739731703 0.00058692349069857676 0 0.00074802466599921511 0.00056347513679256384 0 0.00085132354331382087 0.00039436441870160759 0 0.00095171248901669396 0.00028708610501008362 0 0.00091547947607216321 0.00029141354333484941 0 0.0010494821124097133 -3.780317045179194e-05 0 0.00089270204783738769 -0.00011427656737481681 0 0.00089590481489910262 0.00014348847800765748 0 0.0010494821124097133 -3.780317045179194e-05 0 0.00089590481489910262 0.00014348847800765748 0 0.00090272467538657982 0.00031517976970389986 0 0.00078372832892737896 0.00067364448257795475 0 0.00087150214739731703 0.00058692349069857676 0 0.00074802466599921511 0.00056347513679256384 0 0.00074802466599921511 0.00056347513679256384 0 0.00066970175838856861 0.00052043638623805975 0 0.00075541328737321412 0.00044050130438875524 0 0.00074802466599921511 0.00056347513679256384 0 0.00066970175838856861 0.00052043638623805975 0 0.00059827438772086061 0.00065273792954727468 0 0.00066970175838856861 0.00052043638623805975 0 0.00059827438772086061 0.00065273792954727468 0 0.0005424137898933023 0.00053632663764957165 0 0.00059827438772086061 0.00065273792954727468 0 0.0005424137898933023 0.00053632663764957165 0 0.00045733235751894741 0.00069541081353738322 0 0.00059827438772086061 0.00065273792954727468 0 0.00053003261184313361 0.00077470222987235308 0 0.00045733235751894741 0.00069541081353738322 0 0.00059827438772086061 0.00065273792954727468 0 0.00061171775249981757 0.0007456008502819718 0 0.00053003261184313361 0.00077470222987235308 0 0.00070536392538527077 0.00068354528565248672 0 0.00059827438772086061 0.00065273792954727468 0 0.00061171775249981757 0.0007456008502819718 0 0.00070536392538527077 0.00068354528565248672 0 0.00074802466599921511 0.00056347513679256384 0 0.00059827438772086061 0.00065273792954727468 0 0.00061171775249981757 0.0007456008502819718 0 0.00062214679676432147 0.00081950203103971209 0 0.00073933890428632678 0.00076211997155284632 0 0.00061171775249981757 0.0007456008502819718 0 0.0006037904703703053 0.00082805354391403852 0 0.00062214679676432147 0.00081950203103971209 0 0.00061171775249981757 0.0007456008502819718 0 0.00053003261184313361 0.00077470222987235308 0 0.0006037904703703053 0.00082805354391403852 0 0.00063278583128367565 0.00085330671001823991 0 0.00074666848966030007 0.0011427898762877394 0 0.0010635961584290446 0.0018935867261672141 0 0.00078552098884085561 0.0012855509564403628 0 0.0011671477797878108 0.0014503914185441517 0 0.00078552098884085561 0.0012855509564403628 0 0.0011671477797878108 0.0014503914185441517 0 0.0011316923668078537 0.0010703520243875988 0 0.0006037904703703053 0.00082805354391403852 0 0.00062214679676432147 0.00081950203103971209 0 0.00059067666656904036 0.00079081988807260168 0 0.00062214679676432147 0.00081950203103971209 0 0.00059067666656904036 0.00079081988807260168 0 0.00056077067253262924 0.00079642721473525036 0 0.00056077067253262924 0.00079642721473525036 0 0.00051017785289336997 0.00082092806907659119 0 0.00050650886443304145 0.00074731067191363373 0 0.00095836322496906838 7.2651820845386148e-05 0 0.00082168539749070523 -0.00026518040216892328 0 0.00062214679676432147 0.00081950203103971209 0 0.00056077067253262924 0.00079642721473525036 0 0.00051017785289336997 0.00082092806907659119 0 0.0012495487053264317 -0.0013378077234921257 0 0.0012791284227110242 -0.0012773318883884408 0 0.0011326131250160253 -0.0011530205747700734 0 0.00053983054782106622 0.00090532721288267637 0 0.00095836322496906838 7.2651820845386148e-05 0 0.00070536392538527077 0.00068354528565248672 0 0.00061171775249981757 0.0007456008502819718 0 0.00073933890428632678 0.00076211997155284632 0 0.00062214679676432147 0.00081950203103971209 0 0.00073933890428632678 0.00076211997155284632 0 0.00080057910025882494 0.00085790223158193257 0 0.0010093241769171186 -0.00030345592602527485 0 0.0010566487777711984 -0.00039412688942829687 0 0.0009372202500536939 -0.00038967306009268717 0 0.0010566487777711984 -0.00039412688942829687 0 0.0009372202500536939 -0.00038967306009268717 0 0.00094731208709747958 -0.00049130953616365351 0 0.0010828312003214554 -0.00024167561077965022 0 0.00097898744036724003 8.5750926279470725e-05 0 0.00078372832892737896 0.00067364448257795475 0 0.00073933890428632678 0.00076211997155284632 0 0.00085509737654747395 0.00075823472957626289 0 0.00073933890428632678 0.00076211997155284632 0 0.00085509737654747395 0.00075823472957626289 0 0.00080057910025882494 0.00085790223158193257 0 0.0010314802716186559 3.3104622813772831e-06 0 0.0010166962652557081 -0.00023616191737687523 0 0.0011423016905406393 -0.00021647597013761018 0 0.00097898744036724003 8.5750926279470725e-05 0 0.00095836322496906838 7.2651820845386148e-05 0 0.0010566487777711984 -0.00039412688942829687 0 0.0010436320291994851 -0.00058593723760122442 0 0.00094731208709747958 -0.00049130953616365351 0 0.00097898744036724003 8.5750926279470725e-05 0 0.0011280584430860623 -0.00064269097781518452 0 0.0011280584430860623 -0.00064269097781518452 0 0.00095836322496906838 7.2651820845386148e-05 0 0.0013266541226419717 -0.0013328174021036399 0 0.0012495487053264317 -0.0013378077234921257 0 0.0012791284227110242 -0.0012773318883884408 0 0.0013266541226419717 -0.0013328174021036399 0 0.0012791284227110242 -0.0012773318883884408 0 0.0012723630225825583 -0.0012074039031663487 0 0.0010436320291994851 -0.00058593723760122442 0 0.00074335657405802846 -0.00064374905779082962 0 0.00094731208709747958 -0.00049130953616365351 0 0.0014220240126510105 -0.00067673526209194898 0 0.0010197534971181173 -0.00070011222561446073 0 0.0012285708441029043 -0.00088369105080604072 0 0.0011280584430860623 -0.00064269097781518452 0 0.00089449014085662948 -0.0006720054925049532 0 0.00089449014085662948 -0.0006720054925049532 0 0.00049480834180404254 -0.00073168875720243398 0 0.0010197534971181173 -0.00070011222561446073 0 0.00048388822391184547 -0.00073431400573392312 0 0.00080251296855148447 -0.00090402001970829636 0 0.00074335657405802846 -0.00064374905779082962 0 0.0006032493730522932 -0.00039636977516667405 0 0.00048388822391184547 -0.00073431400573392312 0 0.0006032493730522932 -0.00039636977516667405 0 0.00084118436724069882 -0.00045373810258390955 0 0.00083670843631225133 -0.0003046804293222578 0 0.00074335657405802846 -0.00064374905779082962 0 0.0006032493730522932 -0.00039636977516667405 0 0.00084118436724069882 -0.00045373810258390955 0 0.00074335657405802846 -0.00064374905779082962 0 0.00094731208709747958 -0.00049130953616365351 0 0.00084118436724069882 -0.00045373810258390955 0 0.0009372202500536939 -0.00038967306009268717 0 0.00084118436724069882 -0.00045373810258390955 0 0.00083670843631225133 -0.0003046804293222578 0 0.0010093241769171186 -0.00030345592602527485 0 0.0009372202500536939 -0.00038967306009268717 0 0.00083670843631225133 -0.0003046804293222578 0 0.0009372202500536939 -0.00038967306009268717 0 0.00094731208709747958 -0.00049130953616365351 0 0.00084118436724069882 -0.00045373810258390955 0 0.00024407892958639002 -0.00077109212124859951 0 0.00048388822391184547 -0.00073431400573392312 0 0.00032423649632121697 -0.00052574906402051583 0 1.0708672256498098e-05 -0.0005482107024531262 0 0.00024407892958639002 -0.00077109212124859951 0 0.00032423649632121697 -0.00052574906402051583 0 0.0006032493730522932 -0.00039636977516667405 0 0.00048388822391184547 -0.00073431400573392312 0 0.00032423649632121697 -0.00052574906402051583 0 0.0006032493730522932 -0.00039636977516667405 0 0.00032423649632121697 -0.00052574906402051583 0 0.00028512645453487471 -0.00029866425865521641 0 1.0708672256498098e-05 -0.0005482107024531262 0 0.00032423649632121697 -0.00052574906402051583 0 0.00028512645453487471 -0.00029866425865521641 0 0.0016887532089499876 -0.0064764460947719978 0 0.0019124658527476094 -0.0065181927186309255 0 0.0018911738038935597 -0.0062042875858045604 0 0.0014694896332651498 -0.0069325251289952365 0 0.0019233324646216715 -0.0062384096864485398 0 0.0015212504126618568 -0.0070578047771199404 0 0.0016645276035068522 -0.006428494848119087 0 0.0018911738038935597 -0.0062042875858045604 0 0.001051558889950009 -0.0035581922565122662 0 0.0015332709733479181 -0.0029605023335458978 0 0.0006032493730522932 -0.00039636977516667405 0 0.00028512645453487471 -0.00029866425865521641 0 0.00054153808327707593 -3.3165289732866285e-05 0 0.0025316016790920309 -0.0059927938996073649 0 0.0018911738038935597 -0.0062042875858045604 0 0.0022897970973695457 -0.0057136878073454659 0 0.0025316016790920309 -0.0059927938996073649 0 0.0026917962903585321 -0.0055661807183369537 0 0.0022897970973695457 -0.0057136878073454659 0 0.0015514320505393732 -0.0066893126177620388 0 0.0022046712476987587 -0.0061030504412722579 0 0.0016645276035068522 -0.006428494848119087 0 0.0018911738038935597 -0.0062042875858045604 0 0.0022897970973695457 -0.0057136878073454659 0 0.0014376892555873076 -0.0069347538339699253 0 0.0017738655763281375 -0.0063884394291679539 0 0.0020999119567513941 -0.0064785026668425843 0 0.0019124658527476094 -0.0065181927186309255 0 0.0025316016790920309 -0.0059927938996073649 0 0.0018911738038935597 -0.0062042875858045604 0 0.00089270204783738769 -0.00011427656737481681 0 0.00083670843631225133 -0.0003046804293222578 0 0.00073230259752526505 -0.00017061194621980277 0 0.0010093241769171186 -0.00030345592602527485 0 0.00089270204783738769 -0.00011427656737481681 0 0.00083670843631225133 -0.0003046804293222578 0 0.0006032493730522932 -0.00039636977516667405 0 0.00054153808327707593 -3.3165289732866285e-05 0 0.00073230259752526505 -0.00017061194621980277 0 0.0006032493730522932 -0.00039636977516667405 0 0.00083670843631225133 -0.0003046804293222578 0 0.00073230259752526505 -0.00017061194621980277 0 0.00054153808327707593 -3.3165289732866285e-05 0 0.00078425404414167368 1.7107350607048061e-05 0 0.00082512492493867567 0.00023403199214500122 0 0.00054153808327707593 -3.3165289732866285e-05 0 0.00073230259752526505 -0.00017061194621980277 0 0.00078425404414167368 1.7107350607048061e-05 0 0.00089270204783738769 -0.00011427656737481681 0 0.00078425404414167368 1.7107350607048061e-05 0 0.00089590481489910262 0.00014348847800765748 0 0.00089270204783738769 -0.00011427656737481681 0 0.00073230259752526505 -0.00017061194621980277 0 0.00078425404414167368 1.7107350607048061e-05 0 0.00089590481489910262 0.00014348847800765748 0 0.00082512492493867567 0.00023403199214500122 0 0.00090272467538657982 0.00031517976970389986 0 0.00078425404414167368 1.7107350607048061e-05 0 0.00089590481489910262 0.00014348847800765748 0 0.00082512492493867567 0.00023403199214500122 0 0.003196049591385009 -0.0052991062071074159 0 0.0029525850063275537 -0.0051616717267467006 0 0.0031681228449053438 -0.0049853087577804416 0 0.0024744879036274732 -0.0060312701095750054 0 0.0026829565218675984 -0.0060771089398274497 0 0.0020999119567513941 -0.0064785026668425843 0 0.0026917962903585321 -0.0055661807183369537 0 0.0028610387469396774 -0.0052378462717575852 0 0.0022897970973695457 -0.0057136878073454659 0 0.003196049591385009 -0.0052991062071074159 0 0.0026917962903585321 -0.0055661807183369537 0 0.0028610387469396774 -0.0052378462717575852 0 0.0025316016790920309 -0.0059927938996073649 0 0.003196049591385009 -0.0052991062071074159 0 0.0026917962903585321 -0.0055661807183369537 0 0.0015332709733479181 -0.0029605023335458978 0 0.002144290636757403 -0.0027105097963763501 0 0.0024744879036274732 -0.0060312701095750054 0 0.0026829565218675984 -0.0060771089398274497 0 0.0027722698135472837 -0.0060150105531336841 0 0.003196049591385009 -0.0052991062071074159 0 0.0028610387469396774 -0.0052378462717575852 0 0.0029525850063275537 -0.0051616717267467006 0 0.0027710308478782193 -0.00558940180927799 0 0.0029184899081223709 -0.0054304242002622613 0 0.0024744879036274732 -0.0060312701095750054 0 0.0027722698135472837 -0.0060150105531336841 0 0.003186555191402379 -0.0056625503740962459 0 0.0015337726004563631 -0.0058103907699338627 0 0.0016860662957738515 -0.005053796504425296 0 0.0025664229491892602 -0.0053102190824611088 0 0.0029184899081223709 -0.0054304242002622613 0 0.0031510831549131074 -0.0051562007041354536 0 0.0020149168715160024 -0.0060085824227441055 0 0.0026907793285611422 -0.0046883627625707459 0 0.003196049591385009 -0.0052991062071074159 0 0.0033794554877187338 -0.0047542260848360282 0 0.0038679160887228245 -0.0046253964872502596 0 0.002144290636757403 -0.0027105097963763501 0 0.0013051011627619664 -0.00095376911624766507 0 0.0029184899081223709 -0.0054304242002622613 0 0.0026907793285611422 -0.0046883627625707459 0 0.003196049591385009 -0.0052991062071074159 0 0.0033794554877187338 -0.0047542260848360282 0 0.0031681228449053438 -0.0049853087577804416 0 0.0029463079789086768 -0.005153837742259474 0 0.0033794554877187338 -0.0047542260848360282 0 0.0031681228449053438 -0.0049853087577804416 0 0.00057903898239494473 -0.0062276704997877332 0 0.00089220845254563705 -0.0056930273262774988 0 0.00036007751261889253 -0.0055635575363354494 0 0.00010471811620273165 -0.0060135167857592693 0 0.00057903898239494473 -0.0062276704997877332 0 0.00036007751261889253 -0.0055635575363354494 0 0.0020149168715160024 -0.0060085824227441055 0 0.0011646583467171774 -0.0063237009887029483 0 0.0024744879036274732 -0.0060312701095750054 0 0.0017738655763281375 -0.0063884394291679539 0 0.0020999119567513941 -0.0064785026668425843 0 0.0027710308478782193 -0.00558940180927799 0 0.0022046712476987587 -0.0061030504412722579 0 0.0015337726004563631 -0.0058103907699338627 0 0.00057903898239494473 -0.0062276704997877332 0 0.00089220845254563705 -0.0056930273262774988 0 0.0015337726004563631 -0.0058103907699338627 0 0.0016860662957738515 -0.005053796504425296 0 0.00089220845254563705 -0.0056930273262774988 0 0.0016860662957738515 -0.005053796504425296 0 0.00089220845254563705 -0.0056930273262774988 0 0.00092569743224224282 -0.0048405845466666705 0 0.00089220845254563705 -0.0056930273262774988 0 0.00036007751261889253 -0.0055635575363354494 0 0.00092569743224224282 -0.0048405845466666705 0 0.00042979205844565231 -0.0054742530757100729 0 0.0010722780296419671 -0.0048058553510493384 0 0.00011543804146310532 -0.004616542347120116 0 0.00036007751261889253 -0.0055635575363354494 0 0.0013031950496234512 -0.0047154120144043462 0 0.00011543804146310532 -0.004616542347120116 0 0.0013031950496234512 -0.0047154120144043462 0 0.00090946140611262842 -0.0039379258125189932 0 0.0013031950496234512 -0.0047154120144043462 0 0.00090946140611262842 -0.0039379258125189932 0 0.0021854317957217188 -0.0038763550413544383 0 0.0010722780296419671 -0.0048058553510493384 0 0.0021388056090256621 -0.0039686539718760483 0 0.0016860662957738515 -0.005053796504425296 0 0.00092569743224224282 -0.0048405845466666705 0 0.0016090926457986573 -0.0040981174630084945 0 0.0013800951743709129 -0.0032062424294477042 0 0.00090946140611262842 -0.0039379258125189932 0 0.0021854317957217188 -0.0038763550413544383 0 0.0013800951743709129 -0.0032062424294477042 0 0.00090946140611262842 -0.0039379258125189932 0 0.00033856886616382374 -0.0032721064880701332 0 0.00011543804146310532 -0.004616542347120116 0 0.00090946140611262842 -0.0039379258125189932 0 0.00033856886616382374 -0.0032721064880701332 0 0.0024072470458690576 -0.0045647851387315983 0 0.0028201574892669202 -0.0041685239828643927 0 0.0032147537607981934 -0.0047945123849526938 0 0.0016860662957738515 -0.005053796504425296 0 0.0025664229491892602 -0.0053102190824611088 0 0.0024072470458690576 -0.0045647851387315983 0 0.0025664229491892602 -0.0053102190824611088 0 0.0024072470458690576 -0.0045647851387315983 0 0.0032147537607981934 -0.0047945123849526938 0 0.0016860662957738515 -0.005053796504425296 0 0.0024072470458690576 -0.0045647851387315983 0 0.0016090926457986573 -0.0040981174630084945 0 0.00066043005131281244 -0.0023216550778377598 0 0.0021388056090256621 -0.0039686539718760483 0 0.0024072470458690576 -0.0045647851387315983 0 0.0016090926457986573 -0.0040981174630084945 0 0.0024144429933008185 -0.0039822662510684212 0 0.0023350850703672708 -0.0033803433168657681 0 0.0016090926457986573 -0.0040981174630084945 0 0.0024144429933008185 -0.0039822662510684212 0 0.0024144429933008185 -0.0039822662510684212 0 0.0028201574892669202 -0.0041685239828643927 0 0.002918935222452864 -0.0037099681252526335 0 0.0024072470458690576 -0.0045647851387315983 0 0.0024144429933008185 -0.0039822662510684212 0 0.0028201574892669202 -0.0041685239828643927 0 0.0023350850703672708 -0.0033803433168657681 0 0.0024144429933008185 -0.0039822662510684212 0 0.002918935222452864 -0.0037099681252526335 0 0.00066043005131281244 -0.0023216550778377598 0 0.0031083036249268782 -0.0038528025405914173 0 -0.00040892522130446193 0.0030267038812313535 0 8.5513805312622596e-05 0.0029112100689176728 0 -0.00030471161878517007 0.0022510776016195521 0 -6.0674136331942387e-05 0.0033131051611853548 0 -0.00040892522130446193 0.0030267038812313535 0 8.5513805312622596e-05 0.0029112100689176728 0 0.0028201574892669202 -0.0041685239828643927 0 0.002918935222452864 -0.0037099681252526335 0 0.0031424351485771751 -0.0038006347399071917 0 -6.0674136331942387e-05 0.0033131051611853548 0 0.00029542005109835348 0.0032176211918861493 0 8.5513805312622596e-05 0.0029112100689176728 0 0.00029542005109835348 0.0032176211918861493 0 8.5513805312622596e-05 0.0029112100689176728 0 0.00020715234794730218 0.0027498843019066587 0 0.00070154384435008627 0.0036016978840884943 0 0.00045737103193774204 0.0046799465803730985 0 0.00045737103193774204 0.0046799465803730985 0 0.00039038279169549295 0.0047214180688423127 0 0.00075626256118555544 0.000362292900721838 0 0.00075768314806826228 0.00036576870801960783 0 0.0006789743504031615 0.0003928508538893796 0 8.5513805312622596e-05 0.0029112100689176728 0 0.00023535458443659893 0.0027103816441756108 0 -0.00030471161878517007 0.0022510776016195521 0 0.00075626256118555544 0.000362292900721838 0 0.00075768314806826228 0.00036576870801960783 0 0.00077564651336916451 0.00035595165951251759 0 0.0028201574892669202 -0.0041685239828643927 0 0.0031424351485771751 -0.0038006347399071917 0 0.0032147537607981934 -0.0047945123849526938 0 0.0014530346360236929 -0.00045483807072072452 0 0.001172290813110966 -0.0014072570724129308 0 0.00045737103193774204 0.0046799465803730985 0 0.001172290813110966 -0.0014072570724129308 0 0.00075768314806826228 0.00036576870801960783 0 0.00077564651336916451 0.00035595165951251759 0 0.00077613176500654986 0.00035679162034380515 0 0.00075768314806826228 0.00036576870801960783 0 0.00079039112463243186 0.00036057745204845325 0 0.00077874662301087626 0.00036748094272680683 0 0.00091660393154425514 -3.8876450244879381e-06 0 0.0017434461394500896 -0.0015920296198186207 0 0.001172290813110966 -0.0014072570724129308 0 0.0017434461394500896 -0.0015920296198186207 0 0.0013051011627619664 -0.00095376911624766507 0 0.0007256415989039005 0.00090762996518219726 0 0.0026907793285611422 -0.0046883627625707459 0 0.001172290813110966 -0.0014072570724129308 0 0.0033794554877187338 -0.0047542260848360282 0 0.0038454288236534312 -0.004487367099178863 0 0.0038679160887228245 -0.0046253964872502596 0 0.0016926529162724518 -0.003031319642316069 0 0.0022003076943747034 -0.0026029444422182224 0 0.0022247815402599695 -0.0027593790122847706 0 0.00078294793082476469 0.00037319901490856663 0 0.00079561494185812019 0.00039190424873285158 0 0.00085132354331382087 0.00039436441870160759 0 0.0026907793285611422 -0.0046883627625707459 0 0.0017434461394500896 -0.0015920296198186207 0 0.00082512492493867567 0.00023403199214500122 0 0.00093111033102577262 0.00020445043474908299 0 0.00090272467538657982 0.00031517976970389986 0 0.00078294793082476469 0.00037319901490856663 0 0.00077924771409002664 0.00038391969837068732 0 0.00079561494185812019 0.00039190424873285158 0 0.00078294793082476469 0.00037319901490856663 0 0.00077874662301087626 0.00036748094272680683 0 0.00077924771409002664 0.00038391969837068732 0 0.0017434461394500896 -0.0015920296198186207 0 0.0013051011627619664 -0.00095376911624766507 0 0.00079039112463243186 0.00036057745204845325 0 0.00078869477708615426 0.0003659115068523064 0 0.00077874662301087626 0.00036748094272680683 0 0.0013051011627619664 -0.00095376911624766507 0 0.0013171691784197197 -0.00051966713555642906 0 0.00075768314806826228 0.00036576870801960783 0 0.00074985703517089423 0.00038402493617275754 0 0.0006789743504031615 0.0003928508538893796 0 0.00075768314806826228 0.00036576870801960783 0 0.00077874662301087626 0.00036748094272680683 0 0.00074985703517089423 0.00038402493617275754 0 0.00077874662301087626 0.00036748094272680683 0 0.00074985703517089423 0.00038402493617275754 0 0.00077924771409002664 0.00038391969837068732 0 0.00074985703517089423 0.00038402493617275754 0 0.00076171107615725442 0.00040249019768437633 0 0.00069997144510912422 0.00043947877963084316 0 0.00074985703517089423 0.00038402493617275754 0 0.00077924771409002664 0.00038391969837068732 0 0.00076171107615725442 0.00040249019768437633 0 0.00077924771409002664 0.00038391969837068732 0 0.00076171107615725442 0.00040249019768437633 0 0.00079561494185812019 0.00039190424873285158 0 0.00076171107615725442 0.00040249019768437633 0 0.00079561494185812019 0.00039190424873285158 0 0.00075541328737321412 0.00044050130438875524 0 0.00079561494185812019 0.00039190424873285158 0 0.00075541328737321412 0.00044050130438875524 0 0.00085132354331382087 0.00039436441870160759 0 0.00076171107615725442 0.00040249019768437633 0 0.00075541328737321412 0.00044050130438875524 0 0.00069997144510912422 0.00043947877963084316 0 0.00066970175838856861 0.00052043638623805975 0 0.00075541328737321412 0.00044050130438875524 0 0.00069997144510912422 0.00043947877963084316 0 0.00074802466599921511 0.00056347513679256384 0 0.00075541328737321412 0.00044050130438875524 0 0.00085132354331382087 0.00039436441870160759 0 0.00093111033102577262 0.00020445043474908299 0 0.00090272467538657982 0.00031517976970389986 0 0.00085132354331382087 0.00039436441870160759 0 0.00087150214739731703 0.00058692349069857676 0 0.00090272467538657982 0.00031517976970389986 0 0.00085132354331382087 0.00039436441870160759 0 0.00056766985262804328 0.0084317233307066204 0 0.0008247998448332385 0.0086075366440522775 0 0.00074751305889789784 0.0089043484064960862 0 0.00066970175838856861 0.00052043638623805975 0 0.0005424137898933023 0.00053632663764957165 0 0.00069997144510912422 0.00043947877963084316 0 0.0005424137898933023 0.00053632663764957165 0 0.00069997144510912422 0.00043947877963084316 0 0.0006789743504031615 0.0003928508538893796 0 0.00054451989278427818 0.0044478997813803484 0 0.00039038279169549295 0.0047214180688423127 0 0.00074985703517089423 0.00038402493617275754 0 0.00069997144510912422 0.00043947877963084316 0 0.0006789743504031615 0.0003928508538893796 0 0.0001811377391183891 0.0089323394048966189 0 0.00045195770674441685 0.0094478231207204364 0 0.00074751305889789784 0.0089043484064960862 0 0.00056766985262804328 0.0084317233307066204 0 0.0001811377391183891 0.0089323394048966189 0 0.00074751305889789784 0.0089043484064960862 0 0.00045195770674441685 0.0094478231207204364 0 0.00085524291320885064 0.0094672736410647516 0 0.00074751305889789784 0.0089043484064960862 0 -0.00020462371380698332 0.009438329778412427 0 0.0001811377391183891 0.0089323394048966189 0 0.00045195770674441685 0.0094478231207204364 0 0.000967470211472464 0.0033988128468719413 0 0.00029542005109835348 0.0032176211918861493 0 0.00020715234794730218 0.0027498843019066587 0 0.00035870289644754106 0.009928660953820263 0 -0.00020462371380698332 0.009438329778412427 0 0.00045195770674441685 0.0094478231207204364 0 0.00062333026578163299 0.0069111999241587051 0 0.00045737103193774204 0.0046799465803730985 0 0.0007353435491355908 0.009971587859978143 0 0.00035870289644754106 0.009928660953820263 0 0.00045195770674441685 0.0094478231207204364 0 0.0007353435491355908 0.009971587859978143 0 0.00045195770674441685 0.0094478231207204364 0 0.00085524291320885064 0.0094672736410647516 0 0.0007353435491355908 0.009971587859978143 0 0.00085524291320885064 0.0094672736410647516 0 0.0011366322955221205 0.0096983451016591747 0 0.00085524291320885064 0.0094672736410647516 0 0.0012107253217331804 0.0093245942278066905 0 0.00074751305889789784 0.0089043484064960862 0 0.00085524291320885064 0.0094672736410647516 0 0.0012107253217331804 0.0093245942278066905 0 0.0011366322955221205 0.0096983451016591747 0 0.0012107253217331804 0.0093245942278066905 0 0.0016280287434869501 0.0094839829849469107 0 0.0015054580285707502 0.0090927434159189142 0 0.0012107253217331804 0.0093245942278066905 0 0.0014202803380869004 0.0096823618752895618 0 0.0016280287434869501 0.0094839829849469107 0 0.001466392196485001 0.010010676644314877 0 0.0007353435491355908 0.009971587859978143 0 0.0011366322955221205 0.0096983451016591747 0 0.0012107253217331804 0.0093245942278066905 0 0.0014202803380869004 0.0096823618752895618 0 0.0011366322955221205 0.0096983451016591747 0 0.001466392196485001 0.010010676644314877 0 0.0014202803380869004 0.0096823618752895618 0 0.0011366322955221205 0.0096983451016591747 0 0.0017490828705231636 0.0097787668965485363 0 0.00204751908219011 0.0096467008817738356 0 0.0016280287434869501 0.0094839829849469107 0 0.002191866874503616 0.010054912109705653 0 0.001466392196485001 0.010010676644314877 0 0.0017490828705231636 0.0097787668965485363 0 0.001466392196485001 0.010010676644314877 0 0.0014202803380869004 0.0096823618752895618 0 0.0017490828705231636 0.0097787668965485363 0 0.0014202803380869004 0.0096823618752895618 0 0.0017490828705231636 0.0097787668965485363 0 0.0016280287434869501 0.0094839829849469107 0 0.002191866874503616 0.010054912109705653 0 0.0017490828705231636 0.0097787668965485363 0 0.00204751908219011 0.0096467008817738356 0 0.002191866874503616 0.010054912109705653 0 0.00204751908219011 0.0096467008817738356 0 0.0024577182509569755 0.0097896492894640631 0 0.00204751908219011 0.0096467008817738356 0 0.0021352035495737338 0.0092471969404195678 0 0.0024577182509569755 0.0097896492894640631 0 0.00204751908219011 0.0096467008817738356 0 0.0021352035495737338 0.0092471969404195678 0 0.0018029549260350937 0.0092537866400394519 0 0.00204751908219011 0.0096467008817738356 0 0.0016280287434869501 0.0094839829849469107 0 0.0018029549260350937 0.0092537866400394519 0 0.0016280287434869501 0.0094839829849469107 0 0.0018029549260350937 0.0092537866400394519 0 0.0015054580285707502 0.0090927434159189142 0 0.0018029549260350937 0.0092537866400394519 0 0.0015054580285707502 0.0090927434159189142 0 0.0017051835927863184 0.0088064295852998391 0 0.0015054580285707502 0.0090927434159189142 0 0.0017051835927863184 0.0088064295852998391 0 0.0014398291346977442 0.008865371849394045 0 0.0017051835927863184 0.0088064295852998391 0 0.001330887281867172 0.0086629108328208429 0 0.0014398291346977442 0.008865371849394045 0 0.0022505395169037947 0.0095050749757645461 0 0.001881711416768888 0.0091894284013566158 0 0.0022384421139213977 0.0091917644523974943 0 0.0021352035495737338 0.0092471969404195678 0 0.0018029549260350937 0.0092537866400394519 0 0.0017051835927863184 0.0088064295852998391 0 0.0021911623221762097 0.0093802295041772801 0 0.0017913417090365084 0.0089966466234657188 0 0.0022384421139213977 0.0091917644523974943 0 0.0020353181016581124 0.0088671782969969738 0 0.0023946191812029174 0.0089881230370381718 0 0.0021806892979934242 0.0088405085463448742 0 0.0016369999173246447 0.0116889506503684 0 0.0021888882081176021 0.0088585447670126993 0 0.0027859020576403433 0.0090026430558906492 0 0.0025150480342138086 0.0084765212329245675 0 0.001881711416768888 0.0091894284013566158 0 0.0022384421139213977 0.0091917644523974943 0 0.0020353181016581124 0.0088671782969969738 0 0.0020353181016581124 0.0088671782969969738 0 0.0017523820735179489 0.0088931014216014452 0 0.0015903102306989692 0.0087190845960993923 0 0.0021806892979934242 0.0088405085463448742 0 0.0016179537520008877 0.0087390581113487489 0 0.0017913417090365084 0.0089966466234657188 0 0.0013486934189063588 0.0085660654222331576 0 0.001881711416768888 0.0091894284013566158 0 0.0017523820735179489 0.0088931014216014452 0 0.0014151722390427933 0.0087479400777335115 0 0.001881711416768888 0.0091894284013566158 0 0.0020353181016581124 0.0088671782969969738 0 0.0017523820735179489 0.0088931014216014452 0 0.0017523820735179489 0.0088931014216014452 0 0.0015903102306989692 0.0087190845960993923 0 0.0014151722390427933 0.0087479400777335115 0 0.0017051835927863184 0.0088064295852998391 0 0.001330887281867172 0.0086629108328208429 0 0.0012823134960717885 0.0084079057873574017 0 0.001330887281867172 0.0086629108328208429 0 0.0010917067196890109 0.0086119330228580267 0 0.001222014997683579 0.0089006778578869829 0 0.0012823134960717885 0.0084079057873574017 0 0.0010917067196890109 0.0086119330228580267 0 0.0010402352317153284 0.0083728669180155122 0 0.001330887281867172 0.0086629108328208429 0 0.0012823134960717885 0.0084079057873574017 0 0.0010917067196890109 0.0086119330228580267 0 0.000894583037295103 0.0084298328737614728 0 0.0010917067196890109 0.0086119330228580267 0 0.0010402352317153284 0.0083728669180155122 0 0.000894583037295103 0.0084298328737614728 0 0.0008247998448332385 0.0086075366440522775 0 0.0010917067196890109 0.0086119330228580267 0 0.00056766985262804328 0.0084317233307066204 0 0.000894583037295103 0.0084298328737614728 0 0.0008247998448332385 0.0086075366440522775 0 0.0008247998448332385 0.0086075366440522775 0 0.0010917067196890109 0.0086119330228580267 0 0.00074751305889789784 0.0089043484064960862 0 0.0010917067196890109 0.0086119330228580267 0 0.00074751305889789784 0.0089043484064960862 0 0.001222014997683579 0.0089006778578869829 0 0.0012107253217331804 0.0093245942278066905 0 0.00074751305889789784 0.0089043484064960862 0 0.001222014997683579 0.0089006778578869829 0 0.0012107253217331804 0.0093245942278066905 0 0.0015054580285707502 0.0090927434159189142 0 0.001222014997683579 0.0089006778578869829 0 0.001330887281867172 0.0086629108328208429 0 0.0014398291346977442 0.008865371849394045 0 0.001222014997683579 0.0089006778578869829 0 0.0015054580285707502 0.0090927434159189142 0 0.0014398291346977442 0.008865371849394045 0 0.001222014997683579 0.0089006778578869829 0 0.0025561195714984665 0.016077035760384262 0 0.002174917150584741 0.016117860800028087 0 0.0022653679497938858 0.015710269939502378 0 0.0025561195714984665 0.016077035760384262 0 0.002174917150584741 0.016117860800028087 0 0.0023581463565691854 0.016449981659631116 0 0.0027639252802704895 0.016813329669867705 0 0.0025561195714984665 0.016077035760384262 0 0.0023581463565691854 0.016449981659631116 0 0.0022443117686516711 0.016787669999090458 0 0.0027639252802704895 0.016813329669867705 0 0.0023581463565691854 0.016449981659631116 0 0.0022443117686516711 0.016787669999090458 0 0.0023581463565691854 0.016449981659631116 0 0.0020617225299623212 0.01645797785138051 0 0.002174917150584741 0.016117860800028087 0 0.0023581463565691854 0.016449981659631116 0 0.0020617225299623212 0.01645797785138051 0 0.0017276310741293521 0.016772769329916979 0 0.0020617225299623212 0.01645797785138051 0 0.001810807884590682 0.016198340695452791 0 0.0017276310741293521 0.016772769329916979 0 0.0022443117686516711 0.016787669999090458 0 0.0020617225299623212 0.01645797785138051 0 0.002174917150584741 0.016117860800028087 0 0.0020617225299623212 0.01645797785138051 0 0.001810807884590682 0.016198340695452791 0 0.002174917150584741 0.016117860800028087 0 0.0019707106209441035 0.015891656461839231 0 0.0022653679497938858 0.015710269939502378 0 0.002174917150584741 0.016117860800028087 0 0.001810807884590682 0.016198340695452791 0 0.0019707106209441035 0.015891656461839231 0 0.001810807884590682 0.016198340695452791 0 0.0019707106209441035 0.015891656461839231 0 0.0016620294457482898 0.01583706009550814 0 0.0020516190874805156 0.012888362806893589 0 0.0018522538892899781 0.012564547264180152 0 0.0016620294457482898 0.01583706009550814 0 0.001420106436467983 0.016224770369663792 0 0.0010919809731945538 0.01564411578808186 0 0.0027579854110585359 0.0096842657652180964 0 0.0025864575722454874 0.0096340838813062483 0 0.0025721639840759654 0.009370221537022369 0 0.0027579854110585359 0.0096842657652180964 0 0.0026486503971162585 0.0097384250687680782 0 0.0025864575722454874 0.0096340838813062483 0 0.001810807884590682 0.016198340695452791 0 0.0016620294457482898 0.01583706009550814 0 0.001420106436467983 0.016224770369663792 0 0.0022559198345249477 0.011617444641878942 0 0.0024830580991474917 0.0095759207708564428 0 0.0028316443301059924 0.010122525762639761 0 0.0027050733664796341 0.0098720743578089853 0 0.0024577182509569755 0.0097896492894640631 0 0.0017276310741293521 0.016772769329916979 0 0.001810807884590682 0.016198340695452791 0 0.001420106436467983 0.016224770369663792 0 0.0025436522437115023 0.013739663156030299 0 0.0020516190874805156 0.012888362806893589 0 0.0030018250181167972 0.010125680699267958 0 0.0027579854110585359 0.0096842657652180964 0 0.0027050733664796341 0.0098720743578089853 0 0.0028316443301059924 0.010122525762639761 0 0.0030018250181167972 0.010125680699267958 0 0.0027050733664796341 0.0098720743578089853 0 0.0027579854110585359 0.0096842657652180964 0 0.0027050733664796341 0.0098720743578089853 0 0.0026486503971162585 0.0097384250687680782 0 0.0027050733664796341 0.0098720743578089853 0 0.0026486503971162585 0.0097384250687680782 0 0.0025370699674780043 0.0097472089842169565 0 0.0027050733664796341 0.0098720743578089853 0 0.0025370699674780043 0.0097472089842169565 0 0.0024577182509569755 0.0097896492894640631 0 0.0028511094178656801 0.010076001752951733 0 0.002191866874503616 0.010054912109705653 0 0.0024577182509569755 0.0097896492894640631 0 0.0022505395169037947 0.0095050749757645461 0 0.0024801156144308597 0.0095656623840290195 0 0.0025721639840759654 0.009370221537022369 0 0.0025864575722454874 0.0096340838813062483 0 0.0024801156144308597 0.0095656623840290195 0 0.0025721639840759654 0.009370221537022369 0 0.0022505395169037947 0.0095050749757645461 0 0.0025370699674780043 0.0097472089842169565 0 0.0024801156144308597 0.0095656623840290195 0 0.0021911623221762097 0.0093802295041772801 0 0.0025120533812624879 0.0097138669070640088 0 0.0021352035495737338 0.0092471969404195678 0 0.0025370699674780043 0.0097472089842169565 0 0.0024577182509569755 0.0097896492894640631 0 0.0025370699674780043 0.0097472089842169565 0 0.0025864575722454874 0.0096340838813062483 0 0.0024801156144308597 0.0095656623840290195 0 0.0026486503971162585 0.0097384250687680782 0 0.0025370699674780043 0.0097472089842169565 0 0.0025864575722454874 0.0096340838813062483 0 0.0022384421139213977 0.0091917644523974943 0 0.0025721639840759654 0.009370221537022369 0 0.0023946191812029174 0.0089881230370381718 0 0.0018522538892899781 0.012564547264180152 0 0.0016369999173246447 0.0116889506503684 0 0.0022505395169037947 0.0095050749757645461 0 0.0022384421139213977 0.0091917644523974943 0 0.0025721639840759654 0.009370221537022369 0 0.0016369999173246447 0.0116889506503684 0 0.0013849880155026412 0.014587381704801358 0 0.00087986150444463939 0.013765783966879093 0 0.0016441861596727385 0.013940083430321196 0 0.0015680601723432261 0.013534461696808725 0 0.00087986150444463939 0.013765783966879093 0 0.0015680601723432261 0.013534461696808725 0 0.00054673845503521844 0.013125212494050015 0 0.0010919809731945538 0.01564411578808186 0 0.00076164132223959283 0.015013442936006403 0 0.001345185447379786 0.015163292689192982 0 0.0011187020054286524 0.01442132517434553 0 0.0021610908539603001 0.016095733399633376 0 0.001345185447379786 0.015163292689192982 0 0.0015786707138788743 0.015492830773391067 0 0.0019050521714208963 0.015318026966325012 0 0.0013849880155026412 0.014587381704801358 0 0.0022989354838878471 0.015381126205012849 0 0.0016441861596727385 0.013940083430321196 0 0.0015680601723432261 0.013534461696808725 0 0.0024065089468507822 0.014116959799039262 0 0.0016620294457482898 0.01583706009550814 0 0.0010919809731945538 0.01564411578808186 0 0.0015786707138788743 0.015492830773391067 0 0.0010919809731945538 0.01564411578808186 0 0.001345185447379786 0.015163292689192982 0 0.0015786707138788743 0.015492830773391067 0 0.0016620294457482898 0.01583706009550814 0 0.0015786707138788743 0.015492830773391067 0 0.0019433556112300803 0.015603654779501982 0 0.0019707106209441035 0.015891656461839231 0 0.0016620294457482898 0.01583706009550814 0 0.0019433556112300803 0.015603654779501982 0 0.0019707106209441035 0.015891656461839231 0 0.0019433556112300803 0.015603654779501982 0 0.0022653679497938858 0.015710269939502378 0 0.0019433556112300803 0.015603654779501982 0 0.0019050521714208963 0.015318026966325012 0 0.0021826102896892034 0.015385945024645258 0 0.0019433556112300803 0.015603654779501982 0 0.0021826102896892034 0.015385945024645258 0 0.0022653679497938858 0.015710269939502378 0 0.0015786707138788743 0.015492830773391067 0 0.0019433556112300803 0.015603654779501982 0 0.0019050521714208963 0.015318026966325012 0 0.0015680601723432261 0.013534461696808725 0 0.0024065089468507822 0.014116959799039262 0 0.0025871131897765307 0.013943553432293858 0 0.0010061558499050995 0.015048135108321309 0 0.0015918665085166196 0.01507985535088306 0 0.001818409478940524 0.015381567065731136 0 0.0015918665085166196 0.01507985535088306 0 0.0018914001113930652 0.015309287200157139 0 0.001818409478940524 0.015381567065731136 0 0.0022989354838878471 0.015381126205012849 0 0.002105162992996091 0.015735032807808861 0 0.0022497934237181516 0.015901849800481611 0 0.0023344456372042044 0.015868860855564413 0 0.0023517150074368514 0.015922192607501686 0 0.0020484674928036056 0.017463221588758824 0 0.0022009250582660108 0.016959561790377255 0 0.0021328292764033717 0.016289311883397498 0 0.0018669873995291447 0.016550230461269383 0 0.0022622229541028166 0.01669268231437622 0 0.0020484674928036056 0.017463221588758824 0 0.0021610908539603001 0.016095733399633376 0 0.0021610908539603001 0.016095733399633376 0 0.0022009250582660108 0.016959561790377255 0 0.0022497934237181516 0.015901849800481611 0 0.0022983757611078491 0.015855590095415855 0 0.0023344456372042044 0.015868860855564413 0 0.0022989354838878471 0.015381126205012849 0 0.0021610908539603001 0.016095733399633376 0 0.0022009250582660108 0.016959561790377255 0 0.002105162992996091 0.015735032807808861 0 0.0018824314024637678 0.019601660462750362 0 0.0016049272255495774 0.019506777347433391 0 0.0017194145951979897 0.019911984427773779 0 0.0019407586207593475 0.020616245755185173 0 0.0014416193104970448 0.02220638177842147 0 0.0021721490203893798 0.01540790512014851 0 0.0023554082213665113 0.015454915753513728 0 0.0022458044372564408 0.015507738681705926 0 0.0013485940552569521 0.026074514789657485 0 0.0021946268184912547 0.025466447696307227 0 0.0024220873953041192 0.026231022308570714 0 0.0022009250582660108 0.016959561790377255 0 0.0019407586207593475 0.020616245755185173 0 0.0021721490203893798 0.01540790512014851 0 0.0022061120572594668 0.015501786745110985 0 0.0022458044372564408 0.015507738681705926 0 0.0020484674928036056 0.017463221588758824 0 0.0014416193104970448 0.02220638177842147 0 0.0019166110988970101 0.019711365655662356 0 0.0018824314024637678 0.019601660462750362 0 0.0017194145951979897 0.019911984427773779 0 0.0025561195714984665 0.016077035760384262 0 0.0023554082213665113 0.015454915753513728 0 0.0022653679497938858 0.015710269939502378 0 0.001919245896043716 0.01831012657536444 0 0.0019407586207593475 0.020616245755185173 0 0.0022028786086921619 0.015499547469794711 0 0.0022458044372564408 0.015507738681705926 0 0.0022653679497938858 0.015710269939502378 0 0.0023554082213665113 0.015454915753513728 0 0.0022458044372564408 0.015507738681705926 0 0.0022653679497938858 0.015710269939502378 0 0.002105162992996091 0.015735032807808861 0 0.0021747671746456224 0.015634228351456281 0 0.002105162992996091 0.015735032807808861 0 0.0021179300826757509 0.015727955046470819 0 0.0004346113325929959 0.024501872380919103 0 0.00088908665239583655 0.024086012630374035 0 0.0010614685435363922 0.024682823653156275 0 -4.7047267799348871e-05 0.024295701424385287 0 0.0004346113325929959 0.024501872380919103 0 0.00088908665239583655 0.024086012630374035 0 0.00049703435379042668 0.025962995084762502 0 0.0011331857665979367 0.021289541385373537 0 0.0013368821380158543 0.022698098673004583 0 0.00066327669386702902 0.023370637660056159 0 0.0016408723522416385 0.023730446949734602 0 0.0013485940552569521 0.026074514789657485 0 0.0024220873953041192 0.026231022308570714 0 0.0017043572478668524 0.026968527779400835 0 0.0014416193104970448 0.02220638177842147 0 0.0011331857665979367 0.021289541385373537 0 -9.300187219049392e-06 0.024049559592122592 0 0.00066327669386702902 0.023370637660056159 0 0.0016408723522416385 0.023730446949734602 0 0.0014416193104970448 0.02220638177842147 0 0.0010128714583224373 0.025263144533806511 0 0.0020484674928036056 0.017463221588758824 0 0.0014583698840431171 0.017014896653251087 0 0.0016303304002809502 0.019533068742497932 0 0.0017004225944650053 0.019469157964332982 0 0.0015380522349545465 0.019261588134686144 0 0.0015918665085166196 0.01507985535088306 0 0.0018914001113930652 0.015309287200157139 0 0.0016523948965494562 0.014582526963816206 0 0.0017004225944650053 0.019469157964332982 0 0.0016326933404145244 0.019252318712390287 0 0.0015380522349545465 0.019261588134686144 0 0.0011331857665979367 0.021289541385373537 0 0.0014583698840431171 0.017014896653251087 0 0.0011331857665979367 0.021289541385373537 0 0.00033835369687143816 0.021142486671743087 0 0.00098227115877926431 0.01918565705615282 0 0.00082346654882966002 0.01869078024088865 0 0.0010474286746202262 0.01866024551837531 0 0.0011950109316533983 0.019156004977294031 0 0.00098227115877926431 0.01918565705615282 0 0.0010474286746202262 0.01866024551837531 0 0.0014583698840431171 0.017014896653251087 0 0.0010818109359520235 0.016367045596553303 0 0.0013761549445161856 0.014605735089882173 0 0.0011274702222723268 0.014471888232487917 0 0.001247910300164862 0.014223056392022536 0 0.00084984054194214061 0.014499354723493372 0 0.00079884062811747317 0.01422097873863425 0 0.0013384797112726535 0.014108564523350591 0 0.0011969894967521651 0.013883938677740905 0 0.0010818109359520235 0.016367045596553303 0 0.0010810445780629792 0.01395915973931388 0 0.0010818109359520235 0.016367045596553303 0 0.0011274702222723268 0.014471888232487917 0 0.00084984054194214061 0.014499354723493372 0 0.001247910300164862 0.014223056392022536 0 0.0010061558499050995 0.015048135108321309 0 0.0015918665085166196 0.01507985535088306 0 0.0016523948965494562 0.014582526963816206 0 0.0013761549445161856 0.014605735089882173 0 0.0011274702222723268 0.014471888232487917 0 0.00073916021391481662 0.014702951807534035 0 0.0010061558499050995 0.015048135108321309 0 0.0016523948965494562 0.014582526963816206 0 0.00073916021391481662 0.014702951807534035 0 0.0014583698840431171 0.017014896653251087 0 0.00086376273308910224 0.014037105280725846 0 0.0011274702222723268 0.014471888232487917 0 0.00073916021391481662 0.014702951807534035 0 0.00084984054194214061 0.014499354723493372 0 0.00073916021391481662 0.014702951807534035 0 0.00050643250293010784 0.014350912574296293 0 0.0002713470420399495 0.014718496255588331 0 0.0011187020054286524 0.01442132517434553 0 0.0014992545325627274 0.011198228223416666 0 0.0010061558499050995 0.015048135108321309 0 0.00073916021391481662 0.014702951807534035 0 0.0002713470420399495 0.014718496255588331 0 0.00050643250293010784 0.014350912574296293 0 0.00079884062811747317 0.01422097873863425 0 0.0004246034035136227 0.013918247783952686 0 0.00073916021391481662 0.014702951807534035 0 0.00050643250293010784 0.014350912574296293 0 0.00084984054194214061 0.014499354723493372 0 0.00050643250293010784 0.014350912574296293 0 0.00084984054194214061 0.014499354723493372 0 0.00079884062811747317 0.01422097873863425 0 0.00075839232832301622 0.01388192378599493 0 0.00048935956664154757 0.013485402003411154 0 0.0004246034035136227 0.013918247783952686 0 0.00079884062811747317 0.01422097873863425 0 0.00075839232832301622 0.01388192378599493 0 0.0004246034035136227 0.013918247783952686 0 0.00075839232832301622 0.01388192378599493 0 0.00048935956664154757 0.013485402003411154 0 0.0011551525277154284 0.013657273477261854 0 0.00036355322550251192 0.013325917901050203 0 0.00018560320224920973 0.015193599012033451 0 8.3042382486066564e-05 0.013499033140545348 0 0.00019043028730188967 0.0134781530382375 0 0.00027775486789580292 0.013628048016457086 0 0.00019043028730188967 0.0134781530382375 0 0.00027775486789580292 0.013628048016457086 0 0.00029747370704190151 0.013423660357551654 0 0.00079884062811747317 0.01422097873863425 0 0.0010456645152277821 0.014009075632537494 0 0.0012953970578848705 0.014100511793245112 0 0.00018560320224920973 0.015193599012033451 0 0.0010818109359520235 0.016367045596553303 0 0.0011551525277154284 0.013657273477261854 0 0.0010456645152277821 0.014009075632537494 0 0.0012953970578848705 0.014100511793245112 0 0.00075839232832301622 0.01388192378599493 0 0.0011551525277154284 0.013657273477261854 0 0.0010456645152277821 0.014009075632537494 0 0.00079884062811747317 0.01422097873863425 0 0.00075839232832301622 0.01388192378599493 0 0.0010456645152277821 0.014009075632537494 0 -2.7488482123029442e-05 0.016961893997128333 0 0.00022861735457204596 0.017757287796338162 0 0.00043190203629478522 0.01708035447083741 0 0.0010818109359520235 0.016367045596553303 0 0.00033835369687143816 0.021142486671743087 0 0.00022861735457204596 0.017757287796338162 0 0.00055394237594073642 0.017492371662877145 0 0.00043190203629478522 0.01708035447083741 0 0.0011876192193670794 0.018394244943054749 0 -0.00058259457501840927 0.018708547562360289 0 -0.00031066392059136397 0.019634391297662986 0 0.0010818109359520235 0.016367045596553303 0 -0.00012938724781168641 0.019995029445972059 0 9.4593135186504268e-06 0.022970465786007793 0 4.4440144084754803e-05 0.023088589803284671 0 -0.00016455693949873752 0.023271125029375766 0 0.00033835369687143816 0.021142486671743087 0 -0.00012938724781168641 0.019995029445972059 0 -0.00053841874697893816 0.018588326100137331 0 -0.0014045697009308277 0.023191264757421601 0 -0.00051083120257910931 0.020589147921142002 0 -0.00044178123830096412 0.020825481730409764 0 -0.00072386374482178893 0.02076884032925962 0 -0.00012938724781168641 0.019995029445972059 0 -0.0014045697009308277 0.023191264757421601 0 -0.00012938724781168641 0.019995029445972059 0 -0.00053841874697893816 0.018588326100137331 0 0.00027775486789580292 0.013628048016457086 0 0.00037252423447317303 0.013674288222171883 0 0.00029747370704190151 0.013423660357551654 0 -0.0033702208144335967 0.023417468212706381 0 -0.0030910995782386492 0.022962622676594508 0 -0.0030392882505888672 0.023505576668687949 0 -0.0033702208144335967 0.023417468212706381 0 -0.0030910995782386492 0.022962622676594508 0 -0.003648694378099223 0.022635712348240189 0 0.00018560320224920973 0.015193599012033451 0 -0.00053841874697893816 0.018588326100137331 0 -0.00053841874697893816 0.018588326100137331 0 -0.0018373243748492747 0.017794724243078961 0 -0.00068639044928046347 0.026179158969894298 0 -0.00066832515507778449 0.026687851019504022 0 -0.0011620564689733307 0.02654532118366628 0 -0.0024327938816056508 0.02303409488452263 0 -0.0030910995782386492 0.022962622676594508 0 -0.0030392882505888672 0.023505576668687949 0 -0.0015174627834176947 0.026838521875333903 0 -0.0014045697009308277 0.023191264757421601 0 -0.00068265183699651284 0.023177727293590491 0 9.4593135186504268e-06 0.022970465786007793 0 -0.00016455693949873752 0.023271125029375766 0 -0.0001865529573822721 0.025924169626738446 0 -0.0014045697009308277 0.023191264757421601 0 0.00021639295609610781 0.024925389468157668 0 0.0004346113325929959 0.024501872380919103 0 0.0010614685435363922 0.024682823653156275 0 -0.0001865529573822721 0.025924169626738446 0 0.00033835369687143816 0.021142486671743087 0 0.0012420237362540693 0.0079709678038760567 0 0.001302236423508402 0.0082031775278687824 0 0.0018559061052665468 0.0082092178344213389 0 0.0012420237362540693 0.0079709678038760567 0 0.0016964577217359036 0.0078328537386948525 0 0.0019422496199463721 0.0082987633818601778 0 0.0012842243080581827 0.0080164445248158134 0 0.001971286647482928 0.0081126271487697785 0 0.0012420237362540693 0.0079709678038760567 0 0.0016964577217359036 0.0078328537386948525 0 0.0013334289340848268 0.0074855765196471732 0 0.0012420237362540693 0.0079709678038760567 0 0.00094918619206774374 0.0080419218771117049 0 0.0013334289340848268 0.0074855765196471732 0 0.00087642148936141256 0.004510938629026841 0 0.0017265576988480249 0.0045046068332745548 0 0.00063278583128367565 0.00085330671001823991 0 0.00087642148936141256 0.004510938629026841 0 0.0012420237362540693 0.0079709678038760567 0 0.00094918619206774374 0.0080419218771117049 0 0.001302236423508402 0.0082031775278687824 0 0.00054451989278427818 0.0044478997813803484 0 0.00087642148936141256 0.004510938629026841 0 0.00056766985262804328 0.0084317233307066204 0 0.00093564780989801916 0.0079574378611715416 0 0.00089383623227980776 0.0080554273248162455 0 0.0013486934189063588 0.0085660654222331576 0 0.0009265817294044831 0.0081068620701483692 0 0.00094918619206774374 0.0080419218771117049 0 0.0011635370370605843 0.0083692055247350742 0 0.001302236423508402 0.0082031775278687824 0 0.00056766985262804328 0.0084317233307066204 0 0.000894583037295103 0.0084298328737614728 0 0.00089383623227980776 0.0080554273248162455 0 0.0012823134960717885 0.0084079057873574017 0 0.00089383623227980776 0.0080554273248162455 0 0.0010402352317153284 0.0083728669180155122 0 0.00093564780989801916 0.0079574378611715416 0 0.0011635370370605843 0.0083692055247350742 0 0.00089383623227980776 0.0080554273248162455 0 0.00087642148936141256 0.004510938629026841 0 0.0017727680183109507 0.0087478154653247726 0 0.0014151722390427933 0.0087479400777335115 0 0.0011635370370605843 0.0083692055247350742 0 0.00089383623227980776 0.0080554273248162455 0 0.000894583037295103 0.0084298328737614728 0 0.00089383623227980776 0.0080554273248162455 0 0.0010402352317153284 0.0083728669180155122 0 0.0014151722390427933 0.0087479400777335115 0 0.0011635370370605843 0.0083692055247350742 0 0.0014770446772667822 0.0084211870445355975 0 0.001302236423508402 0.0082031775278687824 0 0.0014770446772667822 0.0084211870445355975 0 0.0018559061052665468 0.0082092178344213389 0 0.0011635370370605843 0.0083692055247350742 0 0.001302236423508402 0.0082031775278687824 0 0.0014770446772667822 0.0084211870445355975 0 0.0015903102306989692 0.0087190845960993923 0 0.0014151722390427933 0.0087479400777335115 0 0.0014770446772667822 0.0084211870445355975 0 0.0015903102306989692 0.0087190845960993923 0 0.0014770446772667822 0.0084211870445355975 0 0.0017135167358348345 0.0084797318721200887 0 0.0021888882081176021 0.0088585447670126993 0 0.0015903102306989692 0.0087190845960993923 0 0.001929899082110964 0.0085792832432371388 0 0.001929899082110964 0.0085792832432371388 0 0.0018559061052665468 0.0082092178344213389 0 0.0025150480342138086 0.0084765212329245675 0 0.0015903102306989692 0.0087190845960993923 0 0.0017135167358348345 0.0084797318721200887 0 0.001929899082110964 0.0085792832432371388 0 0.001971286647482928 0.0081126271487697785 0 0.0014992545325627274 0.011198228223416666 0 0.0014770446772667822 0.0084211870445355975 0 0.0017135167358348345 0.0084797318721200887 0 0.0018559061052665468 0.0082092178344213389 0 0.0017135167358348345 0.0084797318721200887 0 0.001929899082110964 0.0085792832432371388 0 0.0018559061052665468 0.0082092178344213389 0 0.0021888882081176021 0.0088585447670126993 0 0.001929899082110964 0.0085792832432371388 0 0.0025150480342138086 0.0084765212329245675 0 0.0016369999173246447 0.0116889506503684 0 0.0014992545325627274 0.011198228223416666 0 0.00050643250293010784 0.014350912574296293 0 -2.2637603705376126e-05 0.014076984931893129 0 0.0004246034035136227 0.013918247783952686 0 0.0014992545325627274 0.011198228223416666 0 0.0012369623696233411 0.011726539421944954 0 0.00050643250293010784 0.014350912574296293 0 0.0002713470420399495 0.014718496255588331 0 -2.2637603705376126e-05 0.014076984931893129 0 0.0019422496199463721 0.0082987633818601778 0 0.0026853897760046922 0.0086060138710158975 0 0.0022232904944008247 0.0077199485986990278 0 0.0016964577217359036 0.0078328537386948525 0 0.0019422496199463721 0.0082987633818601778 0 0.0022232904944008247 0.0077199485986990278 0 0.0012369623696233411 0.011726539421944954 0 0.0012325582655447361 0.0060930618344948485 0 0.0016964577217359036 0.0078328537386948525 0 0.0022232904944008247 0.0077199485986990278 0 0.0017682565032023216 0.00687711233196948 0 -2.2637603705376126e-05 0.014076984931893129 0 6.9044019647801478e-05 0.013680086803158579 0 -0.00021287213451063025 0.01348179352607915 0 0.00048935956664154757 0.013485402003411154 0 0.0004246034035136227 0.013918247783952686 0 6.9044019647801478e-05 0.013680086803158579 0 -2.2637603705376126e-05 0.014076984931893129 0 0.0004246034035136227 0.013918247783952686 0 6.9044019647801478e-05 0.013680086803158579 0 0.00048935956664154757 0.013485402003411154 0 6.9044019647801478e-05 0.013680086803158579 0 -0.00011904613759837142 0.013400313279914087 0 0.00036355322550251192 0.013325917901050203 0 -0.00011381550162019614 0.013441419902788646 0 -0.00021287213451063025 0.01348179352607915 0 -0.00011904613759837142 0.013400313279914087 0 -2.9731513298721155e-05 0.013281687569673734 0 6.9044019647801478e-05 0.013680086803158579 0 -0.00021287213451063025 0.01348179352607915 0 -0.00011904613759837142 0.013400313279914087 0 0.0021226729759555403 0.0014864802859356127 0 0.001670114999925722 0.0014567713490186475 0 0.0017434314206804958 0.001142972601533492 0 0.001670114999925722 0.0014567713490186475 0 0.0015359737185350177 0.0011325677530654797 0 0.0017434314206804958 0.001142972601533492 0 0.0021226729759555403 0.0014864802859356127 0 0.001670114999925722 0.0014567713490186475 0 0.0017689875339158047 0.0019787795719869599 0 0.0016964577217359036 0.0078328537386948525 0 0.0017682565032023216 0.00687711233196948 0 0.0013334289340848268 0.0074855765196471732 0 0.0012325582655447361 0.0060930618344948485 0 0.0017265576988480249 0.0045046068332745548 0 0.001670114999925722 0.0014567713490186475 0 0.0017689875339158047 0.0019787795719869599 0 0.0014376090195249997 0.001737289038077473 0 0.0013978550324750102 0.0025034457151432532 0 0.0017689875339158047 0.0019787795719869599 0 0.0014376090195249997 0.001737289038077473 0 0.0010635961584290446 0.0018935867261672141 0 0.0013978550324750102 0.0025034457151432532 0 0.0014376090195249997 0.001737289038077473 0 0.0010635961584290446 0.0018935867261672141 0 0.0014376090195249997 0.001737289038077473 0 0.0011671477797878108 0.0014503914185441517 0 0.0014376090195249997 0.001737289038077473 0 0.0011671477797878108 0.0014503914185441517 0 0.0013990649143954632 0.0013076120443122311 0 0.001670114999925722 0.0014567713490186475 0 0.0014376090195249997 0.001737289038077473 0 0.0013990649143954632 0.0013076120443122311 0 0.0013990649143954632 0.0013076120443122311 0 0.0015359737185350177 0.0011325677530654797 0 0.0014017092904255993 0.00097949476410368161 0 0.001670114999925722 0.0014567713490186475 0 0.0013990649143954632 0.0013076120443122311 0 0.0015359737185350177 0.0011325677530654797 0 0.0011671477797878108 0.0014503914185441517 0 0.0013990649143954632 0.0013076120443122311 0 0.0011316923668078537 0.0010703520243875988 0 0.0013990649143954632 0.0013076120443122311 0 0.0014017092904255993 0.00097949476410368161 0 0.0011316923668078537 0.0010703520243875988 0 0.0014017092904255993 0.00097949476410368161 0 0.0012652076060906078 0.00077274501861570905 0 0.0011316923668078537 0.0010703520243875988 0 0.0015359737185350177 0.0011325677530654797 0 0.0014017092904255993 0.00097949476410368161 0 0.0015676625110931652 0.00094178707848195328 0 0.0014558834757576382 0.00079912696629940393 0 0.0013550884712413263 0.00060129692700335155 0 0.0016879756356358707 0.00071242800115377139 0 0.0015676625110931652 0.00094178707848195328 0 0.0014558834757576382 0.00079912696629940393 0 0.0016879756356358707 0.00071242800115377139 0 0.0014017092904255993 0.00097949476410368161 0 0.0015676625110931652 0.00094178707848195328 0 0.0014558834757576382 0.00079912696629940393 0 0.0014017092904255993 0.00097949476410368161 0 0.0014558834757576382 0.00079912696629940393 0 0.0012652076060906078 0.00077274501861570905 0 0.0014558834757576382 0.00079912696629940393 0 0.0012652076060906078 0.00077274501861570905 0 0.0013550884712413263 0.00060129692700335155 0 0.0022285890566834622 0.0028590861242006075 0 0.0014949160767210759 0.0014359382159879698 0 0.0022494441166999654 0.0017483300863970627 0 0.0013550884712413263 0.00060129692700335155 0 0.0012088983065472261 0.00012351244446328773 0 0.0010963594923784931 0.00048265095431094 0 0.0018502909124865638 0.00090421837928397471 0 0.0014256830791530538 0.0010044311613174042 0 0.0022285890566834622 0.0028590861242006075 0 0.0022347649883590545 0.0030260627147573622 0 0.0014949160767210759 0.0014359382159879698 0 0.0012652076060906078 0.00077274501861570905 0 0.0013550884712413263 0.00060129692700335155 0 0.0010963594923784931 0.00048265095431094 0 0.0013550884712413263 0.00060129692700335155 0 0.0016879756356358707 0.00071242800115377139 0 0.0012088983065472261 0.00012351244446328773 0 0.0022285890566834622 0.0028590861242006075 0 0.0029287795534665268 0.0013634258977041737 0 0.0022494441166999654 0.0017483300863970627 0 0.0022285890566834622 0.0028590861242006075 0 0.0017252538204195951 0.0029741668913846218 0 0.0013347075857213608 0.0046815191808365257 0 0.0022003716957745964 0.0029201718676229995 0 0.0020614513272347069 0.0030130816595455062 0 0.0022285890566834622 0.0028590861242006075 0 0.0017252538204195951 0.0029741668913846218 0 0.0022347649883590545 0.0030260627147573622 0 0.0012325582655447361 0.0060930618344948485 0 0.0018502909124865638 0.00090421837928397471 0 0.0014885670107526671 0.0014615031683820447 0 0.0017252538204195951 0.0029741668913846218 0 0.0022347649883590545 0.0030260627147573622 0 0.0021226729759555403 0.0014864802859356127 0 0.0016879756356358707 0.00071242800115377139 0 0.0017434314206804958 0.001142972601533492 0 0.0015676625110931652 0.00094178707848195328 0 0.0016879756356358707 0.00071242800115377139 0 0.0017434314206804958 0.001142972601533492 0 0.0015359737185350177 0.0011325677530654797 0 0.0015676625110931652 0.00094178707848195328 0 0.0017434314206804958 0.001142972601533492 0 0.0014885670107526671 0.0014615031683820447 0 0.0017252538204195951 0.0029741668913846218 0 0.0011502383202079709 0.0030770926847551285 0 0.0012325582655447361 0.0060930618344948485 0 -4.8907640747413404e-05 0.0083771018657605497 0 0.0014885670107526671 0.0014615031683820447 0 0.0011502383202079709 0.0030770926847551285 0 0.0003952735562646245 0.0026946942984355628 0 8.3042382486066564e-05 0.013499033140545348 0 -2.9731513298721155e-05 0.013281687569673734 0 0.00013090283817500728 0.013342984161506304 0 8.3042382486066564e-05 0.013499033140545348 0 -0.00011904613759837142 0.013400313279914087 0 -2.9731513298721155e-05 0.013281687569673734 0 0.0003952735562646245 0.0026946942984355628 0 0.00051922863671495696 0.0038977289252109396 0 -0.0015304828831700075 0.0052224449127001296 0 -2.9731513298721155e-05 0.013281687569673734 0 0.00013090283817500728 0.013342984161506304 0 6.2005726902966218e-05 0.01318132188565504 0 -4.8907640747413404e-05 0.0083771018657605497 0 -0.0004246108385779997 0.0087847053359949058 0 0.0017252538204195951 0.0029741668913846218 0 0.0011502383202079709 0.0030770926847551285 0 0.0013347075857213608 0.0046815191808365257 0 0.0011502383202079709 0.0030770926847551285 0 0.00051922863671495696 0.0038977289252109396 0 0.0013347075857213608 0.0046815191808365257 0 0.0011502383202079709 0.0030770926847551285 0 0.0003952735562646245 0.0026946942984355628 0 0.00051922863671495696 0.0038977289252109396 0 0.00051922863671495696 0.0038977289252109396 0 0.0013347075857213608 0.0046815191808365257 0 0.00042982199049694005 0.0050697680930546123 0 0.0013347075857213608 0.0046815191808365257 0 0.00042982199049694005 0.0050697680930546123 0 0.00023015199688857391 0.0061424883828845624 0 0.0020614513272347069 0.0030130816595455062 0 0.0012045071682776636 0.0035245889640099452 0 0.00049194592181348669 0.004008193580761335 0 -0.00082983810145386924 0.0065106988153126408 0 0.00051922863671495696 0.0038977289252109396 0 -0.0010096178013878252 0.0073297212905628116 0 -0.0015304828831700075 0.0052224449127001296 0 0.00051922863671495696 0.0038977289252109396 0 0.00042982199049694005 0.0050697680930546123 0 -0.00049450520018671032 0.00540166285888423 0 -0.00049450520018671032 0.00540166285888423 0 0.00023015199688857391 0.0061424883828845624 0 -0.00081413586798865969 0.0067530867790964195 0 0.00042982199049694005 0.0050697680930546123 0 -0.00049450520018671032 0.00540166285888423 0 0.00023015199688857391 0.0061424883828845624 0 0.0029287795534665268 0.0013634258977041737 0 0.0023106490991377866 0.00048889034831650256 0 0.0027289362005846036 0.00079526703542186629 0 0.0026899704495940888 0.00064043294238620208 0 0.0025160687640784145 0.00077361615667728006 0 0.0028523247655052692 0.0003778275084603654 0 0.0029287795534665268 0.0013634258977041737 0 0.0027289362005846036 0.00079526703542186629 0 0.0025160687640784145 0.00077361615667728006 0 0.0027289362005846036 0.00079526703542186629 0 0.0026899704495940888 0.00064043294238620208 0 0.0025160687640784145 0.00077361615667728006 0 0.0023106490991377866 0.00048889034831650256 0 0.0027289362005846036 0.00079526703542186629 0 0.0026954613193026495 0.00061294925438929349 0 0.0026954613193026495 0.00061294925438929349 0 0.0026899704495940888 0.00064043294238620208 0 0.0026387366255745657 0.00057938385056140499 0 0.0027289362005846036 0.00079526703542186629 0 0.0026954613193026495 0.00061294925438929349 0 0.0026899704495940888 0.00064043294238620208 0 0.0025160687640784145 0.00077361615667728006 0 0.001879881774350602 0.00073430538685142208 0 0.0019395727394944931 0.00013651943580977036 0 0.001879881774350602 0.00073430538685142208 0 0.0014949160767210759 0.0014359382159879698 0 0.0010048770245240264 2.8716239931014077e-05 0 0.001879881774350602 0.00073430538685142208 0 0.0019395727394944931 0.00013651943580977036 0 0.0010048770245240264 2.8716239931014077e-05 0 0.001879881774350602 0.00073430538685142208 0 0.0014949160767210759 0.0014359382159879698 0 0.0022494441166999654 0.0017483300863970627 0 0.0025160687640784145 0.00077361615667728006 0 0.001879881774350602 0.00073430538685142208 0 0.0022494441166999654 0.0017483300863970627 0 0.0029287795534665268 0.0013634258977041737 0 0.0025160687640784145 0.00077361615667728006 0 0.0022494441166999654 0.0017483300863970627 0 -0.0026944100586758619 0.02204933410068538 0 -0.0028066156480467913 0.022494170191644368 0 -0.0033299956152634167 0.022173618105028058 0 -0.0026944100586758619 0.02204933410068538 0 -0.0033299956152634167 0.022173618105028058 0 -0.0031778224456663721 0.021461329497575603 0 -0.0024087893612717032 0.022429630979914208 0 -0.0026944100586758619 0.02204933410068538 0 -0.0028066156480467913 0.022494170191644368 0 -0.0015174627834176947 0.026838521875333903 0 -0.0034412205208993476 0.021390088177291811 0 -0.0024327938816056508 0.02303409488452263 0 -0.0030910995782386492 0.022962622676594508 0 -0.0028066156480467913 0.022494170191644368 0 -0.0023719682675171767 0.023058982763288643 0 -0.0024087893612717032 0.022429630979914208 0 -0.0028066156480467913 0.022494170191644368 0 -0.0030910995782386492 0.022962622676594508 0 -0.0033299956152634167 0.022173618105028058 0 -0.003648694378099223 0.022635712348240189 0 -0.0030910995782386492 0.022962622676594508 0 -0.0028066156480467913 0.022494170191644368 0 -0.0033299956152634167 0.022173618105028058 0 -0.0033299956152634167 0.022173618105028058 0 -0.0039611958940565335 0.021770738431226327 0 -0.0031778224456663721 0.021461329497575603 0 0.00021406941359182298 0.013227485315122578 0 0.00029747370704190151 0.013423660357551654 0 0.00013090283817500728 0.013342984161506304 0 -0.0016121075938205108 0.01845718347077872 0 -0.0018373243748492747 0.017794724243078961 0 -0.0033299956152634167 0.022173618105028058 0 -0.0039611958940565335 0.021770738431226327 0 -0.003648694378099223 0.022635712348240189 0 0.00019043028730188967 0.0134781530382375 0 0.00029747370704190151 0.013423660357551654 0 0.00013090283817500728 0.013342984161506304 0 8.3042382486066564e-05 0.013499033140545348 0 0.00019043028730188967 0.0134781530382375 0 0.00013090283817500728 0.013342984161506304 0 0.00021406941359182298 0.013227485315122578 0 0.00013090283817500728 0.013342984161506304 0 6.2005726902966218e-05 0.01318132188565504 0 0.00021406941359182298 0.013227485315122578 0 6.2005726902966218e-05 0.01318132188565504 0 0.00013373365111255255 0.013050907231173565 0 -0.0010096178013878252 0.0073297212905628116 0 -0.0015304828831700075 0.0052224449127001296 0 -0.0037939986036741725 0.0085564863520686003 0 -0.0004246108385779997 0.0087847053359949058 0 -0.0030512729517041593 0.012443936427378399 0 -0.00082983810145386924 0.0065106988153126408 0 -0.002279312856749057 0.0084446985403813079 0 -0.00049450520018671032 0.00540166285888423 0 -0.00081413586798865969 0.0067530867790964195 0 -0.0018822806215796069 0.0074462159178372567 0 -0.0010096178013878252 0.0073297212905628116 0 -0.0019065416311190421 0.0086418436924594125 0 -0.0029771435226881053 0.010873307689928181 0 -0.0010096178013878252 0.0073297212905628116 0 -0.0019065416311190421 0.0086418436924594125 0 -0.0037939986036741725 0.0085564863520686003 0 -0.0019065416311190421 0.0086418436924594125 0 -0.0034073966579912089 0.0092983153905338376 0 -0.0029771435226881053 0.010873307689928181 0 -0.0019065416311190421 0.0086418436924594125 0 -0.0034073966579912089 0.0092983153905338376 0 -0.0035510970399586722 0.0088140387712329002 0 -0.0024424101673529916 0.0095931779385863766 0 -0.0030512729517041593 0.012443936427378399 0 -0.0038576289388148489 0.0098752591724837954 0 -0.0051383953571553049 0.01002087988972067 0 -0.0043702140666331945 0.010553108963126187 0 -0.0042552054664857179 0.020794468736582212 0 -0.0038281250081106202 0.021112239779706037 0 -0.0034761776075277729 0.020779702555375892 0 -0.0030512729517041593 0.012443936427378399 0 -0.0047458974708947171 0.015392614270002913 0 -0.0033583158818013461 0.011158888973451044 0 -0.0030512729517041593 0.012443936427378399 0 -0.0035706090908193626 0.0088302122636038666 0 -0.0043702140666331945 0.010553108963126187 0 -0.00362889601505061 0.010199123959064979 0 -0.0030512729517041593 0.012443936427378399 0 -0.0036899319083018331 0.010038295662303628 0 -0.0034073966579912089 0.0092983153905338376 0 -0.0035706090908193626 0.0088302122636038666 0 -0.00362889601505061 0.010199123959064979 0 -0.0016121075938205108 0.01845718347077872 0 -0.0030512729517041593 0.012443936427378399 0 -0.0039611958940565335 0.021770738431226327 0 -0.0042552054664857179 0.020794468736582212 0 -0.0038281250081106202 0.021112239779706037 0 -0.0039611958940565335 0.021770738431226327 0 -0.0038281250081106202 0.021112239779706037 0 -0.0031778224456663721 0.021461329497575603 0 -0.0038281250081106202 0.021112239779706037 0 -0.0031778224456663721 0.021461329497575603 0 -0.0034761776075277729 0.020779702555375892 0 -0.0047458974708947171 0.015392614270002913 0 -0.0033138250840661489 0.018217471995399852 0 -0.0051383953571553049 0.01002087988972067 0 -0.0063846153499121485 0.010162045873383605 0 -0.0054888873116055812 0.011269326360815943 0 -0.0031778224456663721 0.021461329497575603 0 -0.0034761776075277729 0.020779702555375892 0 -0.0027462511120848894 0.020796996339740692 0 -0.0022189996488844975 0.021535237225326121 0 -0.0031778224456663721 0.021461329497575603 0 -0.0027462511120848894 0.020796996339740692 0 -0.0022189996488844975 0.021535237225326121 0 -0.0026944100586758619 0.02204933410068538 0 -0.0031778224456663721 0.021461329497575603 0 -0.003557696727458906 0.020132236536968398 0 -0.0040457012942694479 0.020448108207918664 0 -0.0037765955757325916 0.02209799459868874 0 -0.0037455443809147008 0.022144076801657055 0 -0.0037248781686270304 0.022112607325324357 0 -0.0032084957464014597 0.018417991250081225 0 -0.0040239444679371498 0.01875874176588517 0 -0.004399996925598719 0.018073929461353399 0 -0.0037455443809147008 0.022144076801657055 0 -0.0037248781686270304 0.022112607325324357 0 -0.0037271807004956685 0.022155560195097557 0 -0.0032084957464014597 0.018417991250081225 0 -0.0038863971594203833 0.019795809205189349 0 -0.0040239444679371498 0.01875874176588517 0 -0.0038863971594203833 0.019795809205189349 0 -0.0040239444679371498 0.01875874176588517 0 -0.0047460370845859154 0.018764280730412905 0 -0.0033138250840661489 0.018217471995399852 0 -0.0056826281034769825 0.014409620563187441 0 -0.0040239444679371498 0.01875874176588517 0 -0.0047460370845859154 0.018764280730412905 0 -0.004399996925598719 0.018073929461353399 0 -0.0051383953571553049 0.01002087988972067 0 -0.0054888873116055812 0.011269326360815943 0 -0.0043702140666331945 0.010553108963126187 0 -0.0037248781686270304 0.022112607325324357 0 -0.0036888252671438788 0.022083949180155046 0 -0.0037271807004956685 0.022155560195097557 0 -0.0047460370845859154 0.018764280730412905 0 -0.004399996925598719 0.018073929461353399 0 -0.0056030991651745158 0.017724450172659834 0 -0.0037248781686270304 0.022112607325324357 0 -0.0036854292748020974 0.022067662431713812 0 -0.0036888252671438788 0.022083949180155046 0 -0.0040457012942694479 0.020448108207918664 0 -0.0038622658811464645 0.015055094010770077 0 -0.0056826281034769825 0.014409620563187441 0 -0.0038622658811464645 0.015055094010770077 0 -0.0054888873116055812 0.011269326360815943 0 -0.0043926875255378287 0.012808089177593513 0 -0.00443276060380139 0.011461266868562643 0 -0.0038622658811464645 0.015055094010770077 0 -0.002279312856749057 0.0084446985403813079 0 -0.0043926875255378287 0.012808089177593513 0 -0.0039699045565380559 0.011752815432713903 0 -0.0029771435226881053 0.010873307689928181 0 -0.0035092222355966834 0.01006880299191301 0 -0.0023927217987310726 0.0089218660568989253 0 -0.0018822806215796069 0.0074462159178372567 0 -0.0038622658811464645 0.015055094010770077 0 -0.0048048040781059299 0.017697889221422871 0 -0.0038622658811464645 0.015055094010770077 0 -0.0026926881161142423 0.011785138387930849 0 -0.0036774636946605168 0.022038201102824534 0 -0.0036641103509404364 0.022074607318077342 0 -0.0036888252671438788 0.022083949180155046 0 -0.0038622658811464645 0.015055094010770077 0 -0.0038949761090622953 0.015730707861688703 0 -0.0026926881161142423 0.011785138387930849 0 -0.0038949761090622953 0.015730707861688703 0 -0.0029105289122513742 0.014181537004147694 0 -0.0051567964452874544 0.013599917361747869 0 -0.004198311070715539 0.012503492619352331 0 -0.0035092222355966834 0.01006880299191301 0 -0.0030078993117827191 0.010198918044123578 0 -0.0023927217987310726 0.0089218660568989253 0 -0.0026926881161142423 0.011785138387930849 0 -0.0027626369948123035 0.0095092958589563705 0 -0.0043926875255378287 0.012808089177593513 0 -0.0039699045565380559 0.011752815432713903 0 -0.00443276060380139 0.011461266868562643 0 -0.00443276060380139 0.011461266868562643 0 -0.0043702140666331945 0.010553108963126187 0 -0.0038890272284995884 0.010938276849004253 0 -0.0054888873116055812 0.011269326360815943 0 -0.00443276060380139 0.011461266868562643 0 -0.0043702140666331945 0.010553108963126187 0 -0.00362889601505061 0.010199123959064979 0 -0.0038890272284995884 0.010938276849004253 0 -0.0029771435226881053 0.010873307689928181 0 -0.0043702140666331945 0.010553108963126187 0 -0.00362889601505061 0.010199123959064979 0 -0.0038890272284995884 0.010938276849004253 0 -0.0039699045565380559 0.011752815432713903 0 -0.00443276060380139 0.011461266868562643 0 -0.0038890272284995884 0.010938276849004253 0 -0.0039699045565380559 0.011752815432713903 0 -0.0038890272284995884 0.010938276849004253 0 -0.0029771435226881053 0.010873307689928181 0 -0.0023927217987310726 0.0089218660568989253 0 -0.0018822806215796069 0.0074462159178372567 0 -0.0011804947061458447 0.0079775667741723358 0 -0.0034073966579912089 0.0092983153905338376 0 -0.00362889601505061 0.010199123959064979 0 -0.0029771435226881053 0.010873307689928181 0 -0.00081413586798865969 0.0067530867790964195 0 -0.0018822806215796069 0.0074462159178372567 0 -0.0011804947061458447 0.0079775667741723358 0 -6.4242728274037766e-06 0.003187263673456881 0 -0.0009344613336367553 0.0052410670427513566 0 0.00098367995708879916 0.0042552702733165129 0 -0.0030078993117827191 0.010198918044123578 0 -0.0023927217987310726 0.0089218660568989253 0 -0.0011804947061458447 0.0079775667741723358 0 -0.001648101525001437 0.0069760112461395478 0 -0.0018221596701619395 0.0089083335282959288 0 0.00098367995708879916 0.0042552702733165129 0 -0.0026926881161142423 0.011785138387930849 0 -0.00047983710174726978 0.0050320997197818747 0 -0.0021170333435887099 0.012669913709729464 0 0.001693715838438464 0.001229064040672543 0 -0.0030958491993132334 0.0065625591240692383 0 -6.4242728274037766e-06 0.003187263673456881 0 -0.0009344613336367553 0.0052410670427513566 0 -0.0030958491993132334 0.0065625591240692383 0 -0.0009344613336367553 0.0052410670427513566 0 -0.001648101525001437 0.0069760112461395478 0 -0.0009344613336367553 0.0052410670427513566 0 -0.001648101525001437 0.0069760112461395478 0 0.00098367995708879916 0.0042552702733165129 0 0.0011233721984801816 0.0025227550920849601 0 3.9245581586644825e-05 0.0028452106213484553 0 0.0013753828141059076 0.0010558213949896078 0 0.0011233721984801816 0.0025227550920849601 0 3.9245581586644825e-05 0.0028452106213484553 0 0.0012216440388193948 0.0042079366392024451 0 -0.0033305316708865614 0.021172585799469706 0 -0.0033150273660366779 0.021596719604222485 0 -0.0030545324349518293 0.021602418417620284 0 -0.0021170333435887099 0.012669913709729464 0 -0.00088958258844155751 0.012805203792306506 0 -0.0030614807511823434 0.021034191235633194 0 -0.0034312948187148456 0.021229293836306281 0 -0.0035362481106619224 0.021666340624107109 0 -0.0033305316708865614 0.021172585799469706 0 -0.0033150273660366779 0.021596719604222485 0 -0.0035362481106619224 0.021666340624107109 0 -0.0021170333435887099 0.012669913709729464 0 -0.0045956429549645706 0.024724385201245865 0 -0.0034312948187148456 0.021229293836306281 0 -0.0033444744870418435 0.020708203920663547 0 -0.0037714934749738293 0.021457658702408462 0 -0.0036641103509404364 0.022074607318077342 0 -0.0036888252671438788 0.022083949180155046 0 -0.003768967033391041 0.022173731735351886 0 -0.0030614807511823434 0.021034191235633194 0 -0.0034312948187148456 0.021229293836306281 0 -0.0033444744870418435 0.020708203920663547 0 -0.0031068373951336644 0.0066399966631385107 0 -0.001648101525001437 0.0069760112461395478 0 -0.0034488050836386937 0.0070326478460300988 0 -0.001648101525001437 0.0069760112461395478 0 -0.0018221596701619395 0.0089083335282959288 0 -0.0034488050836386937 0.0070326478460300988 0 -0.0021170333435887099 0.012669913709729464 0 -0.0038949761090622953 0.015730707861688703 0 -0.0038949761090622953 0.015730707861688703 0 -0.0039880669836942773 0.022833103870983605 0 -0.0036888252671438788 0.022083949180155046 0 -0.0037271807004956685 0.022155560195097557 0 -0.003768967033391041 0.022173731735351886 0 -0.0037714934749738293 0.021457658702408462 0 -0.003703220212637642 0.021779456593917768 0 -0.0035362481106619224 0.021666340624107109 0 -0.0034312948187148456 0.021229293836306281 0 -0.0037714934749738293 0.021457658702408462 0 -0.0035362481106619224 0.021666340624107109 0 -0.0039880669836942773 0.022833103870983605 0 -0.0035411505636946546 0.021488701766482602 0 -0.003768967033391041 0.022173731735351886 0 -0.0036969090733801734 0.02209146217876817 0 -0.0037197377047542201 0.022244574608776008 0 -0.003768967033391041 0.022173731735351886 0 -0.0036969090733801734 0.02209146217876817 0 -0.0037127475319403591 0.021896495201472108 0 -0.0035202810941353051 0.022129532671600505 0 -0.0036969090733801734 0.02209146217876817 0 -0.0036129133458198564 0.022014304722655989 0 -0.0035202810941353051 0.022129532671600505 0 -0.0036969090733801734 0.02209146217876817 0 -0.0037197377047542201 0.022244574608776008 0 -0.0037271807004956685 0.022155560195097557 0 -0.003768967033391041 0.022173731735351886 0 -0.0037197377047542201 0.022244574608776008 0 -0.0037455443809147008 0.022144076801657055 0 -0.0037271807004956685 0.022155560195097557 0 -0.0037197377047542201 0.022244574608776008 0 0.0028838507329375148 0.00037265153525890718 0 0.003014258016335689 0.00051794382396503041 0 0.0020990646934362887 -0.00047576812041126489 0 0.0028523247655052692 0.0003778275084603654 0 0.0024164012264303448 -0.0013437928366620336 0 0.0020990646934362887 -0.00047576812041126489 0 0.0015896397483280368 -0.0011824797049940106 0 0.0024164012264303448 -0.0013437928366620336 0 0.0020990646934362887 -0.00047576812041126489 0 0.0015896397483280368 -0.0011824797049940106 0 0.0014861047282629528 -0.00033589585698762692 0 0.0014861047282629528 -0.00033589585698762692 0 0.0019395727394944931 0.00013651943580977036 0 0.0010048770245240264 2.8716239931014077e-05 0 0.0020990646934362887 -0.00047576812041126489 0 0.0014861047282629528 -0.00033589585698762692 0 0.0019395727394944931 0.00013651943580977036 0 0.0025160687640784145 0.00077361615667728006 0 0.0019395727394944931 0.00013651943580977036 0 0.0028523247655052692 0.0003778275084603654 0 0.0020990646934362887 -0.00047576812041126489 0 0.0019395727394944931 0.00013651943580977036 0 0.0028523247655052692 0.0003778275084603654 0 0.0026954613193026495 0.00061294925438929349 0 0.0026387366255745657 0.00057938385056140499 0 0.0022484760229807923 0.00080822112794221685 0 0.0028523247655052692 0.0003778275084603654 0 0.0022484760229807923 0.00080822112794221685 0 0.0022682386888644964 0.0015851117435670631 0 0.0026899704495940888 0.00064043294238620208 0 0.0026387366255745657 0.00057938385056140499 0 0.0028523247655052692 0.0003778275084603654 0 0.0026387366255745657 0.00057938385056140499 0 0.0028523247655052692 0.0003778275084603654 0 0.0022484760229807923 0.00080822112794221685 0 0.0026954613193026495 0.00061294925438929349 0 0.0022484760229807923 0.00080822112794221685 0 0.0013753828141059076 0.0010558213949896078 0 0.0022927279901264336 0.0013557288101030181 0 0.001693715838438464 0.001229064040672543 0 0.0012045071682776636 0.0035245889640099452 0 -0.00047983710174726978 0.0050320997197818747 0 0.0023106490991377866 0.00048889034831650256 0 0.0026954613193026495 0.00061294925438929349 0 0.00098367995708879916 0.0042552702733165129 0 0.0023106490991377866 0.00048889034831650256 0 -6.4242728274037766e-06 0.003187263673456881 0 0.00098367995708879916 0.0042552702733165129 0 0.00023015199688857391 0.0061424883828845624 0 -0.00081413586798865969 0.0067530867790964195 0 -0.0011804947061458447 0.0079775667741723358 0 0.0011233721984801816 0.0025227550920849601 0 0.0013753828141059076 0.0010558213949896078 0 0.0016773616846820459 0.0017832593888035706 0 0.0013753828141059076 0.0010558213949896078 0 0.0019095548558660125 0.0012963366737014602 0 0.0016773616846820459 0.0017832593888035706 0 0.0022484760229807923 0.00080822112794221685 0 0.0013753828141059076 0.0010558213949896078 0 0.0019095548558660125 0.0012963366737014602 0 0.0022484760229807923 0.00080822112794221685 0 0.0019095548558660125 0.0012963366737014602 0 0.0022682386888644964 0.0015851117435670631 0 0.0019095548558660125 0.0012963366737014602 0 0.0016773616846820459 0.0017832593888035706 0 0.0022682386888644964 0.0015851117435670631 0 0.0028523247655052692 0.0003778275084603654 0 0.0022682386888644964 0.0015851117435670631 0 0.0036517523546505245 0.002304665996486615 0 0.0026355483868929657 0.0025337825902468697 0 0.00275528094297906 0.0037545543438884752 0 0.0036517523546505245 0.002304665996486615 0 0.0022682386888644964 0.0015851117435670631 0 0.0026355483868929657 0.0025337825902468697 0 0.0036517523546505245 0.002304665996486615 0 0.0026355483868929657 0.0025337825902468697 0 0.0018454133382756353 0.0027086803708448091 0 0.00275528094297906 0.0037545543438884752 0 0.0022682386888644964 0.0015851117435670631 0 0.0026355483868929657 0.0025337825902468697 0 0.0018454133382756353 0.0027086803708448091 0 0.0011233721984801816 0.0025227550920849601 0 0.0016773616846820459 0.0017832593888035706 0 0.0018454133382756353 0.0027086803708448091 0 0.0016773616846820459 0.0017832593888035706 0 0.0022682386888644964 0.0015851117435670631 0 0.0018454133382756353 0.0027086803708448091 0 0.0018454133382756353 0.0027086803708448091 0 0.0012216440388193948 0.0042079366392024451 0 0.00275528094297906 0.0037545543438884752 0 0.0011233721984801816 0.0025227550920849601 0 0.0018454133382756353 0.0027086803708448091 0 0.0012216440388193948 0.0042079366392024451 0 0.00275528094297906 0.0037545543438884752 0 0.0041348547554034849 0.0041788431879163533 0 0.0036517523546505245 0.002304665996486615 0 0.0030770892115647079 0.0010740369903205137 0 0.003014258016335689 0.00051794382396503041 0 0.0015896397483280368 -0.0011824797049940106 0 0.0024164012264303448 -0.0013437928366620336 0 0.0016899109707858217 -0.0016633066416839315 0 0.002019462484954495 -0.0019325168921860117 0 0.0016899109707858217 -0.0016633066416839315 0 0.0016173403645422461 -0.0019230231660952912 0 0.002019462484954495 -0.0019325168921860117 0 0.0024164012264303448 -0.0013437928366620336 0 0.0016899109707858217 -0.0016633066416839315 0 0.0016899109707858217 -0.0016633066416839315 0 0.0016173403645422461 -0.0019230231660952912 0 0.0015424369940757014 -0.0017754799221357516 0 0.0015424369940757014 -0.0017754799221357516 0 0.0014655987085732671 -0.0017738436352112297 0 0.0014735660004736755 -0.0019686140329796729 0 0.0016173403645422461 -0.0019230231660952912 0 0.0015424369940757014 -0.0017754799221357516 0 0.0014735660004736755 -0.0019686140329796729 0 0.0014655987085732671 -0.0017738436352112297 0 0.0014759013816890707 -0.0016616773637755057 0 0.001510920178208553 -0.0014893126080912354 0 0.0015424369940757014 -0.0017754799221357516 0 0.0014655987085732671 -0.0017738436352112297 0 0.001510920178208553 -0.0014893126080912354 0 0.0015896397483280368 -0.0011824797049940106 0 0.0016899109707858217 -0.0016633066416839315 0 0.001510920178208553 -0.0014893126080912354 0 0.0016899109707858217 -0.0016633066416839315 0 0.0015424369940757014 -0.0017754799221357516 0 0.001510920178208553 -0.0014893126080912354 0 0.0013632583455945066 -0.0019510349150957697 0 0.0013662430159276139 -0.002048562642081201 0 0.0013218457980323989 -0.0020478599277049449 0 0.0013632583455945066 -0.0019510349150957697 0 0.0013138963503540894 -0.0019767330065942747 0 0.0013218457980323989 -0.0020478599277049449 0 0.0013662430159276139 -0.002048562642081201 0 0.0013218457980323989 -0.0020478599277049449 0 0.0013051585622010956 -0.002160360087848593 0 0.0013662430159276139 -0.002048562642081201 0 0.00141398372518316 -0.0019005406174910781 0 0.0014192296004872059 -0.002007435178578727 0 0.0013632583455945066 -0.0019510349150957697 0 0.0013662430159276139 -0.002048562642081201 0 0.00141398372518316 -0.0019005406174910781 0 0.0014655987085732671 -0.0017738436352112297 0 0.00141398372518316 -0.0019005406174910781 0 0.0014735660004736755 -0.0019686140329796729 0 0.00141398372518316 -0.0019005406174910781 0 0.0014192296004872059 -0.002007435178578727 0 0.0014735660004736755 -0.0019686140329796729 0 0.0014655987085732671 -0.0017738436352112297 0 0.00141398372518316 -0.0019005406174910781 0 0.0014296916550125517 -0.0017886951059602593 0 0.0014655987085732671 -0.0017738436352112297 0 0.0014296916550125517 -0.0017886951059602593 0 0.0014759013816890707 -0.0016616773637755057 0 0.0014296916550125517 -0.0017886951059602593 0 0.0013759447407324674 -0.0018521529923892445 0 0.0014382246274834449 -0.001720608658941733 0 0.00141398372518316 -0.0019005406174910781 0 0.0014296916550125517 -0.0017886951059602593 0 0.0013759447407324674 -0.0018521529923892445 0 0.0013632583455945066 -0.0019510349150957697 0 0.00141398372518316 -0.0019005406174910781 0 0.0013759447407324674 -0.0018521529923892445 0 0.0013759447407324674 -0.0018521529923892445 0 0.0013066817244230592 -0.0018823239193648201 0 0.0013138963503540894 -0.0019767330065942747 0 0.0013632583455945066 -0.0019510349150957697 0 0.0013759447407324674 -0.0018521529923892445 0 0.0013138963503540894 -0.0019767330065942747 0 0.0013759447407324674 -0.0018521529923892445 0 0.00138380063307634 -0.0017570579948612696 0 0.0014382246274834449 -0.001720608658941733 0 0.0013759447407324674 -0.0018521529923892445 0 0.00138380063307634 -0.0017570579948612696 0 0.0013066817244230592 -0.0018823239193648201 0 0.00138380063307634 -0.0017570579948612696 0 0.0014382246274834449 -0.001720608658941733 0 0.0014450172068988449 -0.0016794293804445561 0 0.0014296916550125517 -0.0017886951059602593 0 0.0014382246274834449 -0.001720608658941733 0 0.0014759013816890707 -0.0016616773637755057 0 0.0014382246274834449 -0.001720608658941733 0 0.0014450172068988449 -0.0016794293804445561 0 0.0014891008355505245 -0.0016286014014342 0 0.0014382246274834449 -0.001720608658941733 0 0.0014759013816890707 -0.0016616773637755057 0 0.0014891008355505245 -0.0016286014014342 0 0.0014450172068988449 -0.0016794293804445561 0 0.0013871556057228165 -0.0016782404921948336 0 0.001499461705177142 -0.0016251108132323401 0 0.0014450172068988449 -0.0016794293804445561 0 0.0014891008355505245 -0.0016286014014342 0 0.001499461705177142 -0.0016251108132323401 0 0.00138380063307634 -0.0017570579948612696 0 0.0014450172068988449 -0.0016794293804445561 0 0.0013871556057228165 -0.0016782404921948336 0 0.00138380063307634 -0.0017570579948612696 0 0.0013871556057228165 -0.0016782404921948336 0 0.0012782867003562411 -0.0017922151124023246 0 0.0015635212904244432 -0.0011911982283275145 0 0.0012109184205836398 -0.00092181067164268202 0 0.0015896397483280368 -0.0011824797049940106 0 0.0014861047282629528 -0.00033589585698762692 0 0.00082220905476495566 -0.00024567437372938374 0 0.0015896397483280368 -0.0011824797049940106 0 0.001510920178208553 -0.0014893126080912354 0 0.0014970719143540577 -0.0015694043835163965 0 0.0015023193192805159 -0.0015844609631740301 0 0.0014891008355505245 -0.0016286014014342 0 0.0014970719143540577 -0.0015694043835163965 0 0.0014759013816890707 -0.0016616773637755057 0 0.001510920178208553 -0.0014893126080912354 0 0.0015023193192805159 -0.0015844609631740301 0 0.001510920178208553 -0.0014893126080912354 0 0.0015023193192805159 -0.0015844609631740301 0 0.0014970719143540577 -0.0015694043835163965 0 0.0014759013816890707 -0.0016616773637755057 0 0.0015023193192805159 -0.0015844609631740301 0 0.0014891008355505245 -0.0016286014014342 0 0.0014891008355505245 -0.0016286014014342 0 0.0014970719143540577 -0.0015694043835163965 0 0.001499461705177142 -0.0016251108132323401 0 0.00082220905476495566 -0.00024567437372938374 0 0.00088273865773422482 -3.3781784516328745e-05 0 0.00092738448474522525 -2.239141759249912e-05 0 0.0012109184205836398 -0.00092181067164268202 0 0.0012111864774872359 -0.0008418284802045534 0 0.0010048770245240264 2.8716239931014077e-05 0 0.00082220905476495566 -0.00024567437372938374 0 0.00088273865773422482 -3.3781784516328745e-05 0 0.0014861047282629528 -0.00033589585698762692 0 0.0010048770245240264 2.8716239931014077e-05 0 0.00082220905476495566 -0.00024567437372938374 0 0.0010048770245240264 2.8716239931014077e-05 0 0.00081185236450426841 -6.873256143646033e-05 0 0.00088273865773422482 -3.3781784516328745e-05 0 0.0014256830791530538 0.0010044311613174042 0 0.00098832430582015897 -7.3761384485597212e-06 0 0.0010048770245240264 2.8716239931014077e-05 0 0.00098603748293292427 0.00014462613529776845 0 0.00081185236450426841 -6.873256143646033e-05 0 0.0012088983065472261 0.00012351244446328773 0 0.00098603748293292427 0.00014462613529776845 0 0.0010963594923784931 0.00048265095431094 0 0.0012088983065472261 0.00012351244446328773 0 0.0010048770245240264 2.8716239931014077e-05 0 0.00098603748293292427 0.00014462613529776845 0 0.00098603748293292427 0.00014462613529776845 0 0.00081185236450426841 -6.873256143646033e-05 0 0.00054240206926239019 0.0004182877754474236 0 0.00081185236450426841 -6.873256143646033e-05 0 0.0010096749631407942 -0.00040449632987275803 0 0.0008996557727538382 -0.00083168559658882996 0 0.00079037184612880808 -0.00011048796128304436 0 0.00074663115895972536 -0.00018671145801895747 0 0.00081185236450426841 -6.873256143646033e-05 0 0.00092738448474522525 -2.239141759249912e-05 0 0.0010096749631407942 -0.00040449632987275803 0 0.00081185236450426841 -6.873256143646033e-05 0 0.00088273865773422482 -3.3781784516328745e-05 0 0.00092738448474522525 -2.239141759249912e-05 0 0.0012111864774872359 -0.0008418284802045534 0 0.0013501124676894868 -0.0010122901451222127 0 0.0013871556057228165 -0.0016782404921948336 0 0.001499461705177142 -0.0016251108132323401 0 0.0014738550517109069 -0.0015450563521364946 0 0.00092738448474522525 -2.239141759249912e-05 0 0.0012912073609181228 -0.00049193200202724745 0 0.0010096749631407942 -0.00040449632987275803 0 0.0013871556057228165 -0.0016782404921948336 0 0.0014738550517109069 -0.0015450563521364946 0 0.0012372855213678687 -0.0015803210493617822 0 0.0013501124676894868 -0.0010122901451222127 0 0.001347567771596538 -0.0011563411950814421 0 0.0014738550517109069 -0.0015450563521364946 0 0.0013546944735432585 -0.0012173489701194817 0 0.0012372855213678687 -0.0015803210493617822 0 0.0012912073609181228 -0.00049193200202724745 0 0.0012299610109047978 -0.00093669865692468503 0 0.0013546944735432585 -0.0012173489701194817 0 0.0012912073609181228 -0.00049193200202724745 0 0.0010096749631407942 -0.00040449632987275803 0 0.0012299610109047978 -0.00093669865692468503 0 0.0010096749631407942 -0.00040449632987275803 0 0.0012299610109047978 -0.00093669865692468503 0 0.0008996557727538382 -0.00083168559658882996 0 0.0012299610109047978 -0.00093669865692468503 0 0.0011326131250160253 -0.0011530205747700734 0 0.0008996557727538382 -0.00083168559658882996 0 0.00082168539749070523 -0.00026518040216892328 0 0.00074663115895972536 -0.00018671145801895747 0 0.0012299610109047978 -0.00093669865692468503 0 0.001359944075682201 -0.001075196948508146 0 0.0013546944735432585 -0.0012173489701194817 0 0.0013266541226419717 -0.0013328174021036399 0 0.001359944075682201 -0.001075196948508146 0 0.0012723630225825583 -0.0012074039031663487 0 0.0014220240126510105 -0.00067673526209194898 0 0.001359944075682201 -0.001075196948508146 0 0.0012285708441029043 -0.00088369105080604072 0 0.001359944075682201 -0.001075196948508146 0 0.0012723630225825583 -0.0012074039031663487 0 0.0011326131250160253 -0.0011530205747700734 0 0.0012299610109047978 -0.00093669865692468503 0 0.001359944075682201 -0.001075196948508146 0 0.0011326131250160253 -0.0011530205747700734 0 0.0011280584430860623 -0.00064269097781518452 0 0.0014036198622957364 -0.0012105230909451677 0 0.0012791284227110242 -0.0012773318883884408 0 0.0012723630225825583 -0.0012074039031663487 0 0.0011326131250160253 -0.0011530205747700734 0 0.00059067666656904036 0.00079081988807260168 0 0.00056077067253262924 0.00079642721473525036 0 0.00050650886443304145 0.00074731067191363373 0 0.00078552098884085561 0.0012855509564403628 0 0.0006088827343101596 0.00071270181224996558 0 0.00087047965547136475 0.0009167244962131301 0 0.00059067666656904036 0.00079081988807260168 0 0.00050650886443304145 0.00074731067191363373 0 0.0006088827343101596 0.00071270181224996558 0 0.00074666848966030007 0.0011427898762877394 0 0.00058354263674599658 0.00071949421526486756 0 0.0006037904703703053 0.00082805354391403852 0 0.00059067666656904036 0.00079081988807260168 0 0.0006088827343101596 0.00071270181224996558 0 0.0006088827343101596 0.00071270181224996558 0 0.00087047965547136475 0.0009167244962131301 0 0.00088804316871133996 0.00068820004048823909 0 0.00078552098884085561 0.0012855509564403628 0 0.00087047965547136475 0.0009167244962131301 0 0.0011316923668078537 0.0010703520243875988 0 0.00087047965547136475 0.0009167244962131301 0 0.0011316923668078537 0.0010703520243875988 0 0.0010718339905087342 0.00077480841161760153 0 0.0012652076060906078 0.00077274501861570905 0 0.0011316923668078537 0.0010703520243875988 0 0.0010718339905087342 0.00077480841161760153 0 0.00087047965547136475 0.0009167244962131301 0 0.0010718339905087342 0.00077480841161760153 0 0.00088804316871133996 0.00068820004048823909 0 0.00088804316871133996 0.00068820004048823909 0 0.00081811446668061103 0.00049631912015673488 0 0.0010963594923784931 0.00048265095431094 0 0.0010718339905087342 0.00077480841161760153 0 0.00088804316871133996 0.00068820004048823909 0 0.0010963594923784931 0.00048265095431094 0 0.0012652076060906078 0.00077274501861570905 0 0.0010718339905087342 0.00077480841161760153 0 0.0010963594923784931 0.00048265095431094 0 0.00098603748293292427 0.00014462613529776845 0 0.00081811446668061103 0.00049631912015673488 0 0.0010963594923784931 0.00048265095431094 0 0.00098603748293292427 0.00014462613529776845 0 0.00081811446668061103 0.00049631912015673488 0 0.00054240206926239019 0.0004182877754474236 0 0.00050650886443304145 0.00074731067191363373 0 0.0006088827343101596 0.00071270181224996558 0 0.00054240206926239019 0.0004182877754474236 0 0.0006088827343101596 0.00071270181224996558 0 0.00088804316871133996 0.00068820004048823909 0 0.00081811446668061103 0.00049631912015673488 0 0.0006088827343101596 0.00071270181224996558 0 0.00081811446668061103 0.00049631912015673488 0 0.00054240206926239019 0.0004182877754474236 0 0.0010915294707123078 -0.0019191852874683348 0 0.00099559608009035824 -0.0020006733869907894 0 0.0010456279000418181 -0.0017535684325865684 0 0.00099559608009035824 -0.0020006733869907894 0 0.0010431948156059479 -0.0015158037978886586 0 0.0010456279000418181 -0.0017535684325865684 0 0.001160347692775859 -0.002106615854850656 0 0.0010915294707123078 -0.0019191852874683348 0 0.0011416106423224302 -0.0019507724854494752 0 0.001160347692775859 -0.002106615854850656 0 0.0010915294707123078 -0.0019191852874683348 0 0.00099559608009035824 -0.0020006733869907894 0 0.0012234294856659528 -0.0022651296352413581 0 0.0011343532565859802 -0.0023205231333460938 0 0.001160347692775859 -0.002106615854850656 0 0.00059561659903342539 -0.001344908745477282 0 0.00084643061130676921 -0.0016034499468774077 0 0.0011343532565859802 -0.0023205231333460938 0 0.001160347692775859 -0.002106615854850656 0 0.00099559608009035824 -0.0020006733869907894 0 0.00024407892958639002 -0.00077109212124859951 0 0.00048388822391184547 -0.00073431400573392312 0 0.00058804228156946739 -0.0011321920506113725 0 0.00048388822391184547 -0.00073431400573392312 0 0.00058804228156946739 -0.0011321920506113725 0 0.00080251296855148447 -0.00090402001970829636 0 0.00058804228156946739 -0.0011321920506113725 0 0.00080251296855148447 -0.00090402001970829636 0 0.0011043934976614179 -0.0010565487622759596 0 0.0010197534971181173 -0.00070011222561446073 0 0.00080251296855148447 -0.00090402001970829636 0 0.0011043934976614179 -0.0010565487622759596 0 0.0010197534971181173 -0.00070011222561446073 0 0.0011043934976614179 -0.0010565487622759596 0 0.0012285708441029043 -0.00088369105080604072 0 0.001359944075682201 -0.001075196948508146 0 0.0011043934976614179 -0.0010565487622759596 0 0.0012285708441029043 -0.00088369105080604072 0 0.001359944075682201 -0.001075196948508146 0 0.0011043934976614179 -0.0010565487622759596 0 0.0013546944735432585 -0.0012173489701194817 0 0.0011043934976614179 -0.0010565487622759596 0 0.0013546944735432585 -0.0012173489701194817 0 0.0010431948156059479 -0.0015158037978886586 0 0.00084643061130676921 -0.0016034499468774077 0 0.001007420634119472 -0.0015392591016722538 0 0.00058804228156946739 -0.0011321920506113725 0 0.0011043934976614179 -0.0010565487622759596 0 0.0010431948156059479 -0.0015158037978886586 0 0.0010431948156059479 -0.0015158037978886586 0 0.0012372855213678687 -0.0015803210493617822 0 0.0010796922684009368 -0.0017065697207167853 0 0.0010431948156059479 -0.0015158037978886586 0 0.0010796922684009368 -0.0017065697207167853 0 0.0010456279000418181 -0.0017535684325865684 0 0.0013546944735432585 -0.0012173489701194817 0 0.0010431948156059479 -0.0015158037978886586 0 0.0012372855213678687 -0.0015803210493617822 0 0.0013871556057228165 -0.0016782404921948336 0 0.0012372855213678687 -0.0015803210493617822 0 0.0012272779654004826 -0.0017104085549356919 0 0.0012272779654004826 -0.0017104085549356919 0 0.0010796922684009368 -0.0017065697207167853 0 0.0011519803204504497 -0.0018033692348871219 0 0.0012372855213678687 -0.0015803210493617822 0 0.0012272779654004826 -0.0017104085549356919 0 0.0010796922684009368 -0.0017065697207167853 0 0.0010796922684009368 -0.0017065697207167853 0 0.0010813527225588572 -0.0017950343726920468 0 0.0010776470354764303 -0.0018117489199883535 0 0.0010796922684009368 -0.0017065697207167853 0 0.0010813527225588572 -0.0017950343726920468 0 0.0011519803204504497 -0.0018033692348871219 0 0.0010915294707123078 -0.0019191852874683348 0 0.0010456279000418181 -0.0017535684325865684 0 0.0010776470354764303 -0.0018117489199883535 0 0.0010796922684009368 -0.0017065697207167853 0 0.0010456279000418181 -0.0017535684325865684 0 0.0010776470354764303 -0.0018117489199883535 0 0.0011225739630976112 -0.0018403129215395046 0 0.0011416106423224302 -0.0019507724854494752 0 0.0010776470354764303 -0.0018117489199883535 0 0.0010915294707123078 -0.0019191852874683348 0 0.0011416106423224302 -0.0019507724854494752 0 0.0010776470354764303 -0.0018117489199883535 0 0.0011225739630976112 -0.0018403129215395046 0 0.0010813527225588572 -0.0017950343726920468 0 0.0010776470354764303 -0.0018117489199883535 0 0.0011225739630976112 -0.0018403129215395046 0 0.0010813527225588572 -0.0017950343726920468 0 0.00107805600681393 -0.0018341240300553999 0 0.00107805600681393 -0.0018341240300553999 0 0.001104499687960865 -0.0018489312623944938 0 0.0010505742116643311 -0.0019184348791672849 0 0.0010813527225588572 -0.0017950343726920468 0 0.00107805600681393 -0.0018341240300553999 0 0.001104499687960865 -0.0018489312623944938 0 0.0010813527225588572 -0.0017950343726920468 0 0.001104499687960865 -0.0018489312623944938 0 0.0011519803204504497 -0.0018033692348871219 0 0.001104499687960865 -0.0018489312623944938 0 0.0011377646322543228 -0.0019419146125301526 0 0.0011519803204504497 -0.0018033692348871219 0 0.001104499687960865 -0.0018489312623944938 0 0.0011377646322543228 -0.0019419146125301526 0 0.0010505742116643311 -0.0019184348791672849 0 0.0011377646322543228 -0.0019419146125301526 0 0.0010505742116643311 -0.0019184348791672849 0 0.0010906236413192321 -0.0020219771800599703 0 0.0010505742116643311 -0.0019184348791672849 0 0.0010202818420106323 -0.0020505646673581765 0 0.0010906236413192321 -0.0020219771800599703 0 0.0013871556057228165 -0.0016782404921948336 0 0.0012272779654004826 -0.0017104085549356919 0 0.0012782867003562411 -0.0017922151124023246 0 0.0012272779654004826 -0.0017104085549356919 0 0.0012782867003562411 -0.0017922151124023246 0 0.0011519803204504497 -0.0018033692348871219 0 0.0011377646322543228 -0.0019419146125301526 0 0.0011519803204504497 -0.0018033692348871219 0 0.001221640344561802 -0.0019095795895810166 0 0.0012782867003562411 -0.0017922151124023246 0 0.0011519803204504497 -0.0018033692348871219 0 0.001221640344561802 -0.0019095795895810166 0 0.0012782867003562411 -0.0017922151124023246 0 0.001221640344561802 -0.0019095795895810166 0 0.0013066817244230592 -0.0018823239193648201 0 0.00138380063307634 -0.0017570579948612696 0 0.0012782867003562411 -0.0017922151124023246 0 0.0013066817244230592 -0.0018823239193648201 0 0.001221640344561802 -0.0019095795895810166 0 0.0013066817244230592 -0.0018823239193648201 0 0.0012526215463091262 -0.0020127710510619711 0 0.0013066817244230592 -0.0018823239193648201 0 0.0013138963503540894 -0.0019767330065942747 0 0.0012526215463091262 -0.0020127710510619711 0 0.0011377646322543228 -0.0019419146125301526 0 0.001221640344561802 -0.0019095795895810166 0 0.0011867307377811025 -0.0020616185881200057 0 0.001221640344561802 -0.0019095795895810166 0 0.0012526215463091262 -0.0020127710510619711 0 0.0011867307377811025 -0.0020616185881200057 0 0.0012526215463091262 -0.0020127710510619711 0 0.0011867307377811025 -0.0020616185881200057 0 0.0012108239244570333 -0.0021555391441581977 0 0.0012108239244570333 -0.0021555391441581977 0 0.001273115004846583 -0.002099949971643479 0 0.0012422073540579021 -0.0022015444945202938 0 0.0012526215463091262 -0.0020127710510619711 0 0.0012108239244570333 -0.0021555391441581977 0 0.001273115004846583 -0.002099949971643479 0 0.0013138963503540894 -0.0019767330065942747 0 0.0012526215463091262 -0.0020127710510619711 0 0.001273115004846583 -0.002099949971643479 0 0.001273115004846583 -0.002099949971643479 0 0.0013051585622010956 -0.002160360087848593 0 0.0012422073540579021 -0.0022015444945202938 0 0.001273115004846583 -0.002099949971643479 0 0.0013218457980323989 -0.0020478599277049449 0 0.0013051585622010956 -0.002160360087848593 0 0.0013138963503540894 -0.0019767330065942747 0 0.001273115004846583 -0.002099949971643479 0 0.0013218457980323989 -0.0020478599277049449 0 0.0010664298408696216 -0.0021445061680659453 0 0.001128374840393908 -0.002103120545250583 0 0.0010948518946004265 -0.0022666515499439386 0 0.00097629368585106944 -0.0021482253050672919 0 0.0010664298408696216 -0.0021445061680659453 0 0.0010202818420106323 -0.0020505646673581765 0 0.00097629368585106944 -0.0021482253050672919 0 0.0010664298408696216 -0.0021445061680659453 0 0.0010374264467663177 -0.0022999081977288336 0 0.0010664298408696216 -0.0021445061680659453 0 0.0010202818420106323 -0.0020505646673581765 0 0.0010906236413192321 -0.0020219771800599703 0 0.0010664298408696216 -0.0021445061680659453 0 0.0010906236413192321 -0.0020219771800599703 0 0.001128374840393908 -0.002103120545250583 0 0.0011377646322543228 -0.0019419146125301526 0 0.0010906236413192321 -0.0020219771800599703 0 0.001128374840393908 -0.002103120545250583 0 0.0011377646322543228 -0.0019419146125301526 0 0.0011867307377811025 -0.0020616185881200057 0 0.001128374840393908 -0.002103120545250583 0 0.0011867307377811025 -0.0020616185881200057 0 0.001128374840393908 -0.002103120545250583 0 0.0011469899217879569 -0.0022118653792278058 0 0.001128374840393908 -0.002103120545250583 0 0.0011469899217879569 -0.0022118653792278058 0 0.0010948518946004265 -0.0022666515499439386 0 0.0011867307377811025 -0.0020616185881200057 0 0.0012108239244570333 -0.0021555391441581977 0 0.0011469899217879569 -0.0022118653792278058 0 0.0012108239244570333 -0.0021555391441581977 0 0.0011469899217879569 -0.0022118653792278058 0 0.001163672010017302 -0.002289728658690073 0 0.0011469899217879569 -0.0022118653792278058 0 0.0010858836924652602 -0.0023642882812529623 0 0.001163672010017302 -0.002289728658690073 0 0.0011469899217879569 -0.0022118653792278058 0 0.0010948518946004265 -0.0022666515499439386 0 0.0010858836924652602 -0.0023642882812529623 0 0.0010948518946004265 -0.0022666515499439386 0 0.0010456042753995648 -0.0024507567714725409 0 0.0010858836924652602 -0.0023642882812529623 0 0.00098474583926622464 -0.0023475281999111685 0 0.0010374264467663177 -0.0022999081977288336 0 0.0010456042753995648 -0.0024507567714725409 0 0.0010948518946004265 -0.0022666515499439386 0 0.0010374264467663177 -0.0022999081977288336 0 0.0010456042753995648 -0.0024507567714725409 0 0.0010664298408696216 -0.0021445061680659453 0 0.0010948518946004265 -0.0022666515499439386 0 0.0010374264467663177 -0.0022999081977288336 0 0.0010456042753995648 -0.0024507567714725409 0 0.0010204625743380704 -0.0024864552022579333 0 0.00093721055618322356 -0.0027723130580543363 0 0.0010456042753995648 -0.0024507567714725409 0 0.0010204625743380704 -0.0024864552022579333 0 0.0010858836924652602 -0.0023642882812529623 0 0.0010329763507955587 -0.0024217249794109305 0 0.0010373211729520905 -0.0024077457283656952 0 0.0010175995862663435 -0.0024439826370553342 0 0.0010204625743380704 -0.0024864552022579333 0 0.0010329763507955587 -0.0024217249794109305 0 0.0010175995862663435 -0.0024439826370553342 0 0.0010204625743380704 -0.0024864552022579333 0 0.0010329763507955587 -0.0024217249794109305 0 0.00107545575699268 -0.0023910272797781893 0 0.0010204625743380704 -0.0024864552022579333 0 0.0010858836924652602 -0.0023642882812529623 0 0.00107545575699268 -0.0023910272797781893 0 0.0010858836924652602 -0.0023642882812529623 0 0.001163672010017302 -0.002289728658690073 0 0.00107545575699268 -0.0023910272797781893 0 0.001163672010017302 -0.002289728658690073 0 0.00107545575699268 -0.0023910272797781893 0 0.0011532694315685731 -0.0023781606177985179 0 0.0011532694315685731 -0.0023781606177985179 0 0.0010762859454776384 -0.0024494781730572939 0 0.0011799083338459523 -0.0025317413442112174 0 0.0011330563592899469 -0.0023968810838215916 0 0.0011283891624548482 -0.0024433675359218903 0 0.00107545575699268 -0.0023910272797781893 0 0.0011532694315685731 -0.0023781606177985179 0 0.0010587493090243798 -0.0024292780540793907 0 0.0011532694315685731 -0.0023781606177985179 0 0.0012283641208530624 -0.0024397230682673254 0 0.0011799083338459523 -0.0025317413442112174 0 0.0010587493090243798 -0.0024292780540793907 0 0.0010373211729520905 -0.0024077457283656952 0 0.001019571204633433 -0.0024191313452243302 0 0.0011283891624548482 -0.0024433675359218903 0 0.0012981679785772711 -0.0036958976543360988 0 0.0010329763507955587 -0.0024217249794109305 0 0.0010587493090243798 -0.0024292780540793907 0 0.0010373211729520905 -0.0024077457283656952 0 0.0010329763507955587 -0.0024217249794109305 0 0.00107545575699268 -0.0023910272797781893 0 0.0010587493090243798 -0.0024292780540793907 0 0.0013217598393817829 -0.0022347200476322848 0 0.0013051585622010956 -0.002160360087848593 0 0.001361710893267579 -0.0021498360846079153 0 0.0013051585622010956 -0.002160360087848593 0 0.0012422073540579021 -0.0022015444945202938 0 0.0012516511879941514 -0.0023031779911495769 0 0.0013217598393817829 -0.0022347200476322848 0 0.0013051585622010956 -0.002160360087848593 0 0.0012516511879941514 -0.0023031779911495769 0 0.001163672010017302 -0.002289728658690073 0 0.0011532694315685731 -0.0023781606177985179 0 0.0012516511879941514 -0.0023031779911495769 0 0.001163672010017302 -0.002289728658690073 0 0.0012422073540579021 -0.0022015444945202938 0 0.0012516511879941514 -0.0023031779911495769 0 0.0012108239244570333 -0.0021555391441581977 0 0.001163672010017302 -0.002289728658690073 0 0.0012422073540579021 -0.0022015444945202938 0 0.0011532694315685731 -0.0023781606177985179 0 0.0012283641208530624 -0.0024397230682673254 0 0.0012516511879941514 -0.0023031779911495769 0 0.0012283641208530624 -0.0024397230682673254 0 0.0012516511879941514 -0.0023031779911495769 0 0.0012758039150606876 -0.0023903014596491573 0 0.0013217598393817829 -0.0022347200476322848 0 0.0012516511879941514 -0.0023031779911495769 0 0.0013168033566670597 -0.0023212346375579675 0 0.0012516511879941514 -0.0023031779911495769 0 0.0012758039150606876 -0.0023903014596491573 0 0.0013168033566670597 -0.0023212346375579675 0 0.0012758039150606876 -0.0023903014596491573 0 0.0013168033566670597 -0.0023212346375579675 0 0.001337981562390649 -0.0023662194438400339 0 0.0012860515613989103 -0.002465334999434713 0 0.0012837992555937217 -0.0025593478406266881 0 0.0013331245888841879 -0.0024595519868966676 0 0.0012860515613989103 -0.002465334999434713 0 0.001337981562390649 -0.0023662194438400339 0 0.0013331245888841879 -0.0024595519868966676 0 0.0012758039150606876 -0.0023903014596491573 0 0.0012860515613989103 -0.002465334999434713 0 0.001337981562390649 -0.0023662194438400339 0 0.0012283641208530624 -0.0024397230682673254 0 0.0012860515613989103 -0.002465334999434713 0 0.0012429314254803856 -0.0025951266784716839 0 0.0012283641208530624 -0.0024397230682673254 0 0.0012429314254803856 -0.0025951266784716839 0 0.0011799083338459523 -0.0025317413442112174 0 0.0012860515613989103 -0.002465334999434713 0 0.0012429314254803856 -0.0025951266784716839 0 0.0012837992555937217 -0.0025593478406266881 0 0.0012283641208530624 -0.0024397230682673254 0 0.0012758039150606876 -0.0023903014596491573 0 0.0012860515613989103 -0.002465334999434713 0 0.0012429314254803856 -0.0025951266784716839 0 0.0012330793718827468 -0.0027104188117042997 0 0.0012525947119296601 -0.0026499870319487036 0 0.0012429314254803856 -0.0025951266784716839 0 0.0012525947119296601 -0.0026499870319487036 0 0.0012837992555937217 -0.0025593478406266881 0 0.0012525947119296601 -0.0026499870319487036 0 0.0012837992555937217 -0.0025593478406266881 0 0.0012705362399893249 -0.0026279035441885679 0 0.0012837992555937217 -0.0025593478406266881 0 0.0013185320285072739 -0.002532007364613374 0 0.0012705362399893249 -0.0026279035441885679 0 0.0012837992555937217 -0.0025593478406266881 0 0.0013185320285072739 -0.002532007364613374 0 0.0013331245888841879 -0.0024595519868966676 0 0.0010916530647866829 -0.0025893493296680367 0 0.0011982057151836488 -0.0027528680136152954 0 0.00099067545133231494 -0.0027122019068668074 0 0.0010916530647866829 -0.0025893493296680367 0 0.00099067545133231494 -0.0027122019068668074 0 0.00092635742843331936 -0.0025326968678003399 0 0.0011665434006048186 -0.0031272787257051724 0 0.0012981679785772711 -0.0036958976543360988 0 0.0010762859454776384 -0.0024494781730572939 0 0.0010916530647866829 -0.0025893493296680367 0 0.00092635742843331936 -0.0025326968678003399 0 0.0012429314254803856 -0.0025951266784716839 0 0.0011799083338459523 -0.0025317413442112174 0 0.0011982057151836488 -0.0027528680136152954 0 0.0010762859454776384 -0.0024494781730572939 0 0.0010916530647866829 -0.0025893493296680367 0 0.0011799083338459523 -0.0025317413442112174 0 0.0010916530647866829 -0.0025893493296680367 0 0.0011799083338459523 -0.0025317413442112174 0 0.0011982057151836488 -0.0027528680136152954 0 0.0012429314254803856 -0.0025951266784716839 0 0.0012330793718827468 -0.0027104188117042997 0 0.0011982057151836488 -0.0027528680136152954 0 0.0011982057151836488 -0.0027528680136152954 0 0.0011904097777783174 -0.0030358496686424628 0 0.0012279397804070443 -0.0028555490854099345 0 0.0012330793718827468 -0.0027104188117042997 0 0.0011982057151836488 -0.0027528680136152954 0 0.0012279397804070443 -0.0028555490854099345 0 0.0011982057151836488 -0.0027528680136152954 0 0.0011904097777783174 -0.0030358496686424628 0 0.00099067545133231494 -0.0027122019068668074 0 0.0011828767559055153 -0.0030893101569900261 0 0.0011665434006048186 -0.0031272787257051724 0 0.0013739282289988919 -0.0037111323221537232 0 0.0014536361199151242 -0.0032998621502804103 0 0.0016201042660775155 -0.0035415538931318795 0 0.0011904097777783174 -0.0030358496686424628 0 0.0013739282289988919 -0.0037111323221537232 0 0.0014536361199151242 -0.0032998621502804103 0 0.0011904097777783174 -0.0030358496686424628 0 0.0012805564625255361 -0.00292871237811511 0 0.0015413923389853781 -0.0031221517292854325 0 0.0011904097777783174 -0.0030358496686424628 0 0.0014536361199151242 -0.0032998621502804103 0 0.0015413923389853781 -0.0031221517292854325 0 0.0011904097777783174 -0.0030358496686424628 0 0.0012805564625255361 -0.00292871237811511 0 0.0012279397804070443 -0.0028555490854099345 0 0.0012805564625255361 -0.00292871237811511 0 0.0014268904480795336 -0.0028789052991592644 0 0.0013164674884509253 -0.0028172414196313122 0 0.0012805564625255361 -0.00292871237811511 0 0.0014268904480795336 -0.0028789052991592644 0 0.0015413923389853781 -0.0031221517292854325 0 0.0014268904480795336 -0.0028789052991592644 0 0.001462837669871149 -0.0027552999282774433 0 0.0016175360491150154 -0.0028482072415627418 0 0.0014268904480795336 -0.0028789052991592644 0 0.0013164674884509253 -0.0028172414196313122 0 0.001462837669871149 -0.0027552999282774433 0 0.0013731523697725898 -0.002674709548384592 0 0.001462837669871149 -0.0027552999282774433 0 0.0014958601545243073 -0.0026669438813292372 0 0.0013164674884509253 -0.0028172414196313122 0 0.0013731523697725898 -0.002674709548384592 0 0.001462837669871149 -0.0027552999282774433 0 0.001462837669871149 -0.0027552999282774433 0 0.001588176784684661 -0.002708495814774605 0 0.0016175360491150154 -0.0028482072415627418 0 0.001462837669871149 -0.0027552999282774433 0 0.0014958601545243073 -0.0026669438813292372 0 0.001588176784684661 -0.002708495814774605 0 0.0012440408199062567 -0.0027495930882620932 0 0.0012204192497680905 -0.0026956728209643617 0 0.0012287314759676729 -0.0026602193759351798 0 0.0013731523697725898 -0.002674709548384592 0 0.0012440408199062567 -0.0027495930882620932 0 0.0012287314759676729 -0.0026602193759351798 0 0.0013164674884509253 -0.0028172414196313122 0 0.0013731523697725898 -0.002674709548384592 0 0.0012440408199062567 -0.0027495930882620932 0 0.0012440408199062567 -0.0027495930882620932 0 0.0012279397804070443 -0.0028555490854099345 0 0.0012272758572365091 -0.0027248579585656711 0 0.0012805564625255361 -0.00292871237811511 0 0.0013164674884509253 -0.0028172414196313122 0 0.0012279397804070443 -0.0028555490854099345 0 0.0013164674884509253 -0.0028172414196313122 0 0.0012440408199062567 -0.0027495930882620932 0 0.0012279397804070443 -0.0028555490854099345 0 0.0012330793718827468 -0.0027104188117042997 0 0.0012279397804070443 -0.0028555490854099345 0 0.0012272758572365091 -0.0027248579585656711 0 0.0012272758572365091 -0.0027248579585656711 0 0.0012705362399893249 -0.0026279035441885679 0 0.0012321234418804603 -0.002662191565980283 0 0.0012330793718827468 -0.0027104188117042997 0 0.0012525947119296601 -0.0026499870319487036 0 0.0012272758572365091 -0.0027248579585656711 0 0.0012525947119296601 -0.0026499870319487036 0 0.0012272758572365091 -0.0027248579585656711 0 0.0012705362399893249 -0.0026279035441885679 0 0.0012705362399893249 -0.0026279035441885679 0 0.001290501040169778 -0.0026210397788999171 0 0.0012321234418804603 -0.002662191565980283 0 0.0013185320285072739 -0.002532007364613374 0 0.0012705362399893249 -0.0026279035441885679 0 0.0013252888940381824 -0.0025648532013034775 0 0.0012705362399893249 -0.0026279035441885679 0 0.001290501040169778 -0.0026210397788999171 0 0.0013252888940381824 -0.0025648532013034775 0 0.001290501040169778 -0.0026210397788999171 0 0.0012321234418804603 -0.002662191565980283 0 0.0012714687130935072 -0.0026461303692526905 0 0.0012321234418804603 -0.002662191565980283 0 0.0012714687130935072 -0.0026461303692526905 0 0.0012315917019168367 -0.0026471138784434625 0 0.0012321234418804603 -0.002662191565980283 0 0.0012018115834630059 -0.0026369838119035308 0 0.0012315917019168367 -0.0026471138784434625 0 0.0012440408199062567 -0.0027495930882620932 0 0.0012272758572365091 -0.0027248579585656711 0 0.0012204192497680905 -0.0026956728209643617 0 0.0012272758572365091 -0.0027248579585656711 0 0.0012321234418804603 -0.002662191565980283 0 0.0012204192497680905 -0.0026956728209643617 0 0.0012321234418804603 -0.002662191565980283 0 0.0012204192497680905 -0.0026956728209643617 0 0.0012018115834630059 -0.0026369838119035308 0 0.0012204192497680905 -0.0026956728209643617 0 0.0012018115834630059 -0.0026369838119035308 0 0.0012287314759676729 -0.0026602193759351798 0 0.0012018115834630059 -0.0026369838119035308 0 0.0011857171833722206 -0.0025912125235111709 0 0.0012070040580752562 -0.0026489354129856095 0 0.0012018115834630059 -0.0026369838119035308 0 0.0012315917019168367 -0.0026471138784434625 0 0.0012070040580752562 -0.0026489354129856095 0 0.0012018115834630059 -0.0026369838119035308 0 0.0011857171833722206 -0.0025912125235111709 0 0.0012287314759676729 -0.0026602193759351798 0 0.0012714687130935072 -0.0026461303692526905 0 0.0012315917019168367 -0.0026471138784434625 0 0.0012557743575753607 -0.0026609446795816992 0 0.0012315917019168367 -0.0026471138784434625 0 0.0012557743575753607 -0.0026609446795816992 0 0.0012070040580752562 -0.0026489354129856095 0 -0.00076488655899708223 -0.0017592717573497228 0 -0.0013331847120336166 -0.0012636458500504843 0 -0.0023544664950108721 -0.0014887450873005146 0 5.1842266871358538e-05 -0.0022506746870871184 0 0.00047937868088858068 -0.00070774881877114942 0 0.0012557743575753607 -0.0026609446795816992 0 0.0012070040580752562 -0.0026489354129856095 0 0.0012833879832739549 -0.0026962224549119474 0 -0.00076488655899708223 -0.0017592717573497228 0 -0.0013331847120336166 -0.0012636458500504843 0 -0.00037220467386170282 -0.0011339205081782107 0 -0.0013331847120336166 -0.0012636458500504843 0 -0.00037220467386170282 -0.0011339205081782107 0 -0.00092249390103011405 -0.00050710091800710677 0 -0.0013331847120336166 -0.0012636458500504843 0 -0.0020569914069720942 -0.0011065381413385776 0 -0.0018559494896337968 -0.00036000588148207526 0 -0.0013331847120336166 -0.0012636458500504843 0 -0.0020569914069720942 -0.0011065381413385776 0 -0.0023544664950108721 -0.0014887450873005146 0 0.0011857171833722206 -0.0025912125235111709 0 0.0012070040580752562 -0.0026489354129856095 0 0.0011605082517820663 -0.0025105877175933258 0 -0.00076488655899708223 -0.0017592717573497228 0 -0.00037220467386170282 -0.0011339205081782107 0 0.00064033798165757244 -0.0019856175416644462 0 5.1842266871358538e-05 -0.0022506746870871184 0 0.00097552467270807129 -0.0022486010923179339 0 -0.00037220467386170282 -0.0011339205081782107 0 0.00038554053905509312 -0.0011372491467365954 0 0.00064033798165757244 -0.0019856175416644462 0 0.00097552467270807129 -0.0022486010923179339 0 0.0016601959199945024 -0.002289313585578863 0 0.0011605082517820663 -0.0025105877175933258 0 0.0017192299285754373 -0.0022776464379631297 0 0.0014994019265323376 -0.0024075472844179353 0 0.00064033798165757244 -0.0019856175416644462 0 0.0010572732245338239 -0.0016856178825951607 0 0.0017192299285754373 -0.0022776464379631297 0 0.00038554053905509312 -0.0011372491467365954 0 0.00064033798165757244 -0.0019856175416644462 0 0.0010572732245338239 -0.0016856178825951607 0 0.0010572732245338239 -0.0016856178825951607 0 0.001431633506496068 -0.0017023484026999294 0 0.0011903690712614938 -0.0011878426129756866 0 0.00038554053905509312 -0.0011372491467365954 0 0.0010572732245338239 -0.0016856178825951607 0 0.0011903690712614938 -0.0011878426129756866 0 0.001431633506496068 -0.0017023484026999294 0 0.0018171943539995504 -0.0016114394905970874 0 0.0011903690712614938 -0.0011878426129756866 0 0.0018171943539995504 -0.0016114394905970874 0 0.0017192299285754373 -0.0022776464379631297 0 0.0022547846125038451 -0.002045496228764728 0 0.0010572732245338239 -0.0016856178825951607 0 0.001431633506496068 -0.0017023484026999294 0 0.0017192299285754373 -0.0022776464379631297 0 0.001431633506496068 -0.0017023484026999294 0 0.0018171943539995504 -0.0016114394905970874 0 0.0017192299285754373 -0.0022776464379631297 0 0.0017192299285754373 -0.0022776464379631297 0 0.0014994019265323376 -0.0024075472844179353 0 0.0029226458171940444 -0.0024118798967183116 0 0.0014994019265323376 -0.0024075472844179353 0 0.0014124805129051294 -0.0025664658401715564 0 0.0014942959372419701 -0.002566990001075705 0 0.0014994019265323376 -0.0024075472844179353 0 0.0014942959372419701 -0.002566990001075705 0 0.0016193333054697373 -0.0025656269169329355 0 0.0015642065723517696 -0.002629012711678974 0 0.0014942959372419701 -0.002566990001075705 0 0.0016193333054697373 -0.0025656269169329355 0 0.0014958601545243073 -0.0026669438813292372 0 0.0015642065723517696 -0.002629012711678974 0 0.0014942959372419701 -0.002566990001075705 0 0.0014958601545243073 -0.0026669438813292372 0 0.0015642065723517696 -0.002629012711678974 0 0.001588176784684661 -0.002708495814774605 0 0.0013731523697725898 -0.002674709548384592 0 0.0014958601545243073 -0.0026669438813292372 0 0.0014942959372419701 -0.002566990001075705 0 0.0013731523697725898 -0.002674709548384592 0 0.0014124805129051294 -0.0025664658401715564 0 0.0014942959372419701 -0.002566990001075705 0 0.0013731523697725898 -0.002674709548384592 0 0.0012287314759676729 -0.0026602193759351798 0 0.0012824330683529016 -0.0025820642358544968 0 0.0013731523697725898 -0.002674709548384592 0 0.0014124805129051294 -0.0025664658401715564 0 0.0012824330683529016 -0.0025820642358544968 0 0.0011857171833722206 -0.0025912125235111709 0 0.0012287314759676729 -0.0026602193759351798 0 0.0012824330683529016 -0.0025820642358544968 0 0.0011857171833722206 -0.0025912125235111709 0 0.0011605082517820663 -0.0025105877175933258 0 0.0012824330683529016 -0.0025820642358544968 0 0.0011605082517820663 -0.0025105877175933258 0 0.0014994019265323376 -0.0024075472844179353 0 0.0012824330683529016 -0.0025820642358544968 0 0.0014994019265323376 -0.0024075472844179353 0 0.0014124805129051294 -0.0025664658401715564 0 0.0012824330683529016 -0.0025820642358544968 0 -0.0018607421923063244 0.011410250994045863 0 -0.0020789918648135598 0.011452645868288079 0 -0.001976668107397822 0.011911517860312148 0 -0.0047137507369191889 0.020783581857538067 0 -0.0044357309148808461 0.020277825306100936 0 -0.0038219835178866565 0.020794290273508362 0 -0.0047137507369191889 0.020783581857538067 0 -0.0044357309148808461 0.020277825306100936 0 -0.0050102683541545486 0.019891800587870209 0 -0.0044357309148808461 0.020277825306100936 0 -0.0042374593369266149 0.019793103952329621 0 -0.0050102683541545486 0.019891800587870209 0 -0.0044045109770163909 0.019898426857194527 0 -0.0048929390435280065 0.017972965538095853 0 -0.0018607421923063244 0.011410250994045863 0 -0.001976668107397822 0.011911517860312148 0 -0.0015262029216434683 0.011813506995842875 0 -0.0048929390435280065 0.017972965538095853 0 -0.0014432678817162296 0.0078928730231957022 0 -0.0050051796599537126 0.01967548802396047 0 -0.0058474090110614439 0.019713364196036958 0 -0.0054047095160880557 0.019407446804284662 0 -0.0034411679317088942 0.016843338621985483 0 -0.0048929390435280065 0.017972965538095853 0 -0.0048929390435280065 0.017972965538095853 0 -0.0047523232415216943 0.019156020739997413 0 0.003276794294103384 0.0016241440575495984 0 0.0038757413203676957 0.0015317669351352058 0 0.0032774463530852596 0.00063316415382756676 0 -0.0035038646690287866 -0.0012340194117106008 0 -0.0020569914069720942 -0.0011065381413385776 0 -0.0023319557982661456 -0.0014266861135951445 0 -0.0035038646690287866 -0.0012340194117106008 0 -0.0020569914069720942 -0.0011065381413385776 0 -0.0018559494896337968 -0.00036000588148207526 0 -0.0014432678817162296 0.0078928730231957022 0 0.00047937868088858068 -0.00070774881877114942 0 -0.00088189747064088063 -0.0015770934499546372 0 0.00047937868088858068 -0.00070774881877114942 0 0.0012557743575753607 -0.0026609446795816992 0 0.0012833879832739549 -0.0026962224549119474 0 0.0013083497804840638 -0.002658874908421394 0 0.00047937868088858068 -0.00070774881877114942 0 0.0027085125004041263 -0.00089594994851419096 0 0.0012833879832739549 -0.0026962224549119474 0 0.0013083497804840638 -0.002658874908421394 0 0.001405452309718542 -0.0026556203273242558 0 0.0013083497804840638 -0.002658874908421394 0 0.001405452309718542 -0.0026556203273242558 0 0.0013350536627035935 -0.0026245017435383125 0 0.0012714687130935072 -0.0026461303692526905 0 0.0012557743575753607 -0.0026609446795816992 0 0.0013083497804840638 -0.002658874908421394 0 0.0026064098665138048 0.00080667153507338611 0 0.003276794294103384 0.0016241440575495984 0 0.0032774463530852596 0.00063316415382756676 0 0.00040278824552234958 0.0051830711054280613 0 -0.0014432678817162296 0.0078928730231957022 0 0.001405452309718542 -0.0026556203273242558 0 0.0013350536627035935 -0.0026245017435383125 0 0.0014147938880943933 -0.0025692732619957185 0 0.001405452309718542 -0.0026556203273242558 0 0.0014147938880943933 -0.0025692732619957185 0 0.0015767370437896515 -0.0025285873314301014 0 0.001290501040169778 -0.0026210397788999171 0 0.0012714687130935072 -0.0026461303692526905 0 0.0013350536627035935 -0.0026245017435383125 0 0.0012714687130935072 -0.0026461303692526905 0 0.0013083497804840638 -0.002658874908421394 0 0.0013350536627035935 -0.0026245017435383125 0 0.0013350536627035935 -0.0026245017435383125 0 0.0013564747351333857 -0.0025823062196417028 0 0.0014147938880943933 -0.0025692732619957185 0 0.001290501040169778 -0.0026210397788999171 0 0.0013350536627035935 -0.0026245017435383125 0 0.0013564747351333857 -0.0025823062196417028 0 0.001290501040169778 -0.0026210397788999171 0 0.0013564747351333857 -0.0025823062196417028 0 0.0013252888940381824 -0.0025648532013034775 0 0.0013564747351333857 -0.0025823062196417028 0 0.0013252888940381824 -0.0025648532013034775 0 0.001394799498869787 -0.0025118551510455757 0 0.0014147938880943933 -0.0025692732619957185 0 0.0014672830070582127 -0.0024798283213581475 0 0.0015767370437896515 -0.0025285873314301014 0 0.0013564747351333857 -0.0025823062196417028 0 0.0014147938880943933 -0.0025692732619957185 0 0.001394799498869787 -0.0025118551510455757 0 0.0014147938880943933 -0.0025692732619957185 0 0.001394799498869787 -0.0025118551510455757 0 0.0014672830070582127 -0.0024798283213581475 0 0.0014672830070582127 -0.0024798283213581475 0 0.0015767370437896515 -0.0025285873314301014 0 0.0015074389072403276 -0.0023870260584004854 0 0.0015767370437896515 -0.0025285873314301014 0 0.0015727173847162866 -0.0023654521673473531 0 0.0015074389072403276 -0.0023870260584004854 0 0.0026064098665138048 0.00080667153507338611 0 0.0032774463530852596 0.00063316415382756676 0 0.0025921128945361363 -0.00056801982803677989 0 0.0027085125004041263 -0.00089594994851419096 0 0.0019946756626409612 -0.0016066379142636942 0 0.0026064098665138048 0.00080667153507338611 0 0.0025921128945361363 -0.00056801982803677989 0 0.0017418195455048489 -0.00025799370282420485 0 -0.0047137507369191889 0.020783581857538067 0 -0.004400358652568828 0.021611299926124827 0 -0.0040388839340678804 0.02127008810663825 0 0.00040278824552234958 0.0051830711054280613 0 0.00022126721156794991 0.010008795876040626 0 -0.0018607421923063244 0.011410250994045863 0 -0.0020789918648135598 0.011452645868288079 0 -0.0021577823186307429 0.01098845378308797 0 -0.0034411679317088942 0.016843338621985483 0 0.00022126721156794991 0.010008795876040626 0 0.00022126721156794991 0.010008795876040626 0 0.0034467015850954846 0.0016241555959403005 0 0.0025921128945361363 -0.00056801982803677989 0 0.0017418195455048489 -0.00025799370282420485 0 0.0016911454933942478 -0.0021445328624549154 0 0.0015767370437896515 -0.0025285873314301014 0 0.0016911454933942478 -0.0021445328624549154 0 0.0016202457531776092 -0.0022763252213117043 0 0.0017418195455048489 -0.00025799370282420485 0 0.0016911454933942478 -0.0021445328624549154 0 0.0014972561177950302 -0.0020923276911257106 0 0.0019946756626409612 -0.0016066379142636942 0 0.0017198498008116868 -0.0021058970280561392 0 0.0016911454933942478 -0.0021445328624549154 0 0.0016629651449222721 -0.0022016837313496955 0 0.0014972561177950302 -0.0020923276911257106 0 0.0016547903261026767 -0.0022054322799858941 0 0.0016202457531776092 -0.0022763252213117043 0 0.001621096919604623 -0.0022383103398272938 0 0.0016911454933942478 -0.0021445328624549154 0 0.0016547903261026767 -0.0022054322799858941 0 0.0016202457531776092 -0.0022763252213117043 0 0.0015767370437896515 -0.0025285873314301014 0 0.0016202457531776092 -0.0022763252213117043 0 0.0015727173847162866 -0.0023654521673473531 0 0.0016202457531776092 -0.0022763252213117043 0 0.0015727173847162866 -0.0023654521673473531 0 0.0015713990079106721 -0.0023047235479162318 0 0.0015727173847162866 -0.0023654521673473531 0 0.0015074389072403276 -0.0023870260584004854 0 0.0015713990079106721 -0.0023047235479162318 0 0.0015074389072403276 -0.0023870260584004854 0 0.0015179742845834888 -0.0023270697915529839 0 0.0015713990079106721 -0.0023047235479162318 0 0.0016202457531776092 -0.0022763252213117043 0 0.0015713990079106721 -0.0023047235479162318 0 0.001621096919604623 -0.0022383103398272938 0 0.0015713990079106721 -0.0023047235479162318 0 0.001621096919604623 -0.0022383103398272938 0 0.0015595430528261187 -0.0022544334711928193 0 0.0015179742845834888 -0.0023270697915529839 0 0.0015713990079106721 -0.0023047235479162318 0 0.0015595430528261187 -0.0022544334711928193 0 0.0015179742845834888 -0.0023270697915529839 0 0.0015595430528261187 -0.0022544334711928193 0 0.0014869364261549827 -0.0023090039652852732 0 0.0015595430528261187 -0.0022544334711928193 0 0.0014869364261549827 -0.0023090039652852732 0 0.0014997947642289944 -0.0022251032662800644 0 0.001621096919604623 -0.0022383103398272938 0 0.0015595430528261187 -0.0022544334711928193 0 0.0016219669678537128 -0.0022059426337650689 0 0.0015595430528261187 -0.0022544334711928193 0 0.0016219669678537128 -0.0022059426337650689 0 0.0015643980908061122 -0.0021686340915977567 0 0.0016219669678537128 -0.0022059426337650689 0 0.0016629651449222721 -0.0022016837313496955 0 0.0016858553665647146 -0.002182588870772034 0 0.0016629651449222721 -0.0022016837313496955 0 0.0016858553665647146 -0.002182588870772034 0 0.0017915519655589461 -0.0021824234863453439 0 0.0016911454933942478 -0.0021445328624549154 0 0.0016547903261026767 -0.0022054322799858941 0 0.0016629651449222721 -0.0022016837313496955 0 0.0016547903261026767 -0.0022054322799858941 0 0.001621096919604623 -0.0022383103398272938 0 0.0016629651449222721 -0.0022016837313496955 0 0.001621096919604623 -0.0022383103398272938 0 0.0016219669678537128 -0.0022059426337650689 0 0.0016629651449222721 -0.0022016837313496955 0 0.0013185320285072739 -0.002532007364613374 0 0.0013750301231716434 -0.0024589565727674463 0 0.0013331245888841879 -0.0024595519868966676 0 0.0013185320285072739 -0.002532007364613374 0 0.0013252888940381824 -0.0025648532013034775 0 0.0013750301231716434 -0.0024589565727674463 0 0.0013252888940381824 -0.0025648532013034775 0 0.001394799498869787 -0.0025118551510455757 0 0.0013750301231716434 -0.0024589565727674463 0 0.0013750301231716434 -0.0024589565727674463 0 0.0014511912315100452 -0.0024030432784046228 0 0.001433130122656674 -0.0023648995290771182 0 0.001394799498869787 -0.0025118551510455757 0 0.0013750301231716434 -0.0024589565727674463 0 0.0014511912315100452 -0.0024030432784046228 0 0.001394799498869787 -0.0025118551510455757 0 0.0014672830070582127 -0.0024798283213581475 0 0.0014511912315100452 -0.0024030432784046228 0 0.0014672830070582127 -0.0024798283213581475 0 0.0015074389072403276 -0.0023870260584004854 0 0.0014511912315100452 -0.0024030432784046228 0 0.0015179742845834888 -0.0023270697915529839 0 0.0014511912315100452 -0.0024030432784046228 0 0.0014869364261549827 -0.0023090039652852732 0 0.0015074389072403276 -0.0023870260584004854 0 0.0015179742845834888 -0.0023270697915529839 0 0.0014511912315100452 -0.0024030432784046228 0 0.0014869364261549827 -0.0023090039652852732 0 0.0014497718325839719 -0.002288162644355992 0 0.0014997947642289944 -0.0022251032662800644 0 0.0014511912315100452 -0.0024030432784046228 0 0.0014869364261549827 -0.0023090039652852732 0 0.001433130122656674 -0.0023648995290771182 0 0.0014869364261549827 -0.0023090039652852732 0 0.0014497718325839719 -0.002288162644355992 0 0.001433130122656674 -0.0023648995290771182 0 0.0014497718325839719 -0.002288162644355992 0 0.001433130122656674 -0.0023648995290771182 0 0.0013867030202209651 -0.0023771632451781515 0 0.0013750301231716434 -0.0024589565727674463 0 0.001433130122656674 -0.0023648995290771182 0 0.0013867030202209651 -0.0023771632451781515 0 0.0014497718325839719 -0.002288162644355992 0 0.0013867030202209651 -0.0023771632451781515 0 0.0014012636192179521 -0.002291750972387568 0 0.0013867030202209651 -0.0023771632451781515 0 0.001337981562390649 -0.0023662194438400339 0 0.0014012636192179521 -0.002291750972387568 0 0.0013750301231716434 -0.0024589565727674463 0 0.0013867030202209651 -0.0023771632451781515 0 0.0013331245888841879 -0.0024595519868966676 0 0.0013867030202209651 -0.0023771632451781515 0 0.001337981562390649 -0.0023662194438400339 0 0.0013331245888841879 -0.0024595519868966676 0 0.0013217598393817829 -0.0022347200476322848 0 0.0013168033566670597 -0.0023212346375579675 0 0.0013733899137977554 -0.00223960528760111 0 0.001337981562390649 -0.0023662194438400339 0 0.0013733899137977554 -0.00223960528760111 0 0.0014012636192179521 -0.002291750972387568 0 0.0013168033566670597 -0.0023212346375579675 0 0.001337981562390649 -0.0023662194438400339 0 0.0013733899137977554 -0.00223960528760111 0 0.0013733899137977554 -0.00223960528760111 0 0.0014012636192179521 -0.002291750972387568 0 0.001437620493905253 -0.0022109377674280309 0 0.0013733899137977554 -0.00223960528760111 0 0.001437620493905253 -0.0022109377674280309 0 0.0014176928675332632 -0.0021137544183748268 0 0.0014497718325839719 -0.002288162644355992 0 0.001437620493905253 -0.0022109377674280309 0 0.0014997947642289944 -0.0022251032662800644 0 0.0014497718325839719 -0.002288162644355992 0 0.0014012636192179521 -0.002291750972387568 0 0.001437620493905253 -0.0022109377674280309 0 0.001437620493905253 -0.0022109377674280309 0 0.0014997947642289944 -0.0022251032662800644 0 0.0014838928591591261 -0.0021169668578143188 0 0.0014735660004736755 -0.0019686140329796729 0 0.0014838928591591261 -0.0021169668578143188 0 0.0014176928675332632 -0.0021137544183748268 0 0.0014192296004872059 -0.002007435178578727 0 0.0014735660004736755 -0.0019686140329796729 0 0.0014176928675332632 -0.0021137544183748268 0 0.001437620493905253 -0.0022109377674280309 0 0.0014838928591591261 -0.0021169668578143188 0 0.0014176928675332632 -0.0021137544183748268 0 0.0013733899137977554 -0.00223960528760111 0 0.0014176928675332632 -0.0021137544183748268 0 0.001361710893267579 -0.0021498360846079153 0 0.0013662430159276139 -0.002048562642081201 0 0.0014192296004872059 -0.002007435178578727 0 0.0014176928675332632 -0.0021137544183748268 0 0.0013662430159276139 -0.002048562642081201 0 0.0014176928675332632 -0.0021137544183748268 0 0.001361710893267579 -0.0021498360846079153 0 0.0013662430159276139 -0.002048562642081201 0 0.0013051585622010956 -0.002160360087848593 0 0.001361710893267579 -0.0021498360846079153 0 0.0013217598393817829 -0.0022347200476322848 0 0.0013733899137977554 -0.00223960528760111 0 0.001361710893267579 -0.0021498360846079153 0 0.0016219669678537128 -0.0022059426337650689 0 0.0016712484031463218 -0.0021232617307436904 0 0.0015643980908061122 -0.0021686340915977567 0 0.0016712484031463218 -0.0021232617307436904 0 0.0016858553665647146 -0.002182588870772034 0 0.0017915519655589461 -0.0021824234863453439 0 0.0016219669678537128 -0.0022059426337650689 0 0.0016712484031463218 -0.0021232617307436904 0 0.0016858553665647146 -0.002182588870772034 0 0.0016712484031463218 -0.0021232617307436904 0 0.0015643980908061122 -0.0021686340915977567 0 0.001555246204151677 -0.0020676444555649208 0 0.0015595430528261187 -0.0022544334711928193 0 0.0014997947642289944 -0.0022251032662800644 0 0.0015643980908061122 -0.0021686340915977567 0 0.0014838928591591261 -0.0021169668578143188 0 0.0015643980908061122 -0.0021686340915977567 0 0.001555246204151677 -0.0020676444555649208 0 0.0014997947642289944 -0.0022251032662800644 0 0.0014838928591591261 -0.0021169668578143188 0 0.0015643980908061122 -0.0021686340915977567 0 0.0016173403645422461 -0.0019230231660952912 0 0.0014735660004736755 -0.0019686140329796729 0 0.001555246204151677 -0.0020676444555649208 0 0.0014735660004736755 -0.0019686140329796729 0 0.0014838928591591261 -0.0021169668578143188 0 0.001555246204151677 -0.0020676444555649208 0 0.0016173403645422461 -0.0019230231660952912 0 0.0016712484031463218 -0.0021232617307436904 0 0.001555246204151677 -0.0020676444555649208 0 0.0030770892115647079 0.0010740369903205137 0 0.0031391475088995381 0.002128499979323266 0 0.002019462484954495 -0.0019325168921860117 0 0.0016712484031463218 -0.0021232617307436904 0 0.0017915519655589461 -0.0021824234863453439 0 0.002019462484954495 -0.0019325168921860117 0 0.0016173403645422461 -0.0019230231660952912 0 0.0016712484031463218 -0.0021232617307436904 0 0.0045169157457110648 0.0059558739607619045 0 0.0034273819936865612 0.0052685448024972102 0 0.0033792997182361894 0.0068081855064446141 0 0.0041348547554034849 0.0041788431879163533 0 0.0045169157457110648 0.0059558739607619045 0 0.0034273819936865612 0.0052685448024972102 0 0.00275528094297906 0.0037545543438884752 0 0.0041348547554034849 0.0041788431879163533 0 0.0034273819936865612 0.0052685448024972102 0 -0.0028355535463755383 0.022104531874012016 0 -0.0033276718196461092 0.02191963813959771 0 -0.0032225812164907632 0.022386405802685704 0 0.00275528094297906 0.0037545543438884752 0 0.0034273819936865612 0.0052685448024972102 0 0.0023135508373282763 0.0055428316466878654 0 -0.0030545324349518293 0.021602418417620284 0 -0.0028355535463755383 0.022104531874012016 0 -0.0033276718196461092 0.02191963813959771 0 0.0012216440388193948 0.0042079366392024451 0 0.00275528094297906 0.0037545543438884752 0 0.0023135508373282763 0.0055428316466878654 0 -0.00088958258844155751 0.012805203792306506 0 -0.00025254813291925704 0.013871647409966334 0 0.0034273819936865612 0.0052685448024972102 0 0.0023135508373282763 0.0055428316466878654 0 0.0033792997182361894 0.0068081855064446141 0 -0.00025254813291925704 0.013871647409966334 0 0.00011910319941329648 0.014514428122372967 0 -0.0028355535463755383 0.022104531874012016 0 -0.0028512697058268493 0.022727194680523383 0 -0.0028997618983562525 0.022645114082557257 0 -0.0028512697058268493 0.022727194680523383 0 -0.0031102593973583244 0.022450470071872841 0 -0.0028997618983562525 0.022645114082557257 0 -0.002815009380501055 0.022774054086515793 0 -0.0026161189857777426 0.022989917247249702 0 -0.0028355535463755383 0.022104531874012016 0 -0.0028512697058268493 0.022727194680523383 0 -0.0032225812164907632 0.022386405802685704 0 -0.0028512697058268493 0.022727194680523383 0 -0.0025259446100663876 0.022474098477479516 0 -0.0020676997272026931 0.023586562796918439 0 -0.0025259446100663876 0.022474098477479516 0 -0.0028986890166809013 0.022442345155292989 0 -0.0030312553131056517 0.022060339138554486 0 -0.0028512697058268493 0.022727194680523383 0 -0.0028986890166809013 0.022442345155292989 0 -0.0031102593973583244 0.022450470071872841 0 -0.0028512697058268493 0.022727194680523383 0 -0.0025259446100663876 0.022474098477479516 0 -0.0028986890166809013 0.022442345155292989 0 -0.0028986890166809013 0.022442345155292989 0 -0.0031102593973583244 0.022450470071872841 0 -0.0030312553131056517 0.022060339138554486 0 -0.0031102593973583244 0.022450470071872841 0 -0.0036450016740192256 0.022361317338412928 0 -0.0028997618983562525 0.022645114082557257 0 0.0043262756094380878 0.0079366648285500874 0 0.0041977312118048771 0.0070984909173492771 0 0.0033792997182361894 0.0068081855064446141 0 -0.0031102593973583244 0.022450470071872841 0 -0.0036450016740192256 0.022361317338412928 0 -0.0033817222936915322 0.0221187115535031 0 0.00063592137626551604 0.016071745025164452 0 0.00011910319941329648 0.014514428122372967 0 0.0043262756094380878 0.0079366648285500874 0 0.0048215506819924208 0.0075661645774435949 0 0.0041977312118048771 0.0070984909173492771 0 0.0016629651449222721 -0.0022016837313496955 0 0.0017915519655589461 -0.0021824234863453439 0 0.0014972561177950302 -0.0020923276911257106 0 0.0045169157457110648 0.0059558739607619045 0 0.0048215506819924208 0.0075661645774435949 0 0.0041977312118048771 0.0070984909173492771 0 0.0031391475088995381 0.002128499979323266 0 0.0034467015850954846 0.0016241555959403005 0 0.0045169157457110648 0.0059558739607619045 0 0.0041977312118048771 0.0070984909173492771 0 0.0033792997182361894 0.0068081855064446141 0 -6.2211565581091446e-05 0.024670919239089487 0 -0.00023859647475701017 0.025010211442506907 0 -0.0004300290838329908 0.024114007066494948 0 -6.2211565581091446e-05 0.024670919239089487 0 -0.00023859647475701017 0.025010211442506907 0 7.9379627395318932e-06 0.025004040674143781 0 -0.0037717660714954018 0.021843194379940645 0 -0.0037127475319403591 0.021896495201472108 0 -0.0035119082202618467 0.021934262896791876 0 -0.0037714934749738293 0.021457658702408462 0 -0.0037127475319403591 0.021896495201472108 0 -0.003703220212637642 0.021779456593917768 0 -0.0037717660714954018 0.021843194379940645 0 -0.0037127475319403591 0.021896495201472108 0 -0.003703220212637642 0.021779456593917768 0 -0.0036969090733801734 0.02209146217876817 0 -0.0037127475319403591 0.021896495201472108 0 -0.0036129133458198564 0.022014304722655989 0 -0.0037717660714954018 0.021843194379940645 0 -0.003703220212637642 0.021779456593917768 0 -0.0035976321148650896 0.021876442737609123 0 -0.003703220212637642 0.021779456593917768 0 -0.0035976321148650896 0.021876442737609123 0 -0.0035362481106619224 0.021666340624107109 0 -0.0019931413219320907 0.023423152694646794 0 -0.00233680518733445 0.023234731854782396 0 -0.0037717660714954018 0.021843194379940645 0 -0.0035976321148650896 0.021876442737609123 0 -0.0035643214064159071 0.022092261334084679 0 -0.00023859647475701017 0.025010211442506907 0 -0.0011632139248489383 0.024366394170993125 0 -0.0004300290838329908 0.024114007066494948 0 -0.0035976321148650896 0.021876442737609123 0 -0.0035643214064159071 0.022092261334084679 0 -0.0033276718196461092 0.02191963813959771 0 -0.0033150273660366779 0.021596719604222485 0 -0.0035362481106619224 0.021666340624107109 0 -0.0033276718196461092 0.02191963813959771 0 -0.0035976321148650896 0.021876442737609123 0 -0.0035362481106619224 0.021666340624107109 0 -0.0033276718196461092 0.02191963813959771 0 -0.0033150273660366779 0.021596719604222485 0 -0.0030545324349518293 0.021602418417620284 0 -0.0033276718196461092 0.02191963813959771 0 -0.0035643214064159071 0.022092261334084679 0 -0.0033276718196461092 0.02191963813959771 0 -0.0032225812164907632 0.022386405802685704 0 -0.0020676997272026931 0.023586562796918439 0 -0.0017184232657863636 0.02278681263275863 0 -0.0012527795935818782 0.023492301234794625 0 -0.0025259446100663876 0.022474098477479516 0 -0.0020676997272026931 0.023586562796918439 0 -0.0017184232657863636 0.02278681263275863 0 -0.0017184232657863636 0.02278681263275863 0 -0.0012527795935818782 0.023492301234794625 0 -0.00080421414606375195 0.02297460921330231 0 -0.00233680518733445 0.023234731854782396 0 -0.0026161189857777426 0.022989917247249702 0 -0.0011632139248489383 0.024366394170993125 0 -0.0020676997272026931 0.023586562796918439 0 -0.0012527795935818782 0.023492301234794625 0 -0.0011632139248489383 0.024366394170993125 0 -0.0012527795935818782 0.023492301234794625 0 -0.0004300290838329908 0.024114007066494948 0 -0.0012527795935818782 0.023492301234794625 0 -0.00080421414606375195 0.02297460921330231 0 -0.0004300290838329908 0.024114007066494948 0 -0.00080421414606375195 0.02297460921330231 0 -6.4664337079684291e-05 0.023501610235819627 0 -0.0004300290838329908 0.024114007066494948 0 -6.2211565581091446e-05 0.024670919239089487 0 -0.0004300290838329908 0.024114007066494948 0 0.00037212823325080463 0.024538097755294874 0 -6.4664337079684291e-05 0.023501610235819627 0 -0.0004300290838329908 0.024114007066494948 0 0.00037212823325080463 0.024538097755294874 0 -0.00020880450834241966 0.021653506230440749 0 -1.9487158103056937e-05 0.022551331623788307 0 0.00087782410652652992 0.022087265425759447 0 -0.00020880450834241966 0.021653506230440749 0 -1.9487158103056937e-05 0.022551331623788307 0 -0.0006802293067152943 0.022197376025801629 0 -0.00080421414606375195 0.02297460921330231 0 -6.4664337079684291e-05 0.023501610235819627 0 -1.9487158103056937e-05 0.022551331623788307 0 -0.00080421414606375195 0.02297460921330231 0 -1.9487158103056937e-05 0.022551331623788307 0 -0.0006802293067152943 0.022197376025801629 0 -0.00080421414606375195 0.02297460921330231 0 -0.0006802293067152943 0.022197376025801629 0 -0.0013589903239815313 0.02209824746866931 0 -0.00020880450834241966 0.021653506230440749 0 -0.0006802293067152943 0.022197376025801629 0 -0.0010539863213281143 0.021201856798837709 0 -0.0006802293067152943 0.022197376025801629 0 -0.0013589903239815313 0.02209824746866931 0 -0.0010539863213281143 0.021201856798837709 0 -0.0013589903239815313 0.02209824746866931 0 -0.0016952508109112213 0.021461654331133846 0 -0.0010539863213281143 0.021201856798837709 0 -0.0017184232657863636 0.02278681263275863 0 -0.00080421414606375195 0.02297460921330231 0 -0.0013589903239815313 0.02209824746866931 0 -0.0025259446100663876 0.022474098477479516 0 -0.0017184232657863636 0.02278681263275863 0 -0.0020935893094892089 0.0220044550332354 0 -0.0017184232657863636 0.02278681263275863 0 -0.0013589903239815313 0.02209824746866931 0 -0.0020935893094892089 0.0220044550332354 0 -0.0013589903239815313 0.02209824746866931 0 -0.0016952508109112213 0.021461654331133846 0 -0.0020935893094892089 0.0220044550332354 0 -0.0016952508109112213 0.021461654331133846 0 -0.0020935893094892089 0.0220044550332354 0 -0.002293975607927809 0.021318911676433353 0 -0.0016952508109112213 0.021461654331133846 0 -0.0017202123221919802 0.020665597252057525 0 -0.002293975607927809 0.021318911676433353 0 -0.0016952508109112213 0.021461654331133846 0 -0.0017202123221919802 0.020665597252057525 0 -0.0010539863213281143 0.021201856798837709 0 -0.0017202123221919802 0.020665597252057525 0 -0.0019369095358585113 0.019550284802213304 0 -0.00085612660776189444 0.020028974901676332 0 -0.0017202123221919802 0.020665597252057525 0 -0.00076539147548305259 0.02094162946716643 0 -0.00085612660776189444 0.020028974901676332 0 -0.0016977846530149665 0.020691035258052992 0 -0.00092140705757551701 0.021073935116061284 0 -8.081153727543639e-05 0.021082411262335128 0 -0.00076539147548305259 0.02094162946716643 0 -0.00028460560959105949 0.020561687854234349 0 -0.00017472777334417549 0.021195407024146771 0 -0.00092140705757551701 0.021073935116061284 0 -0.00076539147548305259 0.02094162946716643 0 -0.00028460560959105949 0.020561687854234349 0 -0.00085612660776189444 0.020028974901676332 0 -0.00028460560959105949 0.020561687854234349 0 -9.8655922587515414e-05 0.020122757317572359 0 -0.00085612660776189444 0.020028974901676332 0 -0.00028460560959105949 0.020561687854234349 0 0.00014398512405698881 0.020522173101882629 0 -9.8655922587515414e-05 0.020122757317572359 0 -8.081153727543639e-05 0.021082411262335128 0 0.00014398512405698881 0.020522173101882629 0 0.00025383817722418118 0.020916248359194346 0 -8.081153727543639e-05 0.021082411262335128 0 -0.00028460560959105949 0.020561687854234349 0 0.00014398512405698881 0.020522173101882629 0 -0.0036060937938297167 0.021597222737625314 0 -0.0030395647391372356 0.021236306091388945 0 -0.0038219835178866565 0.020794290273508362 0 -0.0036060937938297167 0.021597222737625314 0 -0.0030312553131056517 0.022060339138554486 0 -0.0030395647391372356 0.021236306091388945 0 -0.004400358652568828 0.021611299926124827 0 -0.0040388839340678804 0.02127008810663825 0 -0.0036060937938297167 0.021597222737625314 0 -0.0040388839340678804 0.02127008810663825 0 -0.0036060937938297167 0.021597222737625314 0 -0.0038219835178866565 0.020794290273508362 0 -0.004400358652568828 0.021611299926124827 0 -0.0036450016740192256 0.022361317338412928 0 -0.0037509239814009997 0.021924673103225024 0 0.00022126721156794991 0.010008795876040626 0 0.00063592137626551604 0.016071745025164452 0 0.0050809717679541405 0.0089824624588437166 0 0.0043262756094380878 0.0079366648285500874 0 0.0048215506819924208 0.0075661645774435949 0 -0.004400358652568828 0.021611299926124827 0 -0.0036060937938297167 0.021597222737625314 0 -0.0037509239814009997 0.021924673103225024 0 -0.0036060937938297167 0.021597222737625314 0 -0.0037509239814009997 0.021924673103225024 0 -0.0033817222936915322 0.0221187115535031 0 -0.0036450016740192256 0.022361317338412928 0 -0.0037509239814009997 0.021924673103225024 0 -0.0033817222936915322 0.0221187115535031 0 -0.0036060937938297167 0.021597222737625314 0 -0.0033817222936915322 0.0221187115535031 0 -0.0030312553131056517 0.022060339138554486 0 -0.0031102593973583244 0.022450470071872841 0 -0.0033817222936915322 0.0221187115535031 0 -0.0030312553131056517 0.022060339138554486 0 -0.0025259446100663876 0.022474098477479516 0 -0.0025973794976393095 0.021835522762748021 0 -0.0030312553131056517 0.022060339138554486 0 -0.0025259446100663876 0.022474098477479516 0 -0.0025973794976393095 0.021835522762748021 0 -0.0020935893094892089 0.0220044550332354 0 -0.0025973794976393095 0.021835522762748021 0 -0.0020935893094892089 0.0220044550332354 0 -0.002293975607927809 0.021318911676433353 0 -0.0025973794976393095 0.021835522762748021 0 -0.002293975607927809 0.021318911676433353 0 -0.0030395647391372356 0.021236306091388945 0 -0.0025973794976393095 0.021835522762748021 0 -0.0030312553131056517 0.022060339138554486 0 -0.0030395647391372356 0.021236306091388945 0 -0.0030395647391372356 0.021236306091388945 0 -0.0025297543131758892 0.020575710637245146 0 -0.0032211960935586005 0.020126667322028641 0 -0.002293975607927809 0.021318911676433353 0 -0.0030395647391372356 0.021236306091388945 0 -0.0025297543131758892 0.020575710637245146 0 -0.0017202123221919802 0.020665597252057525 0 -0.002293975607927809 0.021318911676433353 0 -0.0025297543131758892 0.020575710637245146 0 -0.0025297543131758892 0.020575710637245146 0 -0.0026251229676646178 0.019740674790759041 0 -0.0019369095358585113 0.019550284802213304 0 -0.0017202123221919802 0.020665597252057525 0 -0.0025297543131758892 0.020575710637245146 0 -0.0019369095358585113 0.019550284802213304 0 -0.0025297543131758892 0.020575710637245146 0 -0.0032211960935586005 0.020126667322028641 0 -0.0026251229676646178 0.019740674790759041 0 -0.0030395647391372356 0.021236306091388945 0 -0.0032211960935586005 0.020126667322028641 0 -0.0038219835178866565 0.020794290273508362 0 -0.0047137507369191889 0.020783581857538067 0 -0.0040388839340678804 0.02127008810663825 0 -0.0038219835178866565 0.020794290273508362 0 -0.0032211960935586005 0.020126667322028641 0 -0.0038409873592713441 0.02013494609344077 0 -0.0038717208767905286 0.019349670410368724 0 -0.0042374593369266149 0.019793103952329621 0 -0.0038409873592713441 0.02013494609344077 0 -0.0038717208767905286 0.019349670410368724 0 -0.0044357309148808461 0.020277825306100936 0 -0.0038219835178866565 0.020794290273508362 0 -0.0038409873592713441 0.02013494609344077 0 -0.0032211960935586005 0.020126667322028641 0 -0.0038219835178866565 0.020794290273508362 0 -0.0038409873592713441 0.02013494609344077 0 -0.0044357309148808461 0.020277825306100936 0 -0.0042374593369266149 0.019793103952329621 0 -0.0038409873592713441 0.02013494609344077 0 -0.0038717208767905286 0.019349670410368724 0 -0.0037059027287130908 0.018437604881512387 0 -0.0044197215612068437 0.01856745743479114 0 -0.0038717208767905286 0.019349670410368724 0 -0.0037059027287130908 0.018437604881512387 0 -0.0030414530166438412 0.019080902840578184 0 -0.0037059027287130908 0.018437604881512387 0 -0.0030414530166438412 0.019080902840578184 0 -0.0028138120002044408 0.018214703931484208 0 -0.0032211960935586005 0.020126667322028641 0 -0.0038717208767905286 0.019349670410368724 0 -0.0030414530166438412 0.019080902840578184 0 -0.0032211960935586005 0.020126667322028641 0 -0.0030414530166438412 0.019080902840578184 0 -0.0026251229676646178 0.019740674790759041 0 -0.0026251229676646178 0.019740674790759041 0 -0.0019369095358585113 0.019550284802213304 0 -0.0023004611691270112 0.018843825766263745 0 -0.0019369095358585113 0.019550284802213304 0 -0.0023004611691270112 0.018843825766263745 0 -0.0015177050639990067 0.018533767047266399 0 -0.0030414530166438412 0.019080902840578184 0 -0.0026251229676646178 0.019740674790759041 0 -0.0023004611691270112 0.018843825766263745 0 -0.0030414530166438412 0.019080902840578184 0 -0.0023004611691270112 0.018843825766263745 0 -0.0028138120002044408 0.018214703931484208 0 -0.0023004611691270112 0.018843825766263745 0 -0.0028138120002044408 0.018214703931484208 0 -0.0021435517507354378 0.017666866412787634 0 -0.0023004611691270112 0.018843825766263745 0 -0.0021435517507354378 0.017666866412787634 0 -0.0015177050639990067 0.018533767047266399 0 -0.0019929829172590148 0.017905003131854898 0 -0.0015383220985026791 0.018473877786110579 0 -0.0018247027214620579 0.018144231280554455 0 -0.0021175722865365344 0.017808720957975678 0 -0.0016152109694656258 0.017864093776312082 0 -0.0018247027214620579 0.018144231280554455 0 -0.0012761835871387024 0.018008104912163373 0 -0.0016152109694656258 0.017864093776312082 0 -0.0028138120002044408 0.018214703931484208 0 -0.0021435517507354378 0.017666866412787634 0 -0.0029808804649251843 0.017536710827345679 0 -0.0021435517507354378 0.017666866412787634 0 -0.0029808804649251843 0.017536710827345679 0 -0.0027956955550986463 0.016886674284899789 0 -0.0019929829172590148 0.017905003131854898 0 -0.0024341517690772657 0.017412379920213071 0 -0.0029808804649251843 0.017536710827345679 0 -0.0035300045877237809 0.016958855631854685 0 -0.0027956955550986463 0.016886674284899789 0 -0.0029808804649251843 0.017536710827345679 0 -0.0034845552678989871 0.017758426134882006 0 -0.0035300045877237809 0.016958855631854685 0 -0.0034845552678989871 0.017758426134882006 0 -0.0035300045877237809 0.016958855631854685 0 -0.0043319241288339904 0.01766814142989246 0 -0.0035300045877237809 0.016958855631854685 0 -0.0041754249643971226 0.016627686179285339 0 -0.0043319241288339904 0.01766814142989246 0 -0.0037059027287130908 0.018437604881512387 0 -0.0044197215612068437 0.01856745743479114 0 -0.0043319241288339904 0.01766814142989246 0 -0.0037059027287130908 0.018437604881512387 0 -0.0034845552678989871 0.017758426134882006 0 -0.0043319241288339904 0.01766814142989246 0 -0.0037059027287130908 0.018437604881512387 0 -0.0028138120002044408 0.018214703931484208 0 -0.0034845552678989871 0.017758426134882006 0 -0.0028138120002044408 0.018214703931484208 0 -0.0029808804649251843 0.017536710827345679 0 -0.0034845552678989871 0.017758426134882006 0 0.00010785455682645455 0.020047298427047958 0 -8.0049968096391143e-05 0.019967743107581894 0 2.2829406692000871e-05 0.019892918551828138 0 0.00010785455682645455 0.020047298427047958 0 -9.8655922587515414e-05 0.020122757317572359 0 -8.0049968096391143e-05 0.019967743107581894 0 0.00014398512405698881 0.020522173101882629 0 0.00010785455682645455 0.020047298427047958 0 -9.8655922587515414e-05 0.020122757317572359 0 -9.8655922587515414e-05 0.020122757317572359 0 -0.00037990852504369454 0.019000397704887022 0 -0.00085612660776189444 0.020028974901676332 0 -9.9672413161875823e-05 0.020061497976065719 0 -0.0002333166005050536 0.019542584493050585 0 -0.00037990852504369454 0.019000397704887022 0 -0.001048721969276685 0.019047692403044634 0 -0.00085612660776189444 0.020028974901676332 0 -0.0019369095358585113 0.019550284802213304 0 -0.001048721969276685 0.019047692403044634 0 -0.00085612660776189444 0.020028974901676332 0 -0.0019369095358585113 0.019550284802213304 0 -0.001048721969276685 0.019047692403044634 0 -0.0015177050639990067 0.018533767047266399 0 -0.0018247027214620579 0.018144231280554455 0 -0.0015177050639990067 0.018533767047266399 0 -0.0012761835871387024 0.018008104912163373 0 -0.0012761835871387024 0.018008104912163373 0 -0.00073816983478546276 0.01818247205964868 0 -0.0010065098278628009 0.017618510308589307 0 -0.0015177050639990067 0.018533767047266399 0 -0.0012761835871387024 0.018008104912163373 0 -0.00073816983478546276 0.01818247205964868 0 -0.00037990852504369454 0.019000397704887022 0 -0.001048721969276685 0.019047692403044634 0 -0.00073816983478546276 0.01818247205964868 0 -0.001048721969276685 0.019047692403044634 0 -0.0015177050639990067 0.018533767047266399 0 -0.00073816983478546276 0.01818247205964868 0 -8.0049968096391143e-05 0.019967743107581894 0 -0.00011882391718667857 0.019824010386164784 0 2.2829406692000871e-05 0.019892918551828138 0 -0.0002333166005050536 0.019542584493050585 0 -0.00040616238132887424 0.018816058954436513 0 -0.00011882391718667857 0.019824010386164784 0 -2.0987344766151426e-05 0.019798484277007096 0 -7.997780139624404e-05 0.019761042633643797 0 -0.00011882391718667857 0.019824010386164784 0 -2.0987344766151426e-05 0.019798484277007096 0 2.2829406692000871e-05 0.019892918551828138 0 -2.0987344766151426e-05 0.019798484277007096 0 7.491714347088036e-05 0.019818133802526752 0 2.2829406692000871e-05 0.019892918551828138 0 -2.0987344766151426e-05 0.019798484277007096 0 7.491714347088036e-05 0.019818133802526752 0 -9.0430677689122772e-06 0.019730781221062293 0 -0.000945831806846278 0.022723780989066661 0 -0.0017332865520110505 0.023272636612739209 0 7.491714347088036e-05 0.019818133802526752 0 2.2829406692000871e-05 0.019892918551828138 0 0.00019119647157395651 0.019912930809279694 0 -0.0020179454857654844 0.024018097863417649 0 -0.0019928344190870465 0.024044955992129493 0 -0.0018793810647288597 0.023909970328095234 0 -0.0020179454857654844 0.024018097863417649 0 -0.0023013673240097629 0.023995077361733085 0 -0.0018793810647288597 0.023909970328095234 0 -0.0020179454857654844 0.024018097863417649 0 -0.0020095162777719893 0.024160701165035024 0 -0.0023013673240097629 0.023995077361733085 0 -0.0020179454857654844 0.024018097863417649 0 -0.0019928344190870465 0.024044955992129493 0 -0.0020095162777719893 0.024160701165035024 0 -0.0019928344190870465 0.024044955992129493 0 -0.0020095162777719893 0.024160701165035024 0 -0.0020540187287067867 0.023966341177377851 0 -0.0020384723781426543 0.025678017137680659 0 -0.0025207127692491705 0.024857945153669056 0 -0.0016779716258088786 0.025023107365562673 0 -0.0017332865520110505 0.023272636612739209 0 -0.0019580721928392367 0.024469302080193777 0 -9.0430677689122772e-06 0.019730781221062293 0 -7.997780139624404e-05 0.019761042633643797 0 -0.00017228422505049357 0.019693970017090792 0 -0.0017332865520110505 0.023272636612739209 0 -0.0010011832395196972 0.019638318155267551 0 -0.0020095162777719893 0.024160701165035024 0 -0.0023013673240097629 0.023995077361733085 0 -0.0027438600822476244 0.024234801093575602 0 -0.00011882391718667857 0.019824010386164784 0 -7.997780139624404e-05 0.019761042633643797 0 -0.00017228422505049357 0.019693970017090792 0 -2.0987344766151426e-05 0.019798484277007096 0 -9.0430677689122772e-06 0.019730781221062293 0 -7.997780139624404e-05 0.019761042633643797 0 -0.0023013673240097629 0.023995077361733085 0 -0.0027438600822476244 0.024234801093575602 0 -0.0025415579825492618 0.023533310344946226 0 -0.0023013673240097629 0.023995077361733085 0 -0.0025415579825492618 0.023533310344946226 0 -0.0018793810647288597 0.023909970328095234 0 -0.0027438600822476244 0.024234801093575602 0 -0.0031222414718572854 0.023551548479570018 0 -0.0025415579825492618 0.023533310344946226 0 -0.0010011832395196972 0.019638318155267551 0 -0.0023287657671221562 0.020956726885180917 0 -0.0012059421828896698 0.017719435552762831 0 -0.0014719894022485276 0.017653906964573498 0 -0.0013329252624443089 0.017340719350389895 0 -0.0010011832395196972 0.019638318155267551 0 -0.0015064485652353402 0.017664729766287694 0 -0.00040616238132887424 0.018816058954436513 0 -0.0010011832395196972 0.019638318155267551 0 -0.0012761835871387024 0.018008104912163373 0 -0.0010065098278628009 0.017618510308589307 0 -0.0013869954517644904 0.017584896982818496 0 -0.0012761835871387024 0.018008104912163373 0 -0.0013869954517644904 0.017584896982818496 0 -0.0016152109694656258 0.017864093776312082 0 -0.0014719894022485276 0.017653906964573498 0 -0.0015771984925970774 0.017415138676474734 0 -0.0013329252624443089 0.017340719350389895 0 -0.0015064485652353402 0.017664729766287694 0 -0.0016582422664176513 0.017590056686494653 0 -0.0014719894022485276 0.017653906964573498 0 -0.0015771984925970774 0.017415138676474734 0 -0.0017252422880193409 0.017578874581362047 0 -0.0015379589185420389 0.017213160444418552 0 -0.0014525024603876868 0.016982800488586459 0 -0.0013329252624443089 0.017340719350389895 0 -0.0013634707015037788 0.018015909924740989 0 -0.0023287657671221562 0.020956726885180917 0 -0.0015771984925970774 0.017415138676474734 0 -0.0015379589185420389 0.017213160444418552 0 -0.0013329252624443089 0.017340719350389895 0 -0.0015771984925970774 0.017415138676474734 0 -0.0015379589185420389 0.017213160444418552 0 -0.0016685422412037792 0.017283675571849368 0 -0.0015379589185420389 0.017213160444418552 0 -0.0014525024603876868 0.016982800488586459 0 -0.0017431820048246435 0.017145774682820431 0 -0.00081679066959869633 0.014579092461907396 0 -0.0011101118448823711 0.014572998303101502 0 -0.00087305685904645613 0.014421755044461363 0 -0.0013634707015037788 0.018015909924740989 0 -0.0012580048849728919 0.015713279816338983 0 -0.0035209310965587425 0.022603213225369026 0 -0.0031545981773679573 0.022940946346598646 0 -0.0031222414718572854 0.023551548479570018 0 -0.0035209310965587425 0.022603213225369026 0 -0.0031524193163126562 0.022488931224053245 0 -0.0034107996404355878 0.022342270142822793 0 -0.0035209310965587425 0.022603213225369026 0 -0.0031545981773679573 0.022940946346598646 0 -0.0031524193163126562 0.022488931224053245 0 -0.0031545981773679573 0.022940946346598646 0 -0.0026980405199086791 0.02276689308397508 0 -0.0025415579825492618 0.023533310344946226 0 -0.0031545981773679573 0.022940946346598646 0 -0.0031524193163126562 0.022488931224053245 0 -0.0026980405199086791 0.02276689308397508 0 -0.0026980405199086791 0.02276689308397508 0 -0.0023583004857644892 0.022177372209515732 0 -0.00280914225667226 0.02231242217374654 0 -0.0031524193163126562 0.022488931224053245 0 -0.0026980405199086791 0.02276689308397508 0 -0.00280914225667226 0.02231242217374654 0 -0.0031545981773679573 0.022940946346598646 0 -0.0031222414718572854 0.023551548479570018 0 -0.0025415579825492618 0.023533310344946226 0 -0.0025415579825492618 0.023533310344946226 0 -0.0022243098696945974 0.023032340946207212 0 -0.0018793810647288597 0.023909970328095234 0 -0.0011475517548865696 0.021477920020389712 0 -0.0020745058398989745 0.017501434748557011 0 -0.0022243098696945974 0.023032340946207212 0 -0.0016079180803986143 0.022733408085734347 0 -0.0023583004857644892 0.022177372209515732 0 -0.0026980405199086791 0.02276689308397508 0 -0.0022243098696945974 0.023032340946207212 0 -0.0023583004857644892 0.022177372209515732 0 -0.0026980405199086791 0.02276689308397508 0 -0.0025415579825492618 0.023533310344946226 0 -0.0022243098696945974 0.023032340946207212 0 -0.0022243098696945974 0.023032340946207212 0 -0.0016079180803986143 0.022733408085734347 0 -0.0018793810647288597 0.023909970328095234 0 -0.0011475517548865696 0.021477920020389712 0 -0.0019981210368218783 0.024700156993604283 0 -0.0018642605008218403 0.024258029526779964 0 -0.0018793810647288597 0.023909970328095234 0 -0.0020662035895884887 0.024296942679714471 0 -0.0024090658996867745 0.017507966330784028 0 -0.0021175722865365344 0.017808720957975678 0 -0.0021577834009350243 0.017519460443691272 0 -0.0024090658996867745 0.017507966330784028 0 -0.0021577834009350243 0.017519460443691272 0 -0.0020686718598561266 0.017311779757885469 0 -0.0027563573964778515 0.015953085178670338 0 -0.0016675883882207785 0.015212201209149716 0 -0.0027134871007306956 0.015210244849916477 0 -0.0029308331454385205 0.016455279604420617 0 -0.0018836214933465069 0.016314777245417873 0 -0.0028292162028270276 0.015877452950063833 0 -0.0039183138266716353 0.015795771327024921 0 -0.0041754249643971226 0.016627686179285339 0 -0.0027563573964778515 0.015953085178670338 0 -0.0027134871007306956 0.015210244849916477 0 -0.0034276792659259248 0.015298062768379014 0 -0.0029308331454385205 0.016455279604420617 0 -0.003427583482008164 0.015367721411255125 0 -0.0028292162028270276 0.015877452950063833 0 -0.0034276792659259248 0.015298062768379014 0 -0.0039183138266716353 0.015795771327024921 0 -0.0034266018048821831 0.016242456784019945 0 -0.0035300045877237809 0.016958855631854685 0 -0.0041754249643971226 0.016627686179285339 0 -0.0029308331454385205 0.016455279604420617 0 -0.0041458170576291293 0.016514552475425427 0 -0.0034266018048821831 0.016242456784019945 0 -0.0035300045877237809 0.016958855631854685 0 -0.0027956955550986463 0.016886674284899789 0 -0.0029308331454385205 0.016455279604420617 0 -0.0024341517690772657 0.017412379920213071 0 -0.0013869954517644904 0.017584896982818496 0 -0.0016152109694656258 0.017864093776312082 0 -0.0017252422880193409 0.017578874581362047 0 -0.0021175722865365344 0.017808720957975678 0 -0.0016152109694656258 0.017864093776312082 0 -0.0017252422880193409 0.017578874581362047 0 -0.0017252422880193409 0.017578874581362047 0 -0.0019818601305890402 0.017506752230839626 0 -0.0018169800497667989 0.017363064814305867 0 -0.0015771984925970774 0.017415138676474734 0 -0.0017252422880193409 0.017578874581362047 0 -0.0018169800497667989 0.017363064814305867 0 -0.0021175722865365344 0.017808720957975678 0 -0.0017252422880193409 0.017578874581362047 0 -0.0019818601305890402 0.017506752230839626 0 -0.0021175722865365344 0.017808720957975678 0 -0.0021577834009350243 0.017519460443691272 0 -0.0019818601305890402 0.017506752230839626 0 -0.0019818601305890402 0.017506752230839626 0 -0.0020686718598561266 0.017311779757885469 0 -0.0018169800497667989 0.017363064814305867 0 -0.0021577834009350243 0.017519460443691272 0 -0.0019818601305890402 0.017506752230839626 0 -0.0020686718598561266 0.017311779757885469 0 -0.0018836214933465069 0.016314777245417873 0 -0.0012580048849728919 0.015713279816338983 0 -0.0016675883882207785 0.015212201209149716 0 -0.0015843710000543328 0.014827177471277464 0 -0.0010933252718286284 0.014770875341710035 0 -0.0020686718598561266 0.017311779757885469 0 -0.0018169800497667989 0.017363064814305867 0 -0.0017431820048246435 0.017145774682820431 0 -0.0015843710000543328 0.014827177471277464 0 -0.0021180156482120682 0.014290310378919051 0 -0.0021343169933070376 0.014876387643660475 0 -0.0016675883882207785 0.015212201209149716 0 -0.0015843710000543328 0.014827177471277464 0 -0.0021343169933070376 0.014876387643660475 0 -0.0015771984925970774 0.017415138676474734 0 -0.0016685422412037792 0.017283675571849368 0 -0.0018169800497667989 0.017363064814305867 0 -0.0016685422412037792 0.017283675571849368 0 -0.0018169800497667989 0.017363064814305867 0 -0.0017431820048246435 0.017145774682820431 0 -0.0015379589185420389 0.017213160444418552 0 -0.0016685422412037792 0.017283675571849368 0 -0.0017431820048246435 0.017145774682820431 0 -0.0015843710000543328 0.014827177471277464 0 -0.0010933252718286284 0.014770875341710035 0 -0.0011101118448823711 0.014572998303101502 0 -0.00081679066959869633 0.014579092461907396 0 -0.0010933252718286284 0.014770875341710035 0 -0.0011101118448823711 0.014572998303101502 0 -0.00054727042534112602 0.014026488969473522 0 -0.00098712383818239666 0.013665812085106038 0 -0.00042500990518845209 0.013379625539513136 0 -0.00057255618125360815 0.014024801923247655 0 -0.001277873792701731 0.015733997201745772 0 -0.0015843710000543328 0.014827177471277464 0 -0.0013974316973815756 0.014043620691868488 0 -0.0021180156482120682 0.014290310378919051 0 -0.0016192958646714121 0.014887092477105762 0 -0.00057255618125360815 0.014024801923247655 0 -0.0015843710000543328 0.014827177471277464 0 -0.00054727042534112602 0.014026488969473522 0 -0.0013974316973815756 0.014043620691868488 0 -0.00054727042534112602 0.014026488969473522 0 -0.0013974316973815756 0.014043620691868488 0 -0.00098712383818239666 0.013665812085106038 0 -0.0013974316973815756 0.014043620691868488 0 -0.00098712383818239666 0.013665812085106038 0 -0.0017792021698216298 0.013430163558603507 0 -0.0013974316973815756 0.014043620691868488 0 -0.0021180156482120682 0.014290310378919051 0 -0.0017792021698216298 0.013430163558603507 0 -0.0025544684873665562 0.013761883760384071 0 -0.0021180156482120682 0.014290310378919051 0 -0.0017792021698216298 0.013430163558603507 0 -0.0025544684873665562 0.013761883760384071 0 -0.0027846582173033049 0.014264755959292984 0 -0.0021180156482120682 0.014290310378919051 0 -0.0027846582173033049 0.014264755959292984 0 -0.0021180156482120682 0.014290310378919051 0 -0.0025768780131195219 0.014724334771854657 0 -0.0016675883882207785 0.015212201209149716 0 -0.0021343169933070376 0.014876387643660475 0 -0.0027134871007306956 0.015210244849916477 0 -0.0021180156482120682 0.014290310378919051 0 -0.0021343169933070376 0.014876387643660475 0 -0.0025768780131195219 0.014724334771854657 0 -0.0021343169933070376 0.014876387643660475 0 -0.0025768780131195219 0.014724334771854657 0 -0.0027134871007306956 0.015210244849916477 0 -0.0025768780131195219 0.014724334771854657 0 -0.0027134871007306956 0.015210244849916477 0 -0.0033105582149818326 0.014542690753647497 0 -0.0034276792659259248 0.015298062768379014 0 -0.0037639888054964788 0.014859056875695808 0 -0.0042036396551653997 0.015329037858177274 0 -0.0027134871007306956 0.015210244849916477 0 -0.0034276792659259248 0.015298062768379014 0 -0.0033105582149818326 0.014542690753647497 0 -0.0027846582173033049 0.014264755959292984 0 -0.0025768780131195219 0.014724334771854657 0 -0.0033105582149818326 0.014542690753647497 0 -0.0033105582149818326 0.014542690753647497 0 -0.0037639888054964788 0.014859056875695808 0 -0.0039765185025140018 0.01446426068308638 0 -0.0034276792659259248 0.015298062768379014 0 -0.0033105582149818326 0.014542690753647497 0 -0.0037639888054964788 0.014859056875695808 0 -0.0033105582149818326 0.014542690753647497 0 -0.0033226021705778409 0.013729288813875159 0 -0.0038214091857403337 0.013979303967069192 0 -0.0033105582149818326 0.014542690753647497 0 -0.0038214091857403337 0.013979303967069192 0 -0.0039765185025140018 0.01446426068308638 0 -0.0027846582173033049 0.014264755959292984 0 -0.0033105582149818326 0.014542690753647497 0 -0.0033226021705778409 0.013729288813875159 0 -0.0025544684873665562 0.013761883760384071 0 -0.0027846582173033049 0.014264755959292984 0 -0.0033226021705778409 0.013729288813875159 0 -0.0033226021705778409 0.013729288813875159 0 -0.0038214091857403337 0.013979303967069192 0 -0.0041138187375923518 0.013536660179767403 0 -0.0038214091857403337 0.013979303967069192 0 -0.0044327580859025162 0.014224256537669944 0 -0.0041138187375923518 0.013536660179767403 0 -0.0044327580859025162 0.014224256537669944 0 -0.0047436088373018076 0.0137664867349107 0 -0.0041138187375923518 0.013536660179767403 0 -0.0038214091857403337 0.013979303967069192 0 -0.0044327580859025162 0.014224256537669944 0 -0.0039765185025140018 0.01446426068308638 0 -0.0052508776147885778 0.013829433324377863 0 -0.0054742391732051513 0.013670203849453966 0 -0.005329787718119856 0.013577941484348674 0 -0.0052508776147885778 0.013829433324377863 0 -0.0047436088373018076 0.0137664867349107 0 -0.0050418336098083348 0.014297508955678525 0 -0.0052508776147885778 0.013829433324377863 0 -0.0047436088373018076 0.0137664867349107 0 -0.0049978431081311153 0.013400415284500668 0 -0.0044327580859025162 0.014224256537669944 0 -0.0050418336098083348 0.014297508955678525 0 -0.004879896163673513 0.014796864597437035 0 -0.0044327580859025162 0.014224256537669944 0 -0.0047436088373018076 0.0137664867349107 0 -0.0050418336098083348 0.014297508955678525 0 -0.0052508776147885778 0.013829433324377863 0 -0.0050418336098083348 0.014297508955678525 0 -0.0055077856158297625 0.014271857064073804 0 -0.0050418336098083348 0.014297508955678525 0 -0.005374449053743291 0.014729041247002906 0 -0.0055077856158297625 0.014271857064073804 0 -0.0050418336098083348 0.014297508955678525 0 -0.005374449053743291 0.014729041247002906 0 -0.004879896163673513 0.014796864597437035 0 -0.004879896163673513 0.014796864597437035 0 -0.0047376307476696099 0.015285104921271797 0 -0.0052283437509268475 0.015268742265791209 0 -0.004879896163673513 0.014796864597437035 0 -0.0047376307476696099 0.015285104921271797 0 -0.0043381336780393244 0.014828868001891964 0 -0.005374449053743291 0.014729041247002906 0 -0.004879896163673513 0.014796864597437035 0 -0.0052283437509268475 0.015268742265791209 0 -0.0037639888054964788 0.014859056875695808 0 -0.0039765185025140018 0.01446426068308638 0 -0.0043381336780393244 0.014828868001891964 0 -0.0044327580859025162 0.014224256537669944 0 -0.0039765185025140018 0.01446426068308638 0 -0.0043381336780393244 0.014828868001891964 0 -0.0044327580859025162 0.014224256537669944 0 -0.004879896163673513 0.014796864597437035 0 -0.0043381336780393244 0.014828868001891964 0 -0.0047376307476696099 0.015285104921271797 0 -0.0043381336780393244 0.014828868001891964 0 -0.0042036396551653997 0.015329037858177274 0 -0.0037639888054964788 0.014859056875695808 0 -0.0043381336780393244 0.014828868001891964 0 -0.0042036396551653997 0.015329037858177274 0 -0.0039183138266716353 0.015795771327024921 0 -0.0048339553386708492 0.015853050310739181 0 -0.0041754249643971226 0.016627686179285339 0 -0.0034276792659259248 0.015298062768379014 0 -0.0042036396551653997 0.015329037858177274 0 -0.0039183138266716353 0.015795771327024921 0 -0.0042036396551653997 0.015329037858177274 0 -0.0039183138266716353 0.015795771327024921 0 -0.0048339553386708492 0.015853050310739181 0 -0.0047376307476696099 0.015285104921271797 0 -0.0042036396551653997 0.015329037858177274 0 -0.0048339553386708492 0.015853050310739181 0 -0.0052283437509268475 0.015268742265791209 0 -0.0048339553386708492 0.015853050310739181 0 -0.0057591340280514275 0.015754182821560905 0 -0.0048339553386708492 0.015853050310739181 0 -0.0056352260983693015 0.0165087306582598 0 -0.0057591340280514275 0.015754182821560905 0 -0.0047376307476696099 0.015285104921271797 0 -0.0052283437509268475 0.015268742265791209 0 -0.0048339553386708492 0.015853050310739181 0 -0.004939404334957917 0.016533696700983633 0 -0.0041754249643971226 0.016627686179285339 0 -0.0051107076266413238 0.017127946659550801 0 -0.0048339553386708492 0.015853050310739181 0 -0.004939404334957917 0.016533696700983633 0 -0.0056352260983693015 0.0165087306582598 0 -0.004939404334957917 0.016533696700983633 0 -0.0056352260983693015 0.0165087306582598 0 -0.0051107076266413238 0.017127946659550801 0 -0.0048339553386708492 0.015853050310739181 0 -0.004939404334957917 0.016533696700983633 0 -0.0041754249643971226 0.016627686179285339 0 -0.0066312274067406992 0.01629243881478264 0 -0.0068724962064577386 0.016654406866884665 0 -0.0062619428399384421 0.016872476258078296 0 -0.0061536884477805479 0.016388149703370502 0 -0.0066312274067406992 0.01629243881478264 0 -0.0063351408908308201 0.015858976354778974 0 -0.0061536884477805479 0.016388149703370502 0 -0.0066312274067406992 0.01629243881478264 0 -0.0062619428399384421 0.016872476258078296 0 -0.0061536884477805479 0.016388149703370502 0 -0.0056352260983693015 0.0165087306582598 0 -0.0057231487566592586 0.01703794554412472 0 -0.0061536884477805479 0.016388149703370502 0 -0.0056352260983693015 0.0165087306582598 0 -0.0057591340280514275 0.015754182821560905 0 -0.0061536884477805479 0.016388149703370502 0 -0.0057591340280514275 0.015754182821560905 0 -0.0063351408908308201 0.015858976354778974 0 -0.0052283437509268475 0.015268742265791209 0 -0.0057591340280514275 0.015754182821560905 0 -0.0057687056806523052 0.015094813576892196 0 -0.0057591340280514275 0.015754182821560905 0 -0.0063351408908308201 0.015858976354778974 0 -0.0062772589081885903 0.015245973783946822 0 -0.0057591340280514275 0.015754182821560905 0 -0.0062772589081885903 0.015245973783946822 0 -0.0057687056806523052 0.015094813576892196 0 -0.0066312274067406992 0.01629243881478264 0 -0.0063351408908308201 0.015858976354778974 0 -0.006800099734405287 0.01556708704097759 0 -0.0063351408908308201 0.015858976354778974 0 -0.0062772589081885903 0.015245973783946822 0 -0.006800099734405287 0.01556708704097759 0 -0.001686864574993216 0.00620143044246737 0 -0.0015699692100020392 0.0061742746661526664 0 -0.0018865036562832394 0.0064215190181486012 0 -0.0062772589081885903 0.015245973783946822 0 -0.0062607227029930004 0.014533355049081131 0 -0.006800099734405287 0.01556708704097759 0 -0.0040004751288146385 0.010549668119019725 0 -0.004361772484271117 0.011025476361770169 0 -0.0062772589081885903 0.015245973783946822 0 -0.0062607227029930004 0.014533355049081131 0 -0.0060278231308532673 0.014876798019625836 0 -0.005374449053743291 0.014729041247002906 0 -0.0052283437509268475 0.015268742265791209 0 -0.0057687056806523052 0.015094813576892196 0 -0.0062772589081885903 0.015245973783946822 0 -0.0057687056806523052 0.015094813576892196 0 -0.0060278231308532673 0.014876798019625836 0 -0.0057687056806523052 0.015094813576892196 0 -0.0060278231308532673 0.014876798019625836 0 -0.0057979240747010009 0.014621670014921579 0 -0.0062607227029930004 0.014533355049081131 0 -0.0060278231308532673 0.014876798019625836 0 -0.0057979240747010009 0.014621670014921579 0 -0.005374449053743291 0.014729041247002906 0 -0.0057687056806523052 0.015094813576892196 0 -0.0057979240747010009 0.014621670014921579 0 -0.005374449053743291 0.014729041247002906 0 -0.0057979240747010009 0.014621670014921579 0 -0.0055077856158297625 0.014271857064073804 0 -0.0062607227029930004 0.014533355049081131 0 -0.0056699245248373149 0.013860698302068132 0 -0.0055768151314265334 0.013409058355238691 0 -0.0015699692100020392 0.0061742746661526664 0 -0.0015498153917712287 0.0062386050331273346 0 -0.0015855661284760205 0.0063142823061167119 0 -0.0040004751288146385 0.010549668119019725 0 -0.0032976832543870228 0.008705843645565212 0 -0.0055077856158297625 0.014271857064073804 0 -0.0058092129376705092 0.014322314613839319 0 -0.0056699245248373149 0.013860698302068132 0 -0.0057979240747010009 0.014621670014921579 0 -0.0055077856158297625 0.014271857064073804 0 -0.0058092129376705092 0.014322314613839319 0 -0.0062607227029930004 0.014533355049081131 0 -0.0057979240747010009 0.014621670014921579 0 -0.0058092129376705092 0.014322314613839319 0 -0.0062607227029930004 0.014533355049081131 0 -0.0058092129376705092 0.014322314613839319 0 -0.0056699245248373149 0.013860698302068132 0 -0.0015498153917712287 0.0062386050331273346 0 -0.0015715633973152287 0.0062972509714820943 0 -0.0015139653176225196 0.0062939276445177035 0 -0.0056699245248373149 0.013860698302068132 0 -0.0054742391732051513 0.013670203849453966 0 -0.0055768151314265334 0.013409058355238691 0 -0.0052508776147885778 0.013829433324377863 0 -0.0056699245248373149 0.013860698302068132 0 -0.0054742391732051513 0.013670203849453966 0 -0.0052508776147885778 0.013829433324377863 0 -0.0055077856158297625 0.014271857064073804 0 -0.0056699245248373149 0.013860698302068132 0 -0.001686864574993216 0.00620143044246737 0 -0.0015699692100020392 0.0061742746661526664 0 -0.0014268562972055839 0.0062673535486252588 0 -0.001686864574993216 0.00620143044246737 0 -0.0018986482090689052 0.0058448495514838768 0 -0.0016265648771025423 0.0056035819119766911 0 -0.0016539727137232581 0.006217752689597459 0 -0.0015527374691896804 0.0059042662906251394 0 -0.0015699692100020392 0.0061742746661526664 0 -0.0015498153917712287 0.0062386050331273346 0 -0.0014268562972055839 0.0062673535486252588 0 -0.0015498153917712287 0.0062386050331273346 0 -0.0014268562972055839 0.0062673535486252588 0 -0.0015139653176225196 0.0062939276445177035 0 -0.0018986482090689052 0.0058448495514838768 0 -0.0019200402602623258 0.0055333508686252536 0 -0.0016265648771025423 0.0056035819119766911 0 -0.0018986482090689052 0.0058448495514838768 0 -0.0021833634491554904 0.0056878333121183674 0 -0.0020678053061037845 0.0061189957891293108 0 -0.0018986482090689052 0.0058448495514838768 0 -0.0021833634491554904 0.0056878333121183674 0 -0.0019200402602623258 0.0055333508686252536 0 -0.0021833634491554904 0.0056878333121183674 0 -0.0023619667675442583 0.0059420600318041937 0 -0.0020678053061037845 0.0061189957891293108 0 -0.0021833634491554904 0.0056878333121183674 0 -0.0023619667675442583 0.0059420600318041937 0 -0.0025835423689123298 0.005706501973156251 0 -0.0023619667675442583 0.0059420600318041937 0 -0.0025835423689123298 0.005706501973156251 0 -0.0025543805169446535 0.0060398558937393232 0 -0.0023619667675442583 0.0059420600318041937 0 -0.0023744826656681203 0.0061997172325830548 0 -0.0020678053061037845 0.0061189957891293108 0 -0.0023619667675442583 0.0059420600318041937 0 -0.0023744826656681203 0.0061997172325830548 0 -0.0025543805169446535 0.0060398558937393232 0 -0.0023744826656681203 0.0061997172325830548 0 -0.0025543805169446535 0.0060398558937393232 0 -0.0025962806792276792 0.006273934799267091 0 -0.001686864574993216 0.00620143044246737 0 -0.0020678053061037845 0.0061189957891293108 0 -0.0018865036562832394 0.0064215190181486012 0 -0.001686864574993216 0.00620143044246737 0 -0.0018986482090689052 0.0058448495514838768 0 -0.0020678053061037845 0.0061189957891293108 0 -0.0023744826656681203 0.0061997172325830548 0 -0.0020678053061037845 0.0061189957891293108 0 -0.0021849255729915929 0.0063673653945188315 0 -0.0020678053061037845 0.0061189957891293108 0 -0.0018865036562832394 0.0064215190181486012 0 -0.0021849255729915929 0.0063673653945188315 0 -0.0022480235045061006 -5.0830784930303741e-06 0 -0.0026437139254072528 0.0014466402100974745 0 -0.0029376496314891956 0.0049713393369781598 0 -0.0027989245397696443 0.0051045685850108326 0 -0.002867578233187707 0.0054422653910319576 0 -0.0027989245397696443 0.0051045685850108326 0 -0.002867578233187707 0.0054422653910319576 0 -0.0028569463637056498 0.0054843281409494076 0 -0.0017036185988006762 -0.0039368324204324861 0 -0.0016629608345884266 -0.0038881206430981469 0 -0.0017204936531061467 -0.0039689692607993337 0 -0.0017036185988006762 -0.0039368324204324861 0 -0.0016629608345884266 -0.0038881206430981469 0 -0.001731085798854181 -0.0038903265031310394 0 -0.0028557310226024345 0.0061310710425036396 0 -0.0029046729040675553 0.0052149670068270997 0 -0.0025835423689123298 0.005706501973156251 0 -0.002840111886807536 0.0060784414905411099 0 -0.002867578233187707 0.0054422653910319576 0 -0.0029376496314891956 0.0049713393369781598 0 -0.0027989245397696443 0.0051045685850108326 0 -0.002972831829535276 0.0042199253829168027 0 -0.0022480235045061006 -5.0830784930303741e-06 0 -0.0023352009722240131 0.0025183884275312134 0 -0.0025835423689123298 0.005706501973156251 0 -0.0025543805169446535 0.0060398558937393232 0 -0.002840111886807536 0.0060784414905411099 0 -0.0025543805169446535 0.0060398558937393232 0 -0.0025962806792276792 0.006273934799267091 0 -0.002840111886807536 0.0060784414905411099 0 -0.0016629608345884266 -0.0038881206430981469 0 -0.001731085798854181 -0.0038903265031310394 0 -0.0017414602535071801 -0.0037859192708350393 0 -0.0017414602535071801 -0.0037859192708350393 0 -0.0015575324914021711 -0.0036429488153682452 0 -0.0016305959318847283 -0.0036346765376031142 0 0.00038713445303070764 -0.010909693379868636 0 0.0003346695322358466 -0.010926624930971993 0 0.00039333125240042361 -0.010987167399037686 0 -0.0016629608345884266 -0.0038881206430981469 0 -0.0017414602535071801 -0.0037859192708350393 0 -0.0015575324914021711 -0.0036429488153682452 0 -0.00051054262265857651 -0.0071232513825580353 0 -0.00074534132804009797 -0.0075923339623221973 0 -0.0025962806792276792 0.006273934799267091 0 -0.002840111886807536 0.0060784414905411099 0 -0.0027045541857230551 0.0065757697434567402 0 -0.0028557310226024345 0.0061310710425036396 0 -0.0023352009722240131 0.0025183884275312134 0 -0.0025962806792276792 0.006273934799267091 0 -0.0027045541857230551 0.0065757697434567402 0 -0.0024524300654619234 0.0064843236110394623 0 -0.0015575324914021711 -0.0036429488153682452 0 -0.0016305959318847283 -0.0036346765376031142 0 -0.0015260907791654951 -0.0035297945807617392 0 -0.0019799732905120466 0.001318901238112529 0 -0.0024156928279989204 -1.2629276824215257e-05 0 -0.0021274207566482693 0.00035260642271551558 0 -0.0023352009722240131 0.0025183884275312134 0 -0.0018779329421220036 0.0025017088000820814 0 -0.0027045541857230551 0.0065757697434567402 0 -0.002450665024320856 0.0067027947421690109 0 -0.0025060845391211293 0.006965184685917016 0 -0.0023352009722240131 0.0025183884275312134 0 -0.0017058164796592366 -0.0046290299427029285 0 -0.00074534132804009797 -0.0075923339623221973 0 -0.0017058164796592366 -0.0046290299427029285 0 0.0003346695322358466 -0.010926624930971993 0 0.00033192968822369284 -0.010980030022436535 0 0.00025229700957866166 -0.010950954825760471 0 0.0003346695322358466 -0.010926624930971993 0 0.00033192968822369284 -0.010980030022436535 0 0.00039333125240042361 -0.010987167399037686 0 -0.0022091729251373562 0.0066468144481261048 0 -0.0018865036562832394 0.0064215190181486012 0 -0.0022776644270769498 0.006923970582219767 0 -0.004361772484271117 0.011025476361770169 0 -0.0044943790115828898 0.011252555381743625 0 -0.0022091729251373562 0.0066468144481261048 0 -0.0018865036562832394 0.0064215190181486012 0 -0.0021849255729915929 0.0063673653945188315 0 -0.0023744826656681203 0.0061997172325830548 0 -0.0021849255729915929 0.0063673653945188315 0 -0.0024524300654619234 0.0064843236110394623 0 -0.0023744826656681203 0.0061997172325830548 0 -0.0025962806792276792 0.006273934799267091 0 -0.0024524300654619234 0.0064843236110394623 0 -0.0027045541857230551 0.0065757697434567402 0 -0.0024524300654619234 0.0064843236110394623 0 -0.002450665024320856 0.0067027947421690109 0 -0.0022091729251373562 0.0066468144481261048 0 -0.0024524300654619234 0.0064843236110394623 0 -0.002450665024320856 0.0067027947421690109 0 -0.0022091729251373562 0.0066468144481261048 0 -0.0021849255729915929 0.0063673653945188315 0 -0.0024524300654619234 0.0064843236110394623 0 -0.002450665024320856 0.0067027947421690109 0 -0.0022817566493928279 0.0067800457430393663 0 -0.0025060845391211293 0.006965184685917016 0 -0.0022091729251373562 0.0066468144481261048 0 -0.002450665024320856 0.0067027947421690109 0 -0.0022817566493928279 0.0067800457430393663 0 -0.0066312274067406992 0.01629243881478264 0 -0.006800099734405287 0.01556708704097759 0 -0.007192503827386061 0.01638121107060871 0 -0.0066312274067406992 0.01629243881478264 0 -0.007192503827386061 0.01638121107060871 0 -0.0068724962064577386 0.016654406866884665 0 -0.0025553509600175846 0.0060625644324888038 0 -0.0044943790115828898 0.011252555381743625 0 -0.007192503827386061 0.01638121107060871 0 -0.0068724962064577386 0.016654406866884665 0 -0.0070401064723595785 0.016873469641526622 0 -0.0068724962064577386 0.016654406866884665 0 -0.0067718131642325163 0.017004399042613298 0 -0.0070401064723595785 0.016873469641526622 0 -0.0044127369178253405 0.010286445261714464 0 -0.0028058252407527208 0.0080705085194525458 0 -0.0037261577189802407 0.0072331047681699337 0 -0.0044943790115828898 0.011252555381743625 0 -0.0021625667878114002 0.0035132261012426392 0 -0.007192503827386061 0.01638121107060871 0 -0.0070401064723595785 0.016873469641526622 0 -0.0072409412394678491 0.017073567597242625 0 -0.0022817566493928279 0.0067800457430393663 0 -0.0025060845391211293 0.006965184685917016 0 -0.0024883008739609571 0.0070118164084606313 0 -0.0044943790115828898 0.011252555381743625 0 -0.0038255547346573928 0.010647331608666358 0 -0.00076228492507607098 -0.0018352936257053352 0 -0.00059862353233253467 -0.0014106909126154856 0 -0.0010737863214478501 -0.00075230407401248969 0 -0.0021625667878114002 0.0035132261012426392 0 -0.0038255547346573928 0.010647331608666358 0 -0.0018779329421220036 0.0025017088000820814 0 -0.0021625667878114002 0.0035132261012426392 0 -0.0021625667878114002 0.0035132261012426392 0 1.1495991173177492e-05 -0.004639027506892655 0 -0.0070401064723595785 0.016873469641526622 0 -0.0072409412394678491 0.017073567597242625 0 -0.0071355819975304586 0.017194060879809566 0 -0.0007752335683016159 -0.00087603615711573423 0 -0.0014207103620137731 -0.0026926949752421208 0 -0.00029445755409677446 -0.0015456001010443637 0 -0.0038255547346573928 0.010647331608666358 0 -0.0011724456753444839 0.0022700399291484103 0 -0.001835560488767026 0.0052001011782307968 0 -0.00185215832856221 0.0051765651150903896 0 -0.0018346677011826951 0.0051356092048922657 0 -0.0021625667878114002 0.0035132261012426392 0 -0.0011724456753444839 0.0022700399291484103 0 -0.0038255547346573928 0.010647331608666358 0 -0.0048345169466576538 0.011469920873496516 0 -0.00056128477579807953 -0.0028857075023885248 0 -0.0014207103620137731 -0.0026926949752421208 0 -0.00029445755409677446 -0.0015456001010443637 0 -0.00056128477579807953 -0.0028857075023885248 0 -0.0014207103620137731 -0.0026926949752421208 0 -0.0013713009253322867 -0.0028817877962469167 0 -0.0028416308413029075 0.010239827767123349 0 -0.0049165782152378332 0.0077899256417950022 0 -0.0019597356237460134 0.0062843185814800001 0 -0.0048345169466576538 0.011469920873496516 0 -0.00038327592483836467 0.0015828266519249065 0 -0.0049165782152378332 0.0077899256417950022 0 -0.0019597356237460134 0.0062843185814800001 0 -0.0017865951640950513 0.0055067190782091546 0 -0.0011724456753444839 0.0022700399291484103 0 -0.00038327592483836467 0.0015828266519249065 0 -0.0068979923187188893 0.017386140272167391 0 -0.0074957639088668827 0.017803342238963221 0 -0.0068584898238823744 0.018013584386736434 0 -0.007605940583161469 0.017817104354683009 0 -0.0048345169466576538 0.011469920873496516 0 -0.0067718131642325163 0.017004399042613298 0 -0.0070401064723595785 0.016873469641526622 0 -0.0071355819975304586 0.017194060879809566 0 0.00033192968822369284 -0.010980030022436535 0 0.00034811606301207433 -0.011058548206462324 0 0.00039333125240042361 -0.010987167399037686 0 -0.0017058164796592366 -0.0046290299427029285 0 1.1495991173177492e-05 -0.004639027506892655 0 0.00034811606301207433 -0.011058548206462324 0 0.00025229700957866166 -0.010950954825760471 0 0.00021853740129246531 -0.01103475762919791 0 0.00033192968822369284 -0.010980030022436535 0 0.00034811606301207433 -0.011058548206462324 0 0.00025229700957866166 -0.010950954825760471 0 -0.00076228492507607098 -0.0018352936257053352 0 -0.001475922408795979 -0.0026710227993914822 0 -0.0010737863214478501 -0.00075230407401248969 0 -0.0018779329421220036 0.0025017088000820814 0 -0.0017058164796592366 -0.0046290299427029285 0 0.00034811606301207433 -0.011058548206462324 0 0.00021853740129246531 -0.01103475762919791 0 0.00029667280862673317 -0.011200287603674655 0 1.1495991173177492e-05 -0.004639027506892655 0 0.00097430885427599934 -0.0081641526687224325 0 -0.00056128477579807953 -0.0028857075023885248 0 -0.00031926588264560905 -0.0016785574540301347 0 0.0012039484053487934 -0.0037809382009182132 0 -0.00016056466771963856 -0.0021413513577579215 0 1.1495991173177492e-05 -0.004639027506892655 0 0.00034811606301207433 -0.011058548206462324 0 0.00029667280862673317 -0.011200287603674655 0 0.00042518081065242208 -0.011186382767631774 0 0.00029667280862673317 -0.011200287603674655 0 0.00039907564507767046 -0.01137693885802148 0 0.00042518081065242208 -0.011186382767631774 0 0.0012039484053487934 -0.0037809382009182132 0 0.00069459253049372106 -0.0043908923971226 0 0.0026725994440719601 -0.0058595582927134298 0 -0.00056128477579807953 -0.0028857075023885248 0 -0.0013713009253322867 -0.0028817877962469167 0 0.00069459253049372106 -0.0043908923971226 0 -0.00056128477579807953 -0.0028857075023885248 0 0.0012039484053487934 -0.0037809382009182132 0 0.00069459253049372106 -0.0043908923971226 0 -0.00038327592483836467 0.0015828266519249065 0 0.00096931003662165105 -0.0023362376340762239 0 0.0010030508316820356 -0.00023458340096707268 0 0.0006854361147111492 -0.00073560721871573584 0 0.0011903690712614938 -0.0011878426129756866 0 0.0010030508316820356 -0.00023458340096707268 0 0.0006854361147111492 -0.00073560721871573584 0 0.00022194318500672744 -0.00038266065871069038 0 0.00038554053905509312 -0.0011372491467365954 0 0.0006854361147111492 -0.00073560721871573584 0 0.0011903690712614938 -0.0011878426129756866 0 0.0018171943539995504 -0.0016114394905970874 0 0.0011903690712614938 -0.0011878426129756866 0 0.0020620170152241485 -0.0010562087211052906 0 0.00097430885427599934 -0.0081641526687224325 0 0.0012849504792591259 -0.0064092428685785883 0 0.0010030508316820356 -0.00023458340096707268 0 0.0011903690712614938 -0.0011878426129756866 0 0.0020620170152241485 -0.0010562087211052906 0 0.00096931003662165105 -0.0023362376340762239 0 0.0012849504792591259 -0.0064092428685785883 0 -0.00070415821333784346 0.002329897121134056 0 -0.00067611593323557034 0.00054726393946900973 0 -0.0021855384169675251 0.00040194817262801963 0 -0.0074957639088668827 0.017803342238963221 0 -0.0068584898238823744 0.018013584386736434 0 -0.0066820062007217291 0.018786844523062458 0 -0.0048345169466576538 0.011469920873496516 0 -0.0048580427980487173 0.0094900843926130924 0 -0.00038327592483836467 0.0015828266519249065 0 -0.00056998047957684676 0.00080632688354528317 0 -0.00070415821333784346 0.002329897121134056 0 -0.00010990918499710667 0.0018972215304939647 0 -0.00067611593323557034 0.00054726393946900973 0 -0.00038327592483836467 0.0015828266519249065 0 0.00021850531736812662 -9.3037656284511528e-05 0 2.9608438097632124e-05 0.00047282511733342158 0 0.0010030508316820356 -0.00023458340096707268 0 0.00022194318500672744 -0.00038266065871069038 0 -0.0001145049577019545 0.0018074328305410703 0 0.00019682266217369606 0.00041107902143282525 0 -0.00067611593323557034 0.00054726393946900973 0 -0.00067611593323557034 0.00054726393946900973 0 -0.00028027262471454488 -0.00037154773139410946 0 -0.00092249390103011405 -0.00050710091800710677 0 0.00019682266217369606 0.00041107902143282525 0 -0.00067611593323557034 0.00054726393946900973 0 -0.00028027262471454488 -0.00037154773139410946 0 0.00038554053905509312 -0.0011372491467365954 0 0.0006854361147111492 -0.00073560721871573584 0 0.00022194318500672744 -0.00038266065871069038 0 0.00037158509502467705 -0.0009547637015132472 0 0.00021850531736812662 -9.3037656284511528e-05 0 0.00038554053905509312 -0.0011372491467365954 0 0.00019682266217369606 0.00041107902143282525 0 -0.00028027262471454488 -0.00037154773139410946 0 -0.00037220467386170282 -0.0011339205081782107 0 0.00038554053905509312 -0.0011372491467365954 0 -0.00028027262471454488 -0.00037154773139410946 0 -0.00037220467386170282 -0.0011339205081782107 0 -0.00028027262471454488 -0.00037154773139410946 0 -0.00092249390103011405 -0.00050710091800710677 0 -0.00067611593323557034 0.00054726393946900973 0 -0.0018559494896337968 -0.00036000588148207526 0 -0.0021855384169675251 0.00040194817262801963 0 -0.00067611593323557034 0.00054726393946900973 0 -0.00092249390103011405 -0.00050710091800710677 0 -0.0018559494896337968 -0.00036000588148207526 0 -0.0013331847120336166 -0.0012636458500504843 0 -0.00092249390103011405 -0.00050710091800710677 0 -0.0018559494896337968 -0.00036000588148207526 0 -0.0014432678817162296 0.0078928730231957022 0 -0.0048580427980487173 0.0094900843926130924 0 -0.0035038646690287866 -0.0012340194117106008 0 -0.0018559494896337968 -0.00036000588148207526 0 -0.0021855384169675251 0.00040194817262801963 0 -0.0068584898238823744 0.018013584386736434 0 -0.0066820062007217291 0.018786844523062458 0 -0.0063549685541391945 0.018068893369083551 0 -0.0066820062007217291 0.018786844523062458 0 -0.0059630527613888868 0.018488782735814425 0 -0.0063549685541391945 0.018068893369083551 0 -0.0066820062007217291 0.018786844523062458 0 -0.0059630527613888868 0.018488782735814425 0 -0.0058059441907497705 0.019028380828710469 0 -0.0059630527613888868 0.018488782735814425 0 -0.0063549685541391945 0.018068893369083551 0 -0.0055218401427848856 0.01819077044343783 0 -0.0059630527613888868 0.018488782735814425 0 -0.0055253617748683625 0.018703844142313252 0 -0.0055218401427848856 0.01819077044343783 0 -0.0059630527613888868 0.018488782735814425 0 -0.0055253617748683625 0.018703844142313252 0 -0.0058059441907497705 0.019028380828710469 0 -0.0055253617748683625 0.018703844142313252 0 -0.0058059441907497705 0.019028380828710469 0 -0.0053008332100576358 0.019073667488425657 0 -0.0058059441907497705 0.019028380828710469 0 -0.0054047095160880557 0.019407446804284662 0 -0.0053008332100576358 0.019073667488425657 0 -0.0058474090110614439 0.019713364196036958 0 -0.0058059441907497705 0.019028380828710469 0 -0.0054047095160880557 0.019407446804284662 0 -0.0058474090110614439 0.019713364196036958 0 -0.0066820062007217291 0.018786844523062458 0 -0.0058059441907497705 0.019028380828710469 0 -0.0054047095160880557 0.019407446804284662 0 -0.0050815010940536967 0.019468031509077065 0 -0.0053008332100576358 0.019073667488425657 0 -0.0050051796599537126 0.01967548802396047 0 -0.0054047095160880557 0.019407446804284662 0 -0.0050815010940536967 0.019468031509077065 0 -0.0050050194670125852 0.019752086595721089 0 -0.0050815010940536967 0.019468031509077065 0 -0.0046420049211484691 0.019229663590753239 0 -0.0050815010940536967 0.019468031509077065 0 -0.0050160819971023524 0.019126044043939489 0 -0.0046420049211484691 0.019229663590753239 0 -0.0050160819971023524 0.019126044043939489 0 -0.0053008332100576358 0.019073667488425657 0 -0.0050378462192412618 0.018723501395520259 0 -0.0050160819971023524 0.019126044043939489 0 -0.0046420049211484691 0.019229663590753239 0 -0.0050378462192412618 0.018723501395520259 0 -0.0050815010940536967 0.019468031509077065 0 -0.0050160819971023524 0.019126044043939489 0 -0.0053008332100576358 0.019073667488425657 0 -0.0038717208767905286 0.019349670410368724 0 -0.0046420049211484691 0.019229663590753239 0 -0.0044197215612068437 0.01856745743479114 0 -0.0042374593369266149 0.019793103952329621 0 -0.0050050194670125852 0.019752086595721089 0 -0.0046420049211484691 0.019229663590753239 0 -0.0042374593369266149 0.019793103952329621 0 -0.0038717208767905286 0.019349670410368724 0 -0.0046420049211484691 0.019229663590753239 0 -0.0046420049211484691 0.019229663590753239 0 -0.0044197215612068437 0.01856745743479114 0 -0.0050378462192412618 0.018723501395520259 0 -0.0044197215612068437 0.01856745743479114 0 -0.0050378462192412618 0.018723501395520259 0 -0.0049196701657350482 0.01821770846542585 0 -0.0055253617748683625 0.018703844142313252 0 -0.0053008332100576358 0.019073667488425657 0 -0.0050378462192412618 0.018723501395520259 0 -0.0050378462192412618 0.018723501395520259 0 -0.0049196701657350482 0.01821770846542585 0 -0.0055218401427848856 0.01819077044343783 0 -0.0055253617748683625 0.018703844142313252 0 -0.0050378462192412618 0.018723501395520259 0 -0.0055218401427848856 0.01819077044343783 0 -0.0049196701657350482 0.01821770846542585 0 -0.0053489309394884948 0.017676256235399507 0 -0.0055218401427848856 0.01819077044343783 0 -0.0049196701657350482 0.01821770846542585 0 -0.0053489309394884948 0.017676256235399507 0 -0.0043319241288339904 0.01766814142989246 0 -0.0044197215612068437 0.01856745743479114 0 -0.0049196701657350482 0.01821770846542585 0 -0.0043319241288339904 0.01766814142989246 0 -0.0041754249643971226 0.016627686179285339 0 -0.0043319241288339904 0.01766814142989246 0 -0.0051107076266413238 0.017127946659550801 0 -0.0053489309394884948 0.017676256235399507 0 -0.0043319241288339904 0.01766814142989246 0 -0.0051107076266413238 0.017127946659550801 0 -0.0053489309394884948 0.017676256235399507 0 -0.0051107076266413238 0.017127946659550801 0 -0.0057231487566592586 0.01703794554412472 0 -0.0056352260983693015 0.0165087306582598 0 -0.0051107076266413238 0.017127946659550801 0 -0.0057231487566592586 0.01703794554412472 0 -0.0053489309394884948 0.017676256235399507 0 -0.0057231487566592586 0.01703794554412472 0 -0.0058982005834356038 0.01757231229623905 0 -0.0057231487566592586 0.01703794554412472 0 -0.0062619428399384421 0.016872476258078296 0 -0.0058982005834356038 0.01757231229623905 0 -0.0061536884477805479 0.016388149703370502 0 -0.0057231487566592586 0.01703794554412472 0 -0.0062619428399384421 0.016872476258078296 0 -0.0068724962064577386 0.016654406866884665 0 -0.0067718131642325163 0.017004399042613298 0 -0.0062619428399384421 0.016872476258078296 0 -0.0068979923187188893 0.017386140272167391 0 -0.0062619428399384421 0.016872476258078296 0 -0.0058982005834356038 0.01757231229623905 0 -0.007605940583161469 0.017817104354683009 0 -0.0060378855859800811 0.016678835276723036 0 -0.0068979923187188893 0.017386140272167391 0 -0.0063549685541391945 0.018068893369083551 0 -0.0058982005834356038 0.01757231229623905 0 -0.0068979923187188893 0.017386140272167391 0 -0.0068584898238823744 0.018013584386736434 0 -0.0063549685541391945 0.018068893369083551 0 -0.0063549685541391945 0.018068893369083551 0 -0.0055218401427848856 0.01819077044343783 0 -0.0058982005834356038 0.01757231229623905 0 -0.0053489309394884948 0.017676256235399507 0 -0.0055218401427848856 0.01819077044343783 0 -0.0058982005834356038 0.01757231229623905 0 -7.0621168178189027e-05 0.034875611608091321 0 -0.00012497921003035034 0.034819498890126768 0 -5.9178955431058828e-05 0.034913942014387689 0 -4.9448367253757275e-08 0.03499984730049429 0 -7.0621168178189027e-05 0.034875611608091321 0 -5.9178955431058828e-05 0.034913942014387689 0 -4.9448367253757275e-08 0.03499984730049429 0 -7.0621168178189027e-05 0.034875611608091321 0 -4.2663016553204142e-05 0.034915139373243712 0 -7.0621168178189027e-05 0.034875611608091321 0 -0.00011295797470339357 0.034785594823430459 0 -6.740224939110754e-05 0.034830598522157044 0 -0.00013557373505025539 0.034679673270586089 0 -0.00011295797470339357 0.034785594823430459 0 -6.740224939110754e-05 0.034830598522157044 0 -0.00013557373505025539 0.034679673270586089 0 -0.00011295797470339357 0.034785594823430459 0 -0.00015637019489873088 0.034771657959801076 0 -7.0621168178189027e-05 0.034875611608091321 0 -0.00011295797470339357 0.034785594823430459 0 -0.00012497921003035034 0.034819498890126768 0 -0.00011295797470339357 0.034785594823430459 0 -0.00012497921003035034 0.034819498890126768 0 -0.00017702506693485835 0.034752946303816507 0 -0.00011295797470339357 0.034785594823430459 0 -0.00017702506693485835 0.034752946303816507 0 -0.00015637019489873088 0.034771657959801076 0 -0.00017702506693485835 0.034752946303816507 0 -0.0002032761740439948 0.034711033011871041 0 -0.00022793214152711162 0.034598618195213392 0 -0.00012497921003035034 0.034819498890126768 0 -0.0002032761740439948 0.034711033011871041 0 -0.00010208539158204855 0.034858019692181053 0 -0.00012497921003035034 0.034819498890126768 0 -0.00017702506693485835 0.034752946303816507 0 -0.0002032761740439948 0.034711033011871041 0 -0.00012497921003035034 0.034819498890126768 0 -0.00010208539158204855 0.034858019692181053 0 -5.9178955431058828e-05 0.034913942014387689 0 -0.00010208539158204855 0.034858019692181053 0 -5.9178955431058828e-05 0.034913942014387689 0 -6.5488596751205994e-08 0.034999824506047265 0 -4.9448367253757275e-08 0.03499984730049429 0 -5.9178955431058828e-05 0.034913942014387689 0 -6.5488596751205994e-08 0.034999824506047265 0 -0.00010208539158204855 0.034858019692181053 0 -6.5488596751205994e-08 0.034999824506047265 0 -9.503384634466214e-08 0.034999751118846699 0 -0.00010208539158204855 0.034858019692181053 0 -9.503384634466214e-08 0.034999751118846699 0 -0.00015331987031823386 0.034751408800672165 0 -0.00015331987031823386 0.034751408800672165 0 -9.0564450627191617e-05 0.034832641555544788 0 -0.00022578002981750439 0.034603044931275251 0 -9.503384634466214e-08 0.034999751118846699 0 -0.00015331987031823386 0.034751408800672165 0 -9.0564450627191617e-05 0.034832641555544788 0 -9.503384634466214e-08 0.034999751118846699 0 -4.5215292491134358e-08 0.034999756466975895 0 -9.0564450627191617e-05 0.034832641555544788 0 -4.5215292491134358e-08 0.034999756466975895 0 -9.0564450627191617e-05 0.034832641555544788 0 -8.3033256536451562e-05 0.034869045441169561 0 -9.0564450627191617e-05 0.034832641555544788 0 -8.3033256536451562e-05 0.034869045441169561 0 -0.00022578002981750439 0.034603044931275251 0 -1.449153243763931e-08 0.034999900517675368 0 -4.5215292491134358e-08 0.034999756466975895 0 -8.3033256536451562e-05 0.034869045441169561 0 -0.00042757381851243605 0.034524002777511012 0 -0.00025072133342453177 0.034715835938082758 0 -0.00022578002981750439 0.034603044931275251 0 -0.0004193370048231255 0.034675944818904132 0 -0.00042757381851243605 0.034524002777511012 0 -0.00025072133342453177 0.034715835938082758 0 -0.00017983172009962211 0.034834690970443588 0 -8.3033256536451562e-05 0.034869045441169561 0 -0.00025072133342453177 0.034715835938082758 0 -8.3033256536451562e-05 0.034869045441169561 0 -0.00025072133342453177 0.034715835938082758 0 -0.00022578002981750439 0.034603044931275251 0 -0.00042757381851243605 0.034524002777511012 0 -0.00022578002981750439 0.034603044931275251 0 -0.0004244035352061619 0.034313001440683902 0 -0.00022578002981750439 0.034603044931275251 0 -0.0004244035352061619 0.034313001440683902 0 -0.00031378289397477596 0.034473958574929749 0 -0.00015331987031823386 0.034751408800672165 0 -0.00022578002981750439 0.034603044931275251 0 -0.00031378289397477596 0.034473958574929749 0 -0.0002032761740439948 0.034711033011871041 0 -0.00010208539158204855 0.034858019692181053 0 -0.00015331987031823386 0.034751408800672165 0 -0.0002032761740439948 0.034711033011871041 0 -0.00015331987031823386 0.034751408800672165 0 -0.00031378289397477596 0.034473958574929749 0 -0.0002032761740439948 0.034711033011871041 0 -0.00031378289397477596 0.034473958574929749 0 -0.00022793214152711162 0.034598618195213392 0 -0.00031378289397477596 0.034473958574929749 0 -0.00022793214152711162 0.034598618195213392 0 -0.00016019143126272067 0.03437186522570395 0 -0.00022793214152711162 0.034598618195213392 0 -0.00016019143126272067 0.03437186522570395 0 -1.3257273366999117e-05 0.03459932732517558 0 -0.00016019143126272067 0.03437186522570395 0 0.00025656605483748802 0.034068221369524372 0 -1.3257273366999117e-05 0.03459932732517558 0 -0.00016019143126272067 0.03437186522570395 0 -0.00023889553105439936 0.034080453303011425 0 0.00025656605483748802 0.034068221369524372 0 -0.0004244035352061619 0.034313001440683902 0 -0.00031378289397477596 0.034473958574929749 0 -0.00023889553105439936 0.034080453303011425 0 -0.00031378289397477596 0.034473958574929749 0 -0.00016019143126272067 0.03437186522570395 0 -0.00023889553105439936 0.034080453303011425 0 -0.0004244035352061619 0.034313001440683902 0 -0.00025062241766363359 0.03364310360163443 0 -0.00045144273593264943 0.033395436625318603 0 -0.00042383008273378048 0.034220754909075293 0 -0.00051242022402782968 0.033956971171285225 0 -0.0004244035352061619 0.034313001440683902 0 -0.00023889553105439936 0.034080453303011425 0 -0.00025062241766363359 0.03364310360163443 0 -0.00023889553105439936 0.034080453303011425 0 -0.00025062241766363359 0.03364310360163443 0 4.9830855800512578e-05 0.033579507723557014 0 -0.00031450705242568587 0.033330477297827378 0 -0.00051242022402782968 0.033956971171285225 0 -0.00056918494522635945 0.034435442697628244 0 -0.00060697309520288574 0.034551674823873231 0 -0.00057067948232874513 0.03457387762649923 0 -0.00036181110466690868 0.032368702724831909 0 -0.00045144273593264943 0.033395436625318603 0 -0.00020642795478406989 0.033177312575543801 0 -0.00068627236898797215 0.034645483324168037 0 -0.00055812248127556376 0.034481867220967272 0 -0.00025062241766363359 0.03364310360163443 0 -0.00045144273593264943 0.033395436625318603 0 -0.00020642795478406989 0.033177312575543801 0 -0.00042757381851243605 0.034524002777511012 0 -0.00060697309520288574 0.034551674823873231 0 -0.00057067948232874513 0.03457387762649923 0 -0.00042757381851243605 0.034524002777511012 0 -0.0004244035352061619 0.034313001440683902 0 -0.00060697309520288574 0.034551674823873231 0 -0.00053827524434374018 0.034639303220143025 0 -0.0004193370048231255 0.034675944818904132 0 -0.00057067948232874513 0.03457387762649923 0 -0.0004193370048231255 0.034675944818904132 0 -0.00042757381851243605 0.034524002777511012 0 -0.00057067948232874513 0.03457387762649923 0 0.00068725539731401394 0.032522210492257661 0 0.00053123120203810983 0.033282496362820546 0 0.001077207864140871 0.033157690619754591 0 0.00068725539731401394 0.032522210492257661 0 9.1212919954727028e-05 0.032791091538551649 0 0.00053123120203810983 0.033282496362820546 0 0.0002658749258941067 0.032042078729687173 0 0.00068725539731401394 0.032522210492257661 0 9.1212919954727028e-05 0.032791091538551649 0 9.1212919954727028e-05 0.032791091538551649 0 -0.00020642795478406989 0.033177312575543801 0 4.9830855800512578e-05 0.033579507723557014 0 9.1212919954727028e-05 0.032791091538551649 0 4.9830855800512578e-05 0.033579507723557014 0 0.00053123120203810983 0.033282496362820546 0 -0.00036181110466690868 0.032368702724831909 0 9.1212919954727028e-05 0.032791091538551649 0 -0.00020642795478406989 0.033177312575543801 0 -0.00025062241766363359 0.03364310360163443 0 -0.00020642795478406989 0.033177312575543801 0 4.9830855800512578e-05 0.033579507723557014 0 0.00053123120203810983 0.033282496362820546 0 0.00044680627425837139 0.033774986402724125 0 0.00079818818816307217 0.033643448163489111 0 4.9830855800512578e-05 0.033579507723557014 0 0.00053123120203810983 0.033282496362820546 0 0.00044680627425837139 0.033774986402724125 0 0.00044680627425837139 0.033774986402724125 0 0.00049706681886217869 0.034022534601192096 0 0.00079818818816307217 0.033643448163489111 0 0.00044680627425837139 0.033774986402724125 0 0.00025656605483748802 0.034068221369524372 0 0.00049706681886217869 0.034022534601192096 0 -0.00023889553105439936 0.034080453303011425 0 4.9830855800512578e-05 0.033579507723557014 0 0.00025656605483748802 0.034068221369524372 0 4.9830855800512578e-05 0.033579507723557014 0 0.00044680627425837139 0.033774986402724125 0 0.00025656605483748802 0.034068221369524372 0 0.00025656605483748802 0.034068221369524372 0 0.00041368890413678373 0.034107946053082601 0 0.00026396926545016572 0.03411712966815026 0 0.00027559628969247852 0.034080686819577814 0 4.9575083199669937e-05 0.034358933192258391 0 0.00025656605483748802 0.034068221369524372 0 0.00049706681886217869 0.034022534601192096 0 0.00041368890413678373 0.034107946053082601 0 0.00017907585789641916 0.034096870012047933 0 0.00013336675851688894 0.034242569389154515 0 0.00023640242378193736 0.034162400055476196 0 0.00017907585789641916 0.034096870012047933 0 8.6853282026173347e-05 0.034228604926062389 0 0.00013336675851688894 0.034242569389154515 0 0.00017907585789641916 0.034096870012047933 0 8.6853282026173347e-05 0.034228604926062389 0 4.2122961634009931e-05 0.034090158422541872 0 0.00031564862169802696 0.03406591386347433 0 4.9575083199669937e-05 0.034358933192258391 0 -0.00022793214152711162 0.034598618195213392 0 -7.2708754088888429e-05 0.03462839740164509 0 -0.00015637019489873088 0.034771657959801076 0 -0.00024689834658902512 0.034651761652941718 0 4.9575083199669937e-05 0.034358933192258391 0 -0.00017702506693485835 0.034752946303816507 0 -0.00022793214152711162 0.034598618195213392 0 -0.00015637019489873088 0.034771657959801076 0 4.9575083199669937e-05 0.034358933192258391 0 -0.00010501700898825993 0.034525530070810932 0 8.6853282026173347e-05 0.034228604926062389 0 4.2122961634009931e-05 0.034090158422541872 0 -4.0961727833464528e-05 0.034274806756531648 0 -0.00013557373505025539 0.034679673270586089 0 8.7264809636527103e-05 0.034441923987587365 0 -3.5523377328862612e-05 0.034694493159802692 0 -0.00013557373505025539 0.034679673270586089 0 -4.0961727833464528e-05 0.034274806756531648 0 8.7264809636527103e-05 0.034441923987587365 0 8.6853282026173347e-05 0.034228604926062389 0 -4.0961727833464528e-05 0.034274806756531648 0 8.7264809636527103e-05 0.034441923987587365 0 -0.00013101969471457562 0.03466023009703896 0 -0.00010501700898825993 0.034525530070810932 0 8.7264809636527103e-05 0.034441923987587365 0 6.6216788657962373e-05 0.034282831240804411 0 0.00013336675851688894 0.034242569389154515 0 6.6216788657962373e-05 0.034282831240804411 0 0.00013336675851688894 0.034242569389154515 0 7.5114419706064634e-05 0.034190274970862786 0 8.6853282026173347e-05 0.034228604926062389 0 8.7264809636527103e-05 0.034441923987587365 0 0.00013336675851688894 0.034242569389154515 0 0.00026136789046257041 0.034102467176774856 0 0.00023640242378193736 0.034162400055476196 0 0.00041720985802771191 0.034053607740817594 0 0.00013336675851688894 0.034242569389154515 0 0.00023640242378193736 0.034162400055476196 0 7.5114419706064634e-05 0.034190274970862786 0 0.00026136789046257041 0.034102467176774856 0 0.00023640242378193736 0.034162400055476196 0 7.5114419706064634e-05 0.034190274970862786 0 0.00026136789046257041 0.034102467176774856 0 0.00012255722144497889 0.034054020010294013 0 7.5114419706064634e-05 0.034190274970862786 0 0.00026136789046257041 0.034102467176774856 0 0.00026929411592649719 0.034059192764134598 0 0.00012255722144497889 0.034054020010294013 0 0.00010285364779372299 0.033965009346361756 0 0.00026929411592649719 0.034059192764134598 0 0.00012255722144497889 0.034054020010294013 0 0.00012099123871609303 0.033575736376410752 0 0.00013573073540463888 0.034643331006200768 0 0.00010285364779372299 0.033965009346361756 0 0.00026929411592649719 0.034059192764134598 0 0.00034712954636407123 0.034049190680757221 0 0.00026929411592649719 0.034059192764134598 0 0.00034712954636407123 0.034049190680757221 0 0.00044431814725039701 0.034021866759650993 0 0.00026136789046257041 0.034102467176774856 0 0.00026929411592649719 0.034059192764134598 0 0.00044431814725039701 0.034021866759650993 0 0.00034712954636407123 0.034049190680757221 0 0.00044431814725039701 0.034021866759650993 0 0.00054181321525197438 0.033949401060986518 0 0.00013573073540463888 0.034643331006200768 0 0.00023991445746756709 0.029616507071762867 0 0.00044431814725039701 0.034021866759650993 0 0.00054181321525197438 0.033949401060986518 0 0.00060786972444955246 0.033935078172008137 0 0.00023991445746756709 0.029616507071762867 0 0.00035135951277532359 0.02440077530367395 0 0.00060786972444955246 0.033935078172008137 0 0.00041720985802771191 0.034053607740817594 0 0.00068145383929094213 0.03391296922079344 0 0.00044431814725039701 0.034021866759650993 0 0.00060786972444955246 0.033935078172008137 0 0.00041720985802771191 0.034053607740817594 0 0.00041720985802771191 0.034053607740817594 0 0.0006772670959326009 0.033916367501151075 0 0.00068145383929094213 0.03391296922079344 0 0.00026136789046257041 0.034102467176774856 0 0.00044431814725039701 0.034021866759650993 0 0.00041720985802771191 0.034053607740817594 0 0.00017907585789641916 0.034096870012047933 0 0.00023640242378193736 0.034162400055476196 0 0.00041720985802771191 0.034053607740817594 0 0.00031564862169802696 0.03406591386347433 0 0.00040552370260857291 0.034074084265465591 0 0.00049706681886217869 0.034022534601192096 0 0.00041368890413678373 0.034107946053082601 0 0.00041720985802771191 0.034053607740817594 0 0.00049706681886217869 0.034022534601192096 0 0.00041720985802771191 0.034053607740817594 0 0.0006772670959326009 0.033916367501151075 0 0.0006772670959326009 0.033916367501151075 0 0.00089344186603547383 0.033764469190212108 0 0.00068145383929094213 0.03391296922079344 0 0.00089344186603547383 0.033764469190212108 0 0.00079818818816307217 0.033643448163489111 0 0.0012110040977028416 0.033484830242600995 0 0.0006772670959326009 0.033916367501151075 0 0.00089344186603547383 0.033764469190212108 0 0.00079818818816307217 0.033643448163489111 0 0.00049706681886217869 0.034022534601192096 0 0.0006772670959326009 0.033916367501151075 0 0.00079818818816307217 0.033643448163489111 0 0.00053123120203810983 0.033282496362820546 0 0.00079818818816307217 0.033643448163489111 0 0.001077207864140871 0.033157690619754591 0 0.00079818818816307217 0.033643448163489111 0 0.001077207864140871 0.033157690619754591 0 0.0012110040977028416 0.033484830242600995 0 0.001700206712605035 0.032503283650910625 0 0.001077207864140871 0.033157690619754591 0 0.0012110040977028416 0.033484830242600995 0 0.0017577399961079311 0.02703521319507237 0 0.0009197011905224241 0.02653719955038647 0 0.0010612782438312867 0.025760215225752354 0 0.001640972747220438 0.02970562900503914 0 0.0011303977244812263 0.029599627103059481 0 0.001700206712605035 0.032503283650910625 0 0.00068725539731401394 0.032522210492257661 0 0.001077207864140871 0.033157690619754591 0 0.00029629800064330032 0.025924755964952646 0 0.00045220401471956953 0.026349562939831424 0 0.00051239250339425409 0.025734755054918838 0 0.00029629800064330032 0.025924755964952646 0 0.00045220401471956953 0.026349562939831424 0 0.00021344867498981074 0.026169538594766506 0 0.00070156558453792048 0.027042132536195675 0 0.00045220401471956953 0.026349562939831424 0 0.0009197011905224241 0.02653719955038647 0 0.00045220401471956953 0.026349562939831424 0 0.0009197011905224241 0.02653719955038647 0 0.00051239250339425409 0.025734755054918838 0 0.0010612782438312867 0.025760215225752354 0 0.00051239250339425409 0.025734755054918838 0 0.00058750057529265739 0.025207111655621419 0 0.0009197011905224241 0.02653719955038647 0 0.0010612782438312867 0.025760215225752354 0 0.00051239250339425409 0.025734755054918838 0 0.00029629800064330032 0.025924755964952646 0 0.00051239250339425409 0.025734755054918838 0 0.00025054060790765948 0.025548936292851172 0 0.00051239250339425409 0.025734755054918838 0 0.00032810629713394965 0.025327859876881388 0 0.00025054060790765948 0.025548936292851172 0 0.00058750057529265739 0.025207111655621419 0 0.00043663890298576308 0.025194823114841818 0 0.00032810629713394965 0.025327859876881388 0 0.00051239250339425409 0.025734755054918838 0 0.00058750057529265739 0.025207111655621419 0 0.00032810629713394965 0.025327859876881388 0 0.0011303977244812263 0.029599627103059481 0 0.00071914212752120701 0.029512682935872947 0 0.00089344186603547383 0.033764469190212108 0 0.0012110040977028416 0.033484830242600995 0 0.00076875617548483846 0.03384596952169272 0 0.00089344186603547383 0.033764469190212108 0 0.00068145383929094213 0.03391296922079344 0 0.00076875617548483846 0.03384596952169272 0 0.00060786972444955246 0.033935078172008137 0 0.00068145383929094213 0.03391296922079344 0 0.00076875617548483846 0.03384596952169272 0 0.00023991445746756709 0.029616507071762867 0 0.00071914212752120701 0.029512682935872947 0 0.00041614667982493647 0.025174058613090359 0 0.00058750057529265739 0.025207111655621419 0 0.00043663890298576308 0.025194823114841818 0 0.00054181321525197438 0.033949401060986518 0 0.00060786972444955246 0.033935078172008137 0 0.00076875617548483846 0.03384596952169272 0 0.00022393055334267323 0.025125631685010915 0 0.00020085637787928054 0.025149969369040626 0 0.00032810629713394965 0.025327859876881388 0 0.00022393055334267323 0.025125631685010915 0 0.00020085637787928054 0.025149969369040626 0 0.00018256021301963097 0.025128051011020378 0 0.00017459884767888597 0.02506467101653341 0 0.00024436449589104769 0.025073829735454998 0 0.0002069571552973844 0.025116982478738205 0 0.00017459884767888597 0.02506467101653341 0 0.0002069571552973844 0.025116982478738205 0 0.00018256021301963097 0.025128051011020378 0 0.00020085637787928054 0.025149969369040626 0 0.00017459884767888597 0.02506467101653341 0 0.00018256021301963097 0.025128051011020378 0 0.00017459884767888597 0.02506467101653341 0 0.00015923342323613196 0.025131850737570922 0 0.00018067477911432313 0.025248515368643736 0 0.00017459884767888597 0.02506467101653341 0 0.00015923342323613196 0.025131850737570922 0 0.00021025511274388886 0.024900072814570195 0 0.00020085637787928054 0.025149969369040626 0 0.00017459884767888597 0.02506467101653341 0 0.00018067477911432313 0.025248515368643736 0 0.00035135951277532359 0.02440077530367395 0 0.00031660398445873485 0.025583864407621257 0 0.00020085637787928054 0.025149969369040626 0 0.00018067477911432313 0.025248515368643736 0 0.00032810629713394965 0.025327859876881388 0 0.00018067477911432313 0.025248515368643736 0 0.00032810629713394965 0.025327859876881388 0 0.00025054060790765948 0.025548936292851172 0 0.00029629800064330032 0.025924755964952646 0 0.00025054060790765948 0.025548936292851172 0 0.00015069611194269374 0.025785232819031133 0 0.00025054060790765948 0.025548936292851172 0 0.00013394986185961838 0.025444457623959457 0 0.00015069611194269374 0.025785232819031133 0 0.00018067477911432313 0.025248515368643736 0 0.00025054060790765948 0.025548936292851172 0 0.00013394986185961838 0.025444457623959457 0 0.00015923342323613196 0.025131850737570922 0 0.00018067477911432313 0.025248515368643736 0 0.00013394986185961838 0.025444457623959457 0 0.00015923342323613196 0.025131850737570922 0 0.00012110056227044928 0.025288659000334023 0 0.00013394986185961838 0.025444457623959457 0 0.00012110056227044928 0.025288659000334023 0 0.00013394986185961838 0.025444457623959457 0 7.7232945891493314e-05 0.02558680497659559 0 4.4948235012840986e-05 0.02600616122252242 0 7.7232945891493314e-05 0.02558680497659559 0 4.2641522116456536e-05 0.025378387247882959 0 0.00014468621298178709 0.02584222289102606 0 -4.5194379955078842e-05 0.025422552319665885 0 -0.00020487378362830689 0.025374290988326768 0 -0.00013801129112368327 0.025371078189355727 0 4.2641522116456536e-05 0.025378387247882959 0 0.00013394986185961838 0.025444457623959457 0 7.7232945891493314e-05 0.02558680497659559 0 0.00015069611194269374 0.025785232819031133 0 0.00012110056227044928 0.025288659000334023 0 7.7232945891493314e-05 0.02558680497659559 0 4.2641522116456536e-05 0.025378387247882959 0 4.4948235012840986e-05 0.02600616122252242 0 7.7232945891493314e-05 0.02558680497659559 0 0.00015069611194269374 0.025785232819031133 0 4.4948235012840986e-05 0.02600616122252242 0 0.00021344867498981074 0.026169538594766506 0 0.00015069611194269374 0.025785232819031133 0 0.00029629800064330032 0.025924755964952646 0 0.00021344867498981074 0.026169538594766506 0 0.00015069611194269374 0.025785232819031133 0 -0.0019931413219320907 0.023423152694646794 0 -0.0015308159929315792 0.023615820108556285 0 -0.0037717660714954018 0.021843194379940645 0 -0.0035119082202618467 0.021934262896791876 0 -0.0033026047095542008 0.021849054138063383 0 -0.0037127475319403591 0.021896495201472108 0 -0.0036129133458198564 0.022014304722655989 0 -0.0035119082202618467 0.021934262896791876 0 -0.0035202810941353051 0.022129532671600505 0 -0.0036129133458198564 0.022014304722655989 0 -0.0035119082202618467 0.021934262896791876 0 -0.0033023637450987722 0.022066747481022619 0 -0.0035119082202618467 0.021934262896791876 0 -0.0033026047095542008 0.021849054138063383 0 -0.00013801129112368327 0.025371078189355727 0 4.2641522116456536e-05 0.025378387247882959 0 0.00016185941522329198 0.025313357393968422 0 -0.0015862014425850127 0.023565042092299756 0 -0.0015308159929315792 0.023615820108556285 0 -0.0030842036387955566 0.022066312947816708 0 -0.0033023637450987722 0.022066747481022619 0 -0.0033026047095542008 0.021849054138063383 0 -0.0030842036387955566 0.022066312947816708 0 -0.0027176549522413087 0.022063516373754762 0 -0.0033026047095542008 0.021849054138063383 0 4.2641522116456536e-05 0.025378387247882959 0 0.00016185941522329198 0.025313357393968422 0 0.00015436335970490367 0.025209105687856115 0 0.00016185941522329198 0.025313357393968422 0 0.00015436335970490367 0.025209105687856115 0 0.00013766016328476657 0.024947473377620082 0 0.00012110056227044928 0.025288659000334023 0 4.2641522116456536e-05 0.025378387247882959 0 0.00015436335970490367 0.025209105687856115 0 0.00015923342323613196 0.025131850737570922 0 0.00012110056227044928 0.025288659000334023 0 0.00020007621719017284 0.02499735507579497 0 0.00012110056227044928 0.025288659000334023 0 0.00015436335970490367 0.025209105687856115 0 0.00020007621719017284 0.02499735507579497 0 0.00015436335970490367 0.025209105687856115 0 0.00020007621719017284 0.02499735507579497 0 0.00013766016328476657 0.024947473377620082 0 0.00016185941522329198 0.025313357393968422 0 0.00013766016328476657 0.024947473377620082 0 7.9379627395318932e-06 0.025004040674143781 0 -0.00023859647475701017 0.025010211442506907 0 0.00016185941522329198 0.025313357393968422 0 7.9379627395318932e-06 0.025004040674143781 0 -6.2211565581091446e-05 0.024670919239089487 0 0.00013766016328476657 0.024947473377620082 0 7.9379627395318932e-06 0.025004040674143781 0 -6.2211565581091446e-05 0.024670919239089487 0 0.00013766016328476657 0.024947473377620082 0 0.00037212823325080463 0.024538097755294874 0 0.00020007621719017284 0.02499735507579497 0 0.00013766016328476657 0.024947473377620082 0 0.00037212823325080463 0.024538097755294874 0 0.00020007621719017284 0.02499735507579497 0 0.00037212823325080463 0.024538097755294874 0 0.00021025511274388886 0.024900072814570195 0 0.00015923342323613196 0.025131850737570922 0 0.00020007621719017284 0.02499735507579497 0 0.00021025511274388886 0.024900072814570195 0 0.00021025511274388886 0.024900072814570195 0 0.00024436449589104769 0.025073829735454998 0 0.00040910634067725643 0.02506436833989403 0 0.00017459884767888597 0.02506467101653341 0 0.00021025511274388886 0.024900072814570195 0 0.00024436449589104769 0.025073829735454998 0 0.00042962612130181051 0.024449666460876963 0 0.00056274596067580618 0.024195398810259578 0 0.00037212823325080463 0.024538097755294874 0 0.00021025511274388886 0.024900072814570195 0 0.00040910634067725643 0.02506436833989403 0 -6.4664337079684291e-05 0.023501610235819627 0 0.00037212823325080463 0.024538097755294874 0 0.00077387897689503815 0.023109638501808149 0 -6.4664337079684291e-05 0.023501610235819627 0 -1.9487158103056937e-05 0.022551331623788307 0 0.00077387897689503815 0.023109638501808149 0 -1.9487158103056937e-05 0.022551331623788307 0 0.00077387897689503815 0.023109638501808149 0 0.00087782410652652992 0.022087265425759447 0 0.00040910634067725643 0.02506436833989403 0 0.00041764762710611714 0.025238087404977239 0 0.0003634862759885791 0.025183168720434967 0 0.00056274596067580618 0.024195398810259578 0 0.0005457894097581768 0.023130330386146591 0 -0.00017472777334417549 0.021195407024146771 0 0.0005457894097581768 0.023130330386146591 0 0.0005457894097581768 0.023130330386146591 0 0.00043662386833891463 0.023294730163608293 0 -8.081153727543639e-05 0.021082411262335128 0 0.00045842170112221978 0.021277149115046752 0 0.00025383817722418118 0.020916248359194346 0 0.0005457894097581768 0.023130330386146591 0 0.00062904820419400849 0.023294769286183521 0 0.0004240464862017242 0.025235419981682217 0 0.00036310074199877058 0.025368517999759529 0 0.00045285421589764193 0.025441732770845174 0 0.00034934332403345199 0.025281189310064154 0 0.00029429716222763471 0.025271906991074251 0 0.0002787589445477711 0.02532904021006558 0 0.00034934332403345199 0.025281189310064154 0 0.0002787589445477711 0.02532904021006558 0 0.00036310074199877058 0.025368517999759529 0 0.0004240464862017242 0.025235419981682217 0 0.00034934332403345199 0.025281189310064154 0 0.00036310074199877058 0.025368517999759529 0 0.0004240464862017242 0.025235419981682217 0 0.00034934332403345199 0.025281189310064154 0 0.00039896826785852706 0.025230461238104296 0 0.00034934332403345199 0.025281189310064154 0 0.00039896826785852706 0.025230461238104296 0 0.00033417493566647417 0.025231662818831928 0 0.00039896826785852706 0.025230461238104296 0 0.00033417493566647417 0.025231662818831928 0 0.0003634862759885791 0.025183168720434967 0 0.00041764762710611714 0.025238087404977239 0 0.00039896826785852706 0.025230461238104296 0 0.0003634862759885791 0.025183168720434967 0 0.00033417493566647417 0.025231662818831928 0 0.00029429716222763471 0.025271906991074251 0 0.00028236354381981404 0.025218013910776316 0 0.00033417493566647417 0.025231662818831928 0 0.00028236354381981404 0.025218013910776316 0 0.00031263368635254792 0.02518798953376087 0 0.00034934332403345199 0.025281189310064154 0 0.00033417493566647417 0.025231662818831928 0 0.00029429716222763471 0.025271906991074251 0 0.00029429716222763471 0.025271906991074251 0 0.00028236354381981404 0.025218013910776316 0 0.00024887687043145926 0.025260011486297137 0 0.00028236354381981404 0.025218013910776316 0 0.00031263368635254792 0.02518798953376087 0 0.0002581776976610555 0.025152358228600083 0 0.00024436449589104769 0.025073829735454998 0 0.00040910634067725643 0.02506436833989403 0 0.0003141809383459115 0.025138453058161859 0 0.00031263368635254792 0.02518798953376087 0 0.0002581776976610555 0.025152358228600083 0 0.0003141809383459115 0.025138453058161859 0 0.00033417493566647417 0.025231662818831928 0 0.00031263368635254792 0.02518798953376087 0 0.0003634862759885791 0.025183168720434967 0 0.00031263368635254792 0.02518798953376087 0 0.0003634862759885791 0.025183168720434967 0 0.0003141809383459115 0.025138453058161859 0 0.00040910634067725643 0.02506436833989403 0 0.0003634862759885791 0.025183168720434967 0 0.0003141809383459115 0.025138453058161859 0 0.00024436449589104769 0.025073829735454998 0 0.0002581776976610555 0.025152358228600083 0 0.0003141809383459115 0.025138453058161859 0 0.0002581776976610555 0.025152358228600083 0 0.0002069571552973844 0.025116982478738205 0 0.00021210696109598201 0.025186333679681511 0 0.00024436449589104769 0.025073829735454998 0 0.0002581776976610555 0.025152358228600083 0 0.0002069571552973844 0.025116982478738205 0 0.0002069571552973844 0.025116982478738205 0 0.00021210696109598201 0.025186333679681511 0 0.00018256021301963097 0.025128051011020378 0 0.00021210696109598201 0.025186333679681511 0 0.00018256021301963097 0.025128051011020378 0 0.00017179366739698886 0.02522932086003175 0 0.00028236354381981404 0.025218013910776316 0 0.0002581776976610555 0.025152358228600083 0 0.00021210696109598201 0.025186333679681511 0 0.00013014039989390241 0.025191601141232981 0 0.00022393055334267323 0.025125631685010915 0 0.00018256021301963097 0.025128051011020378 0 0.00013014039989390241 0.025191601141232981 0 0.00018256021301963097 0.025128051011020378 0 0.00017179366739698886 0.02522932086003175 0 0.00013014039989390241 0.025191601141232981 0 0.00017179366739698886 0.02522932086003175 0 0.00013151793874090594 0.025388580814584932 0 -5.202328861422122e-05 0.033549355310516372 0 -4.1780843869128495e-05 0.032900743952400585 0 0.00023970700887012957 0.033522469339144656 0 0.00023991445746756709 0.029616507071762867 0 7.8242486585887089e-05 0.029209780625055588 0 0.00017179366739698886 0.02522932086003175 0 0.00019772207464761196 0.025288763235649415 0 0.00013151793874090594 0.025388580814584932 0 0.00021210696109598201 0.025186333679681511 0 0.00024887687043145926 0.025260011486297137 0 0.00019772207464761196 0.025288763235649415 0 0.00028236354381981404 0.025218013910776316 0 0.00021210696109598201 0.025186333679681511 0 0.00024887687043145926 0.025260011486297137 0 0.00021210696109598201 0.025186333679681511 0 0.00017179366739698886 0.02522932086003175 0 0.00019772207464761196 0.025288763235649415 0 0.00019772207464761196 0.025288763235649415 0 0.0002787589445477711 0.02532904021006558 0 0.00023425473843953609 0.025425586123354518 0 0.00024887687043145926 0.025260011486297137 0 0.00019772207464761196 0.025288763235649415 0 0.0002787589445477711 0.02532904021006558 0 0.00029429716222763471 0.025271906991074251 0 0.00024887687043145926 0.025260011486297137 0 0.0002787589445477711 0.02532904021006558 0 7.8242486585887089e-05 0.029209780625055588 0 0.00042119375435794464 0.03038657093128699 0 0.0002787589445477711 0.02532904021006558 0 0.00023425473843953609 0.025425586123354518 0 0.0003203703176228629 0.025486042967472457 0 0.00023425473843953609 0.025425586123354518 0 0.00013151793874090594 0.025388580814584932 0 0.00023915150796426999 0.025678251905372037 0 0.00023425473843953609 0.025425586123354518 0 0.00023915150796426999 0.025678251905372037 0 0.0003203703176228629 0.025486042967472457 0 0.00019772207464761196 0.025288763235649415 0 0.00023425473843953609 0.025425586123354518 0 0.00013151793874090594 0.025388580814584932 0 -5.202328861422122e-05 0.033549355310516372 0 0.00023970700887012957 0.033522469339144656 0 0.00017526736739103741 0.033802742539076683 0 0.00010285364779372299 0.033965009346361756 0 0.00017526736739103741 0.033802742539076683 0 0.00017165625136749709 0.033913004768032377 0 0.00010285364779372299 0.033965009346361756 0 -5.202328861422122e-05 0.033549355310516372 0 0.00017526736739103741 0.033802742539076683 0 0.00017526736739103741 0.033802742539076683 0 0.00024344746911061617 0.03386986305872771 0 0.00017165625136749709 0.033913004768032377 0 0.00023970700887012957 0.033522469339144656 0 0.00017526736739103741 0.033802742539076683 0 0.00024344746911061617 0.03386986305872771 0 0.00045234293510237466 0.025707171243054234 0 0.0003203703176228629 0.025486042967472457 0 0.00045285421589764193 0.025441732770845174 0 0.00023915150796426999 0.025678251905372037 0 0.00045234293510237466 0.025707171243054234 0 0.0003203703176228629 0.025486042967472457 0 0.00052638896466891531 0.022253420673890276 0 0.00043662386833891463 0.023294730163608293 0 0.00014398512405698881 0.020522173101882629 0 0.00043332123396357445 0.020361106096565166 0 0.00048240045192657311 0.020779220286263674 0 0.00045842170112221978 0.021277149115046752 0 0.00025383817722418118 0.020916248359194346 0 0.00048240045192657311 0.020779220286263674 0 0.00014398512405698881 0.020522173101882629 0 0.00025383817722418118 0.020916248359194346 0 0.00048240045192657311 0.020779220286263674 0 0.00036310074199877058 0.025368517999759529 0 0.0003203703176228629 0.025486042967472457 0 0.00045285421589764193 0.025441732770845174 0 0.0002787589445477711 0.02532904021006558 0 0.00036310074199877058 0.025368517999759529 0 0.0003203703176228629 0.025486042967472457 0 0.00014228304280719078 0.033903206238616916 0 0.00015674064781437682 0.033937012708106715 0 6.2789730960653345e-05 0.033868977017087902 0 0.00014228304280719078 0.033903206238616916 0 0.00017905754536096105 0.033920451844948338 0 0.00015674064781437682 0.033937012708106715 0 -5.5321839402766841e-06 0.027040757581438611 0 -0.00043038159118253481 0.031211461794670672 0 0.00010785455682645455 0.020047298427047958 0 2.2829406692000871e-05 0.019892918551828138 0 0.00019119647157395651 0.019912930809279694 0 -5.5321839402766841e-06 0.027040757581438611 0 -0.00090557828912105325 0.022687568194746193 0 0.00010785455682645455 0.020047298427047958 0 0.00037878289882239334 0.020079920405624452 0 0.00019119647157395651 0.019912930809279694 0 0.00010785455682645455 0.020047298427047958 0 0.00043332123396357445 0.020361106096565166 0 0.00037878289882239334 0.020079920405624452 0 0.00014398512405698881 0.020522173101882629 0 0.00010785455682645455 0.020047298427047958 0 0.00043332123396357445 0.020361106096565166 0 0.00052638896466891531 0.022253420673890276 0 -5.5321839402766841e-06 0.027040757581438611 0 0.00023915150796426999 0.025678251905372037 0 0.00045234293510237466 0.025707171243054234 0 0.00041392615829119852 0.026012058231259187 0 0.00024344746911061617 0.03386986305872771 0 0.00014228304280719078 0.033903206238616916 0 0.00017905754536096105 0.033920451844948338 0 0.00042119375435794464 0.03038657093128699 0 -5.5321839402766841e-06 0.027040757581438611 0 0.00024344746911061617 0.03386986305872771 0 0.00017905754536096105 0.033920451844948338 0 0.00017165625136749709 0.033913004768032377 0 0.00017905754536096105 0.033920451844948338 0 0.00017165625136749709 0.033913004768032377 0 0.00014640671985432249 0.033952001475347729 0 0.00010285364779372299 0.033965009346361756 0 0.00017165625136749709 0.033913004768032377 0 0.00014640671985432249 0.033952001475347729 0 0.00010285364779372299 0.033965009346361756 0 0.00014640671985432249 0.033952001475347729 0 6.9543548875398116e-05 0.033998132268213889 0 0.00014640671985432249 0.033952001475347729 0 0.00013541367769983904 0.033974606901004387 0 6.9543548875398116e-05 0.033998132268213889 0 0.00014640671985432249 0.033952001475347729 0 0.00013541367769983904 0.033974606901004387 0 0.00015674064781437682 0.033937012708106715 0 0.00017905754536096105 0.033920451844948338 0 0.00014640671985432249 0.033952001475347729 0 0.00015674064781437682 0.033937012708106715 0 0.00015674064781437682 0.033937012708106715 0 0.00018428981858202017 0.03394765061053584 0 6.2789730960653345e-05 0.033868977017087902 0 0.00013541367769983904 0.033974606901004387 0 0.00015674064781437682 0.033937012708106715 0 0.00018428981858202017 0.03394765061053584 0 0.00018428981858202017 0.03394765061053584 0 0.00011970817870608711 0.033779196604563508 0 6.2789730960653345e-05 0.033868977017087902 0 0.00013541367769983904 0.033974606901004387 0 0.00010470949403815235 0.034020678752323515 0 5.9586772325114671e-05 0.034029746410751294 0 0.00013541367769983904 0.033974606901004387 0 0.00018428981858202017 0.03394765061053584 0 0.00010470949403815235 0.034020678752323515 0 0.00018428981858202017 0.03394765061053584 0 0.00010470949403815235 0.034020678752323515 0 0.00010617001728616311 0.034068516360803568 0 0.00010470949403815235 0.034020678752323515 0 0.00010617001728616311 0.034068516360803568 0 4.1807157080562833e-05 0.03409597012162336 0 9.7815325314839572e-06 0.032072848348387521 0 0.00011505287516901604 0.034394317773943583 0 -0.0012894578551980623 0.029303859773672187 0 -0.00037373161011267672 0.034858267885016177 0 -0.00011546355908891538 0.033998798657637712 0 -0.00010924128773425722 0.033946865594575812 0 8.6631358051666727e-06 0.03413022718272167 0 -0.00010924128773425722 0.033946865594575812 0 8.6631358051666727e-06 0.03413022718272167 0 3.7313384505375591e-05 0.034167555973216551 0 0.00018428981858202017 0.03394765061053584 0 0.00010617001728616311 0.034068516360803568 0 0.00018422627360453698 0.034154898182394949 0 0.00010617001728616311 0.034068516360803568 0 0.00018422627360453698 0.034154898182394949 0 8.6631358051666727e-06 0.03413022718272167 0 0.00011970817870608711 0.033779196604563508 0 0.00025484781165889227 0.033657091522795946 0 4.4014035261284096e-06 0.033603227538122511 0 0.00017518154903741403 0.034619611532843542 0 9.7815325314839572e-06 0.032072848348387521 0 0.00018428981858202017 0.03394765061053584 0 0.00011970817870608711 0.033779196604563508 0 0.00025484781165889227 0.033657091522795946 0 0.00011970817870608711 0.033779196604563508 0 6.2789730960653345e-05 0.033868977017087902 0 4.4014035261284096e-06 0.033603227538122511 0 -0.00094429344826045905 0.026256186010797204 0 -0.001338610433032483 0.025661232951629524 0 -0.00083795348286173693 0.025192198008756359 0 -0.001338610433032483 0.025661232951629524 0 -0.0016779716258088786 0.025023107365562673 0 -0.00083795348286173693 0.025192198008756359 0 -0.00043038159118253481 0.031211461794670672 0 -0.0018344124367130757 0.027084990871820012 0 -0.00094429344826045905 0.026256186010797204 0 -0.0015459621985224534 0.026496803617685152 0 -0.001338610433032483 0.025661232951629524 0 -0.0010430134316262015 0.027308089576463433 0 -0.00094429344826045905 0.026256186010797204 0 -0.0015459621985224534 0.026496803617685152 0 -0.000945831806846278 0.022723780989066661 0 -0.00090557828912105325 0.022687568194746193 0 -0.0020384723781426543 0.025678017137680659 0 -0.0015459621985224534 0.026496803617685152 0 -0.001338610433032483 0.025661232951629524 0 -0.0020384723781426543 0.025678017137680659 0 -0.001338610433032483 0.025661232951629524 0 -0.0016779716258088786 0.025023107365562673 0 -0.0019928344190870465 0.024044955992129493 0 -0.0020540187287067867 0.023966341177377851 0 -0.0021657154353719949 0.023997235008865983 0 -0.0019580721928392367 0.024469302080193777 0 -0.0018344124367130757 0.027084990871820012 0 -0.0020540187287067867 0.023966341177377851 0 -0.0022792106543771556 0.023956301225268539 0 -0.0021657154353719949 0.023997235008865983 0 -0.00226833300960788 0.023994634783669696 0 -0.0023111461573674663 0.024033008253311436 0 -0.0021652807326650514 0.024053015831984218 0 -0.00226833300960788 0.023994634783669696 0 -0.0023105174034461313 0.023940790134996955 0 -0.0021652807326650514 0.024053015831984218 0 -0.00226833300960788 0.023994634783669696 0 -0.0022884027764879344 0.02398110707894336 0 -0.0023105174034461313 0.023940790134996955 0 -0.0018344124367130757 0.027084990871820012 0 -0.001813174048268882 0.026531290729625179 0 -0.00226833300960788 0.023994634783669696 0 -0.0023111461573674663 0.024033008253311436 0 -0.0022884027764879344 0.02398110707894336 0 -0.0022792106543771556 0.023956301225268539 0 -0.0022884027764879344 0.02398110707894336 0 -0.0021657154353719949 0.023997235008865983 0 -0.0021657154353719949 0.023997235008865983 0 -0.0023105174034461313 0.023940790134996955 0 -0.0022481132734319107 0.024041988656673449 0 -0.0022884027764879344 0.02398110707894336 0 -0.0021657154353719949 0.023997235008865983 0 -0.0023105174034461313 0.023940790134996955 0 -0.0023105174034461313 0.023940790134996955 0 -0.0022481132734319107 0.024041988656673449 0 -0.0024273913842683269 0.024050064384327684 0 -0.0021657154353719949 0.023997235008865983 0 -0.0022481132734319107 0.024041988656673449 0 -0.0020666167883956017 0.024070167608499886 0 -0.0022481132734319107 0.024041988656673449 0 -0.0023055606487653135 0.024181645845178006 0 -0.0020666167883956017 0.024070167608499886 0 -0.0022481132734319107 0.024041988656673449 0 -0.0023055606487653135 0.024181645845178006 0 -0.0024273913842683269 0.024050064384327684 0 -0.0019928344190870465 0.024044955992129493 0 -0.0021657154353719949 0.023997235008865983 0 -0.0020666167883956017 0.024070167608499886 0 -0.0019928344190870465 0.024044955992129493 0 -0.0018793810647288597 0.023909970328095234 0 -0.0020666167883956017 0.024070167608499886 0 -0.0018793810647288597 0.023909970328095234 0 -0.0020666167883956017 0.024070167608499886 0 -0.0020662035895884887 0.024296942679714471 0 -0.0023055606487653135 0.024181645845178006 0 -0.0020662035895884887 0.024296942679714471 0 -0.00259325213900708 0.024593352908654938 0 -0.0023055606487653135 0.024181645845178006 0 -0.0020666167883956017 0.024070167608499886 0 -0.0020662035895884887 0.024296942679714471 0 -0.00259325213900708 0.024593352908654938 0 -0.0026975504287507666 0.025338937856447225 0 -0.0019477064345039205 0.025125813357646049 0 -0.0020662035895884887 0.024296942679714471 0 -0.00259325213900708 0.024593352908654938 0 -0.0019477064345039205 0.025125813357646049 0 -0.001126644813131208 0.024799427881189058 0 -0.0020662035895884887 0.024296942679714471 0 -0.0019477064345039205 0.025125813357646049 0 -0.0011475517548865696 0.021477920020389712 0 -0.0019081641045151315 0.025166654456256692 0 -0.0020205979742141532 0.031830376100275733 0 -0.00156575648798577 0.032397127950181452 0 -0.0016140548645102453 0.03165688670064621 0 -0.0031792455758856467 0.025055674567150604 0 -0.00259325213900708 0.024593352908654938 0 -0.0026975504287507666 0.025338937856447225 0 -0.00259325213900708 0.024593352908654938 0 -0.0028474599672029138 0.024275973681645108 0 -0.0025683631010969196 0.024207454267082436 0 -0.0031792455758856467 0.025055674567150604 0 -0.00259325213900708 0.024593352908654938 0 -0.0028474599672029138 0.024275973681645108 0 -0.0023055606487653135 0.024181645845178006 0 -0.00259325213900708 0.024593352908654938 0 -0.0025683631010969196 0.024207454267082436 0 -0.0020497227954805286 0.032831054595486221 0 -0.0016379276480219299 0.033484508857098867 0 -0.00156575648798577 0.032397127950181452 0 -0.0025770461496257796 0.028484822021860836 0 -0.0025840263541472798 0.028470163918181426 0 -0.0020205979742141532 0.031830376100275733 0 -0.0020497227954805286 0.032831054595486221 0 -0.00156575648798577 0.032397127950181452 0 -0.0016374884814987613 0.033467665309956589 0 -0.0015128530419404257 0.032883360210687176 0 -0.0020497227954805286 0.032831054595486221 0 -0.0016379276480219299 0.033484508857098867 0 -0.00196832643702884 0.033942465880980911 0 -0.0025840263541472798 0.028470163918181426 0 -0.0012894578551980623 0.029303859773672187 0 -0.0028474599672029138 0.024275973681645108 0 -0.0026029300284062546 0.024057591206325672 0 -0.0026672968898365391 0.023807578842767206 0 -0.0023055606487653135 0.024181645845178006 0 -0.0025683631010969196 0.024207454267082436 0 -0.0024273913842683269 0.024050064384327684 0 -0.0028474599672029138 0.024275973681645108 0 -0.0025683631010969196 0.024207454267082436 0 -0.0026029300284062546 0.024057591206325672 0 -0.0025683631010969196 0.024207454267082436 0 -0.0026029300284062546 0.024057591206325672 0 -0.0024273913842683269 0.024050064384327684 0 -0.0026029300284062546 0.024057591206325672 0 -0.0024273913842683269 0.024050064384327684 0 -0.0025004008236274456 0.023965737442548363 0 -0.0019834758415936088 0.024216055372860708 0 -0.0023111461573674663 0.024033008253311436 0 -0.0021652807326650514 0.024053015831984218 0 -0.0031949302644199485 0.023315670671729752 0 -0.0012894578551980623 0.029303859773672187 0 9.7815325314839572e-06 0.032072848348387521 0 -0.0018344124367130757 0.027084990871820012 0 -0.0023105174034461313 0.023940790134996955 0 -0.0019646059909816083 0.024084768197087603 0 -0.0021652807326650514 0.024053015831984218 0 -0.0023105174034461313 0.023940790134996955 0 -0.0025004008236274456 0.023965737442548363 0 -0.0026672968898365391 0.023807578842767206 0 -0.0023105174034461313 0.023940790134996955 0 -0.0024273913842683269 0.024050064384327684 0 -0.0025004008236274456 0.023965737442548363 0 -0.0026029300284062546 0.024057591206325672 0 -0.0025004008236274456 0.023965737442548363 0 -0.0026672968898365391 0.023807578842767206 0 -0.0019834758415936088 0.024216055372860708 0 -0.0019646059909816083 0.024084768197087603 0 -0.0021652807326650514 0.024053015831984218 0 9.7815325314839572e-06 0.032072848348387521 0 -0.0012894578551980623 0.029303859773672187 0 -0.00196832643702884 0.033942465880980911 0 -0.0014575163101973577 0.033812183116038411 0 -0.0011891028092111504 0.034146406798771442 0 -0.0016379276480219299 0.033484508857098867 0 -0.00196832643702884 0.033942465880980911 0 -0.0014575163101973577 0.033812183116038411 0 -0.0016379276480219299 0.033484508857098867 0 -0.0014575163101973577 0.033812183116038411 0 -0.0013847942129956048 0.033638835206745904 0 -0.0014575163101973577 0.033812183116038411 0 -0.0011662026706340887 0.033770202113150863 0 -0.0011891028092111504 0.034146406798771442 0 -0.0014575163101973577 0.033812183116038411 0 -0.0011662026706340887 0.033770202113150863 0 -0.0013847942129956048 0.033638835206745904 0 -0.0011662026706340887 0.033770202113150863 0 -0.00070418883054250371 0.033950107498557452 0 -0.0009388233678784601 0.033648720518233713 0 -0.0011662026706340887 0.033770202113150863 0 -0.00070418883054250371 0.033950107498557452 0 -0.0011891028092111504 0.034146406798771442 0 -0.0011662026706340887 0.033770202113150863 0 -0.0009388233678784601 0.033648720518233713 0 -0.0013027398499995944 0.033508156018653382 0 -0.0009388233678784601 0.033648720518233713 0 -0.0013027398499995944 0.033508156018653382 0 -0.0011544788270391659 0.03344152737039055 0 -0.0016379276480219299 0.033484508857098867 0 -0.0013027398499995944 0.033508156018653382 0 -0.0014202560374397385 0.033326219538256582 0 -0.0016379276480219299 0.033484508857098867 0 -0.0013847942129956048 0.033638835206745904 0 -0.0013027398499995944 0.033508156018653382 0 -0.0011662026706340887 0.033770202113150863 0 -0.0013847942129956048 0.033638835206745904 0 -0.0013027398499995944 0.033508156018653382 0 -0.0013027398499995944 0.033508156018653382 0 -0.0014202560374397385 0.033326219538256582 0 -0.0011544788270391659 0.03344152737039055 0 -0.0014202560374397385 0.033326219538256582 0 -0.0011544788270391659 0.03344152737039055 0 -0.0011749076109393763 0.033271489484510322 0 -0.0014202560374397385 0.033326219538256582 0 -0.0011749076109393763 0.033271489484510322 0 -0.0014816513206357431 0.033092382689419761 0 -0.0015128530419404257 0.032883360210687176 0 -0.0015496266426769693 0.0323742323522535 0 -0.00084922607300097388 0.033326749808666928 0 -0.00075203857880217981 0.033573490591268712 0 -0.00056935999525564848 0.033529625630995201 0 -0.0011749076109393763 0.033271489484510322 0 -0.00084922607300097388 0.033326749808666928 0 -0.00075203857880217981 0.033573490591268712 0 -0.0011749076109393763 0.033271489484510322 0 -0.00084922607300097388 0.033326749808666928 0 -0.0011167472687509767 0.033094210184896396 0 -0.0011544788270391659 0.03344152737039055 0 -0.0011749076109393763 0.033271489484510322 0 -0.00075203857880217981 0.033573490591268712 0 -0.00071162650169834165 0.033601389865155665 0 -0.00038672659129670761 0.033860641781475805 0 -0.00075203857880217981 0.033573490591268712 0 -0.00057034251817503429 0.033804608999630649 0 -0.00016952382015186429 0.033800399241655565 0 -0.0009388233678784601 0.033648720518233713 0 -0.00075203857880217981 0.033573490591268712 0 -0.00057034251817503429 0.033804608999630649 0 -0.0009388233678784601 0.033648720518233713 0 -0.0011544788270391659 0.03344152737039055 0 -0.00075203857880217981 0.033573490591268712 0 -0.00070418883054250371 0.033950107498557452 0 -0.00057034251817503429 0.033804608999630649 0 -0.00026286034518701608 0.034062886488049955 0 -0.00070418883054250371 0.033950107498557452 0 -0.0009388233678784601 0.033648720518233713 0 -0.00057034251817503429 0.033804608999630649 0 -0.00057034251817503429 0.033804608999630649 0 -0.00026286034518701608 0.034062886488049955 0 -0.00016952382015186429 0.033800399241655565 0 -0.00026286034518701608 0.034062886488049955 0 -0.00034109731074962216 0.034179281034903607 0 -0.00011309074202401767 0.034184316237593985 0 -0.00034109731074962216 0.034179281034903607 0 -0.00011309074202401767 0.034184316237593985 0 -5.3861828489599697e-05 0.034122358623668858 0 -0.00034109731074962216 0.034179281034903607 0 -7.584757951710113e-05 0.034078578855799312 0 -5.3861828489599697e-05 0.034122358623668858 0 -0.00070418883054250371 0.033950107498557452 0 -0.00026286034518701608 0.034062886488049955 0 -0.00034109731074962216 0.034179281034903607 0 -0.00070418883054250371 0.033950107498557452 0 -0.00034109731074962216 0.034179281034903607 0 -0.0011891028092111504 0.034146406798771442 0 -0.00050332315751748828 0.033959441254123202 0 -0.00037373161011267672 0.034858267885016177 0 3.7313384505375591e-05 0.034167555973216551 0 4.1807157080562833e-05 0.03409597012162336 0 -7.584757951710113e-05 0.034078578855799312 0 8.6631358051666727e-06 0.03413022718272167 0 3.7313384505375591e-05 0.034167555973216551 0 4.1807157080562833e-05 0.03409597012162336 0 0.00010617001728616311 0.034068516360803568 0 8.6631358051666727e-06 0.03413022718272167 0 4.1807157080562833e-05 0.03409597012162336 0 4.1807157080562833e-05 0.03409597012162336 0 5.9586772325114671e-05 0.034029746410751294 0 -7.584757951710113e-05 0.034078578855799312 0 0.00010470949403815235 0.034020678752323515 0 4.1807157080562833e-05 0.03409597012162336 0 5.9586772325114671e-05 0.034029746410751294 0 -0.00034109731074962216 0.034179281034903607 0 3.7313384505375591e-05 0.034167555973216551 0 -7.584757951710113e-05 0.034078578855799312 0 -7.584757951710113e-05 0.034078578855799312 0 2.7136726879978749e-05 0.034059583079066286 0 -5.3861828489599697e-05 0.034122358623668858 0 -7.584757951710113e-05 0.034078578855799312 0 2.7136726879978749e-05 0.034059583079066286 0 6.9543548875398116e-05 0.033998132268213889 0 0.00013541367769983904 0.033974606901004387 0 5.9586772325114671e-05 0.034029746410751294 0 6.9543548875398116e-05 0.033998132268213889 0 5.9586772325114671e-05 0.034029746410751294 0 -7.584757951710113e-05 0.034078578855799312 0 6.9543548875398116e-05 0.033998132268213889 0 0.00010285364779372299 0.033965009346361756 0 6.9543548875398116e-05 0.033998132268213889 0 0.00012255722144497889 0.034054020010294013 0 2.7136726879978749e-05 0.034059583079066286 0 0.00012255722144497889 0.034054020010294013 0 -5.3861828489599697e-05 0.034122358623668858 0 2.7136726879978749e-05 0.034059583079066286 0 6.9543548875398116e-05 0.033998132268213889 0 0.00012255722144497889 0.034054020010294013 0 0.00012255722144497889 0.034054020010294013 0 7.5114419706064634e-05 0.034190274970862786 0 -5.3861828489599697e-05 0.034122358623668858 0 7.5114419706064634e-05 0.034190274970862786 0 -0.00011309074202401767 0.034184316237593985 0 8.2019339694546069e-07 0.034244067761570018 0 7.5114419706064634e-05 0.034190274970862786 0 -0.00011309074202401767 0.034184316237593985 0 -5.3861828489599697e-05 0.034122358623668858 0 3.9406253496565144e-05 0.034222218247116479 0 8.2019339694546069e-07 0.034244067761570018 0 5.474429205414291e-05 0.03430300762878561 0 3.9406253496565144e-05 0.034222218247116479 0 5.474429205414291e-05 0.03430300762878561 0 0.00012113905954923956 0.034246985184396665 0 3.9406253496565144e-05 0.034222218247116479 0 0.00012113905954923956 0.034246985184396665 0 6.47667868143423e-05 0.034175287459334659 0 -0.00011309074202401767 0.034184316237593985 0 8.2019339694546069e-07 0.034244067761570018 0 -3.7451203307334019e-05 0.03414246613839568 0 3.9406253496565144e-05 0.034222218247116479 0 8.2019339694546069e-07 0.034244067761570018 0 -3.7451203307334019e-05 0.03414246613839568 0 6.6216788657962373e-05 0.034282831240804411 0 7.5114419706064634e-05 0.034190274970862786 0 8.2019339694546069e-07 0.034244067761570018 0 6.6216788657962373e-05 0.034282831240804411 0 8.2019339694546069e-07 0.034244067761570018 0 5.474429205414291e-05 0.03430300762878561 0 8.7264809636527103e-05 0.034441923987587365 0 6.6216788657962373e-05 0.034282831240804411 0 5.474429205414291e-05 0.03430300762878561 0 8.8207357947384302e-05 0.034452584758307779 0 0.00011847244227448881 0.034491847218573422 0 8.7264809636527103e-05 0.034441923987587365 0 5.474429205414291e-05 0.03430300762878561 0 0.00012113905954923956 0.034246985184396665 0 8.7264809636527103e-05 0.034441923987587365 0 -3.5523377328862612e-05 0.034694493159802692 0 8.8396228969908272e-05 0.034765758795594126 0 -0.00013557373505025539 0.034679673270586089 0 -3.5523377328862612e-05 0.034694493159802692 0 -0.00010260444396175112 0.034769992381437367 0 -3.5523377328862612e-05 0.034694493159802692 0 -7.4654838894067522e-06 0.034825774762529238 0 -0.00010260444396175112 0.034769992381437367 0 -7.4654838894067522e-06 0.034825774762529238 0 -2.2606335750918113e-05 0.034854322643171398 0 -0.00010260444396175112 0.034769992381437367 0 -8.6764326550304278e-05 0.034812775992724303 0 -0.0001170691446800369 0.034822529396482491 0 -0.0001170691446800369 0.034822529396482491 0 -9.0005235057082918e-05 0.034780119641285245 0 -0.00010515737346815012 0.034764369732592004 0 -9.7036007063533065e-05 0.034764445035335469 0 -0.00010260444396175112 0.034769992381437367 0 -7.4654838894067522e-06 0.034825774762529238 0 8.8396228969908272e-05 0.034765758795594126 0 6.1412240581620856e-05 0.034942998280727777 0 -3.5523377328862612e-05 0.034694493159802692 0 -7.4654838894067522e-06 0.034825774762529238 0 8.8396228969908272e-05 0.034765758795594126 0 -7.4654838894067522e-06 0.034825774762529238 0 6.1412240581620856e-05 0.034942998280727777 0 -2.4934703948533138e-05 0.034858453240928663 0 0.00012113905954923956 0.034246985184396665 0 0.00011962068156785621 0.034121638453529404 0 6.47667868143423e-05 0.034175287459334659 0 0.00011847244227448881 0.034491847218573422 0 -6.8635090379549936e-05 0.034580586790560586 0 -6.8635090379549936e-05 0.034580586790560586 0 -0.0001170691446800369 0.034822529396482491 0 -0.00027650086031297862 0.034790350998569482 0 -0.00027729052257362361 0.034789613731715401 0 -0.00027765467688913617 0.034791612821520088 0 -0.0001170691446800369 0.034822529396482491 0 -0.00019599557701321848 0.03475692340397616 0 -0.00010515737346815012 0.034764369732592004 0 -9.5680443956370952e-05 0.034759638361205325 0 -9.7036007063533065e-05 0.034764445035335469 0 -0.00027729052257362361 0.034789613731715401 0 -0.00027765467688913617 0.034791612821520088 0 -0.00027674285357737037 0.034794537809873217 0 -0.00010515737346815012 0.034764369732592004 0 -9.5615393920980659e-05 0.034751424481209277 0 -9.5680443956370952e-05 0.034759638361205325 0 -0.00027765467688913617 0.034791612821520088 0 -0.00027880606769282388 0.034791553288071882 0 -0.00027674285357737037 0.034794537809873217 0 -0.00027880606769282388 0.034791553288071882 0 -0.00028148031190790773 0.034791758353260198 0 -0.00027674285357737037 0.034794537809873217 0 -0.00014759215976337635 0.034416079875490446 0 -0.00019697802212099188 0.034366735183994912 0 -0.00014099520556497508 0.034312167138399095 0 -0.00027650086031297862 0.034790350998569482 0 -0.00027880606769282388 0.034791553288071882 0 -0.00028002729676068132 0.034790080197994573 0 -6.8635090379549936e-05 0.034580586790560586 0 -0.00026890343438165621 0.034348113535516325 0 -6.8635090379549936e-05 0.034580586790560586 0 -0.00013189494459364703 0.034138172701586124 0 -0.00027650086031297862 0.034790350998569482 0 -0.00027765467688913617 0.034791612821520088 0 -0.00027880606769282388 0.034791553288071882 0 -0.00013189494459364703 0.034138172701586124 0 -0.00026890343438165621 0.034348113535516325 0 9.1130064384743227e-05 0.034035712225965263 0 -3.7451203307334019e-05 0.03414246613839568 0 -9.5280253121899033e-05 0.034018170470416692 0 -0.00013189494459364703 0.034138172701586124 0 3.5109051594198571e-05 0.034083995422729947 0 0.00011962068156785621 0.034121638453529404 0 5.7708019067123989e-05 0.03405257237944654 0 5.3498170104575284e-05 0.034123519912396365 0 3.9406253496565144e-05 0.034222218247116479 0 6.47667868143423e-05 0.034175287459334659 0 -3.7451203307334019e-05 0.03414246613839568 0 0.00011962068156785621 0.034121638453529404 0 5.3498170104575284e-05 0.034123519912396365 0 6.47667868143423e-05 0.034175287459334659 0 5.3498170104575284e-05 0.034123519912396365 0 6.47667868143423e-05 0.034175287459334659 0 -3.7451203307334019e-05 0.03414246613839568 0 5.7708019067123989e-05 0.03405257237944654 0 5.3498170104575284e-05 0.034123519912396365 0 -3.7451203307334019e-05 0.03414246613839568 0 -0.00026286034518701608 0.034062886488049955 0 -0.00011309074202401767 0.034184316237593985 0 -3.7451203307334019e-05 0.03414246613839568 0 -0.00026286034518701608 0.034062886488049955 0 -3.7451203307334019e-05 0.03414246613839568 0 -9.5280253121899033e-05 0.034018170470416692 0 -0.00026286034518701608 0.034062886488049955 0 -9.5280253121899033e-05 0.034018170470416692 0 -0.00016952382015186429 0.033800399241655565 0 9.1130064384743227e-05 0.034035712225965263 0 -9.5280253121899033e-05 0.034018170470416692 0 -0.00016952382015186429 0.033800399241655565 0 -0.00058679064342277189 0.033933158134571935 0 -0.00040380500829207718 0.034000609219116948 0 -0.00038543447282151055 0.033899110352571184 0 -0.00038249079213311499 0.034146349419742289 0 -0.00058679064342277189 0.033933158134571935 0 -0.00040380500829207718 0.034000609219116948 0 -0.00013189494459364703 0.034138172701586124 0 -0.00038672659129670761 0.033860641781475805 0 -0.00038249079213311499 0.034146349419742289 0 -0.00040380500829207718 0.034000609219116948 0 -0.00027657505154373346 0.034027286248163875 0 -0.00040380500829207718 0.034000609219116948 0 -0.00038543447282151055 0.033899110352571184 0 -0.00027657505154373346 0.034027286248163875 0 -0.00058679064342277189 0.033933158134571935 0 -0.00038543447282151055 0.033899110352571184 0 -0.00053147993083729251 0.033742857688155402 0 -0.00038543447282151055 0.033899110352571184 0 -0.00053147993083729251 0.033742857688155402 0 -0.00038055357596894783 0.033751196497306998 0 -0.00075203857880217981 0.033573490591268712 0 -0.00058679064342277189 0.033933158134571935 0 -0.00053147993083729251 0.033742857688155402 0 -0.00075203857880217981 0.033573490591268712 0 -0.00053147993083729251 0.033742857688155402 0 -0.00056935999525564848 0.033529625630995201 0 -0.00053147993083729251 0.033742857688155402 0 -0.00038055357596894783 0.033751196497306998 0 -0.00056935999525564848 0.033529625630995201 0 -0.00038055357596894783 0.033751196497306998 0 -0.00056935999525564848 0.033529625630995201 0 -0.00034278236989308765 0.033623324659815594 0 -0.00056935999525564848 0.033529625630995201 0 -0.00067108369910565764 0.033238954461265846 0 -0.00045410363277787098 0.033411448515231569 0 -0.00056935999525564848 0.033529625630995201 0 -0.00034278236989308765 0.033623324659815594 0 -0.00045410363277787098 0.033411448515231569 0 -0.00084922607300097388 0.033326749808666928 0 -0.00056935999525564848 0.033529625630995201 0 -0.00067108369910565764 0.033238954461265846 0 -0.00014936413486831712 0.033766253390977163 0 -9.3908282836425283e-05 0.033884673346676344 0 -4.7586472879416073e-05 0.033939566045711411 0 -0.00014936413486831712 0.033766253390977163 0 -9.3908282836425283e-05 0.033884673346676344 0 -0.00013301221400096211 0.033880409146866748 0 -0.00014936413486831712 0.033766253390977163 0 -4.7586472879416073e-05 0.033939566045711411 0 -4.6919661943530157e-05 0.033758822144647781 0 -0.00014936413486831712 0.033766253390977163 0 -0.00034278236989308765 0.033623324659815594 0 -0.00024170355313688697 0.033787113890944062 0 -0.00014936413486831712 0.033766253390977163 0 -0.00034278236989308765 0.033623324659815594 0 -0.00028787742702817825 0.03347812697612635 0 -0.00034278236989308765 0.033623324659815594 0 -0.00028787742702817825 0.03347812697612635 0 -0.00045410363277787098 0.033411448515231569 0 -0.00038055357596894783 0.033751196497306998 0 -0.00034278236989308765 0.033623324659815594 0 -0.00024170355313688697 0.033787113890944062 0 -0.00038055357596894783 0.033751196497306998 0 -0.00024170355313688697 0.033787113890944062 0 -0.00024897724076455261 0.033881765809961911 0 -0.00024170355313688697 0.033787113890944062 0 -0.00013301221400096211 0.033880409146866748 0 -0.00024897724076455261 0.033881765809961911 0 -0.00013301221400096211 0.033880409146866748 0 -0.0001075715739296349 0.03393190251394524 0 -0.00024897724076455261 0.033881765809961911 0 -0.00014936413486831712 0.033766253390977163 0 -0.00024170355313688697 0.033787113890944062 0 -0.00013301221400096211 0.033880409146866748 0 -9.3908282836425283e-05 0.033884673346676344 0 -0.00013301221400096211 0.033880409146866748 0 -5.7943786900929824e-05 0.033961263727811497 0 -0.00013301221400096211 0.033880409146866748 0 -0.0001075715739296349 0.03393190251394524 0 -5.7943786900929824e-05 0.033961263727811497 0 -0.0001075715739296349 0.03393190251394524 0 -0.00012277612702372257 0.033993771254797439 0 -5.6971175304533199e-05 0.033949574112272209 0 -0.0001075715739296349 0.03393190251394524 0 -0.00012277612702372257 0.033993771254797439 0 -0.00024897724076455261 0.033881765809961911 0 -0.00038543447282151055 0.033899110352571184 0 -0.00024897724076455261 0.033881765809961911 0 -0.00027657505154373346 0.034027286248163875 0 -0.00038543447282151055 0.033899110352571184 0 -0.00038055357596894783 0.033751196497306998 0 -0.00024897724076455261 0.033881765809961911 0 -0.00024955454975119577 0.033784997107302699 0 -0.00026890343438165621 0.034348113535516325 0 -0.00012277612702372257 0.033993771254797439 0 -0.00024897724076455261 0.033881765809961911 0 -0.00027671335518296647 0.034145692087893031 0 -0.00028565572637373249 0.034786340946802004 0 -0.00028148031190790773 0.034791758353260198 0 -0.000256603994739098 0.034788989344908233 0 -0.00021773938571057754 0.034407312963465685 0 -0.00026890343438165621 0.034348113535516325 0 -0.00028565572637373249 0.034786340946802004 0 -0.00028002729676068132 0.034790080197994573 0 -0.00028148031190790773 0.034791758353260198 0 -0.00027880606769282388 0.034791553288071882 0 -0.00028002729676068132 0.034790080197994573 0 -0.00028148031190790773 0.034791758353260198 0 -0.00028148031190790773 0.034791758353260198 0 -0.000256603994739098 0.034788989344908233 0 -0.00027674285357737037 0.034794537809873217 0 -0.00015609513733406949 0.034816575782908685 0 -0.00019599557701321848 0.03475692340397616 0 -9.0700070486638982e-05 0.034744378329577275 0 -8.8058192295956573e-05 0.034751143141490588 0 -9.5615393920980659e-05 0.034751424481209277 0 -1.8161448557120247e-05 0.034933606671679822 0 -0.00010755778709353484 0.034885461346462684 0 -3.0650027446586053e-05 0.034973657853563302 0 -1.8161448557120247e-05 0.034933606671679822 0 1.0166227487106894e-05 0.034957783261948164 0 -3.0650027446586053e-05 0.034973657853563302 0 -0.00015609513733406949 0.034816575782908685 0 -5.577678708271031e-05 0.034859015823007385 0 -0.00015609513733406949 0.034816575782908685 0 -3.6753513306925867e-05 0.034666196775744056 0 4.3578422357268983e-06 0.034817511795152398 0 -0.00010755778709353484 0.034885461346462684 0 -1.507824970466269e-05 0.034622443527698762 0 -0.00024045436625152059 0.034921929238756692 0 -0.00025150136217079471 0.034782715441858729 0 -1.507824970466269e-05 0.034622443527698762 0 -1.8572436594254321e-05 0.034884180222469585 0 4.3578422357268983e-06 0.034817511795152398 0 4.5817056302817984e-05 0.034896265614559011 0 -1.8161448557120247e-05 0.034933606671679822 0 -1.8572436594254321e-05 0.034884180222469585 0 4.5817056302817984e-05 0.034896265614559011 0 -1.8572436594254321e-05 0.034884180222469585 0 4.3578422357268983e-06 0.034817511795152398 0 -0.00010755778709353484 0.034885461346462684 0 -1.8161448557120247e-05 0.034933606671679822 0 -1.8572436594254321e-05 0.034884180222469585 0 -0.00010755778709353484 0.034885461346462684 0 -0.00028565572637373249 0.034786340946802004 0 -0.000256603994739098 0.034788989344908233 0 -0.00025150136217079471 0.034782715441858729 0 -0.00028565572637373249 0.034786340946802004 0 -0.00025150136217079471 0.034782715441858729 0 -0.00029773653469511777 0.034746033764662267 0 -0.00015609513733406949 0.034816575782908685 0 -0.00020410421705406077 0.03480092175205661 0 -0.00021773938571057754 0.034407312963465685 0 -0.00015015140302216946 0.034342573684068546 0 -0.0001075715739296349 0.03393190251394524 0 -5.7943786900929824e-05 0.033961263727811497 0 -5.6971175304533199e-05 0.033949574112272209 0 -5.7943786900929824e-05 0.033961263727811497 0 -3.1145307854243299e-05 0.034078384710644519 0 -5.6971175304533199e-05 0.033949574112272209 0 -3.1145307854243299e-05 0.034078384710644519 0 -5.6971175304533199e-05 0.033949574112272209 0 -1.7893942389202613e-05 0.034328806564148794 0 -0.00025150136217079471 0.034782715441858729 0 -0.00029773653469511777 0.034746033764662267 0 -0.00014442182924122036 0.034639515152157338 0 -0.00025150136217079471 0.034782715441858729 0 -0.00014442182924122036 0.034639515152157338 0 -1.507824970466269e-05 0.034622443527698762 0 4.3578422357268983e-06 0.034817511795152398 0 -1.507824970466269e-05 0.034622443527698762 0 8.2603071647455243e-05 0.034765351961409174 0 -1.507824970466269e-05 0.034622443527698762 0 8.2700982284375629e-05 0.034565091558273767 0 8.2603071647455243e-05 0.034765351961409174 0 -1.507824970466269e-05 0.034622443527698762 0 -1.7893942389202613e-05 0.034328806564148794 0 8.2700982284375629e-05 0.034565091558273767 0 -0.00015015140302216946 0.034342573684068546 0 -2.5768245886640901e-05 0.034299865331783627 0 -0.00029773653469511777 0.034746033764662267 0 -0.00014442182924122036 0.034639515152157338 0 -1.7893942389202613e-05 0.034328806564148794 0 -0.00014442182924122036 0.034639515152157338 0 -1.507824970466269e-05 0.034622443527698762 0 -1.7893942389202613e-05 0.034328806564148794 0 -3.1145307854243299e-05 0.034078384710644519 0 -1.7893942389202613e-05 0.034328806564148794 0 1.2830593087623271e-06 0.034099841646879507 0 -1.7893942389202613e-05 0.034328806564148794 0 0.00011112029844589637 0.034435217272536491 0 8.2700982284375629e-05 0.034565091558273767 0 -1.7893942389202613e-05 0.034328806564148794 0 9.4339389477758576e-05 0.034219905734480242 0 0.00011112029844589637 0.034435217272536491 0 9.4339389477758576e-05 0.034219905734480242 0 1.2830593087623271e-06 0.034099841646879507 0 6.0935757273368313e-05 0.033915011815582298 0 -1.7893942389202613e-05 0.034328806564148794 0 9.4339389477758576e-05 0.034219905734480242 0 1.2830593087623271e-06 0.034099841646879507 0 -1.0746713216453454e-05 0.033933294008301543 0 1.2830593087623271e-06 0.034099841646879507 0 -4.7586472879416073e-05 0.033939566045711411 0 -1.0746713216453454e-05 0.033933294008301543 0 1.2830593087623271e-06 0.034099841646879507 0 6.0935757273368313e-05 0.033915011815582298 0 -1.0746713216453454e-05 0.033933294008301543 0 -4.7586472879416073e-05 0.033939566045711411 0 -4.6919661943530157e-05 0.033758822144647781 0 -9.3908282836425283e-05 0.033884673346676344 0 -5.7943786900929824e-05 0.033961263727811497 0 -4.7586472879416073e-05 0.033939566045711411 0 -5.7943786900929824e-05 0.033961263727811497 0 -3.1145307854243299e-05 0.034078384710644519 0 -4.7586472879416073e-05 0.033939566045711411 0 -3.1145307854243299e-05 0.034078384710644519 0 1.2830593087623271e-06 0.034099841646879507 0 -4.7586472879416073e-05 0.033939566045711411 0 0.00013468478850767293 0.034657615604675597 0 0.00020671942288661118 0.034435366991713109 0 2.222716665239699e-06 0.034997696926067801 0 0.00013468478850767293 0.034657615604675597 0 -3.7441441295570938e-07 0.035000045993554552 0 2.222716665239699e-06 0.034997696926067801 0 9.4339389477758576e-05 0.034219905734480242 0 0.00011112029844589637 0.034435217272536491 0 0.00020671942288661118 0.034435366991713109 0 0.00011112029844589637 0.034435217272536491 0 0.00013468478850767293 0.034657615604675597 0 0.00020671942288661118 0.034435366991713109 0 0.00011112029844589637 0.034435217272536491 0 0.00013468478850767293 0.034657615604675597 0 8.2700982284375629e-05 0.034565091558273767 0 0.00013468478850767293 0.034657615604675597 0 8.2700982284375629e-05 0.034565091558273767 0 8.2603071647455243e-05 0.034765351961409174 0 0.00013468478850767293 0.034657615604675597 0 8.2603071647455243e-05 0.034765351961409174 0 -3.7441441295570938e-07 0.035000045993554552 0 -3.7441441295570938e-07 0.035000045993554552 0 4.5817056302817984e-05 0.034896265614559011 0 1.6054551618523396e-07 0.034999848768210794 0 4.3578422357268983e-06 0.034817511795152398 0 8.2603071647455243e-05 0.034765351961409174 0 4.5817056302817984e-05 0.034896265614559011 0 8.2603071647455243e-05 0.034765351961409174 0 -3.7441441295570938e-07 0.035000045993554552 0 4.5817056302817984e-05 0.034896265614559011 0 4.5817056302817984e-05 0.034896265614559011 0 1.0166227487106894e-05 0.034957783261948164 0 1.6054551618523396e-07 0.034999848768210794 0 -1.8161448557120247e-05 0.034933606671679822 0 4.5817056302817984e-05 0.034896265614559011 0 1.0166227487106894e-05 0.034957783261948164 0 1.0166227487106894e-05 0.034957783261948164 0 1.6054551618523396e-07 0.034999848768210794 0 -6.6129600537305607e-06 0.034976456763015445 0 1.6054551618523396e-07 0.034999848768210794 0 -6.4080219884806291e-08 0.034999984366152453 0 -6.6129600537305607e-06 0.034976456763015445 0 -6.4080219884806291e-08 0.034999984366152453 0 -6.6129600537305607e-06 0.034976456763015445 0 -3.6426595407255997e-05 0.034946951021249312 0 -6.6129600537305607e-06 0.034976456763015445 0 -1.2534157193136816e-05 0.034957246512793687 0 -3.6426595407255997e-05 0.034946951021249312 0 1.0166227487106894e-05 0.034957783261948164 0 -6.6129600537305607e-06 0.034976456763015445 0 -3.0650027446586053e-05 0.034973657853563302 0 -8.8058192295956573e-05 0.034751143141490588 0 -9.0041832809021317e-05 0.034755993232927634 0 -7.8119865577487265e-05 0.034764384678696261 0 -6.6129600537305607e-06 0.034976456763015445 0 -3.0650027446586053e-05 0.034973657853563302 0 -1.2534157193136816e-05 0.034957246512793687 0 -9.0041832809021317e-05 0.034755993232927634 0 -9.5615393920980659e-05 0.034751424481209277 0 -9.5680443956370952e-05 0.034759638361205325 0 -8.8058192295956573e-05 0.034751143141490588 0 -9.0041832809021317e-05 0.034755993232927634 0 -9.5615393920980659e-05 0.034751424481209277 0 -9.0041832809021317e-05 0.034755993232927634 0 -9.5680443956370952e-05 0.034759638361205325 0 -7.8119865577487265e-05 0.034764384678696261 0 -9.5680443956370952e-05 0.034759638361205325 0 -9.7036007063533065e-05 0.034764445035335469 0 -7.8119865577487265e-05 0.034764384678696261 0 -5.577678708271031e-05 0.034859015823007385 0 -4.9398249385382445e-05 0.034860880728648298 0 -1.2534157193136816e-05 0.034957246512793687 0 -6.740224939110754e-05 0.034830598522157044 0 -3.6426595407255997e-05 0.034946951021249312 0 -4.9398249385382445e-05 0.034860880728648298 0 -6.238617678712557e-05 0.034834856281537999 0 -7.8119865577487265e-05 0.034764384678696261 0 -0.00010260444396175112 0.034769992381437367 0 -6.740224939110754e-05 0.034830598522157044 0 -9.7036007063533065e-05 0.034764445035335469 0 -7.8119865577487265e-05 0.034764384678696261 0 -0.00010260444396175112 0.034769992381437367 0 -0.00013557373505025539 0.034679673270586089 0 -0.00010260444396175112 0.034769992381437367 0 -6.740224939110754e-05 0.034830598522157044 0 -7.0621168178189027e-05 0.034875611608091321 0 -6.740224939110754e-05 0.034830598522157044 0 -4.2663016553204142e-05 0.034915139373243712 0 -6.740224939110754e-05 0.034830598522157044 0 -4.2663016553204142e-05 0.034915139373243712 0 -3.6426595407255997e-05 0.034946951021249312 0 -4.2663016553204142e-05 0.034915139373243712 0 -3.2236279866956735e-08 0.034999870807002585 0 -3.6426595407255997e-05 0.034946951021249312 0 -4.9448367253757275e-08 0.03499984730049429 0 -4.2663016553204142e-05 0.034915139373243712 0 -3.2236279866956735e-08 0.034999870807002585 0 -6.4080219884806291e-08 0.034999984366152453 0 -3.2236279866956735e-08 0.034999870807002585 0 -3.6426595407255997e-05 0.034946951021249312 0 1.4680767890815394e-07 0.034984874876375874 0 -7.5521331607802005e-09 0.034999985714676322 0 5.2630575006100927e-09 0.034999981489808485 0 -7.5521331607802005e-09 0.034999985714676322 0 -5.0166239706030585e-06 0.034987897191598678 0 -7.4032916236362409e-07 0.034994113138792443 0 0.00075101186648517549 0.032850490089649333 0 0.00072196558714351336 0.032422542211907678 0 1.4680767890815394e-07 0.034984874876375874 0 -7.5521331607802005e-09 0.034999985714676322 0 -5.0166239706030585e-06 0.034987897191598678 0 0.0014453712756034656 0.029867813579777976 0 0.00091048085386923625 0.030168008206977116 0 0.00088473040276836328 0.02963294449597921 0 0.0015940086337863995 0.030540846581296827 0 0.0014453712756034656 0.029867813579777976 0 0.00091048085386923625 0.030168008206977116 0 0.00074113208883214913 0.030700915851421859 0 0.00038677870030405943 0.030685161256273189 0 0.00030348614260822135 0.029916997127082932 0 0.00088825128660510613 0.030116236272558942 0 0.00027764698561229452 0.030041382870531319 0 0.00091048085386923625 0.030168008206977116 0 0.00030348614260822135 0.029916997127082932 0 0.00088473040276836328 0.02963294449597921 0 0.00071588420548806663 0.031201609398458018 0 0.00036000988679869031 0.031398718712382777 0 0.00038677870030405943 0.030685161256273189 0 0.00074113208883214913 0.030700915851421859 0 0.00071588420548806663 0.031201609398458018 0 0.00038677870030405943 0.030685161256273189 0 0.0012637488835755214 0.031181193286012873 0 0.00074113208883214913 0.030700915851421859 0 0.00071588420548806663 0.031201609398458018 0 0.00075101186648517549 0.032850490089649333 0 0.00088825128660510613 0.030116236272558942 0 0.0012637488835755214 0.031181193286012873 0 0.0007932627639136322 0.03169727817622732 0 0.00071588420548806663 0.031201609398458018 0 0.0007932627639136322 0.03169727817622732 0 0.00071588420548806663 0.031201609398458018 0 0.00036000988679869031 0.031398718712382777 0 0.0007932627639136322 0.03169727817622732 0 0.00036000988679869031 0.031398718712382777 0 0.00039718251227886754 0.032254102123328111 0 0.00036000988679869031 0.031398718712382777 0 0.00039718251227886754 0.032254102123328111 0 0.00010500488840434536 0.031974293339902961 0 0.0007932627639136322 0.03169727817622732 0 0.00083277872578013451 0.032285400798656903 0 0.00039718251227886754 0.032254102123328111 0 0.0007932627639136322 0.03169727817622732 0 0.00083277872578013451 0.032285400798656903 0 0.0012920788209646037 0.03190724272795923 0 0.00083277872578013451 0.032285400798656903 0 0.0012920788209646037 0.03190724272795923 0 0.0011756957184951616 0.032770048080332591 0 0.00075101186648517549 0.032850490089649333 0 0.00062907470569126983 0.033481754923850061 0 0.0012637488835755214 0.031181193286012873 0 0.0007932627639136322 0.03169727817622732 0 0.0012920788209646037 0.03190724272795923 0 0.00075101186648517549 0.032850490089649333 0 -5.6686526422421992e-08 0.035000797715528352 0 -3.2982308811861119e-06 0.034963205371316079 0 -9.3637708695558884e-07 0.034990353151592428 0 1.5498447481372038e-08 0.034999938853742821 0 0.00062907470569126983 0.033481754923850061 0 0.00057618806084060409 0.03386008058781384 0 -9.3637708695558884e-07 0.034990353151592428 0 1.5498447481372038e-08 0.034999938853742821 0 -2.8969549450351473e-09 0.034999998318024229 0 -9.3637708695558884e-07 0.034990353151592428 0 9.8174964771652915e-07 0.034995569473655605 0 -2.8969549450351473e-09 0.034999998318024229 0 9.8174964771652915e-07 0.034995569473655605 0 -2.8969549450351473e-09 0.034999998318024229 0 3.4646855779509712e-09 0.034999988328255321 0 0.00083277872578013451 0.032285400798656903 0 0.0011756957184951616 0.032770048080332591 0 0.00053942764281495002 0.032888708548417842 0 0.0011756957184951616 0.032770048080332591 0 0.00063380863266693298 0.033394138965042945 0 0.00053942764281495002 0.032888708548417842 0 0.00057618806084060409 0.03386008058781384 0 0.00038815966555506452 0.034323857717808659 0 9.8174964771652915e-07 0.034995569473655605 0 3.4646855779509712e-09 0.034999988328255321 0 5.7007576567274832e-07 0.034998730258857212 0 0.0011756957184951616 0.032770048080332591 0 0.00063380863266693298 0.033394138965042945 0 0.0008592308408851999 0.033739706589382579 0 3.4646855779509712e-09 0.034999988328255321 0 5.7007576567274832e-07 0.034998730258857212 0 8.0394345086354477e-11 0.035000000722587313 0 0.0008592308408851999 0.033739706589382579 0 0.00039645600373725866 0.033997636464076296 0 2.222716665239699e-06 0.034997696926067801 0 0.00038815966555506452 0.034323857717808659 0 1.7283868573908069e-07 0.034999633700522545 0 0.00063380863266693298 0.033394138965042945 0 0.0008592308408851999 0.033739706589382579 0 0.00039645600373725866 0.033997636464076296 0 0.00063380863266693298 0.033394138965042945 0 0.00039645600373725866 0.033997636464076296 0 0.00023420988220633268 0.03361155046097436 0 0.00039645600373725866 0.033997636464076296 0 0.00020671942288661118 0.034435366991713109 0 0.00019302065338292997 0.034049023417190585 0 9.4339389477758576e-05 0.034219905734480242 0 0.00020671942288661118 0.034435366991713109 0 0.00019302065338292997 0.034049023417190585 0 0.00039645600373725866 0.033997636464076296 0 0.00020671942288661118 0.034435366991713109 0 2.222716665239699e-06 0.034997696926067801 0 1.2053553553561963e-05 0.033565288114934595 0 6.0935757273368313e-05 0.033915011815582298 0 0.00023420988220633268 0.03361155046097436 0 1.2053553553561963e-05 0.033565288114934595 0 -4.6919661943530157e-05 0.033758822144647781 0 6.0935757273368313e-05 0.033915011815582298 0 -1.0746713216453454e-05 0.033933294008301543 0 -4.6919661943530157e-05 0.033758822144647781 0 6.0935757273368313e-05 0.033915011815582298 0 9.4339389477758576e-05 0.034219905734480242 0 6.0935757273368313e-05 0.033915011815582298 0 0.00019302065338292997 0.034049023417190585 0 6.0935757273368313e-05 0.033915011815582298 0 0.00019302065338292997 0.034049023417190585 0 0.00023420988220633268 0.03361155046097436 0 0.00039645600373725866 0.033997636464076296 0 0.00019302065338292997 0.034049023417190585 0 0.00023420988220633268 0.03361155046097436 0 1.2053553553561963e-05 0.033565288114934595 0 0.00023420988220633268 0.03361155046097436 0 0.00021966754642014911 0.033051269751082121 0 1.2053553553561963e-05 0.033565288114934595 0 0.00021966754642014911 0.033051269751082121 0 -3.9289434736335504e-06 0.033082497544983581 0 0.00021966754642014911 0.033051269751082121 0 3.0377431222239963e-06 0.03252363541707548 0 -3.9289434736335504e-06 0.033082497544983581 0 0.00023420988220633268 0.03361155046097436 0 0.00021966754642014911 0.033051269751082121 0 0.00053942764281495002 0.032888708548417842 0 0.00063380863266693298 0.033394138965042945 0 0.00023420988220633268 0.03361155046097436 0 0.00053942764281495002 0.032888708548417842 0 0.00021966754642014911 0.033051269751082121 0 0.00053942764281495002 0.032888708548417842 0 0.00039718251227886754 0.032254102123328111 0 0.00083277872578013451 0.032285400798656903 0 0.00053942764281495002 0.032888708548417842 0 0.00039718251227886754 0.032254102123328111 0 0.00021966754642014911 0.033051269751082121 0 0.00039718251227886754 0.032254102123328111 0 3.0377431222239963e-06 0.03252363541707548 0 0.00039718251227886754 0.032254102123328111 0 3.0377431222239963e-06 0.03252363541707548 0 0.00010500488840434536 0.031974293339902961 0 3.0377431222239963e-06 0.03252363541707548 0 -0.00015273145528116303 0.032099478268687053 0 0.00010500488840434536 0.031974293339902961 0 3.0377431222239963e-06 0.03252363541707548 0 -0.00015273145528116303 0.032099478268687053 0 -0.00034724458017681883 0.032586968106838331 0 -0.00015273145528116303 0.032099478268687053 0 -0.00034724458017681883 0.032586968106838331 0 -0.00041031309577303299 0.031972608183680709 0 -0.00034724458017681883 0.032586968106838331 0 -0.0001581528990974825 0.032887871653534774 0 -0.00040309259896371551 0.033129723311733278 0 3.0377431222239963e-06 0.03252363541707548 0 -0.00034724458017681883 0.032586968106838331 0 -0.0001581528990974825 0.032887871653534774 0 3.0377431222239963e-06 0.03252363541707548 0 -0.0001581528990974825 0.032887871653534774 0 -3.9289434736335504e-06 0.033082497544983581 0 1.2053553553561963e-05 0.033565288114934595 0 -3.9289434736335504e-06 0.033082497544983581 0 -0.0001718217785248351 0.033274805682573232 0 -0.0001581528990974825 0.032887871653534774 0 -3.9289434736335504e-06 0.033082497544983581 0 -0.0001718217785248351 0.033274805682573232 0 -0.0001581528990974825 0.032887871653534774 0 -0.0001718217785248351 0.033274805682573232 0 -0.00040309259896371551 0.033129723311733278 0 -0.00028787742702817825 0.03347812697612635 0 -0.00045410363277787098 0.033411448515231569 0 -0.00040309259896371551 0.033129723311733278 0 -0.0001718217785248351 0.033274805682573232 0 -0.00028787742702817825 0.03347812697612635 0 -0.00014306794922246994 0.03357339876454285 0 -0.0001718217785248351 0.033274805682573232 0 -0.00028787742702817825 0.03347812697612635 0 -0.00040309259896371551 0.033129723311733278 0 1.2053553553561963e-05 0.033565288114934595 0 -0.0001718217785248351 0.033274805682573232 0 -0.00014306794922246994 0.03357339876454285 0 -0.00014936413486831712 0.033766253390977163 0 -0.00028787742702817825 0.03347812697612635 0 -0.00014306794922246994 0.03357339876454285 0 -0.00014936413486831712 0.033766253390977163 0 -4.6919661943530157e-05 0.033758822144647781 0 -0.00014306794922246994 0.03357339876454285 0 1.2053553553561963e-05 0.033565288114934595 0 -4.6919661943530157e-05 0.033758822144647781 0 -0.00014306794922246994 0.03357339876454285 0 -0.00067108369910565764 0.033238954461265846 0 -0.00045410363277787098 0.033411448515231569 0 -0.00040309259896371551 0.033129723311733278 0 -0.00067108369910565764 0.033238954461265846 0 -0.00040309259896371551 0.033129723311733278 0 -0.00065777787889732776 0.032850524665361709 0 -0.00034724458017681883 0.032586968106838331 0 -0.00040309259896371551 0.033129723311733278 0 -0.00065777787889732776 0.032850524665361709 0 -0.00067108369910565764 0.033238954461265846 0 -0.00065777787889732776 0.032850524665361709 0 -0.00092142784082183148 0.0329933733118822 0 -0.00065777787889732776 0.032850524665361709 0 -0.00066523221741779631 0.032373029174918216 0 -0.00098313664810929335 0.032579258186682981 0 -0.00066523221741779631 0.032373029174918216 0 -0.0009592085569758138 0.032122561135465522 0 -0.00098313664810929335 0.032579258186682981 0 -0.00034724458017681883 0.032586968106838331 0 -0.00065777787889732776 0.032850524665361709 0 -0.00066523221741779631 0.032373029174918216 0 -0.00034724458017681883 0.032586968106838331 0 -0.00066523221741779631 0.032373029174918216 0 -0.00041031309577303299 0.031972608183680709 0 -0.00066523221741779631 0.032373029174918216 0 -0.00078129043005322754 0.031674010501542921 0 -0.0009592085569758138 0.032122561135465522 0 -0.00066523221741779631 0.032373029174918216 0 -0.00041031309577303299 0.031972608183680709 0 -0.00078129043005322754 0.031674010501542921 0 -0.00084561106018986277 0.030852412950117501 0 -0.00044588611196691506 0.031241395030911581 0 -0.00049953087050532135 0.030460188618952413 0 -0.00078129043005322754 0.031674010501542921 0 -0.00084561106018986277 0.030852412950117501 0 -0.00044588611196691506 0.031241395030911581 0 -0.00041031309577303299 0.031972608183680709 0 -0.00044588611196691506 0.031241395030911581 0 -8.6399463125418262e-05 0.03156291725033239 0 -0.00041031309577303299 0.031972608183680709 0 -0.00078129043005322754 0.031674010501542921 0 -0.00044588611196691506 0.031241395030911581 0 -0.00015273145528116303 0.032099478268687053 0 -8.6399463125418262e-05 0.03156291725033239 0 0.00010500488840434536 0.031974293339902961 0 -0.00015273145528116303 0.032099478268687053 0 -0.00041031309577303299 0.031972608183680709 0 -8.6399463125418262e-05 0.03156291725033239 0 0.00036000988679869031 0.031398718712382777 0 -8.6399463125418262e-05 0.03156291725033239 0 0.00010500488840434536 0.031974293339902961 0 0.00036000988679869031 0.031398718712382777 0 -8.6399463125418262e-05 0.03156291725033239 0 -1.7026346433436682e-05 0.030768070890407753 0 -0.00044588611196691506 0.031241395030911581 0 -8.6399463125418262e-05 0.03156291725033239 0 -1.7026346433436682e-05 0.030768070890407753 0 -1.7026346433436682e-05 0.030768070890407753 0 0.00038677870030405943 0.030685161256273189 0 0.00030348614260822135 0.029916997127082932 0 0.00036000988679869031 0.031398718712382777 0 -1.7026346433436682e-05 0.030768070890407753 0 0.00038677870030405943 0.030685161256273189 0 -1.7026346433436682e-05 0.030768070890407753 0 0.00030348614260822135 0.029916997127082932 0 -0.00015212453358316559 0.029962327566472047 0 -0.00015212453358316559 0.029962327566472047 0 -0.00063740317951404754 0.02976046810995912 0 -0.00049953087050532135 0.030460188618952413 0 -0.00015212453358316559 0.029962327566472047 0 -0.00063740317951404754 0.02976046810995912 0 -0.0003293924594964723 0.029384468973134903 0 -0.00063740317951404754 0.02976046810995912 0 -0.00049953087050532135 0.030460188618952413 0 -0.00091079999681821793 0.030133294184226112 0 -0.00084561106018986277 0.030852412950117501 0 -0.00049953087050532135 0.030460188618952413 0 -0.00091079999681821793 0.030133294184226112 0 -1.7026346433436682e-05 0.030768070890407753 0 -0.00015212453358316559 0.029962327566472047 0 -0.00049953087050532135 0.030460188618952413 0 -0.00044588611196691506 0.031241395030911581 0 -1.7026346433436682e-05 0.030768070890407753 0 -0.00049953087050532135 0.030460188618952413 0 -0.001387450616167539 0.030316284503479847 0 -0.0017921354784579584 0.030566787337116444 0 -0.0013748152195438039 0.030358825168367361 0 -0.0014051155058815042 0.029597373476305016 0 -0.0017176165381079611 0.029840920207100302 0 -0.0013748152195438039 0.030358825168367361 0 -0.00091079999681821793 0.030133294184226112 0 -0.0014051155058815042 0.029597373476305016 0 -0.00084561106018986277 0.030852412950117501 0 -0.0013748152195438039 0.030358825168367361 0 -0.00091079999681821793 0.030133294184226112 0 -0.00063740317951404754 0.02976046810995912 0 -0.00091079999681821793 0.030133294184226112 0 -0.00097275081862216299 0.02942123947895494 0 -0.00091079999681821793 0.030133294184226112 0 -0.0014051155058815042 0.029597373476305016 0 -0.00097275081862216299 0.02942123947895494 0 -0.0018050745810193111 0.029496250515109245 0 -0.0021284058788393211 0.029240235367564964 0 -0.0016628504958364422 0.029103742636056397 0 -0.0014051155058815042 0.029597373476305016 0 -0.0018050745810193111 0.029496250515109245 0 -0.0016628504958364422 0.029103742636056397 0 -0.0014051155058815042 0.029597373476305016 0 -0.0018050745810193111 0.029496250515109245 0 -0.0017176165381079611 0.029840920207100302 0 -0.0018050745810193111 0.029496250515109245 0 -0.0021284058788393211 0.029240235367564964 0 -0.0020190875179890324 0.029599876126268909 0 -0.0018050745810193111 0.029496250515109245 0 -0.0017176165381079611 0.029840920207100302 0 -0.0020190875179890324 0.029599876126268909 0 -0.0021284058788393211 0.029240235367564964 0 -0.0025829657265663548 0.029316487433467174 0 -0.0023960614172470998 0.029051640455292373 0 -0.0021284058788393211 0.029240235367564964 0 -0.0020190875179890324 0.029599876126268909 0 -0.0025829657265663548 0.029316487433467174 0 -0.0020190875179890324 0.029599876126268909 0 -0.0018991722667027154 0.030033514167292528 0 -0.0025829657265663548 0.029316487433467174 0 -0.0017176165381079611 0.029840920207100302 0 -0.0020190875179890324 0.029599876126268909 0 -0.0018991722667027154 0.030033514167292528 0 -0.0013748152195438039 0.030358825168367361 0 -0.0017176165381079611 0.029840920207100302 0 -0.0018991722667027154 0.030033514167292528 0 -0.0018893038206656524 0.030876677958741449 0 -0.0018603748054137426 0.031022396395985887 0 -0.0016984031366363576 0.031031389546879899 0 -0.0017921354784579584 0.030566787337116444 0 -0.0028085116496561115 0.029516193963573686 0 -0.0018991722667027154 0.030033514167292528 0 -0.0026905851428419376 0.030170459384624135 0 -0.0025829657265663548 0.029316487433467174 0 -0.0018893038206656524 0.030876677958741449 0 -0.0018603748054137426 0.031022396395985887 0 -0.0019656357729479113 0.030956725389570193 0 -0.0016892183792108191 0.031056157760566149 0 -0.001743969607201815 0.031550703263462647 0 -0.0018603748054137426 0.031022396395985887 0 -0.0016984031366363576 0.031031389546879899 0 -0.0017411200988305805 0.031122613991245003 0 -0.0012460253038712955 0.031764432943045089 0 -0.0016984031366363576 0.031031389546879899 0 -0.0017734095395121302 0.03201650326683237 0 -0.0012460253038712955 0.031764432943045089 0 -0.0016984031366363576 0.031031389546879899 0 -0.0011967812966514754 0.031156228468998706 0 -0.0013748152195438039 0.030358825168367361 0 -0.0016984031366363576 0.031031389546879899 0 -0.0011967812966514754 0.031156228468998706 0 -0.0013748152195438039 0.030358825168367361 0 -0.0018893038206656524 0.030876677958741449 0 -0.0016984031366363576 0.031031389546879899 0 -0.00084561106018986277 0.030852412950117501 0 -0.0013748152195438039 0.030358825168367361 0 -0.0011967812966514754 0.031156228468998706 0 -0.00078129043005322754 0.031674010501542921 0 -0.00084561106018986277 0.030852412950117501 0 -0.0011967812966514754 0.031156228468998706 0 -0.00078129043005322754 0.031674010501542921 0 -0.0012460253038712955 0.031764432943045089 0 -0.0011967812966514754 0.031156228468998706 0 -0.0012460253038712955 0.031764432943045089 0 -0.0009592085569758138 0.032122561135465522 0 -0.0013226304410233385 0.032356667770794094 0 -0.00078129043005322754 0.031674010501542921 0 -0.0012460253038712955 0.031764432943045089 0 -0.0009592085569758138 0.032122561135465522 0 -0.0012460253038712955 0.031764432943045089 0 -0.0013226304410233385 0.032356667770794094 0 -0.0017734095395121302 0.03201650326683237 0 -0.0013226304410233385 0.032356667770794094 0 -0.0012407080762527134 0.032782557278554156 0 -0.0016487871165569911 0.032685246662653843 0 -0.0013226304410233385 0.032356667770794094 0 -0.00098313664810929335 0.032579258186682981 0 -0.0012407080762527134 0.032782557278554156 0 -0.0009592085569758138 0.032122561135465522 0 -0.0013226304410233385 0.032356667770794094 0 -0.00098313664810929335 0.032579258186682981 0 -0.00065777787889732776 0.032850524665361709 0 -0.00098313664810929335 0.032579258186682981 0 -0.00092142784082183148 0.0329933733118822 0 -0.00098313664810929335 0.032579258186682981 0 -0.00092142784082183148 0.0329933733118822 0 -0.0012407080762527134 0.032782557278554156 0 -0.0012407080762527134 0.032782557278554156 0 -0.0011167472687509767 0.033094210184896396 0 -0.0013632285483110907 0.03298850493422488 0 -0.00092142784082183148 0.0329933733118822 0 -0.0012407080762527134 0.032782557278554156 0 -0.0011167472687509767 0.033094210184896396 0 -0.0011749076109393763 0.033271489484510322 0 -0.0011167472687509767 0.033094210184896396 0 -0.0013632285483110907 0.03298850493422488 0 -0.00084922607300097388 0.033326749808666928 0 -0.00092142784082183148 0.0329933733118822 0 -0.0011167472687509767 0.033094210184896396 0 -0.00084922607300097388 0.033326749808666928 0 -0.00067108369910565764 0.033238954461265846 0 -0.00092142784082183148 0.0329933733118822 0 -0.0011749076109393763 0.033271489484510322 0 -0.0014816513206357431 0.033092382689419761 0 -0.0013632285483110907 0.03298850493422488 0 -0.0014816513206357431 0.033092382689419761 0 -0.0013632285483110907 0.03298850493422488 0 -0.0016487871165569911 0.032685246662653843 0 -0.0012407080762527134 0.032782557278554156 0 -0.0013632285483110907 0.03298850493422488 0 -0.0016487871165569911 0.032685246662653843 0 -0.0016140548645102453 0.03165688670064621 0 -0.0016924701081111242 0.031294641208725542 0 -0.0019584855774965647 0.031329610418287995 0 -0.0015496266426769693 0.0323742323522535 0 -0.0016671154569463061 0.031983552844305048 0 -0.0018603748054137426 0.031022396395985887 0 -0.0017411200988305805 0.031122613991245003 0 -0.0019494579247493567 0.031102108590883859 0 -0.0016924701081111242 0.031294641208725542 0 -0.0017411200988305805 0.031122613991245003 0 -0.0019494579247493567 0.031102108590883859 0 -0.0013226304410233385 0.032356667770794094 0 -0.0016487871165569911 0.032685246662653843 0 -0.0017734095395121302 0.03201650326683237 0 -0.0016671154569463061 0.031983552844305048 0 -0.001743969607201815 0.031550703263462647 0 -0.0035644559966277124 0.027346320766403021 0 -0.0024411930421259285 0.026867360181349657 0 -0.0025215957391135878 0.028193460005465989 0 -0.0035644559966277124 0.027346320766403021 0 -0.0034197294757773188 0.026158177402514332 0 -0.0024411930421259285 0.026867360181349657 0 -0.0027578666009750422 0.029283214448402137 0 -0.0026893783429317139 0.028733649695577134 0 -0.0016924701081111242 0.031294641208725542 0 -0.0019494579247493567 0.031102108590883859 0 -0.0019584855774965647 0.031329610418287995 0 -0.0034197294757773188 0.026158177402514332 0 -0.0026975504287507666 0.025338937856447225 0 -0.002425023519677676 0.02587297596716329 0 -0.0034197294757773188 0.026158177402514332 0 -0.002425023519677676 0.02587297596716329 0 -0.0024411930421259285 0.026867360181349657 0 -0.0031792455758856467 0.025055674567150604 0 -0.0034197294757773188 0.026158177402514332 0 -0.0026975504287507666 0.025338937856447225 0 -0.0020205979742141532 0.031830376100275733 0 -0.0016140548645102453 0.03165688670064621 0 -0.0019584855774965647 0.031329610418287995 0 -0.0025770461496257796 0.028484822021860836 0 -0.0026893783429317139 0.028733649695577134 0 -0.001126644813131208 0.024799427881189058 0 -0.0019477064345039205 0.025125813357646049 0 -0.0011773183472929766 0.025745625112256025 0 -0.0026975504287507666 0.025338937856447225 0 -0.0019477064345039205 0.025125813357646049 0 -0.002425023519677676 0.02587297596716329 0 -0.002425023519677676 0.02587297596716329 0 -0.0018322569615880835 0.02618066253809205 0 -0.0024411930421259285 0.026867360181349657 0 -0.0019477064345039205 0.025125813357646049 0 -0.002425023519677676 0.02587297596716329 0 -0.0018322569615880835 0.02618066253809205 0 -0.0019477064345039205 0.025125813357646049 0 -0.0018322569615880835 0.02618066253809205 0 -0.0011773183472929766 0.025745625112256025 0 -0.0018322569615880835 0.02618066253809205 0 -0.0011773183472929766 0.025745625112256025 0 -0.0012654720592810216 0.02675863450201511 0 -0.0018322569615880835 0.02618066253809205 0 -0.0024411930421259285 0.026867360181349657 0 -0.0012654720592810216 0.02675863450201511 0 -0.0024411930421259285 0.026867360181349657 0 -0.0020232367916508047 0.027584798460910383 0 -0.0025215957391135878 0.028193460005465989 0 -0.0020232367916508047 0.027584798460910383 0 -0.0012654720592810216 0.02675863450201511 0 -0.0014637443366160596 0.027782295448228855 0 -0.0024411930421259285 0.026867360181349657 0 -0.0020232367916508047 0.027584798460910383 0 -0.0012654720592810216 0.02675863450201511 0 -0.0020232367916508047 0.027584798460910383 0 -0.0020600550002628426 0.028308684260620571 0 -0.0014637443366160596 0.027782295448228855 0 -0.0020600550002628426 0.028308684260620571 0 -0.0018274185646011117 0.028546697235940614 0 -0.0014637443366160596 0.027782295448228855 0 -0.0020600550002628426 0.028308684260620571 0 -0.0018274185646011117 0.028546697235940614 0 -0.0021324150584866516 0.028722458688884334 0 -0.0015883864042211518 0.020805294146702916 0 -0.0015590606158415628 0.02074194107641297 0 -0.0020600550002628426 0.028308684260620571 0 -0.0023720198669849985 0.028701171520504665 0 -0.0025215957391135878 0.028193460005465989 0 -0.0020600550002628426 0.028308684260620571 0 -0.0023720198669849985 0.028701171520504665 0 -0.0021324150584866516 0.028722458688884334 0 -0.0020232367916508047 0.027584798460910383 0 -0.0020600550002628426 0.028308684260620571 0 -0.0025215957391135878 0.028193460005465989 0 -0.0026615349111906699 0.02800689404494908 0 -0.0028085116496561115 0.029516193963573686 0 -0.0035644559966277124 0.027346320766403021 0 -0.0025215957391135878 0.028193460005465989 0 -0.0036585701496378038 0.028583321262342157 0 -0.0027578666009750422 0.029283214448402137 0 -0.0028085116496561115 0.029516193963573686 0 -0.0018603748054137426 0.031022396395985887 0 -0.0019494579247493567 0.031102108590883859 0 -0.0019656357729479113 0.030956725389570193 0 -0.0028085116496561115 0.029516193963573686 0 -0.0026140117128736675 0.029262852027679285 0 -0.0023720198669849985 0.028701171520504665 0 -0.0025215957391135878 0.028193460005465989 0 -0.0025651912475759871 0.028909213590220362 0 -0.0025215957391135878 0.028193460005465989 0 -0.002831579900103476 0.028667891318205352 0 -0.0025651912475759871 0.028909213590220362 0 -0.0023720198669849985 0.028701171520504665 0 -0.0025651912475759871 0.028909213590220362 0 -0.002495173358901333 0.028972421391797717 0 -0.0025651912475759871 0.028909213590220362 0 -0.002495173358901333 0.028972421391797717 0 -0.0025365323020210646 0.029086502639843841 0 -0.0025651912475759871 0.028909213590220362 0 -0.0025829657265663548 0.029316487433467174 0 -0.0025365323020210646 0.029086502639843841 0 -0.002831579900103476 0.028667891318205352 0 -0.0025651912475759871 0.028909213590220362 0 -0.0025829657265663548 0.029316487433467174 0 -0.0025829657265663548 0.029316487433467174 0 -0.0025365323020210646 0.029086502639843841 0 -0.0023960614172470998 0.029051640455292373 0 -0.0025365323020210646 0.029086502639843841 0 -0.0024841304676307013 0.028905741612745499 0 -0.0023960614172470998 0.029051640455292373 0 -0.002495173358901333 0.028972421391797717 0 -0.0025365323020210646 0.029086502639843841 0 -0.0025322198514064749 0.028946031666374248 0 -0.0025365323020210646 0.029086502639843841 0 -0.0025322198514064749 0.028946031666374248 0 -0.0024841304676307013 0.028905741612745499 0 -0.002495173358901333 0.028972421391797717 0 -0.0025322198514064749 0.028946031666374248 0 -0.0025310747402420074 0.028911598118972641 0 -0.002495173358901333 0.028972421391797717 0 -0.0025310747402420074 0.028911598118972641 0 -0.0024401648831159578 0.028937588792770533 0 -0.0025310747402420074 0.028911598118972641 0 -0.0024401648831159578 0.028937588792770533 0 -0.0025189558146084933 0.028931728552013727 0 -0.0025310747402420074 0.028911598118972641 0 -0.0025189558146084933 0.028931728552013727 0 -0.0026368654760311467 0.028770711460714499 0 -0.0024255885635301095 0.027928026887175713 0 -0.0030153459838691229 0.02665539190704614 0 -0.0025189558146084933 0.028931728552013727 0 -0.0028241863300771984 0.028936132386592466 0 -0.0026989920314797514 0.028810271881311293 0 -0.0025189558146084933 0.028931728552013727 0 -0.0023977138040786722 0.028920084347323023 0 -0.0024043463677049671 0.028905967259937711 0 -0.0021225306861691814 0.02350665369154906 0 -0.0021811473246795342 0.024211145020714146 0 -0.0031771179676058198 0.023392544722260104 0 -0.0030153459838691229 0.02665539190704614 0 -0.0027003942841547597 0.023200502374781839 0 -0.0023977138040786722 0.028920084347323023 0 -0.0024117162449888117 0.028900151700514045 0 -0.0024043463677049671 0.028905967259937711 0 -0.0027003942841547597 0.023200502374781839 0 -0.0009615172615938726 0.027865607277766411 0 -0.0024401648831159578 0.028937588792770533 0 -0.0024043463677049671 0.028905967259937711 0 -0.002293548628385907 0.028909677871087155 0 -0.0024401648831159578 0.028937588792770533 0 -0.0025189558146084933 0.028931728552013727 0 -0.0024043463677049671 0.028905967259937711 0 -0.0024117162449888117 0.028900151700514045 0 -0.0024043463677049671 0.028905967259937711 0 -0.002293548628385907 0.028909677871087155 0 -0.0015883864042211518 0.020805294146702916 0 -0.0027003942841547597 0.023200502374781839 0 -0.002133817849386811 0.02901735195391749 0 -0.002293548628385907 0.028909677871087155 0 -0.0021324150584866516 0.028722458688884334 0 -0.002293548628385907 0.028909677871087155 0 -0.0021324150584866516 0.028722458688884334 0 -0.0023545328355030165 0.028850296570290229 0 -0.0018274185646011117 0.028546697235940614 0 -0.002133817849386811 0.02901735195391749 0 -0.0021324150584866516 0.028722458688884334 0 -0.0023720198669849985 0.028701171520504665 0 -0.002495173358901333 0.028972421391797717 0 -0.0023545328355030165 0.028850296570290229 0 -0.0023720198669849985 0.028701171520504665 0 -0.0021324150584866516 0.028722458688884334 0 -0.0023545328355030165 0.028850296570290229 0 -0.002495173358901333 0.028972421391797717 0 -0.0024401648831159578 0.028937588792770533 0 -0.0023545328355030165 0.028850296570290229 0 -0.0024401648831159578 0.028937588792770533 0 -0.002293548628385907 0.028909677871087155 0 -0.0023545328355030165 0.028850296570290229 0 -0.0026867943480572338 0.028517221560721048 0 -0.0027359730904645448 0.02859812978180528 0 -0.0026221489686271901 0.0286958591343127 0 -0.0026867943480572338 0.028517221560721048 0 -0.0026221489686271901 0.0286958591343127 0 -0.0025914510881435756 0.028593455508004913 0 -0.0026867943480572338 0.028517221560721048 0 -0.0027261204722547152 0.028383771072608768 0 -0.0026473138607407266 0.028391407944943003 0 -0.0026867943480572338 0.028517221560721048 0 -0.0025914510881435756 0.028593455508004913 0 -0.0026473138607407266 0.028391407944943003 0 -0.0026867943480572338 0.028517221560721048 0 -0.0027924643344003739 0.02843536313612691 0 -0.0027261204722547152 0.028383771072608768 0 -0.0027924643344003739 0.02843536313612691 0 -0.0027261204722547152 0.028383771072608768 0 -0.0028174677033144554 0.028318646972743566 0 -0.0027924643344003739 0.02843536313612691 0 -0.0029069489638280806 0.028366007500235563 0 -0.002879503559316167 0.028516708035655515 0 -0.0027924643344003739 0.02843536313612691 0 -0.0029069489638280806 0.028366007500235563 0 -0.0028174677033144554 0.028318646972743566 0 -0.0026867943480572338 0.028517221560721048 0 -0.0027924643344003739 0.02843536313612691 0 -0.0027359730904645448 0.02859812978180528 0 -0.0027924643344003739 0.02843536313612691 0 -0.002879503559316167 0.028516708035655515 0 -0.0027359730904645448 0.02859812978180528 0 -0.0027359730904645448 0.02859812978180528 0 -0.002826925166780697 0.028669963479274196 0 -0.0026368654760311467 0.028770711460714499 0 -0.002879503559316167 0.028516708035655515 0 -0.0027359730904645448 0.02859812978180528 0 -0.002826925166780697 0.028669963479274196 0 -0.0028602983004924437 0.028742239873983458 0 -0.002826925166780697 0.028669963479274196 0 -0.0028870933741397247 0.028698342095147128 0 -0.0030153459838691229 0.02665539190704614 0 -0.002966275552096301 0.029052904999936447 0 -0.0028241863300771984 0.028936132386592466 0 -0.002826925166780697 0.028669963479274196 0 -0.0026989920314797514 0.028810271881311293 0 -0.0025189558146084933 0.028931728552013727 0 -0.0026368654760311467 0.028770711460714499 0 -0.0026989920314797514 0.028810271881311293 0 -0.002826925166780697 0.028669963479274196 0 -0.0026368654760311467 0.028770711460714499 0 -0.0026989920314797514 0.028810271881311293 0 -0.0025310747402420074 0.028911598118972641 0 -0.0026368654760311467 0.028770711460714499 0 -0.0026221489686271901 0.0286958591343127 0 -0.0027359730904645448 0.02859812978180528 0 -0.0026368654760311467 0.028770711460714499 0 -0.0026221489686271901 0.0286958591343127 0 -0.0026221489686271901 0.0286958591343127 0 -0.0025557648744721994 0.028782546742300831 0 -0.0025914510881435756 0.028593455508004913 0 -0.0025310747402420074 0.028911598118972641 0 -0.0026221489686271901 0.0286958591343127 0 -0.0025557648744721994 0.028782546742300831 0 -0.0025322198514064749 0.028946031666374248 0 -0.0025310747402420074 0.028911598118972641 0 -0.0025557648744721994 0.028782546742300831 0 -0.0025322198514064749 0.028946031666374248 0 -0.0024841304676307013 0.028905741612745499 0 -0.0025557648744721994 0.028782546742300831 0 -0.0024841304676307013 0.028905741612745499 0 -0.0025557648744721994 0.028782546742300831 0 -0.0024854009691352274 0.028635558278067259 0 -0.0024841304676307013 0.028905741612745499 0 -0.0023960614172470998 0.029051640455292373 0 -0.0023743610934085701 0.028831056127252643 0 -0.0024841304676307013 0.028905741612745499 0 -0.0023743610934085701 0.028831056127252643 0 -0.0024854009691352274 0.028635558278067259 0 -0.0023960614172470998 0.029051640455292373 0 -0.0023743610934085701 0.028831056127252643 0 -0.0021135097528659341 0.02888091974959129 0 -0.0023743610934085701 0.028831056127252643 0 -0.0022992933014497276 0.02865664630690682 0 -0.0021135097528659341 0.02888091974959129 0 -0.0023743610934085701 0.028831056127252643 0 -0.0022992933014497276 0.02865664630690682 0 -0.0024854009691352274 0.028635558278067259 0 -0.0022992933014497276 0.02865664630690682 0 -0.0023735956907614984 0.028453456860218069 0 -0.0024854009691352274 0.028635558278067259 0 -0.0023735956907614984 0.028453456860218069 0 -0.0024854009691352274 0.028635558278067259 0 -0.0025020048836500693 0.028391752617420527 0 -0.0022992933014497276 0.02865664630690682 0 -0.0023735956907614984 0.028453456860218069 0 -0.0021108457461610618 0.028508281506419039 0 -0.0025557648744721994 0.028782546742300831 0 -0.0025914510881435756 0.028593455508004913 0 -0.0024854009691352274 0.028635558278067259 0 -0.0024854009691352274 0.028635558278067259 0 -0.0025735840306399639 0.028464221943394728 0 -0.0025020048836500693 0.028391752617420527 0 -0.0025914510881435756 0.028593455508004913 0 -0.0025735840306399639 0.028464221943394728 0 -0.0026473138607407266 0.028391407944943003 0 -0.0025914510881435756 0.028593455508004913 0 -0.0024854009691352274 0.028635558278067259 0 -0.0025735840306399639 0.028464221943394728 0 -0.0025735840306399639 0.028464221943394728 0 -0.0025922543077021784 0.028314807829958651 0 -0.0026473138607407266 0.028391407944943003 0 -0.0025922543077021784 0.028314807829958651 0 -0.002652203211490017 0.028256626053449859 0 -0.0026473138607407266 0.028391407944943003 0 -0.0025735840306399639 0.028464221943394728 0 -0.0025922543077021784 0.028314807829958651 0 -0.0025020048836500693 0.028391752617420527 0 -0.0025922543077021784 0.028314807829958651 0 -0.0025020048836500693 0.028391752617420527 0 -0.0025270511612961381 0.028212107874164893 0 -0.0025270511612961381 0.028212107874164893 0 -0.0026020640404162509 0.028165633031573621 0 -0.0025610793645312359 0.028042038367867096 0 -0.0025922543077021784 0.028314807829958651 0 -0.0025270511612961381 0.028212107874164893 0 -0.0026020640404162509 0.028165633031573621 0 -0.0025270511612961381 0.028212107874164893 0 -0.0024758510091154508 0.028082770546324753 0 -0.0025610793645312359 0.028042038367867096 0 -0.0025922543077021784 0.028314807829958651 0 -0.0026020640404162509 0.028165633031573621 0 -0.002652203211490017 0.028256626053449859 0 -0.0026020640404162509 0.028165633031573621 0 -0.002652203211490017 0.028256626053449859 0 -0.0026657124486260913 0.028149206518317343 0 -0.0023735956907614984 0.028453456860218069 0 -0.0024217364789963333 0.028227597939448481 0 -0.0022712987407433518 0.028231139250863607 0 -0.0023735956907614984 0.028453456860218069 0 -0.0022712987407433518 0.028231139250863607 0 -0.0021108457461610618 0.028508281506419039 0 -0.0025020048836500693 0.028391752617420527 0 -0.0025270511612961381 0.028212107874164893 0 -0.0024217364789963333 0.028227597939448481 0 -0.0023735956907614984 0.028453456860218069 0 -0.0025020048836500693 0.028391752617420527 0 -0.0024217364789963333 0.028227597939448481 0 -0.0025270511612961381 0.028212107874164893 0 -0.0024217364789963333 0.028227597939448481 0 -0.0024758510091154508 0.028082770546324753 0 -0.0024217364789963333 0.028227597939448481 0 -0.0023866216017932032 0.028049409410616868 0 -0.0024758510091154508 0.028082770546324753 0 -0.0024217364789963333 0.028227597939448481 0 -0.0022712987407433518 0.028231139250863607 0 -0.0023866216017932032 0.028049409410616868 0 -0.0022712987407433518 0.028231139250863607 0 -0.0023866216017932032 0.028049409410616868 0 -0.0022342045105818763 0.027963405033757605 0 -0.0023959732856148937 0.027820049627339711 0 -0.0025745972937257725 0.027911770398171942 0 -0.0022913523942411983 0.02751857320468314 0 -0.002755075000961945 0.027865713510270385 0 -0.0022034711745117417 0.027556546165253142 0 -0.0024433700917032707 0.027620949258075064 0 -0.0024827157623164113 0.027663344971938161 0 -0.0022913523942411983 0.02751857320468314 0 -0.0023959732856148937 0.027820049627339711 0 -0.0021675513628571681 0.02771232190958511 0 -0.0022342045105818763 0.027963405033757605 0 -0.0023866216017932032 0.028049409410616868 0 -0.0023959732856148937 0.027820049627339711 0 -0.0022342045105818763 0.027963405033757605 0 -0.0023866216017932032 0.028049409410616868 0 -0.0024840057652740929 0.027963498976560804 0 -0.0023959732856148937 0.027820049627339711 0 -0.0023866216017932032 0.028049409410616868 0 -0.0024758510091154508 0.028082770546324753 0 -0.0024840057652740929 0.027963498976560804 0 -0.0024758510091154508 0.028082770546324753 0 -0.0024840057652740929 0.027963498976560804 0 -0.0025610793645312359 0.028042038367867096 0 -0.0024840057652740929 0.027963498976560804 0 -0.0023959732856148937 0.027820049627339711 0 -0.0025745972937257725 0.027911770398171942 0 -0.0023959732856148937 0.027820049627339711 0 -0.0022913523942411983 0.02751857320468314 0 -0.0021675513628571681 0.02771232190958511 0 -0.0015662404493635704 0.025375583244621986 0 -0.0016978234556971547 0.026100979893905266 0 -0.0024433700917032707 0.027620949258075064 0 -0.0024827157623164113 0.027663344971938161 0 -0.0026294729691704326 0.027722759980350196 0 -0.0010629365651439178 0.02339703576816022 0 -0.00042528072422144312 0.023069605611015426 0 0.00016661520034556807 0.022383459205283108 0 -0.002619811146353377 0.028033519395780325 0 -0.0025745972937257725 0.027911770398171942 0 -0.002703126546124235 0.028101232348789668 0 -0.002755075000961945 0.027865713510270385 0 -0.0016978234556971547 0.026100979893905266 0 -0.002619811146353377 0.028033519395780325 0 -0.0026299674257251383 0.028086451545081315 0 -0.002703126546124235 0.028101232348789668 0 -0.002619811146353377 0.028033519395780325 0 -0.0026299674257251383 0.028086451545081315 0 -0.0025610793645312359 0.028042038367867096 0 -0.0026020640404162509 0.028165633031573621 0 -0.0026299674257251383 0.028086451545081315 0 -0.0026657124486260913 0.028149206518317343 0 -0.0026020640404162509 0.028165633031573621 0 -0.0026299674257251383 0.028086451545081315 0 -0.0025610793645312359 0.028042038367867096 0 -0.0024840057652740929 0.027963498976560804 0 -0.0025610793645312359 0.028042038367867096 0 -0.0025745972937257725 0.027911770398171942 0 -0.002619811146353377 0.028033519395780325 0 -0.0025610793645312359 0.028042038367867096 0 -0.0025745972937257725 0.027911770398171942 0 -0.0010629365651439178 0.02339703576816022 0 -0.00042528072422144312 0.023069605611015426 0 -0.00074934575287856039 0.023401548111512304 0 -0.00042528072422144312 0.023069605611015426 0 -0.00019669825998242177 0.023031162834912189 0 2.4494467149658034e-05 0.022751026062381833 0 -0.00042528072422144312 0.023069605611015426 0 2.4494467149658034e-05 0.022751026062381833 0 0.00016661520034556807 0.022383459205283108 0 2.4494467149658034e-05 0.022751026062381833 0 0.00031415257779277667 0.022542880693787147 0 0.00023109271827712383 0.022833569269961933 0 2.4494467149658034e-05 0.022751026062381833 0 0.00031415257779277667 0.022542880693787147 0 0.00016661520034556807 0.022383459205283108 0 0.00031415257779277667 0.022542880693787147 0 0.00016661520034556807 0.022383459205283108 0 0.00056587460769188722 0.022334353811229148 0 0.0004743710251565534 0.022512895207553202 0 0.00031415257779277667 0.022542880693787147 0 0.00056587460769188722 0.022334353811229148 0 0.0004743710251565534 0.022512895207553202 0 0.00031415257779277667 0.022542880693787147 0 0.00023109271827712383 0.022833569269961933 0 0.0004560710875731962 0.022296550020577992 0 0.00016661520034556807 0.022383459205283108 0 0.00056587460769188722 0.022334353811229148 0 -0.0027350218433099855 0.028132218422459346 0 -0.002708296276421795 0.028158829382068318 0 -0.0027347199645037673 0.028216353232050823 0 -0.0011629829107077754 0.025500351680126536 0 -0.0016978234556971547 0.026100979893905266 0 -0.0026299674257251383 0.028086451545081315 0 -0.002703126546124235 0.028101232348789668 0 -0.0026657124486260913 0.028149206518317343 0 -0.0027350218433099855 0.028132218422459346 0 -0.002703126546124235 0.028101232348789668 0 -0.002708296276421795 0.028158829382068318 0 -0.002703126546124235 0.028101232348789668 0 -0.002708296276421795 0.028158829382068318 0 -0.0026657124486260913 0.028149206518317343 0 -0.002708296276421795 0.028158829382068318 0 -0.0026657124486260913 0.028149206518317343 0 -0.0026924058624932944 0.028206472805326118 0 -0.002652203211490017 0.028256626053449859 0 -0.0026657124486260913 0.028149206518317343 0 -0.0026924058624932944 0.028206472805326118 0 -0.002652203211490017 0.028256626053449859 0 -0.0026924058624932944 0.028206472805326118 0 -0.0027031078809162863 0.028289857630678265 0 -0.0026924058624932944 0.028206472805326118 0 -0.0027347199645037673 0.028216353232050823 0 -0.0027031078809162863 0.028289857630678265 0 -0.002708296276421795 0.028158829382068318 0 -0.0026924058624932944 0.028206472805326118 0 -0.0027347199645037673 0.028216353232050823 0 -0.0027347199645037673 0.028216353232050823 0 -0.0027590834231654591 0.028286589998515799 0 -0.0028009801297128037 0.028221775891850466 0 -0.0027350218433099855 0.028132218422459346 0 -0.0027347199645037673 0.028216353232050823 0 -0.0028009801297128037 0.028221775891850466 0 -0.0027347199645037673 0.028216353232050823 0 -0.0027590834231654591 0.028286589998515799 0 -0.0027031078809162863 0.028289857630678265 0 -0.0027590834231654591 0.028286589998515799 0 -0.0027261204722547152 0.028383771072608768 0 -0.0027031078809162863 0.028289857630678265 0 -0.002652203211490017 0.028256626053449859 0 -0.0026473138607407266 0.028391407944943003 0 -0.0027031078809162863 0.028289857630678265 0 -0.0027261204722547152 0.028383771072608768 0 -0.0026473138607407266 0.028391407944943003 0 -0.0027031078809162863 0.028289857630678265 0 -0.0029069489638280806 0.028366007500235563 0 -0.0028174677033144554 0.028318646972743566 0 -0.0028939467335386704 0.028179383653215935 0 -0.0027590834231654591 0.028286589998515799 0 -0.0027261204722547152 0.028383771072608768 0 -0.0028174677033144554 0.028318646972743566 0 -0.0027590834231654591 0.028286589998515799 0 -0.0028174677033144554 0.028318646972743566 0 -0.0028009801297128037 0.028221775891850466 0 -0.0028174677033144554 0.028318646972743566 0 -0.0028009801297128037 0.028221775891850466 0 -0.0028939467335386704 0.028179383653215935 0 -0.0011629829107077754 0.025500351680126536 0 -0.0012905206714528708 0.02528668448455489 0 0.0004560710875731962 0.022296550020577992 0 0.00031533107756856092 0.022496931739470063 0 0.00056587460769188722 0.022334353811229148 0 -0.0027350218433099855 0.028132218422459346 0 -0.0028009801297128037 0.028221775891850466 0 -0.0028939467335386704 0.028179383653215935 0 0.00031533107756856092 0.022496931739470063 0 0.00056587460769188722 0.022334353811229148 0 0.00037540504773656225 0.022228625935598212 0 0.00056587460769188722 0.022334353811229148 0 0.00063990505215251947 0.022312024161055224 0 0.00037540504773656225 0.022228625935598212 0 0.00063990505215251947 0.022312024161055224 0 0.00059099447477688422 0.022357945261846351 0 0.00062375229632803729 0.022201816845594056 0 0.0004743710251565534 0.022512895207553202 0 0.00059099447477688422 0.022357945261846351 0 0.00062375229632803729 0.022201816845594056 0 0.0004743710251565534 0.022512895207553202 0 0.00056587460769188722 0.022334353811229148 0 0.00059099447477688422 0.022357945261846351 0 0.00056587460769188722 0.022334353811229148 0 0.00063990505215251947 0.022312024161055224 0 0.00059099447477688422 0.022357945261846351 0 0.00063990505215251947 0.022312024161055224 0 0.00037540504773656225 0.022228625935598212 0 0.0001926194102960075 0.021659138769857277 0 0.000615500100385795 0.022098966541360003 0 0.00053491617180054121 0.020567330522957998 0 0.00045335145372735284 0.021064094660390397 0 6.3852800357045732e-05 0.020714984995261376 0 0.0001926194102960075 0.021659138769857277 0 0.00062375229632803729 0.022201816845594056 0 0.00044058031708778722 0.021000959438586229 0 -1.1564649783300494e-06 0.021197639994316047 0 0.00063990505215251947 0.022312024161055224 0 0.00055853810371439387 0.021393680489796452 0 0.0011226128349048632 0.019941587104519171 0 0.00063990505215251947 0.022312024161055224 0 0.00055853810371439387 0.021393680489796452 0 0.0001926194102960075 0.021659138769857277 0 0.00063990505215251947 0.022312024161055224 0 0.00062375229632803729 0.022201816845594056 0 -1.1564649783300494e-06 0.021197639994316047 0 0.00055853810371439387 0.021393680489796452 0 0.00045335145372735284 0.021064094660390397 0 0.0001926194102960075 0.021659138769857277 0 0.00045335145372735284 0.021064094660390397 0 0.0011226128349048632 0.019941587104519171 0 6.3852800357045732e-05 0.020714984995261376 0 0.00055853810371439387 0.021393680489796452 0 0.00045335145372735284 0.021064094660390397 0 0.0011226128349048632 0.019941587104519171 0 0.00062375229632803729 0.022201816845594056 0 0.0003489591700918631 0.023009082868558597 0 0.00043997047669073585 0.024301894247001205 0 0.00056538668339825386 0.022357090292358571 0 0.00041444138501186932 0.022587869850053711 0 -5.1268978985629038e-05 0.023124144970714116 0 0.00023109271827712383 0.022833569269961933 0 7.2346437342762755e-05 0.023522784267745483 0 -0.00019669825998242177 0.023031162834912189 0 2.4494467149658034e-05 0.022751026062381833 0 -5.1268978985629038e-05 0.023124144970714116 0 2.4494467149658034e-05 0.022751026062381833 0 -5.1268978985629038e-05 0.023124144970714116 0 0.00023109271827712383 0.022833569269961933 0 0.0004743710251565534 0.022512895207553202 0 0.00062375229632803729 0.022201816845594056 0 0.0003489591700918631 0.023009082868558597 0 0.0003489591700918631 0.023009082868558597 0 0.00023109271827712383 0.022833569269961933 0 7.2346437342762755e-05 0.023522784267745483 0 0.0004743710251565534 0.022512895207553202 0 0.0003489591700918631 0.023009082868558597 0 0.00023109271827712383 0.022833569269961933 0 0.0003489591700918631 0.023009082868558597 0 7.2346437342762755e-05 0.023522784267745483 0 0.00043997047669073585 0.024301894247001205 0 -5.1268978985629038e-05 0.023124144970714116 0 7.2346437342762755e-05 0.023522784267745483 0 -0.00026527078928761586 0.023561098734150101 0 7.2346437342762755e-05 0.023522784267745483 0 -0.00021937496537524626 0.023932897860824916 0 -0.00026527078928761586 0.023561098734150101 0 0.00041444138501186932 0.022587869850053711 0 4.1069628869717629e-05 0.022784800376800144 0 -5.8949843704338023e-05 0.024389801059871243 0 -0.00021655883305424586 0.02523909071613788 0 -0.00043764124453940788 0.024513453305908671 0 -5.8949843704338023e-05 0.024389801059871243 0 0.00043997047669073585 0.024301894247001205 0 -0.00021655883305424586 0.02523909071613788 0 7.2346437342762755e-05 0.023522784267745483 0 -5.8949843704338023e-05 0.024389801059871243 0 0.00043997047669073585 0.024301894247001205 0 7.2346437342762755e-05 0.023522784267745483 0 -0.00021937496537524626 0.023932897860824916 0 -5.8949843704338023e-05 0.024389801059871243 0 0.00044058031708778722 0.021000959438586229 0 -1.1564649783300494e-06 0.021197639994316047 0 -0.00023741686748971958 0.019816324513766685 0 0.0011226128349048632 0.019941587104519171 0 0.00027958346683174277 0.018735187633160722 0 7.5469146155143996e-05 0.019621001646881471 0 0.00053491617180054121 0.020567330522957998 0 0.00025718029070953416 0.019102950069306471 0 0.0011226128349048632 0.019941587104519171 0 7.5469146155143996e-05 0.019621001646881471 0 6.3852800357045732e-05 0.020714984995261376 0 0.0011226128349048632 0.019941587104519171 0 0.00027958346683174277 0.018735187633160722 0 0.00072877841451958556 0.018240050305201136 0 0.00027958346683174277 0.018735187633160722 0 0.00072877841451958556 0.018240050305201136 0 0.00035663170241593021 0.01801031629334459 0 -0.00023741686748971958 0.019816324513766685 0 0.00048183687366935504 0.019699132855620704 0 0.00024154981792683686 0.019377201210204156 0 0.00044058031708778722 0.021000959438586229 0 -0.00023741686748971958 0.019816324513766685 0 0.00048183687366935504 0.019699132855620704 0 -0.00023741686748971958 0.019816324513766685 0 0.00024154981792683686 0.019377201210204156 0 -9.7276603415363723e-07 0.01835683889406603 0 0.00024154981792683686 0.019377201210204156 0 -9.7276603415363723e-07 0.01835683889406603 0 1.3661372672371524e-06 0.019983635932374764 0 0.00048183687366935504 0.019699132855620704 0 0.00024154981792683686 0.019377201210204156 0 -7.7680683227136164e-05 0.019777792416186522 0 0.00072877841451958556 0.018240050305201136 0 1.8627336264863504e-06 0.018349405777502669 0 0.00035663170241593021 0.01801031629334459 0 0.00025718029070953416 0.019102950069306471 0 1.1003245678087274e-07 0.018353352315633811 0 1.8627336264863504e-06 0.018349405777502669 0 0.00035663170241593021 0.01801031629334459 0 0.00014937578624983972 0.017603547645947151 0 -0.00058645278162819468 0.024371583362497212 0 -0.00025504562152358799 0.021334741889347215 0 -0.0012968459771115542 0.025365924498045596 0 -0.00059756492444120346 0.025853456504670226 0 -0.0007714613273091162 0.025375400116025151 0 -0.00027921550404103138 0.0228171047628812 0 -1.239627038585366e-06 0.020275485821135402 0 -1.1384927135244237e-07 0.022297195966923138 0 -0.00021655883305424586 0.02523909071613788 0 -0.00059756492444120346 0.025853456504670226 0 -0.0007714613273091162 0.025375400116025151 0 -0.00027921550404103138 0.0228171047628812 0 -1.239627038585366e-06 0.020275485821135402 0 -7.9200972072789315e-05 0.020420716721110174 0 4.1069628869717629e-05 0.022784800376800144 0 -0.00025504562152358799 0.021334741889347215 0 -9.1828478498693924e-08 0.020275893453544684 0 -0.00025504562152358799 0.021334741889347215 0 0.00024154981792683686 0.019377201210204156 0 1.3661372672371524e-06 0.019983635932374764 0 -7.7680683227136164e-05 0.019777792416186522 0 1.0007861985086656e-09 0.020273037022991356 0 -2.6365392979964059e-09 0.0199874835215769 0 -4.4110306644484768e-07 0.020211142944949457 0 -1.2142232521257969e-06 0.019990084722091742 0 -0.00025504562152358799 0.021334741889347215 0 -0.00021655883305424586 0.02523909071613788 0 -0.0007714613273091162 0.025375400116025151 0 -0.00088171272642045329 0.024971012731945737 0 -0.00021655883305424586 0.02523909071613788 0 -0.00088171272642045329 0.024971012731945737 0 -0.00043764124453940788 0.024513453305908671 0 -0.0012968459771115542 0.025365924498045596 0 -0.0007714613273091162 0.025375400116025151 0 -0.00088171272642045329 0.024971012731945737 0 -0.0012968459771115542 0.025365924498045596 0 -0.00088171272642045329 0.024971012731945737 0 -0.0013488516333192333 0.024987155429454941 0 -0.0013488516333192333 0.024987155429454941 0 -0.0011677694514273945 0.024736149803700529 0 -0.0014946903903330676 0.024899409003918273 0 -0.00088171272642045329 0.024971012731945737 0 -0.0011677694514273945 0.024736149803700529 0 -0.00085245097179339655 0.024456231727633088 0 -0.00088171272642045329 0.024971012731945737 0 -0.0013488516333192333 0.024987155429454941 0 -0.0011677694514273945 0.024736149803700529 0 -0.00085245097179339655 0.024456231727633088 0 -0.00086992388718933392 0.024048975737742496 0 -0.0011817462060403072 0.024445527483001456 0 -0.0011677694514273945 0.024736149803700529 0 -0.00085245097179339655 0.024456231727633088 0 -0.0011817462060403072 0.024445527483001456 0 -0.0011677694514273945 0.024736149803700529 0 -0.0011817462060403072 0.024445527483001456 0 -0.0014946903903330676 0.024899409003918273 0 -0.00088171272642045329 0.024971012731945737 0 -0.00043764124453940788 0.024513453305908671 0 -0.00085245097179339655 0.024456231727633088 0 -0.00043764124453940788 0.024513453305908671 0 -0.00085245097179339655 0.024456231727633088 0 -0.00053685140770385242 0.024026705591802418 0 -0.00021937496537524626 0.023932897860824916 0 -5.8949843704338023e-05 0.024389801059871243 0 -0.00043764124453940788 0.024513453305908671 0 -0.00021937496537524626 0.023932897860824916 0 -0.00043764124453940788 0.024513453305908671 0 -0.00053685140770385242 0.024026705591802418 0 -0.00021937496537524626 0.023932897860824916 0 -0.00026527078928761586 0.023561098734150101 0 -0.00053685140770385242 0.024026705591802418 0 -0.00026527078928761586 0.023561098734150101 0 -0.00053685140770385242 0.024026705591802418 0 -0.00057396715725697479 0.023708507576414753 0 -0.00085245097179339655 0.024456231727633088 0 -0.00053685140770385242 0.024026705591802418 0 -0.00086992388718933392 0.024048975737742496 0 -0.00053685140770385242 0.024026705591802418 0 -0.00057396715725697479 0.023708507576414753 0 -0.00086992388718933392 0.024048975737742496 0 -0.00057396715725697479 0.023708507576414753 0 -0.00086992388718933392 0.024048975737742496 0 -0.00088694448664837511 0.02369565203540587 0 -0.0010629365651439178 0.02339703576816022 0 -0.00088694448664837511 0.02369565203540587 0 -0.00074934575287856039 0.023401548111512304 0 -0.00088694448664837511 0.02369565203540587 0 -0.00074934575287856039 0.023401548111512304 0 -0.00061979121868812139 0.023436982261618038 0 -0.00042528072422144312 0.023069605611015426 0 -0.00074934575287856039 0.023401548111512304 0 -0.00061979121868812139 0.023436982261618038 0 -0.00057396715725697479 0.023708507576414753 0 -0.00088694448664837511 0.02369565203540587 0 -0.00061979121868812139 0.023436982261618038 0 -0.00057396715725697479 0.023708507576414753 0 -0.00061979121868812139 0.023436982261618038 0 -0.00035622737304116689 0.023321321744780955 0 -0.00026527078928761586 0.023561098734150101 0 -0.00057396715725697479 0.023708507576414753 0 -0.00035622737304116689 0.023321321744780955 0 -0.00042528072422144312 0.023069605611015426 0 -0.00061979121868812139 0.023436982261618038 0 -0.00035622737304116689 0.023321321744780955 0 -0.00042528072422144312 0.023069605611015426 0 -0.00019669825998242177 0.023031162834912189 0 -0.00035622737304116689 0.023321321744780955 0 -0.00019669825998242177 0.023031162834912189 0 -5.1268978985629038e-05 0.023124144970714116 0 -0.00035622737304116689 0.023321321744780955 0 -5.1268978985629038e-05 0.023124144970714116 0 -0.00026527078928761586 0.023561098734150101 0 -0.00035622737304116689 0.023321321744780955 0 -0.0024433700917032707 0.027620949258075064 0 -0.0022913523942411983 0.02751857320468314 0 -0.0021962242320892446 0.02726469348107953 0 -0.0015662404493635704 0.025375583244621986 0 -0.001821401002398151 0.025988929587899931 0 -0.0013826682528669668 0.024492664566487708 0 -0.0011919782313537203 0.024043325214199756 0 -0.0016462518464957292 0.024747099354504417 0 -0.0010629365651439178 0.02339703576816022 0 -0.0011919782313537203 0.024043325214199756 0 -0.0016462518464957292 0.024747099354504417 0 -0.0013826682528669668 0.024492664566487708 0 -0.0011817462060403072 0.024445527483001456 0 -0.0011919782313537203 0.024043325214199756 0 -0.0013826682528669668 0.024492664566487708 0 -0.0011817462060403072 0.024445527483001456 0 -0.0014946903903330676 0.024899409003918273 0 -0.00086992388718933392 0.024048975737742496 0 -0.0011817462060403072 0.024445527483001456 0 -0.0011919782313537203 0.024043325214199756 0 -0.00086992388718933392 0.024048975737742496 0 -0.00088694448664837511 0.02369565203540587 0 -0.0011919782313537203 0.024043325214199756 0 -0.0010629365651439178 0.02339703576816022 0 -0.00088694448664837511 0.02369565203540587 0 -0.0011919782313537203 0.024043325214199756 0 -0.0022913523942411983 0.02751857320468314 0 -0.0021962242320892446 0.02726469348107953 0 -0.0021675513628571681 0.02771232190958511 0 -0.0021962242320892446 0.02726469348107953 0 -0.0016047171565376651 0.027295270152944914 0 -0.0019481442938023867 0.027567496477758989 0 -0.0016462518464957292 0.024747099354504417 0 -0.0014946903903330676 0.024899409003918273 0 -0.001530824188970509 0.025262129271930028 0 -0.0013826682528669668 0.024492664566487708 0 -0.0016462518464957292 0.024747099354504417 0 -0.0014946903903330676 0.024899409003918273 0 -0.001821401002398151 0.025988929587899931 0 -0.0010903010936207205 0.026074718956651925 0 -0.0016462518464957292 0.024747099354504417 0 -0.001530824188970509 0.025262129271930028 0 -0.0011326200675039211 0.026190140970147463 0 -0.0021962242320892446 0.02726469348107953 0 -0.001512190523392165 0.026948606429101504 0 -0.0011326200675039211 0.026190140970147463 0 -0.001512190523392165 0.026948606429101504 0 -0.0016047171565376651 0.027295270152944914 0 -0.0010597854587447385 0.027127216330150992 0 -0.0016047171565376651 0.027295270152944914 0 -0.0010597854587447385 0.027127216330150992 0 -0.0013109836648514206 0.02753111881788366 0 -0.0021962242320892446 0.02726469348107953 0 -0.001512190523392165 0.026948606429101504 0 -0.0016047171565376651 0.027295270152944914 0 -0.001512190523392165 0.026948606429101504 0 -0.0011326200675039211 0.026190140970147463 0 -0.0010597854587447385 0.027127216330150992 0 -0.001530824188970509 0.025262129271930028 0 -0.0015930263252353694 0.025015273763786167 0 -0.0011326200675039211 0.026190140970147463 0 -0.00031932946990637019 0.024715901182880813 0 -0.00022440111369310766 0.025184131558593018 0 -0.00063697582951083905 0.026055435354703713 0 -0.0015930263252353694 0.025015273763786167 0 -0.00063697582951083905 0.026055435354703713 0 -0.0011326200675039211 0.026190140970147463 0 -0.0009207041611159274 0.02490351446308265 0 -0.00055153302304738528 0.025912312064364826 0 -0.0013488516333192333 0.024987155429454941 0 -0.0014946903903330676 0.024899409003918273 0 -0.0015930263252353694 0.025015273763786167 0 -0.0014946903903330676 0.024899409003918273 0 -0.001530824188970509 0.025262129271930028 0 -0.0015930263252353694 0.025015273763786167 0 -0.00058645278162819468 0.024371583362497212 0 -0.0009207041611159274 0.02490351446308265 0 -0.0012968459771115542 0.025365924498045596 0 -0.0013488516333192333 0.024987155429454941 0 -0.0015930263252353694 0.025015273763786167 0 -0.00027921550404103138 0.0228171047628812 0 -0.00031932946990637019 0.024715901182880813 0 -0.00010243625514254567 0.023854170235338104 0 -0.00031932946990637019 0.024715901182880813 0 -0.00010243625514254567 0.023854170235338104 0 -0.00022440111369310766 0.025184131558593018 0 -0.00010243625514254567 0.023854170235338104 0 -1.1979973850974152e-07 0.024320099177819788 0 -0.00022440111369310766 0.025184131558593018 0 -0.00010243625514254567 0.023854170235338104 0 -1.1384927135244237e-07 0.022297195966923138 0 -1.1979973850974152e-07 0.024320099177819788 0 -0.00027921550404103138 0.0228171047628812 0 -0.00010243625514254567 0.023854170235338104 0 -1.1384927135244237e-07 0.022297195966923138 0 -2.6730315798061956e-05 0.025714207042841337 0 2.7218987828753413e-05 0.026504773682888279 0 2.6680093272051823e-07 0.026342692081717901 0 -1.1979973850974152e-07 0.024320099177819788 0 -2.6730315798061956e-05 0.025714207042841337 0 2.6680093272051823e-07 0.026342692081717901 0 -1.1979973850974152e-07 0.024320099177819788 0 -0.00022440111369310766 0.025184131558593018 0 -2.6730315798061956e-05 0.025714207042841337 0 -0.00022440111369310766 0.025184131558593018 0 -2.6730315798061956e-05 0.025714207042841337 0 -0.00022755330439165944 0.026128522630175764 0 -2.6730315798061956e-05 0.025714207042841337 0 2.7218987828753413e-05 0.026504773682888279 0 -0.00022755330439165944 0.026128522630175764 0 2.7218987828753413e-05 0.026504773682888279 0 -0.00022755330439165944 0.026128522630175764 0 -0.00014253074035971015 0.026764533644750583 0 -0.00022755330439165944 0.026128522630175764 0 -0.00014253074035971015 0.026764533644750583 0 -0.00040584074103628011 0.026679146090557632 0 -0.00022440111369310766 0.025184131558593018 0 -0.00022755330439165944 0.026128522630175764 0 -0.00063697582951083905 0.026055435354703713 0 -0.00063697582951083905 0.026055435354703713 0 -0.00072923173137076245 0.026633732550254214 0 -0.00040584074103628011 0.026679146090557632 0 -0.00022755330439165944 0.026128522630175764 0 -0.00063697582951083905 0.026055435354703713 0 -0.00040584074103628011 0.026679146090557632 0 -0.00063697582951083905 0.026055435354703713 0 -0.00072923173137076245 0.026633732550254214 0 -0.0011326200675039211 0.026190140970147463 0 -0.00072923173137076245 0.026633732550254214 0 -0.0011326200675039211 0.026190140970147463 0 -0.0010597854587447385 0.027127216330150992 0 -0.00072923173137076245 0.026633732550254214 0 -0.00060866202076241766 0.027133552910158256 0 -0.00040584074103628011 0.026679146090557632 0 -0.00072923173137076245 0.026633732550254214 0 -0.00060866202076241766 0.027133552910158256 0 -0.0010597854587447385 0.027127216330150992 0 -0.00060866202076241766 0.027133552910158256 0 -0.0010597854587447385 0.027127216330150992 0 -0.00098318529102679546 0.027627988286200656 0 -0.00014253074035971015 0.026764533644750583 0 -0.0002510044733704684 0.027324426997342905 0 -4.398566727346986e-06 0.027305986973454707 0 -0.00014253074035971015 0.026764533644750583 0 -0.00040584074103628011 0.026679146090557632 0 -0.0002510044733704684 0.027324426997342905 0 -0.00060866202076241766 0.027133552910158256 0 -0.00040584074103628011 0.026679146090557632 0 -0.0002510044733704684 0.027324426997342905 0 -0.00060866202076241766 0.027133552910158256 0 -0.0002510044733704684 0.027324426997342905 0 -0.00061161306754106042 0.027554917811161025 0 -0.0002510044733704684 0.027324426997342905 0 -0.00046689908005629509 0.027809295826396196 0 -0.00021724280298725764 0.027715801677212229 0 -0.00046689908005629509 0.027809295826396196 0 -0.00061161306754106042 0.027554917811161025 0 -0.0007921476009578257 0.027934951845112091 0 -0.0002510044733704684 0.027324426997342905 0 -0.00046689908005629509 0.027809295826396196 0 -0.00061161306754106042 0.027554917811161025 0 -0.00046689908005629509 0.027809295826396196 0 -0.00062188007580713434 0.028247533575600725 0 -0.0007921476009578257 0.027934951845112091 0 -0.00046689908005629509 0.027809295826396196 0 -0.00062188007580713434 0.028247533575600725 0 -0.00021252254328050883 0.028130527282841915 0 -0.00062188007580713434 0.028247533575600725 0 -0.00099228000530454706 0.028280792131272707 0 -0.0007921476009578257 0.027934951845112091 0 -0.00062188007580713434 0.028247533575600725 0 -0.00099228000530454706 0.028280792131272707 0 -0.00087866352973821121 0.028590934426184145 0 -0.00062188007580713434 0.028247533575600725 0 -0.00087866352973821121 0.028590934426184145 0 -0.00050931086802208717 0.028679009627321901 0 -0.00099228000530454706 0.028280792131272707 0 -0.0014537435001020674 0.028328819161223137 0 -0.0013000945956142998 0.028713739020652919 0 -0.00099228000530454706 0.028280792131272707 0 -0.00087866352973821121 0.028590934426184145 0 -0.0013000945956142998 0.028713739020652919 0 -0.00099228000530454706 0.028280792131272707 0 -0.0011445980121284371 0.028025563930655761 0 -0.0007921476009578257 0.027934951845112091 0 -0.00099228000530454706 0.028280792131272707 0 -0.0011445980121284371 0.028025563930655761 0 -0.0014537435001020674 0.028328819161223137 0 -0.0011445980121284371 0.028025563930655761 0 -0.0014259927313195818 0.027890720741251075 0 -0.0014537435001020674 0.028328819161223137 0 -0.0011445980121284371 0.028025563930655761 0 -0.00098318529102679546 0.027627988286200656 0 -0.0014259927313195818 0.027890720741251075 0 -0.0011445980121284371 0.028025563930655761 0 -0.0007921476009578257 0.027934951845112091 0 -0.00098318529102679546 0.027627988286200656 0 -0.00061161306754106042 0.027554917811161025 0 -0.0007921476009578257 0.027934951845112091 0 -0.00098318529102679546 0.027627988286200656 0 -0.00060866202076241766 0.027133552910158256 0 -0.00061161306754106042 0.027554917811161025 0 -0.00098318529102679546 0.027627988286200656 0 -0.0010597854587447385 0.027127216330150992 0 -0.00098318529102679546 0.027627988286200656 0 -0.0013109836648514206 0.02753111881788366 0 -0.00098318529102679546 0.027627988286200656 0 -0.0013109836648514206 0.02753111881788366 0 -0.0014259927313195818 0.027890720741251075 0 -0.0013109836648514206 0.02753111881788366 0 -0.0016769297036868728 0.027683731856493071 0 -0.0014259927313195818 0.027890720741251075 0 -0.0016047171565376651 0.027295270152944914 0 -0.0013109836648514206 0.02753111881788366 0 -0.0016769297036868728 0.027683731856493071 0 -0.0016047171565376651 0.027295270152944914 0 -0.0016769297036868728 0.027683731856493071 0 -0.0019481442938023867 0.027567496477758989 0 -0.0016769297036868728 0.027683731856493071 0 -0.0019757677951340842 0.027835613751992654 0 -0.0017461485189495273 0.028085885465839667 0 -0.0016769297036868728 0.027683731856493071 0 -0.0014259927313195818 0.027890720741251075 0 -0.0017461485189495273 0.028085885465839667 0 -0.0021962242320892446 0.02726469348107953 0 -0.0021675513628571681 0.02771232190958511 0 -0.0019481442938023867 0.027567496477758989 0 -0.0016769297036868728 0.027683731856493071 0 -0.0019481442938023867 0.027567496477758989 0 -0.0019757677951340842 0.027835613751992654 0 -0.0021675513628571681 0.02771232190958511 0 -0.0019481442938023867 0.027567496477758989 0 -0.0019757677951340842 0.027835613751992654 0 -0.0019757677951340842 0.027835613751992654 0 -0.0022342045105818763 0.027963405033757605 0 -0.0020370997868821824 0.028181415697318565 0 -0.0021675513628571681 0.02771232190958511 0 -0.0019757677951340842 0.027835613751992654 0 -0.0022342045105818763 0.027963405033757605 0 -0.0022712987407433518 0.028231139250863607 0 -0.0022342045105818763 0.027963405033757605 0 -0.0020370997868821824 0.028181415697318565 0 -0.0019757677951340842 0.027835613751992654 0 -0.0020370997868821824 0.028181415697318565 0 -0.0017461485189495273 0.028085885465839667 0 -0.0020370997868821824 0.028181415697318565 0 -0.0017461485189495273 0.028085885465839667 0 -0.0018207396615396599 0.028393184469359303 0 -0.0020370997868821824 0.028181415697318565 0 -0.0018207396615396599 0.028393184469359303 0 -0.0021108457461610618 0.028508281506419039 0 -0.0022712987407433518 0.028231139250863607 0 -0.0020370997868821824 0.028181415697318565 0 -0.0021108457461610618 0.028508281506419039 0 -0.0014259927313195818 0.027890720741251075 0 -0.0017461485189495273 0.028085885465839667 0 -0.0014537435001020674 0.028328819161223137 0 -0.0017461485189495273 0.028085885465839667 0 -0.0018207396615396599 0.028393184469359303 0 -0.0014537435001020674 0.028328819161223137 0 -0.0018207396615396599 0.028393184469359303 0 -0.0014537435001020674 0.028328819161223137 0 -0.0017266050346268877 0.028709721547673452 0 -0.0017266050346268877 0.028709721547673452 0 -0.0016628504958364422 0.029103742636056397 0 -0.0013000945956142998 0.028713739020652919 0 -0.0014537435001020674 0.028328819161223137 0 -0.0017266050346268877 0.028709721547673452 0 -0.0013000945956142998 0.028713739020652919 0 -0.0017266050346268877 0.028709721547673452 0 -0.0021108457461610618 0.028508281506419039 0 -0.0021135097528659341 0.02888091974959129 0 -0.0018207396615396599 0.028393184469359303 0 -0.0017266050346268877 0.028709721547673452 0 -0.0021108457461610618 0.028508281506419039 0 -0.0022992933014497276 0.02865664630690682 0 -0.0021108457461610618 0.028508281506419039 0 -0.0021135097528659341 0.02888091974959129 0 -0.0021284058788393211 0.029240235367564964 0 -0.0023960614172470998 0.029051640455292373 0 -0.0021135097528659341 0.02888091974959129 0 -0.0021284058788393211 0.029240235367564964 0 -0.0021135097528659341 0.02888091974959129 0 -0.0016628504958364422 0.029103742636056397 0 -0.0017266050346268877 0.028709721547673452 0 -0.0021135097528659341 0.02888091974959129 0 -0.0016628504958364422 0.029103742636056397 0 -0.0014051155058815042 0.029597373476305016 0 -0.0016628504958364422 0.029103742636056397 0 -0.0012605327842836109 0.029134623272672293 0 -0.0016628504958364422 0.029103742636056397 0 -0.0012605327842836109 0.029134623272672293 0 -0.0013000945956142998 0.028713739020652919 0 -0.0014051155058815042 0.029597373476305016 0 -0.0012605327842836109 0.029134623272672293 0 -0.00097275081862216299 0.02942123947895494 0 -0.00097275081862216299 0.02942123947895494 0 -0.0009239366049171411 0.028979904208009506 0 -0.0006117065720261111 0.029173669317545156 0 -0.0012605327842836109 0.029134623272672293 0 -0.00097275081862216299 0.02942123947895494 0 -0.0009239366049171411 0.028979904208009506 0 -0.0009239366049171411 0.028979904208009506 0 -0.00050931086802208717 0.028679009627321901 0 -0.0006117065720261111 0.029173669317545156 0 -0.0009239366049171411 0.028979904208009506 0 -0.00087866352973821121 0.028590934426184145 0 -0.00050931086802208717 0.028679009627321901 0 -0.0009239366049171411 0.028979904208009506 0 -0.00087866352973821121 0.028590934426184145 0 -0.0013000945956142998 0.028713739020652919 0 -0.0012605327842836109 0.029134623272672293 0 -0.0009239366049171411 0.028979904208009506 0 -0.0013000945956142998 0.028713739020652919 0 -0.00027752470857359142 0.028974415156498255 0 -0.0003293924594964723 0.029384468973134903 0 6.2751503450890226e-05 0.029110212594839653 0 -0.00027752470857359142 0.028974415156498255 0 6.2751503450890226e-05 0.029110212594839653 0 -9.9046190990989313e-05 0.028604278280714726 0 -0.00027752470857359142 0.028974415156498255 0 -0.00050931086802208717 0.028679009627321901 0 -0.0006117065720261111 0.029173669317545156 0 -0.00027752470857359142 0.028974415156498255 0 -0.00050931086802208717 0.028679009627321901 0 -9.9046190990989313e-05 0.028604278280714726 0 -0.00063740317951404754 0.02976046810995912 0 -0.0006117065720261111 0.029173669317545156 0 -0.0003293924594964723 0.029384468973134903 0 -0.00027752470857359142 0.028974415156498255 0 -0.0006117065720261111 0.029173669317545156 0 -0.0003293924594964723 0.029384468973134903 0 -0.00063740317951404754 0.02976046810995912 0 -0.00097275081862216299 0.02942123947895494 0 -0.0006117065720261111 0.029173669317545156 0 -0.00015212453358316559 0.029962327566472047 0 -0.0003293924594964723 0.029384468973134903 0 6.2751503450890226e-05 0.029110212594839653 0 0.00030348614260822135 0.029916997127082932 0 -0.00015212453358316559 0.029962327566472047 0 6.2751503450890226e-05 0.029110212594839653 0 0.00030348614260822135 0.029916997127082932 0 6.2751503450890226e-05 0.029110212594839653 0 0.00056067482218340734 0.029167710961825237 0 6.2751503450890226e-05 0.029110212594839653 0 0.00040329787602016922 0.028698118486922188 0 0.00056067482218340734 0.029167710961825237 0 6.2751503450890226e-05 0.029110212594839653 0 0.00019563122883150806 0.028516493564650004 0 0.00040329787602016922 0.028698118486922188 0 0.00019563122883150806 0.028516493564650004 0 0.00040329787602016922 0.028698118486922188 0 0.00039793708539698317 0.028397147623496519 0 0.00040329787602016922 0.028698118486922188 0 0.00039793708539698317 0.028397147623496519 0 0.00063424711786096502 0.028704136377741586 0 0.00039793708539698317 0.028397147623496519 0 0.00035540438993851803 0.028181535595191251 0 0.00037214213644551781 0.028286021256983634 0 0.00019563122883150806 0.028516493564650004 0 0.00039793708539698317 0.028397147623496519 0 0.00025197325562932295 0.028204386872986976 0 0.00039793708539698317 0.028397147623496519 0 0.00025197325562932295 0.028204386872986976 0 0.00035540438993851803 0.028181535595191251 0 0.00019563122883150806 0.028516493564650004 0 0.00025197325562932295 0.028204386872986976 0 6.2902966990970263e-05 0.02826494438306458 0 0.00025197325562932295 0.028204386872986976 0 0.0001168184855866516 0.027958175467368278 0 0.00027806618127894502 0.027964157481689247 0 0.0001168184855866516 0.027958175467368278 0 6.2902966990970263e-05 0.02826494438306458 0 -0.00021252254328050883 0.028130527282841915 0 0.00025197325562932295 0.028204386872986976 0 0.0001168184855866516 0.027958175467368278 0 6.2902966990970263e-05 0.02826494438306458 0 6.2751503450890226e-05 0.029110212594839653 0 0.00019563122883150806 0.028516493564650004 0 -9.9046190990989313e-05 0.028604278280714726 0 0.00019563122883150806 0.028516493564650004 0 6.2902966990970263e-05 0.02826494438306458 0 -9.9046190990989313e-05 0.028604278280714726 0 6.2902966990970263e-05 0.02826494438306458 0 -9.9046190990989313e-05 0.028604278280714726 0 -0.00021252254328050883 0.028130527282841915 0 -0.00050931086802208717 0.028679009627321901 0 -9.9046190990989313e-05 0.028604278280714726 0 -0.00021252254328050883 0.028130527282841915 0 -0.00062188007580713434 0.028247533575600725 0 -0.00050931086802208717 0.028679009627321901 0 -0.00021252254328050883 0.028130527282841915 0 -0.00046689908005629509 0.027809295826396196 0 -0.00021252254328050883 0.028130527282841915 0 -0.00021724280298725764 0.027715801677212229 0 0.0001168184855866516 0.027958175467368278 0 -0.00021252254328050883 0.028130527282841915 0 -8.3628666697472619e-06 0.027705825695133197 0 -0.00021252254328050883 0.028130527282841915 0 -0.00021724280298725764 0.027715801677212229 0 -8.3628666697472619e-06 0.027705825695133197 0 -0.0002510044733704684 0.027324426997342905 0 -8.3628666697472619e-06 0.027705825695133197 0 -4.398566727346986e-06 0.027305986973454707 0 -0.0002510044733704684 0.027324426997342905 0 -0.00021724280298725764 0.027715801677212229 0 -8.3628666697472619e-06 0.027705825695133197 0 -8.3628666697472619e-06 0.027705825695133197 0 -4.398566727346986e-06 0.027305986973454707 0 0.0001528006299056823 0.027614925236055285 0 0.0001168184855866516 0.027958175467368278 0 0.0001528006299056823 0.027614925236055285 0 0.00027806618127894502 0.027964157481689247 0 0.0001168184855866516 0.027958175467368278 0 -8.3628666697472619e-06 0.027705825695133197 0 0.0001528006299056823 0.027614925236055285 0 0.0001528006299056823 0.027614925236055285 0 0.00025566339409870153 0.027714882465398272 0 0.00027806618127894502 0.027964157481689247 0 0.00025566339409870153 0.027714882465398272 0 0.00011225963365337991 0.027154475028375973 0 0.00019296833590873408 0.027243495419228343 0 0.0001528006299056823 0.027614925236055285 0 0.00025566339409870153 0.027714882465398272 0 0.00011225963365337991 0.027154475028375973 0 -0.00014253074035971015 0.026764533644750583 0 -4.398566727346986e-06 0.027305986973454707 0 0.00011225963365337991 0.027154475028375973 0 -4.398566727346986e-06 0.027305986973454707 0 0.0001528006299056823 0.027614925236055285 0 0.00011225963365337991 0.027154475028375973 0 2.7218987828753413e-05 0.026504773682888279 0 -0.00014253074035971015 0.026764533644750583 0 0.00011225963365337991 0.027154475028375973 0 2.7218987828753413e-05 0.026504773682888279 0 0.00019296833590873408 0.027243495419228343 0 2.6680093272051823e-07 0.026342692081717901 0 2.7218987828753413e-05 0.026504773682888279 0 0.00011225963365337991 0.027154475028375973 0 0.00019296833590873408 0.027243495419228343 0 0.00025566339409870153 0.027714882465398272 0 0.00019296833590873408 0.027243495419228343 0 0.00023903685210312323 0.027991761227758118 0 0.00019296833590873408 0.027243495419228343 0 3.802044480167051e-07 0.02836520692842831 0 0.00023903685210312323 0.027991761227758118 0 0.00019296833590873408 0.027243495419228343 0 3.802044480167051e-07 0.02836520692842831 0 2.6680093272051823e-07 0.026342692081717901 0 1.2524453432155789e-06 0.030388320909931484 0 0.00030334223868968061 0.028867522645056615 0 8.1780874251812701e-05 0.029944907907000613 0 3.802044480167051e-07 0.02836520692842831 0 1.2524453432155789e-06 0.030388320909931484 0 0.00030334223868968061 0.028867522645056615 0 3.802044480167051e-07 0.02836520692842831 0 0.00023903685210312323 0.027991761227758118 0 0.00030334223868968061 0.028867522645056615 0 0.00023903685210312323 0.027991761227758118 0 0.00030334223868968061 0.028867522645056615 0 0.00034859679494146639 0.028127752132191316 0 0.00030334223868968061 0.028867522645056615 0 0.00031420571407783063 0.028439988547682572 0 0.00034859679494146639 0.028127752132191316 0 0.00030334223868968061 0.028867522645056615 0 0.00031420571407783063 0.028439988547682572 0 0.00018808817693561646 0.028971802835097864 0 0.00025566339409870153 0.027714882465398272 0 0.00034859679494146639 0.028127752132191316 0 0.00027806618127894502 0.027964157481689247 0 0.00025566339409870153 0.027714882465398272 0 0.00023903685210312323 0.027991761227758118 0 0.00034859679494146639 0.028127752132191316 0 0.00025197325562932295 0.028204386872986976 0 0.00027806618127894502 0.027964157481689247 0 0.00035540438993851803 0.028181535595191251 0 0.00034859679494146639 0.028127752132191316 0 0.00027806618127894502 0.027964157481689247 0 0.00035540438993851803 0.028181535595191251 0 0.00031420571407783063 0.028439988547682572 0 0.00034859679494146639 0.028127752132191316 0 0.00035540438993851803 0.028181535595191251 0 0.00031420571407783063 0.028439988547682572 0 0.00035540438993851803 0.028181535595191251 0 0.00037214213644551781 0.028286021256983634 0 0.00037214213644551781 0.028286021256983634 0 0.00035665367153044672 0.028306258813373057 0 0.0005032016724160214 0.028402968750336845 0 0.00037214213644551781 0.028286021256983634 0 0.00035665367153044672 0.028306258813373057 0 0.00029906425946076568 0.028364227997291911 0 0.00031420571407783063 0.028439988547682572 0 0.00037214213644551781 0.028286021256983634 0 0.00029906425946076568 0.028364227997291911 0 0.00035665367153044672 0.028306258813373057 0 0.00038219567529134964 0.028274022379700517 0 0.0005032016724160214 0.028402968750336845 0 0.00035665367153044672 0.028306258813373057 0 0.00038219567529134964 0.028274022379700517 0 0.00026029114048953472 0.028268819672553878 0 0.00029906425946076568 0.028364227997291911 0 0.00026029114048953472 0.028268819672553878 0 0.00018240871102355436 0.028606419195005481 0 0.00035665367153044672 0.028306258813373057 0 0.00029906425946076568 0.028364227997291911 0 0.00026029114048953472 0.028268819672553878 0 -0.00093142700162932631 0.027977028979388717 0 -0.00052596043838915279 0.028158901333309169 0 -0.00091423446408390226 0.028709473134909794 0 1.7374834186780494e-05 0.032899027524579474 0 -0.00066442566144783635 0.031489491065846323 0 1.7374834186780494e-05 0.032899027524579474 0 -0.00059528497666928263 0.029648680245240745 0 -0.00059528497666928263 0.029648680245240745 0 -0.0004606146821710849 0.029500187006335027 0 -0.00059528497666928263 0.029648680245240745 0 -0.00010911137470132038 0.028528040142094278 0 0.00019498956748778947 0.028207654570412632 0 0.00026029114048953472 0.028268819672553878 0 -0.00018294105674596876 0.029116808556957446 0 -0.00052596043838915279 0.028158901333309169 0 -0.00091423446408390226 0.028709473134909794 0 -0.00018294105674596876 0.029116808556957446 0 0.00026029114048953472 0.028268819672553878 0 0.00018240871102355436 0.028606419195005481 0 -0.00018294105674596876 0.029116808556957446 0 0.00031420571407783063 0.028439988547682572 0 0.00029906425946076568 0.028364227997291911 0 0.00018240871102355436 0.028606419195005481 0 0.00018240871102355436 0.028606419195005481 0 0.00018808817693561646 0.028971802835097864 0 -0.00018294105674596876 0.029116808556957446 0 0.00031420571407783063 0.028439988547682572 0 0.00018240871102355436 0.028606419195005481 0 0.00018808817693561646 0.028971802835097864 0 0.00030334223868968061 0.028867522645056615 0 0.00018808817693561646 0.028971802835097864 0 8.1780874251812701e-05 0.029944907907000613 0 0.00018808817693561646 0.028971802835097864 0 8.1780874251812701e-05 0.029944907907000613 0 -0.00018294105674596876 0.029116808556957446 0 8.1780874251812701e-05 0.029944907907000613 0 -0.00018294105674596876 0.029116808556957446 0 -0.00092853223768944065 0.029911950207469291 0 -0.00066442566144783635 0.031489491065846323 0 -0.00058840001184376587 0.032019206694492278 0 -0.00091423446408390226 0.028709473134909794 0 -0.00018294105674596876 0.029116808556957446 0 -0.00092853223768944065 0.029911950207469291 0 8.1780874251812701e-05 0.029944907907000613 0 -0.00092853223768944065 0.029911950207469291 0 -2.833255722669268e-06 0.032408193802718602 0 -0.00058840001184376587 0.032019206694492278 0 -3.6181394151103137e-07 0.032411465412056625 0 1.2524453432155789e-06 0.030388320909931484 0 8.1780874251812701e-05 0.029944907907000613 0 -2.833255722669268e-06 0.032408193802718602 0 -1.4467138948649414e-06 0.032416835443842926 0 7.6698264520425889e-07 0.034997238067918782 0 8.3168981626186248e-05 0.034666226119711915 0 7.6698264520425889e-07 0.034997238067918782 0 8.3168981626186248e-05 0.034666226119711915 0 -3.2157015797398249e-08 0.035000101126992436 0 -0.00046196015912723383 0.034018584586897598 0 -1.4467138948649414e-06 0.032416835443842926 0 8.3168981626186248e-05 0.034666226119711915 0 -0.00030719786092825977 0.034836530486737328 0 -0.00046196015912723383 0.034018584586897598 0 8.3168981626186248e-05 0.034666226119711915 0 8.3168981626186248e-05 0.034666226119711915 0 -3.2157015797398249e-08 0.035000101126992436 0 -6.6544835131012649e-05 0.034954233738363316 0 -0.00030719786092825977 0.034836530486737328 0 8.3168981626186248e-05 0.034666226119711915 0 -6.6544835131012649e-05 0.034954233738363316 0 -0.00017788256094703101 0.035025666613798703 0 -6.6544835131012649e-05 0.034954233738363316 0 -3.9604788199455786e-05 0.035023769240850253 0 -0.00017788256094703101 0.035025666613798703 0 -0.00030719786092825977 0.034836530486737328 0 -6.6544835131012649e-05 0.034954233738363316 0 -3.2157015797398249e-08 0.035000101126992436 0 -6.6544835131012649e-05 0.034954233738363316 0 -3.9604788199455786e-05 0.035023769240850253 0 -3.2157015797398249e-08 0.035000101126992436 0 -2.845699042698532e-08 0.035000033306722404 0 -3.9604788199455786e-05 0.035023769240850253 0 -1.7083672751051247e-08 0.034999834900695449 0 -8.6582654823212539e-06 0.034953192705403251 0 -7.2544508004914307e-06 0.034952801632055878 0 -1.4064072606460694e-07 0.034999924632323577 0 8.8076837026038746e-05 0.035083147379336405 0 -1.7083672751051247e-08 0.034999834900695449 0 -4.2171663804380567e-08 0.034966250099031967 0 1.595342680592816e-08 0.034999984300247082 0 -1.7083672751051247e-08 0.034999834900695449 0 -8.6582654823212539e-06 0.034953192705403251 0 -4.2171663804380567e-08 0.034966250099031967 0 -8.6582654823212539e-06 0.034953192705403251 0 -4.2171663804380567e-08 0.034966250099031967 0 -1.1737455775095023e-05 0.034923072297981056 0 -1.3645641886379585e-05 0.034921905485904257 0 9.6727439393012108e-06 0.034947934108524717 0 -1.5623952099310934e-05 0.034837372562460979 0 1.284389867704335e-05 0.034770706465952865 0 -1.1035846942382614e-05 0.034740784190393524 0 -1.1737455775095023e-05 0.034923072297981056 0 -1.3645641886379585e-05 0.034921905485904257 0 -1.5623952099310934e-05 0.034837372562460979 0 -8.6582654823212539e-06 0.034953192705403251 0 -1.1737455775095023e-05 0.034923072297981056 0 -1.3645641886379585e-05 0.034921905485904257 0 -8.6582654823212539e-06 0.034953192705403251 0 -1.3645641886379585e-05 0.034921905485904257 0 -6.9194769263373088e-06 0.034949310902207563 0 -1.3645641886379585e-05 0.034921905485904257 0 9.6727439393012108e-06 0.034947934108524717 0 -6.9194769263373088e-06 0.034949310902207563 0 1.7374834186780494e-05 0.032899027524579474 0 8.8076837026038746e-05 0.035083147379336405 0 3.6597157674068668e-06 0.034944570965733432 0 9.6727439393012108e-06 0.034947934108524717 0 -6.9194769263373088e-06 0.034949310902207563 0 3.6597157674068668e-06 0.034944570965733432 0 -6.9194769263373088e-06 0.034949310902207563 0 -7.2544508004914307e-06 0.034952801632055878 0 -8.6582654823212539e-06 0.034953192705403251 0 -6.9194769263373088e-06 0.034949310902207563 0 -7.2544508004914307e-06 0.034952801632055878 0 0.00038219567529134964 0.028274022379700517 0 0.0005032016724160214 0.028402968750336845 0 0.00090278964115575228 0.0285790427948052 0 -4.9099638749912906e-05 0.033186432605471092 0 -0.00071169122022497278 0.032821032843923015 0 -0.00033651551584557964 0.034294485357474098 0 -4.9099638749912906e-05 0.033186432605471092 0 -8.0429431948000814e-06 0.03421253491895123 0 -0.00033651551584557964 0.034294485357474098 0 1.7374834186780494e-05 0.032899027524579474 0 1.284389867704335e-05 0.034770706465952865 0 -0.00059528497666928263 0.029648680245240745 0 0.00034829546394192073 0.031650459701393553 0 0.00039793708539698317 0.028397147623496519 0 0.00037214213644551781 0.028286021256983634 0 0.0005032016724160214 0.028402968750336845 0 0.00039793708539698317 0.028397147623496519 0 0.0005032016724160214 0.028402968750336845 0 0.00063424711786096502 0.028704136377741586 0 0.0005032016724160214 0.028402968750336845 0 0.00063424711786096502 0.028704136377741586 0 0.00090278964115575228 0.0285790427948052 0 0.00040329787602016922 0.028698118486922188 0 0.00063424711786096502 0.028704136377741586 0 0.00056067482218340734 0.029167710961825237 0 0.00063424711786096502 0.028704136377741586 0 0.00090278964115575228 0.0285790427948052 0 0.0012351895331341315 0.029191247011681298 0 -8.0429431948000814e-06 0.03421253491895123 0 -0.00033651551584557964 0.034294485357474098 0 -1.5623952099310934e-05 0.034837372562460979 0 -0.00033651551584557964 0.034294485357474098 0 -5.1534884321768995e-05 0.035019940414969426 0 -1.5623952099310934e-05 0.034837372562460979 0 0.00034829546394192073 0.031650459701393553 0 0.00056874647429306106 0.032056145722244307 0 0.00063424711786096502 0.028704136377741586 0 0.0012351895331341315 0.029191247011681298 0 0.00056067482218340734 0.029167710961825237 0 0.00030348614260822135 0.029916997127082932 0 0.00056067482218340734 0.029167710961825237 0 0.00088473040276836328 0.02963294449597921 0 0.0012351895331341315 0.029191247011681298 0 0.00056067482218340734 0.029167710961825237 0 0.00088473040276836328 0.02963294449597921 0 0.0014453712756034656 0.029867813579777976 0 0.0012351895331341315 0.029191247011681298 0 0.00088473040276836328 0.02963294449597921 0 -5.0166239706030585e-06 0.034987897191598678 0 -7.4032916236362409e-07 0.034994113138792443 0 8.3257946303039611e-07 0.034989335136620836 0 0.00072196558714351336 0.032422542211907678 0 0.00056874647429306106 0.032056145722244307 0 -5.0166239706030585e-06 0.034987897191598678 0 -5.1534884321768995e-05 0.035019940414969426 0 8.3257946303039611e-07 0.034989335136620836 0 -7.4032916236362409e-07 0.034994113138792443 0 1.595342680592816e-08 0.034999984300247082 0 8.3257946303039611e-07 0.034989335136620836 0 -7.5521331607802005e-09 0.034999985714676322 0 -7.4032916236362409e-07 0.034994113138792443 0 1.595342680592816e-08 0.034999984300247082 0 -4.2171663804380567e-08 0.034966250099031967 0 1.595342680592816e-08 0.034999984300247082 0 8.3257946303039611e-07 0.034989335136620836 0 -4.2171663804380567e-08 0.034966250099031967 0 -1.1737455775095023e-05 0.034923072297981056 0 8.3257946303039611e-07 0.034989335136620836 0 -1.1737455775095023e-05 0.034923072297981056 0 -1.5623952099310934e-05 0.034837372562460979 0 8.3257946303039611e-07 0.034989335136620836 0 -5.1534884321768995e-05 0.035019940414969426 0 -1.5623952099310934e-05 0.034837372562460979 0 8.3257946303039611e-07 0.034989335136620836 0 -0.0022781078826652219 0.0088538614491942124 0 -0.0021196362452587294 0.0088696703511698862 0 -0.0022041422669561296 0.0085624212196460953 0 -0.0022781078826652219 0.0088538614491942124 0 -0.0025718870485528043 0.0086240577121839152 0 -0.0024209240864546664 0.0085024513953557129 0 -0.0013827715925364414 0.0088159747384804078 0 -0.00032826441937095874 0.0092878864497593101 0 -0.0004728771871736239 0.008365302259213097 0 -0.001878783938391573 0.0087956637719634415 0 -0.0013900605428281605 0.0093982506605255877 0 -0.00032826441937095874 0.0092878864497593101 0 -0.0004728771871736239 0.008365302259213097 0 0.00036722898439244797 0.0090131107467077767 0 -0.0004728771871736239 0.008365302259213097 0 -0.0013957310231420125 0.0082341389666994794 0 -0.00094794670898701782 0.0075937986184594656 0 -0.0013827715925364414 0.0088159747384804078 0 -0.0004728771871736239 0.008365302259213097 0 -0.0013957310231420125 0.0082341389666994794 0 -0.0013827715925364414 0.0088159747384804078 0 -0.0013957310231420125 0.0082341389666994794 0 -0.0019437463987746274 0.008725510141805325 0 -0.0022781078826652219 0.0088538614491942124 0 -0.002057603081385122 0.0089636387396787327 0 -0.0021196362452587294 0.0088696703511698862 0 -0.0013827715925364414 0.0088159747384804078 0 -0.0019437463987746274 0.008725510141805325 0 -0.002057603081385122 0.0089636387396787327 0 -0.0013957310231420125 0.0082341389666994794 0 -0.0019437463987746274 0.008725510141805325 0 -0.0017797636180819625 0.0081632342062793201 0 -0.001878783938391573 0.0087956637719634415 0 -0.0020367177104521077 0.0089240328563234481 0 -0.0019437463987746274 0.008725510141805325 0 -0.0021011298209577469 0.0079687859195617574 0 -0.0017797636180819625 0.0081632342062793201 0 -0.002057603081385122 0.0089636387396787327 0 -0.0020202010471880348 0.0089649397255753323 0 -0.0021196362452587294 0.0088696703511698862 0 -0.002057603081385122 0.0089636387396787327 0 -0.0019214457752753039 0.0091218084078306862 0 -0.0020098392044093738 0.009807103400400299 0 -0.0019214457752753039 0.0091218084078306862 0 -0.0020098392044093738 0.009807103400400299 0 -0.001660305295580983 0.0093959778088797685 0 -0.0019437463987746274 0.008725510141805325 0 -0.002057603081385122 0.0089636387396787327 0 -0.0020098392044093738 0.009807103400400299 0 -0.0019551288239089341 0.0088097676279047712 0 -0.0022187802267262854 0.0088744992865044201 0 -0.002057603081385122 0.0089636387396787327 0 -0.0020202010471880348 0.0089649397255753323 0 -0.0019214457752753039 0.0091218084078306862 0 -0.0019214457752753039 0.0091218084078306862 0 -0.0016971720717181547 0.0090256786300414258 0 -0.001660305295580983 0.0093959778088797685 0 -0.0019214457752753039 0.0091218084078306862 0 -0.0019393748122667435 0.0088938630196426626 0 -0.0016971720717181547 0.0090256786300414258 0 -0.0020202010471880348 0.0089649397255753323 0 -0.0019214457752753039 0.0091218084078306862 0 -0.0019393748122667435 0.0088938630196426626 0 -0.0019393748122667435 0.0088938630196426626 0 -0.0020035611113636896 0.0086723301570492215 0 -0.0017295937386266026 0.0087059292053192783 0 -0.0019393748122667435 0.0088938630196426626 0 -0.0017295937386266026 0.0087059292053192783 0 -0.0016971720717181547 0.0090256786300414258 0 -0.0021196362452587294 0.0088696703511698862 0 -0.0020035611113636896 0.0086723301570492215 0 -0.0022041422669561296 0.0085624212196460953 0 -0.0020202010471880348 0.0089649397255753323 0 -0.0019393748122667435 0.0088938630196426626 0 -0.0021196362452587294 0.0088696703511698862 0 -0.0019393748122667435 0.0088938630196426626 0 -0.0021196362452587294 0.0088696703511698862 0 -0.0020035611113636896 0.0086723301570492215 0 -0.0020403836106808663 0.0084150878709787057 0 -0.0021796701527123001 0.0082753285936537288 0 -0.0022041422669561296 0.0085624212196460953 0 -0.0020035611113636896 0.0086723301570492215 0 -0.0020403836106808663 0.0084150878709787057 0 -0.0022041422669561296 0.0085624212196460953 0 -0.0020035611113636896 0.0086723301570492215 0 -0.0020403836106808663 0.0084150878709787057 0 -0.0018433995606236518 0.0084574714254286587 0 -0.0020035611113636896 0.0086723301570492215 0 -0.0017295937386266026 0.0087059292053192783 0 -0.0018433995606236518 0.0084574714254286587 0 -0.0017295937386266026 0.0087059292053192783 0 -0.0018433995606236518 0.0084574714254286587 0 -0.0016367435127209353 0.0084713573544636326 0 -0.0018433995606236518 0.0084574714254286587 0 -0.0016872648142924808 0.0083203319680080802 0 -0.0016367435127209353 0.0084713573544636326 0 -0.0020218940007836429 0.0081994191759777266 0 -0.0016061648464720667 0.0080708046847081261 0 -0.0021144487511134207 0.0080525130434446479 0 -0.0018907422665533802 0.0082826930682449607 0 -0.0020218940007836429 0.0081994191759777266 0 -0.0016061648464720667 0.0080708046847081261 0 -0.0016872648142924808 0.0083203319680080802 0 -0.0018907422665533802 0.0082826930682449607 0 -0.0016061648464720667 0.0080708046847081261 0 -0.0018433995606236518 0.0084574714254286587 0 -0.0016872648142924808 0.0083203319680080802 0 -0.0018907422665533802 0.0082826930682449607 0 -0.0020403836106808663 0.0084150878709787057 0 -0.0018433995606236518 0.0084574714254286587 0 -0.0018907422665533802 0.0082826930682449607 0 -0.0020403836106808663 0.0084150878709787057 0 -0.0021796701527123001 0.0082753285936537288 0 -0.0020218940007836429 0.0081994191759777266 0 -0.0020403836106808663 0.0084150878709787057 0 -0.0018907422665533802 0.0082826930682449607 0 -0.0020218940007836429 0.0081994191759777266 0 -0.0021796701527123001 0.0082753285936537288 0 -0.0020218940007836429 0.0081994191759777266 0 -0.0021144487511134207 0.0080525130434446479 0 -0.0021796701527123001 0.0082753285936537288 0 -0.0022912132281038386 0.0081319513382232204 0 -0.0021144487511134207 0.0080525130434446479 0 -0.0021796701527123001 0.0082753285936537288 0 -0.0023580449656211808 0.008291207016326017 0 -0.0022041422669561296 0.0085624212196460953 0 -0.0021796701527123001 0.0082753285936537288 0 -0.0022912132281038386 0.0081319513382232204 0 -0.0023580449656211808 0.008291207016326017 0 -0.0022912132281038386 0.0081319513382232204 0 -0.0023580449656211808 0.008291207016326017 0 -0.002441419159079374 0.0081270701218939187 0 -0.0023580449656211808 0.008291207016326017 0 -0.0022041422669561296 0.0085624212196460953 0 -0.0024209240864546664 0.0085024513953557129 0 -0.0022781078826652219 0.0088538614491942124 0 -0.0022041422669561296 0.0085624212196460953 0 -0.0024209240864546664 0.0085024513953557129 0 -0.0025718870485528043 0.0086240577121839152 0 -0.0024209240864546664 0.0085024513953557129 0 -0.0026070516818714564 0.0083940944609407261 0 -0.0024209240864546664 0.0085024513953557129 0 -0.0026070516818714564 0.0083940944609407261 0 -0.0025008578763760663 0.008299069175621605 0 -0.0025008578763760663 0.008299069175621605 0 -0.002441419159079374 0.0081270701218939187 0 -0.0026719440335244773 0.0081867755594788542 0 -0.0026070516818714564 0.0083940944609407261 0 -0.0025008578763760663 0.008299069175621605 0 -0.0026719440335244773 0.0081867755594788542 0 -0.0023580449656211808 0.008291207016326017 0 -0.0024209240864546664 0.0085024513953557129 0 -0.0025008578763760663 0.008299069175621605 0 -0.0023580449656211808 0.008291207016326017 0 -0.0025008578763760663 0.008299069175621605 0 -0.002441419159079374 0.0081270701218939187 0 -0.00070651223765062006 0.0037082590354300263 0 -0.0002260953540707579 0.0049383601278847394 0 0.0011508161376660574 -0.00053383318254448479 0 0.00032299846182153361 -0.00047397070775272203 0 0.00031644495044096718 0.00056587854063963681 0 -0.0026070516818714564 0.0083940944609407261 0 -0.0026719440335244773 0.0081867755594788542 0 -0.0028362557832765337 0.0084140481160571972 0 0.0011508161376660574 -0.00053383318254448479 0 0.00032299846182153361 -0.00047397070775272203 0 0.00052942049102684371 -0.0011992393082683034 0 0.00032299846182153361 -0.00047397070775272203 0 -0.00016674777909944511 -0.00094454217581147967 0 0.00052942049102684371 -0.0011992393082683034 0 0.00032299846182153361 -0.00047397070775272203 0 -0.00014947432457318839 -0.00025312909269231535 0 -0.00016674777909944511 -0.00094454217581147967 0 -0.00056845078467753635 -0.00056863010696568358 0 -0.00014947432457318839 -0.00025312909269231535 0 -0.00016674777909944511 -0.00094454217581147967 0 -0.00056845078467753635 -0.00056863010696568358 0 -0.00050379158447182756 0.0001116444820045436 0 -0.00014947432457318839 -0.00025312909269231535 0 -0.00050379158447182756 0.0001116444820045436 0 -0.00014947432457318839 -0.00025312909269231535 0 0.00031644495044096718 0.00056587854063963681 0 -0.00056845078467753635 -0.00056863010696568358 0 -0.00050379158447182756 0.0001116444820045436 0 -0.00081340309504208811 5.5934460773359941e-05 0 0.00032299846182153361 -0.00047397070775272203 0 -0.00014947432457318839 -0.00025312909269231535 0 0.00031644495044096718 0.00056587854063963681 0 -0.00050379158447182756 0.0001116444820045436 0 0.00073259455881095599 0.00079899591253022395 0 -1.0368307824694445e-05 0.0017388653291344233 0 -0.00064309063980950618 -0.00013604975167467217 0 0.00020555503031572877 0.0045719737900679494 0 -0.00091086794975329597 0.00051288948432447103 0 -0.0002260953540707579 0.0049383601278847394 0 -0.00050379158447182756 0.0001116444820045436 0 -0.00081340309504208811 5.5934460773359941e-05 0 -1.0368307824694445e-05 0.0017388653291344233 0 -0.00018963545802190085 0.00043610005673232124 0 -0.00035943951917780857 0.001243268885772795 0 0.00093913607651829271 0.00209018712226896 0 0.00076636485384948218 0.0097843640193936293 0 0.00036722898439244797 0.0090131107467077767 0 0.0011467561414879666 0.0093009246775858541 0 -0.0002260953540707579 0.0049383601278847394 0 0.00020555503031572877 0.0045719737900679494 0 -0.0025718870485528043 0.0086240577121839152 0 -0.0026070516818714564 0.0083940944609407261 0 -0.0028362557832765337 0.0084140481160571972 0 -0.0013900605428281605 0.0093982506605255877 0 -0.0002260953540707579 0.0049383601278847394 0 -0.00032826441937095874 0.0092878864497593101 0 0.00076636485384948218 0.0097843640193936293 0 0.00036722898439244797 0.0090131107467077767 0 -0.0023833905763451114 -3.9823591690759663e-05 0 -0.0015925849258327572 3.894365794975493e-05 0 -0.0018864511186858577 -0.0011080995212543021 0 -0.0015925849258327572 3.894365794975493e-05 0 -0.0018864511186858577 -0.0011080995212543021 0 -0.0011864572968510242 -0.0010507862945473572 0 -0.0023833905763451114 -3.9823591690759663e-05 0 -0.0015925849258327572 3.894365794975493e-05 0 -0.0019489197451663836 0.00087210988033793106 0 -0.00064309063980950618 -0.00013604975167467217 0 -0.0010420385940855352 -0.00076945596613302086 0 -0.00097741286415464344 0.00031496840545568324 0 -0.00018963545802190085 0.00043610005673232124 0 -0.0011864572968510242 -0.0010507862945473572 0 -0.00056845078467753635 -0.00056863010696568358 0 -0.00081340309504208811 5.5934460773359941e-05 0 -0.0011864572968510242 -0.0010507862945473572 0 -0.0015925849258327572 3.894365794975493e-05 0 -0.00097741286415464344 0.00031496840545568324 0 -0.0013677094782101394 0.0009144754812697171 0 -0.0015925849258327572 3.894365794975493e-05 0 -0.00097741286415464344 0.00031496840545568324 0 -0.0011864572968510242 -0.0010507862945473572 0 -0.00097741286415464344 0.00031496840545568324 0 -0.00018963545802190085 0.00043610005673232124 0 -0.00059329652185410647 0.00070515388005554724 0 -0.00018963545802190085 0.00043610005673232124 0 -0.00059329652185410647 0.00070515388005554724 0 -0.00035943951917780857 0.001243268885772795 0 -0.00035943951917780857 0.001243268885772795 0 -0.00090437021083176008 0.0015232668684994431 0 -0.00088322114015361984 0.00093441402195504212 0 -0.00059329652185410647 0.00070515388005554724 0 -0.00035943951917780857 0.001243268885772795 0 -0.00088322114015361984 0.00093441402195504212 0 -0.00035943951917780857 0.001243268885772795 0 -0.00037776067764212713 0.0018866415901807898 0 0.00093913607651829271 0.00209018712226896 0 -0.00035943951917780857 0.001243268885772795 0 -0.00037776067764212713 0.0018866415901807898 0 -0.00090437021083176008 0.0015232668684994431 0 -0.0014296039235578545 0.0015888104812117674 0 -0.0017579721795516565 0.0021008615298712886 0 -0.0011062231289615105 0.002218819239358542 0 -0.00037776067764212713 0.0018866415901807898 0 -0.00090437021083176008 0.0015232668684994431 0 -0.0011062231289615105 0.002218819239358542 0 -0.00090437021083176008 0.0015232668684994431 0 -0.0014296039235578545 0.0015888104812117674 0 -0.0011062231289615105 0.002218819239358542 0 -0.00090437021083176008 0.0015232668684994431 0 -0.0014296039235578545 0.0015888104812117674 0 -0.0013677094782101394 0.0009144754812697171 0 -0.00090437021083176008 0.0015232668684994431 0 -0.00088322114015361984 0.00093441402195504212 0 -0.0013677094782101394 0.0009144754812697171 0 -0.00097741286415464344 0.00031496840545568324 0 -0.00088322114015361984 0.00093441402195504212 0 -0.0013677094782101394 0.0009144754812697171 0 -0.00097741286415464344 0.00031496840545568324 0 -0.00059329652185410647 0.00070515388005554724 0 -0.00088322114015361984 0.00093441402195504212 0 -0.0015925849258327572 3.894365794975493e-05 0 -0.0013677094782101394 0.0009144754812697171 0 -0.0019489197451663836 0.00087210988033793106 0 -0.0014296039235578545 0.0015888104812117674 0 -0.0013677094782101394 0.0009144754812697171 0 -0.0019489197451663836 0.00087210988033793106 0 -0.0014296039235578545 0.0015888104812117674 0 -0.0021875766312368819 0.0017140621425711007 0 -0.0017579721795516565 0.0021008615298712886 0 -0.0014296039235578545 0.0015888104812117674 0 -0.0019489197451663836 0.00087210988033793106 0 -0.0021875766312368819 0.0017140621425711007 0 -0.0021875766312368819 0.0017140621425711007 0 -0.0026744730818017946 0.00095263963756065523 0 -0.0028680442657100145 0.0018599395848354068 0 -0.0023833905763451114 -3.9823591690759663e-05 0 -0.0019489197451663836 0.00087210988033793106 0 -0.0026744730818017946 0.00095263963756065523 0 -0.0019489197451663836 0.00087210988033793106 0 -0.0021875766312368819 0.0017140621425711007 0 -0.0026744730818017946 0.00095263963756065523 0 -0.0024682186984111136 0.003180904513492067 0 -0.0022918763551119776 0.0025406340147287416 0 -0.0018868463131034327 0.0031975853393908182 0 -0.0024682186984111136 0.003180904513492067 0 -0.0022918763551119776 0.0025406340147287416 0 -0.0030568510527375853 0.0026919290031406089 0 -0.0021875766312368819 0.0017140621425711007 0 -0.0022918763551119776 0.0025406340147287416 0 -0.0017579721795516565 0.0021008615298712886 0 -0.0021875766312368819 0.0017140621425711007 0 -0.0022918763551119776 0.0025406340147287416 0 -0.0028680442657100145 0.0018599395848354068 0 -0.0022918763551119776 0.0025406340147287416 0 -0.0015608147678446641 0.0027177969217122909 0 -0.0017579721795516565 0.0021008615298712886 0 -0.0015608147678446641 0.0027177969217122909 0 -0.0017579721795516565 0.0021008615298712886 0 -0.0011062231289615105 0.002218819239358542 0 -0.0022918763551119776 0.0025406340147287416 0 -0.0015608147678446641 0.0027177969217122909 0 -0.0018868463131034327 0.0031975853393908182 0 -0.0007094928472711128 0.0042472482703796981 0 0.00020555503031572877 0.0045719737900679494 0 -0.00070346192180354187 0.0033476100660911595 0 -0.00096975369456935598 0.0047722591196947741 0 0.00093913607651829271 0.00209018712226896 0 -0.0015608147678446641 0.0027177969217122909 0 -0.0018868463131034327 0.0031975853393908182 0 -0.00070346192180354187 0.0033476100660911595 0 -0.0015608147678446641 0.0027177969217122909 0 -0.0011062231289615105 0.002218819239358542 0 -0.00070346192180354187 0.0033476100660911595 0 -0.00037776067764212713 0.0018866415901807898 0 -0.0011062231289615105 0.002218819239358542 0 -0.00070346192180354187 0.0033476100660911595 0 -0.00037776067764212713 0.0018866415901807898 0 -0.00070346192180354187 0.0033476100660911595 0 0.00093913607651829271 0.00209018712226896 0 -0.00070346192180354187 0.0033476100660911595 0 -0.00096975369456935598 0.0047722591196947741 0 -0.0026011167435797751 0.0055087476702791235 0 -0.00072989581931174718 0.0033163258609892935 0 -0.0023642580036961937 0.0049173931278948466 0 -0.00096975369456935598 0.0047722591196947741 0 -0.00064620251494595373 0.005973390014831736 0 -0.00037446477776478836 0.0054457517705189893 0 -0.00096975369456935598 0.0047722591196947741 0 -0.00064620251494595373 0.005973390014831736 0 -0.0016331674347798428 0.0060320022863040454 0 -0.00096975369456935598 0.0047722591196947741 0 -0.0016331674347798428 0.0060320022863040454 0 -0.0026011167435797751 0.0055087476702791235 0 -0.0024682186984111136 0.003180904513492067 0 -0.0019476511399424466 0.0038533299626604968 0 -0.0032120634654097418 0.0035096774446985728 0 -0.0018868463131034327 0.0031975853393908182 0 -0.00070346192180354187 0.0033476100660911595 0 -0.0019476511399424466 0.0038533299626604968 0 -0.0016331674347798428 0.0060320022863040454 0 -0.0026011167435797751 0.0055087476702791235 0 -0.0024079147771154485 0.0065564821036721409 0 -0.0024682186984111136 0.003180904513492067 0 -0.0018868463131034327 0.0031975853393908182 0 -0.0019476511399424466 0.0038533299626604968 0 -0.0004728771871736239 0.008365302259213097 0 0.00036722898439244797 0.0090131107467077767 0 0.00066810935356008069 0.0082903412371520199 0 -0.00029046593256737668 0.0042817859698072325 0 -0.00035974243162720595 0.0048663638776090873 0 0.00017659953216295215 0.0053539321452023394 0 0.00020555503031572877 0.0045719737900679494 0 0.00051346884981772313 0.0072369218733638815 0 0.00036722898439244797 0.0090131107467077767 0 0.0011467561414879666 0.0093009246775858541 0 0.00066810935356008069 0.0082903412371520199 0 -0.00096975369456935598 0.0047722591196947741 0 -0.00029046593256737668 0.0042817859698072325 0 -0.00035974243162720595 0.0048663638776090873 0 -0.00035974243162720595 0.0048663638776090873 0 -0.00037446477776478836 0.0054457517705189893 0 0.00017659953216295215 0.0053539321452023394 0 -0.00096975369456935598 0.0047722591196947741 0 -0.00035974243162720595 0.0048663638776090873 0 -0.00037446477776478836 0.0054457517705189893 0 -0.00064620251494595373 0.005973390014831736 0 -0.00037446477776478836 0.0054457517705189893 0 -0.00020998416360275913 0.0061413300109153593 0 -0.00037446477776478836 0.0054457517705189893 0 0.00017659953216295215 0.0053539321452023394 0 -0.00020998416360275913 0.0061413300109153593 0 0.00051346884981772313 0.0072369218733638815 0 4.1516758281533389e-05 0.0066756385065149448 0 0.00017659953216295215 0.0053539321452023394 0 5.9383636277095197e-05 0.0069270648124982416 0 -0.00020998416360275913 0.0061413300109153593 0 -0.0004728771871736239 0.008365302259213097 0 0.00066810935356008069 0.0082903412371520199 0 5.9383636277095197e-05 0.0069270648124982416 0 5.9383636277095197e-05 0.0069270648124982416 0 -0.00020998416360275913 0.0061413300109153593 0 -0.0002655185690566093 0.0066319409062169342 0 -0.00064620251494595373 0.005973390014831736 0 -0.00020998416360275913 0.0061413300109153593 0 -0.0002655185690566093 0.0066319409062169342 0 -0.0002655185690566093 0.0066319409062169342 0 -0.00029514570100466243 0.0067567838044233957 0 -0.00053448154042965129 0.0067183113521600011 0 -0.0002655185690566093 0.0066319409062169342 0 -0.00029514570100466243 0.0067567838044233957 0 -0.00016601589464960257 0.0067410625934949345 0 5.9383636277095197e-05 0.0069270648124982416 0 -0.0002655185690566093 0.0066319409062169342 0 -0.00016601589464960257 0.0067410625934949345 0 -0.0023642580036961937 0.0049173931278948466 0 -0.0033460464276738469 0.0039374638189919693 0 -0.0024079147771154485 0.0065564821036721409 0 -0.0023450398321048969 0.0074669623918733738 0 -0.0038920689451301129 0.0068025727525856715 0 -0.0026011167435797751 0.0055087476702791235 0 -0.0024079147771154485 0.0065564821036721409 0 -0.0038920689451301129 0.0068025727525856715 0 -0.0024079147771154485 0.0065564821036721409 0 -0.001557232085620051 0.0072205952581054665 0 -0.0023450398321048969 0.0074669623918733738 0 -0.00064620251494595373 0.005973390014831736 0 -0.0002655185690566093 0.0066319409062169342 0 -0.00078167385155466953 0.0064513070935729175 0 -0.00064620251494595373 0.005973390014831736 0 -0.0016331674347798428 0.0060320022863040454 0 -0.001557232085620051 0.0072205952581054665 0 -0.0016331674347798428 0.0060320022863040454 0 -0.0024079147771154485 0.0065564821036721409 0 -0.001557232085620051 0.0072205952581054665 0 -0.00062797890797043718 0.0059795966471957139 0 -0.0013786583476930333 0.0070862970903702019 0 -0.00078167385155466953 0.0064513070935729175 0 -0.00053448154042965129 0.0067183113521600011 0 -0.00088263708077003457 0.0067070382867398422 0 -0.0002655185690566093 0.0066319409062169342 0 -0.00078167385155466953 0.0064513070935729175 0 -0.00053448154042965129 0.0067183113521600011 0 -0.0013786583476930333 0.0070862970903702019 0 -0.0018776044828438725 0.0047448499868541754 0 -0.0021877477185375618 0.0042714722790607677 0 -0.0033460464276738469 0.0039374638189919693 0 -0.0021877477185375618 0.0042714722790607677 0 -0.0026405851907257962 -0.00064786974905740933 0 -0.0023450398321048969 0.0074669623918733738 0 -0.0025329509229823346 0.0082278815452885793 0 -0.0038920689451301129 0.0068025727525856715 0 -0.0023450398321048969 0.0074669623918733738 0 -0.0024036062076946462 0.0083654484542537572 0 -0.0025329509229823346 0.0082278815452885793 0 -0.001557232085620051 0.0072205952581054665 0 -0.0023450398321048969 0.0074669623918733738 0 -0.0024036062076946462 0.0083654484542537572 0 -0.0018776044828438725 0.0047448499868541754 0 -0.0021877477185375618 0.0042714722790607677 0 -0.0019815630196736564 0.0034920327034954116 0 -0.0022069482934778998 0.003262482310998556 0 -0.0018413289153682763 0.0032650594238707131 0 -0.0025396320810641784 0.0014306417573477761 0 -0.0025217448863559732 0.001448389855943821 0 -0.0024012209108564045 0.0012120382631110543 0 -0.0018776044828438725 0.0047448499868541754 0 -0.0024889398147332461 0.00016393887129980631 0 -0.0018776044828438725 0.0047448499868541754 0 -0.0018028050667640836 0.0053471573358686133 0 -0.00053448154042965129 0.0067183113521600011 0 -0.00088263708077003457 0.0067070382867398422 0 -0.00049296345415136432 0.0069742841397263926 0 -0.0025835423689123298 0.005706501973156251 0 -0.0026333691507374368 0.0052672428792653464 0 -0.002867578233187707 0.0054422653910319576 0 -0.0018028050667640836 0.0053471573358686133 0 -0.0026437139254072528 0.0014466402100974745 0 -0.0022069482934778998 0.003262482310998556 0 -0.0018768508612551312 0.0031730377492590021 0 -0.0018413289153682763 0.0032650594238707131 0 -0.0026333691507374368 0.0052672428792653464 0 -0.002867578233187707 0.0054422653910319576 0 -0.0028569463637056498 0.0054843281409494076 0 -0.0017036185988006762 -0.0039368324204324861 0 -0.0017204936531061467 -0.0039689692607993337 0 -0.0017058186699794903 -0.0039725003207247683 0 -0.0026437139254072528 0.0014466402100974745 0 -0.0024889398147332461 0.00016393887129980631 0 -0.00029514570100466243 0.0067567838044233957 0 -0.00016601589464960257 0.0067410625934949345 0 -0.00019970520750899162 0.0067854647263939092 0 -0.00016601589464960257 0.0067410625934949345 0 -0.00019970520750899162 0.0067854647263939092 0 -0.0004074302883856073 0.0066103591164814179 0 -0.00029514570100466243 0.0067567838044233957 0 -0.00053448154042965129 0.0067183113521600011 0 -0.00049296345415136432 0.0069742841397263926 0 -0.0018028050667640836 0.0053471573358686133 0 -0.001065245912405694 0.0060317294027879224 0 -0.00029514570100466243 0.0067567838044233957 0 -0.00049296345415136432 0.0069742841397263926 0 -0.00019970520750899162 0.0067854647263939092 0 -0.0021833634491554904 0.0056878333121183674 0 -0.0025203223385571114 0.0053052246207866234 0 -0.0020708050260729457 0.0052183876436028322 0 -0.0021833634491554904 0.0056878333121183674 0 -0.0025835423689123298 0.005706501973156251 0 -0.0026333691507374368 0.0052672428792653464 0 -0.0024569684177894479 0.0055766265863163014 0 -0.0018028050667640836 0.0053471573358686133 0 -0.0021833634491554904 0.0056878333121183674 0 -0.0020708050260729457 0.0052183876436028322 0 -0.0019200402602623258 0.0055333508686252536 0 -0.0020708050260729457 0.0052183876436028322 0 -0.0019200402602623258 0.0055333508686252536 0 -0.0017974768303881928 0.0053448335156862552 0 -0.0016265648771025423 0.0056035819119766911 0 -0.0017974768303881928 0.0053448335156862552 0 -0.0015876563909897432 0.0051292008358234317 0 -0.0015527374691896804 0.0059042662906251394 0 -0.001215657896704071 0.0061918659828552672 0 -0.0019200402602623258 0.0055333508686252536 0 -0.0016265648771025423 0.0056035819119766911 0 -0.0017974768303881928 0.0053448335156862552 0 -0.0014268562972055839 0.0062673535486252588 0 -0.0014259651208113856 0.0064810120379443044 0 -0.001300666826076284 0.0066849365901222721 0 -0.0014268562972055839 0.0062673535486252588 0 -0.0015139653176225196 0.0062939276445177035 0 -0.0014886258779721856 0.0063713769497899288 0 -0.0014268562972055839 0.0062673535486252588 0 -0.0014886258779721856 0.0063713769497899288 0 -0.0014259651208113856 0.0064810120379443044 0 -0.0015498153917712287 0.0062386050331273346 0 -0.0015855661284760205 0.0063142823061167119 0 -0.0015715633973152287 0.0062972509714820943 0 -0.0054742391732051513 0.013670203849453966 0 -0.0055768151314265334 0.013409058355238691 0 -0.005329787718119856 0.013577941484348674 0 -0.0032976832543870228 0.008705843645565212 0 -0.0022574882632375344 0.007977291754802494 0 -0.0016380499830918919 0.0063030580420921564 0 -0.0015715633973152287 0.0062972509714820943 0 -0.0015603119129764158 0.0063828800046754021 0 -0.0015334708769760906 0.0063342500171126165 0 -0.0014886258779721856 0.0063713769497899288 0 -0.0015603119129764158 0.0063828800046754021 0 -0.0015715633973152287 0.0062972509714820943 0 -0.0015334708769760906 0.0063342500171126165 0 -0.0015603119129764158 0.0063828800046754021 0 -0.0015715633973152287 0.0062972509714820943 0 -0.0015334708769760906 0.0063342500171126165 0 -0.0015139653176225196 0.0062939276445177035 0 -0.0015334708769760906 0.0063342500171126165 0 -0.0015139653176225196 0.0062939276445177035 0 -0.0014886258779721856 0.0063713769497899288 0 -0.0014886258779721856 0.0063713769497899288 0 -0.0014259651208113856 0.0064810120379443044 0 -0.0015011138054404352 0.006484613930080309 0 -0.0014259651208113856 0.0064810120379443044 0 -0.0015011138054404352 0.006484613930080309 0 -0.0014224510490507317 0.0066034200002153048 0 -0.0014886258779721856 0.0063713769497899288 0 -0.0015011138054404352 0.006484613930080309 0 -0.0015603119129764158 0.0063828800046754021 0 -0.0016380499830918919 0.0063030580420921564 0 -0.0015603119129764158 0.0063828800046754021 0 -0.0016418709260193564 0.0065159524522059552 0 -0.0015011138054404352 0.006484613930080309 0 -0.0015603119129764158 0.0063828800046754021 0 -0.0016418709260193564 0.0065159524522059552 0 -0.0016418709260193564 0.0065159524522059552 0 -0.0015253644588596031 0.006607032750487467 0 -0.0016858418390958115 0.0067134767512071593 0 -0.0015253644588596031 0.006607032750487467 0 -0.00139520125967733 0.0067488608052555712 0 -0.0016858418390958115 0.0067134767512071593 0 -0.0015011138054404352 0.006484613930080309 0 -0.0016418709260193564 0.0065159524522059552 0 -0.0015253644588596031 0.006607032750487467 0 -0.0014259651208113856 0.0064810120379443044 0 -0.0014224510490507317 0.0066034200002153048 0 -0.001300666826076284 0.0066849365901222721 0 -0.0014224510490507317 0.0066034200002153048 0 -0.00139520125967733 0.0067488608052555712 0 -0.001300666826076284 0.0066849365901222721 0 -0.0015253644588596031 0.006607032750487467 0 -0.0014224510490507317 0.0066034200002153048 0 -0.00139520125967733 0.0067488608052555712 0 -0.0015011138054404352 0.006484613930080309 0 -0.0015253644588596031 0.006607032750487467 0 -0.0014224510490507317 0.0066034200002153048 0 -0.0013791798969271592 0.0064530667544869472 0 -0.001215657896704071 0.0061918659828552672 0 -0.00139520125967733 0.0067488608052555712 0 -0.0011113639281916266 0.006705997439192527 0 -0.0013601247237392331 0.0070576415301793292 0 -0.00139520125967733 0.0067488608052555712 0 -0.001611850325968928 0.0069496359958362069 0 -0.0013601247237392331 0.0070576415301793292 0 -0.00139520125967733 0.0067488608052555712 0 -0.0016858418390958115 0.0067134767512071593 0 -0.001611850325968928 0.0069496359958362069 0 -0.001065245912405694 0.0060317294027879224 0 -0.001215657896704071 0.0061918659828552672 0 -0.0020708050260729457 0.0052183876436028322 0 -0.0017974768303881928 0.0053448335156862552 0 -0.0015876563909897432 0.0051292008358234317 0 5.9383636277095197e-05 0.0069270648124982416 0 -0.00016601589464960257 0.0067410625934949345 0 -0.00057210407962976029 0.0067762814335040784 0 -0.001215657896704071 0.0061918659828552672 0 -0.00086104891127623308 0.0071359216587291337 0 -0.00016601589464960257 0.0067410625934949345 0 -0.0004074302883856073 0.0066103591164814179 0 -0.00057210407962976029 0.0067762814335040784 0 -0.0011113639281916266 0.006705997439192527 0 -0.0011137415839630892 0.0072488817838053344 0 -0.0013601247237392331 0.0070576415301793292 0 -0.001611850325968928 0.0069496359958362069 0 -0.0013601247237392331 0.0070576415301793292 0 -0.0017069282099214107 0.007253940869453448 0 -0.0013601247237392331 0.0070576415301793292 0 -0.0013561605891175509 0.0074032188577026186 0 -0.0017069282099214107 0.007253940869453448 0 -0.0013561605891175509 0.0074032188577026186 0 -0.001648590869151402 0.0077395211455542571 0 -0.0017069282099214107 0.007253940869453448 0 -0.0011137415839630892 0.0072488817838053344 0 -0.0013601247237392331 0.0070576415301793292 0 -0.0013561605891175509 0.0074032188577026186 0 -0.0013957310231420125 0.0082341389666994794 0 -0.00094794670898701782 0.0075937986184594656 0 -0.001648590869151402 0.0077395211455542571 0 -0.0013561605891175509 0.0074032188577026186 0 -0.00094794670898701782 0.0075937986184594656 0 -0.001648590869151402 0.0077395211455542571 0 -0.0011137415839630892 0.0072488817838053344 0 -0.0013561605891175509 0.0074032188577026186 0 -0.00094794670898701782 0.0075937986184594656 0 -0.0013957310231420125 0.0082341389666994794 0 -0.0017797636180819625 0.0081632342062793201 0 -0.001648590869151402 0.0077395211455542571 0 5.9383636277095197e-05 0.0069270648124982416 0 -0.00057210407962976029 0.0067762814335040784 0 -0.00094794670898701782 0.0075937986184594656 0 -0.0004728771871736239 0.008365302259213097 0 5.9383636277095197e-05 0.0069270648124982416 0 -0.00094794670898701782 0.0075937986184594656 0 -0.00086104891127623308 0.0071359216587291337 0 -0.00092665803147991526 0.0075342833267660917 0 -0.002635755017861726 0.007855285102422201 0 -0.0025253338525667709 0.0073440352686986289 0 -0.0028589967553738996 0.0075181823171725027 0 -0.002635755017861726 0.007855285102422201 0 -0.002144358945519031 0.0075241781774361433 0 -0.0025253338525667709 0.0073440352686986289 0 -0.002635755017861726 0.007855285102422201 0 -0.0021011298209577469 0.0079687859195617574 0 -0.002144358945519031 0.0075241781774361433 0 -0.0019437463987746274 0.008725510141805325 0 -0.002635755017861726 0.007855285102422201 0 -0.0021011298209577469 0.0079687859195617574 0 -0.0021011298209577469 0.0079687859195617574 0 -0.0017797636180819625 0.0081632342062793201 0 -0.001648590869151402 0.0077395211455542571 0 -0.0021011298209577469 0.0079687859195617574 0 -0.001648590869151402 0.0077395211455542571 0 -0.002144358945519031 0.0075241781774361433 0 -0.002144358945519031 0.0075241781774361433 0 -0.0019227496340453029 0.0070585954808694311 0 -0.0025253338525667709 0.0073440352686986289 0 -0.002144358945519031 0.0075241781774361433 0 -0.0017069282099214107 0.007253940869453448 0 -0.0019227496340453029 0.0070585954808694311 0 -0.001648590869151402 0.0077395211455542571 0 -0.002144358945519031 0.0075241781774361433 0 -0.0017069282099214107 0.007253940869453448 0 -0.001611850325968928 0.0069496359958362069 0 -0.0017069282099214107 0.007253940869453448 0 -0.0019227496340453029 0.0070585954808694311 0 -0.0025253338525667709 0.0073440352686986289 0 -0.0025759532706995337 0.0072815220054400212 0 -0.0027637685202410085 0.0072472758193053216 0 -0.0025759532706995337 0.0072815220054400212 0 -0.0025639500382353764 0.0072536957977417634 0 -0.0027637685202410085 0.0072472758193053216 0 -0.0025253338525667709 0.0073440352686986289 0 -0.0025759532706995337 0.0072815220054400212 0 -0.0025693145741893285 0.0072552160353983736 0 -0.0037196920804516776 0.010264046321534982 0 -0.0030517325650966974 0.0096647783299959166 0 -0.0026168809344306733 0.007455840078160342 0 -0.0020224857667547817 0.0065889610319095635 0 -0.0025759532706995337 0.0072815220054400212 0 -0.0025693145741893285 0.0072552160353983736 0 -0.0025639500382353764 0.0072536957977417634 0 -0.0019227496340453029 0.0070585954808694311 0 -0.0025253338525667709 0.0073440352686986289 0 -0.0019913455595230818 0.0066360763626272402 0 -0.0016858418390958115 0.0067134767512071593 0 -0.0019227496340453029 0.0070585954808694311 0 -0.0019913455595230818 0.0066360763626272402 0 -0.0016858418390958115 0.0067134767512071593 0 -0.001611850325968928 0.0069496359958362069 0 -0.0019227496340453029 0.0070585954808694311 0 -0.0016418709260193564 0.0065159524522059552 0 -0.0016858418390958115 0.0067134767512071593 0 -0.0019913455595230818 0.0066360763626272402 0 -0.0055768151314265334 0.013409058355238691 0 -0.0049978431081311153 0.013400415284500668 0 -0.004448987287663555 0.012838968197203742 0 -0.0032976832543870228 0.008705843645565212 0 -0.0037196920804516776 0.010264046321534982 0 -0.0026186686848102296 0.0073245702698194956 0 -0.0025693145741893285 0.0072552160353983736 0 -0.0025639500382353764 0.0072536957977417634 0 -0.0016380499830918919 0.0063030580420921564 0 -0.0016418709260193564 0.0065159524522059552 0 -0.0019913455595230818 0.0066360763626272402 0 -0.0032976832543870228 0.008705843645565212 0 -0.0020224857667547817 0.0065889610319095635 0 -0.0049978431081311153 0.013400415284500668 0 -0.004448987287663555 0.012838968197203742 0 -0.0045511207855315457 0.013356459907740032 0 -0.0047436088373018076 0.0137664867349107 0 -0.0049978431081311153 0.013400415284500668 0 -0.0045511207855315457 0.013356459907740032 0 -0.0055768151314265334 0.013409058355238691 0 -0.0049978431081311153 0.013400415284500668 0 -0.005329787718119856 0.013577941484348674 0 -0.0052508776147885778 0.013829433324377863 0 -0.0049978431081311153 0.013400415284500668 0 -0.005329787718119856 0.013577941484348674 0 -0.004448987287663555 0.012838968197203742 0 -0.003579329220282089 0.013081292404919918 0 -0.0032395639393017362 0.012227917552087592 0 -0.0047436088373018076 0.0137664867349107 0 -0.0045511207855315457 0.013356459907740032 0 -0.0041138187375923518 0.013536660179767403 0 -0.004448987287663555 0.012838968197203742 0 -0.0045511207855315457 0.013356459907740032 0 -0.0041138187375923518 0.013536660179767403 0 -0.004448987287663555 0.012838968197203742 0 -0.0041138187375923518 0.013536660179767403 0 -0.003579329220282089 0.013081292404919918 0 -0.0033226021705778409 0.013729288813875159 0 -0.0041138187375923518 0.013536660179767403 0 -0.003579329220282089 0.013081292404919918 0 -0.0025544684873665562 0.013761883760384071 0 -0.0033226021705778409 0.013729288813875159 0 -0.0027428434254059414 0.013069548966925595 0 -0.0033226021705778409 0.013729288813875159 0 -0.003579329220282089 0.013081292404919918 0 -0.0027428434254059414 0.013069548966925595 0 -0.003579329220282089 0.013081292404919918 0 -0.0032395639393017362 0.012227917552087592 0 -0.0027428434254059414 0.013069548966925595 0 -0.0030517325650966974 0.0096647783299959166 0 -0.0017847570764399469 0.010214566374242888 0 -0.0032395639393017362 0.012227917552087592 0 -0.0020470973929842084 0.012577768221418076 0 -0.001955299270943088 0.011622097140484788 0 -0.0032395639393017362 0.012227917552087592 0 -0.0020470973929842084 0.012577768221418076 0 -0.0027428434254059414 0.013069548966925595 0 -0.0020470973929842084 0.012577768221418076 0 -0.0027428434254059414 0.013069548966925595 0 -0.0017792021698216298 0.013430163558603507 0 -0.0025544684873665562 0.013761883760384071 0 -0.0027428434254059414 0.013069548966925595 0 -0.0017792021698216298 0.013430163558603507 0 -0.00098712383818239666 0.013665812085106038 0 -0.0017792021698216298 0.013430163558603507 0 -0.00096043340402499598 0.013098223533576429 0 -0.0017792021698216298 0.013430163558603507 0 -0.00096043340402499598 0.013098223533576429 0 -0.0014927910017100668 0.012912157526923802 0 -0.00096043340402499598 0.013098223533576429 0 -0.0014927910017100668 0.012912157526923802 0 -0.0010433115456340472 0.012230766100787232 0 -0.0020470973929842084 0.012577768221418076 0 -0.0017792021698216298 0.013430163558603507 0 -0.0014927910017100668 0.012912157526923802 0 -0.00054727042534112602 0.014026488969473522 0 -0.00042500990518845209 0.013379625539513136 0 0.00037261351597973771 0.013202189412962799 0 -0.00042500990518845209 0.013379625539513136 0 -7.7881676141818677e-05 0.01285755862155632 0 0.00037261351597973771 0.013202189412962799 0 -0.00098712383818239666 0.013665812085106038 0 -0.00096043340402499598 0.013098223533576429 0 -0.00042500990518845209 0.013379625539513136 0 -0.00096043340402499598 0.013098223533576429 0 -0.00042500990518845209 0.013379625539513136 0 -7.7881676141818677e-05 0.01285755862155632 0 -0.00096043340402499598 0.013098223533576429 0 -7.7881676141818677e-05 0.01285755862155632 0 -0.0010433115456340472 0.012230766100787232 0 -7.7881676141818677e-05 0.01285755862155632 0 -0.00027987078568018372 0.01224913057511017 0 3.7381907663731381e-06 0.012077413466767896 0 -0.0001898401269145135 0.012756754507259783 0 -0.00071879278478977472 0.012366488940248421 0 -7.7881676141818677e-05 0.01285755862155632 0 -0.00027987078568018372 0.01224913057511017 0 -0.00067997336091243379 0.012257832344347974 0 -0.00027987078568018372 0.01224913057511017 0 -0.00067997336091243379 0.012257832344347974 0 -0.00037298117740678879 0.011790097018074406 0 -0.00027987078568018372 0.01224913057511017 0 3.7381907663731381e-06 0.012077413466767896 0 -0.00037298117740678879 0.011790097018074406 0 -0.0020470973929842084 0.012577768221418076 0 -0.0014927910017100668 0.012912157526923802 0 -0.0010433115456340472 0.012230766100787232 0 -0.0020470973929842084 0.012577768221418076 0 -0.0010433115456340472 0.012230766100787232 0 -0.001955299270943088 0.011622097140484788 0 -0.00067997336091243379 0.012257832344347974 0 -0.00083354095737523195 0.011345338209349862 0 -0.00037298117740678879 0.011790097018074406 0 -0.00067997336091243379 0.012257832344347974 0 -0.00083354095737523195 0.011345338209349862 0 -0.001443334177245975 0.011606645813309103 0 -0.00071879278478977472 0.012366488940248421 0 -0.0017847570764399469 0.010214566374242888 0 -0.0010908164011437565 0.010940425590857825 0 -0.0017847570764399469 0.010214566374242888 0 -0.00083354095737523195 0.011345338209349862 0 -0.00094058126322770104 0.011010047384311399 0 -0.001001965004644385 0.011270024696333798 0 -0.00077551203673713038 0.010993498752947044 0 -0.0005160454995553961 0.011256929532671746 0 -0.00056742422356972845 0.010924228681327346 0 -0.00083354095737523195 0.011345338209349862 0 -0.00077551203673713038 0.010993498752947044 0 -0.0005160454995553961 0.011256929532671746 0 -0.00083354095737523195 0.011345338209349862 0 -0.00077551203673713038 0.010993498752947044 0 -0.00094058126322770104 0.011010047384311399 0 -0.00077551203673713038 0.010993498752947044 0 -0.00094058126322770104 0.011010047384311399 0 -0.00091868367089503592 0.010670622048091329 0 -6.0582938316971834e-05 0.011746943665851236 0 -0.00037298117740678879 0.011790097018074406 0 -0.00021637042929196582 0.011421708292832481 0 3.7381907663731381e-06 0.012077413466767896 0 -6.0582938316971834e-05 0.011746943665851236 0 -0.00037298117740678879 0.011790097018074406 0 -0.00037298117740678879 0.011790097018074406 0 -0.0005160454995553961 0.011256929532671746 0 -0.00021637042929196582 0.011421708292832481 0 -0.00083354095737523195 0.011345338209349862 0 -0.00037298117740678879 0.011790097018074406 0 -0.0005160454995553961 0.011256929532671746 0 -0.0005160454995553961 0.011256929532671746 0 -0.00024347803937575005 0.010990117526004041 0 -0.00056742422356972845 0.010924228681327346 0 -0.0005160454995553961 0.011256929532671746 0 -0.00021637042929196582 0.011421708292832481 0 -0.00024347803937575005 0.010990117526004041 0 -6.0582938316971834e-05 0.011746943665851236 0 -0.00021637042929196582 0.011421708292832481 0 0.00031226207552111622 0.011052301125940576 0 -0.00021637042929196582 0.011421708292832481 0 -0.00024347803937575005 0.010990117526004041 0 0.00031226207552111622 0.011052301125940576 0 -0.00013959832849047674 0.010642802570605405 0 -0.00067459359990337071 0.010504086503071461 0 0.00031339183920804675 0.010349205169894181 0 -0.00024347803937575005 0.010990117526004041 0 -0.00013959832849047674 0.010642802570605405 0 0.00031226207552111622 0.011052301125940576 0 -0.00024347803937575005 0.010990117526004041 0 -0.00047614399836326955 0.010757270621259979 0 -0.00056742422356972845 0.010924228681327346 0 -0.00024347803937575005 0.010990117526004041 0 -0.00047614399836326955 0.010757270621259979 0 -0.00013959832849047674 0.010642802570605405 0 -0.00047614399836326955 0.010757270621259979 0 -0.00013959832849047674 0.010642802570605405 0 -0.00067459359990337071 0.010504086503071461 0 -0.00030088133491079492 0.010239671706983611 0 -0.00050946138489242556 0.010169598584986495 0 -0.0011941744606479823 0.010181775558345612 0 -0.00077551203673713038 0.010993498752947044 0 -0.00091868367089503592 0.010670622048091329 0 -0.00069712047682640688 0.01074376942824393 0 -0.00077551203673713038 0.010993498752947044 0 -0.00056742422356972845 0.010924228681327346 0 -0.00069712047682640688 0.01074376942824393 0 -0.00047614399836326955 0.010757270621259979 0 -0.00056742422356972845 0.010924228681327346 0 -0.00069712047682640688 0.01074376942824393 0 -0.00047614399836326955 0.010757270621259979 0 -0.00069712047682640688 0.01074376942824393 0 -0.00067459359990337071 0.010504086503071461 0 -0.00091868367089503592 0.010670622048091329 0 -0.00069712047682640688 0.01074376942824393 0 -0.00067459359990337071 0.010504086503071461 0 -0.00046849919693864686 0.010136892900195116 0 -0.0011811206343861601 0.010284452902459435 0 -0.00050946138489242556 0.010169598584986495 0 -0.0011941744606479823 0.010181775558345612 0 -0.00095617235451825745 0.0098121321783553143 0 -0.00091868367089503592 0.010670622048091329 0 -0.00067459359990337071 0.010504086503071461 0 -0.0011941744606479823 0.010181775558345612 0 -0.00091868367089503592 0.010670622048091329 0 -0.0011941744606479823 0.010181775558345612 0 -0.0010913868029489516 0.010784373036720021 0 -0.0011941744606479823 0.010181775558345612 0 -0.0014282801431237074 0.010701002369657866 0 -0.0010913868029489516 0.010784373036720021 0 -0.0020098392044093738 0.009807103400400299 0 -0.0015564786595037813 0.0099139416017391679 0 -0.0014282801431237074 0.010701002369657866 0 -0.0011941744606479823 0.010181775558345612 0 -0.0015564786595037813 0.0099139416017391679 0 -0.0013411465182108626 0.0096016027680093496 0 -0.0022187802267262854 0.0088744992865044201 0 -0.0022260835455069571 0.0090023211272469879 0 -0.0011941744606479823 0.010181775558345612 0 -0.0015564786595037813 0.0099139416017391679 0 -0.0014282801431237074 0.010701002369657866 0 -0.0025253338525667709 0.0073440352686986289 0 -0.0027637685202410085 0.0072472758193053216 0 -0.0028589967553738996 0.0075181823171725027 0 -0.0027637685202410085 0.0072472758193053216 0 -0.0028589967553738996 0.0075181823171725027 0 -0.0030398292880090168 0.0073924271387346549 0 -0.0022260835455069571 0.0090023211272469879 0 -0.0017847570764399469 0.010214566374242888 0 -0.0014282801431237074 0.010701002369657866 0 -0.001001965004644385 0.011270024696333798 0 -0.0010913868029489516 0.010784373036720021 0 -0.00094058126322770104 0.011010047384311399 0 -0.00091868367089503592 0.010670622048091329 0 -0.0010913868029489516 0.010784373036720021 0 -0.00094058126322770104 0.011010047384311399 0 -0.001001965004644385 0.011270024696333798 0 -0.0010913868029489516 0.010784373036720021 0 -0.0012413885967968359 0.018835570018578714 0 -0.0014156991720487933 0.020036233504211791 0 -0.001320584395452816 0.012931416166541884 0 -0.001306261046602082 0.012732883086934642 0 -0.0015694829904588053 0.013101379278133774 0 -0.0012568967114232892 0.013257094084811879 0 -0.001320584395452816 0.012931416166541884 0 -0.0013882799345616022 0.013064984110259775 0 -0.0011475517548865696 0.021477920020389712 0 -0.0012413885967968359 0.018835570018578714 0 -0.001320584395452816 0.012931416166541884 0 -0.0013882799345616022 0.013064984110259775 0 -0.0013623991849039702 0.012913332814763557 0 -0.0013882799345616022 0.013064984110259775 0 -0.0013623991849039702 0.012913332814763557 0 -0.0015859864705210479 0.012935616048207831 0 -0.001320584395452816 0.012931416166541884 0 -0.0013623991849039702 0.012913332814763557 0 -0.001306261046602082 0.012732883086934642 0 -0.001306261046602082 0.012732883086934642 0 -0.0006468806382081845 0.012342393805585156 0 -0.00065654281307348059 0.011802994304256718 0 -0.0013623991849039702 0.012913332814763557 0 -0.001306261046602082 0.012732883086934642 0 -0.0015859864705210479 0.012935616048207831 0 -0.00090628613330331214 0.012148069542178907 0 -0.0015819900261951131 0.014383335651282971 0 -0.0006468806382081845 0.012342393805585156 0 -0.00065654281307348059 0.011802994304256718 0 -0.0001050170734190072 0.012064960285673245 0 -0.0020745058398989745 0.017501434748557011 0 -0.0015819900261951131 0.014383335651282971 0 -0.0023583004857644892 0.022177372209515732 0 -0.0030908325023951922 0.021602792518756304 0 -0.00280914225667226 0.02231242217374654 0 -0.0031524193163126562 0.022488931224053245 0 -0.00280914225667226 0.02231242217374654 0 -0.003165183991688551 0.022144083447024249 0 -0.0030908325023951922 0.021602792518756304 0 -0.00280914225667226 0.02231242217374654 0 -0.003165183991688551 0.022144083447024249 0 -0.0031524193163126562 0.022488931224053245 0 -0.003165183991688551 0.022144083447024249 0 -0.0034107996404355878 0.022342270142822793 0 -0.0015819900261951131 0.014383335651282971 0 -0.001277873792701731 0.015733997201745772 0 -0.0030908325023951922 0.021602792518756304 0 -0.003165183991688551 0.022144083447024249 0 -0.0036807132747272951 0.022085240497650222 0 -7.7881676141818677e-05 0.01285755862155632 0 3.7381907663731381e-06 0.012077413466767896 0 0.00037261351597973771 0.013202189412962799 0 -0.00016113669020291642 0.012052082767517054 0 -9.4134226824649263e-05 0.012001925574929226 0 -0.0001050170734190072 0.012064960285673245 0 -0.0035209310965587425 0.022603213225369026 0 -0.0034107996404355878 0.022342270142822793 0 -0.0036807132747272951 0.022085240497650222 0 -0.003165183991688551 0.022144083447024249 0 -0.0034107996404355878 0.022342270142822793 0 -0.0036807132747272951 0.022085240497650222 0 -0.0013634707015037788 0.018015909924740989 0 -0.001277873792701731 0.015733997201745772 0 -9.4134226824649263e-05 0.012001925574929226 0 -4.7342190047132188e-05 0.012058789821609012 0 -0.0001050170734190072 0.012064960285673245 0 3.7381907663731381e-06 0.012077413466767896 0 -9.4134226824649263e-05 0.012001925574929226 0 -4.7342190047132188e-05 0.012058789821609012 0 6.6658411800126277e-05 0.011029289650435783 0 -0.001277873792701731 0.015733997201745772 0 -0.0015819900261951131 0.014383335651282971 0 -0.00052521339228969374 0.012480028576294287 0 -0.0001050170734190072 0.012064960285673245 0 9.0464030258193568e-05 0.012134505835025752 0 -0.00035105022345740454 0.01235657437222156 0 -0.0006468806382081845 0.012342393805585156 0 -0.0001050170734190072 0.012064960285673245 0 -0.00035105022345740454 0.01235657437222156 0 3.7381907663731381e-06 0.012077413466767896 0 -4.7342190047132188e-05 0.012058789821609012 0 9.0464030258193568e-05 0.012134505835025752 0 -4.7342190047132188e-05 0.012058789821609012 0 -0.0001050170734190072 0.012064960285673245 0 9.0464030258193568e-05 0.012134505835025752 0 9.1301220145529951e-05 0.012110011866563757 0 8.1268232805480211e-05 0.012041228438095295 0 -0.00035105022345740454 0.01235657437222156 0 -0.00012665607775373311 0.013085025439677265 0 -0.00073453380618208972 0.012758440173071674 0 -0.00012665607775373311 0.013085025439677265 0 -0.00076109720480707827 0.013288749464046292 0 -0.00073453380618208972 0.012758440173071674 0 -6.0582938316971834e-05 0.011746943665851236 0 9.0464030258193568e-05 0.012134505835025752 0 0.00031226207552111622 0.011052301125940576 0 9.0464030258193568e-05 0.012134505835025752 0 -0.00035105022345740454 0.01235657437222156 0 -0.00012665607775373311 0.013085025439677265 0 3.7381907663731381e-06 0.012077413466767896 0 -6.0582938316971834e-05 0.011746943665851236 0 9.0464030258193568e-05 0.012134505835025752 0 -0.00012665607775373311 0.013085025439677265 0 -0.00076109720480707827 0.013288749464046292 0 -0.00024787856561850108 0.013690177102773989 0 -0.00013959832849047674 0.010642802570605405 0 0.00031226207552111622 0.011052301125940576 0 0.00031339183920804675 0.010349205169894181 0 8.1268232805480211e-05 0.012041228438095295 0 -0.0006759518658910849 0.012070728614757768 0 -0.00076109720480707827 0.013288749464046292 0 -0.0012343543236163778 0.013677804292061453 0 -0.00024787856561850108 0.013690177102773989 0 -0.00076109720480707827 0.013288749464046292 0 -0.00073453380618208972 0.012758440173071674 0 -0.0012915528749363806 0.013224958318420793 0 -0.00076109720480707827 0.013288749464046292 0 -0.0012915528749363806 0.013224958318420793 0 -0.0012343543236163778 0.013677804292061453 0 -0.001306261046602082 0.012732883086934642 0 -0.0006468806382081845 0.012342393805585156 0 -0.00073453380618208972 0.012758440173071674 0 -0.0006468806382081845 0.012342393805585156 0 -0.00035105022345740454 0.01235657437222156 0 -0.00073453380618208972 0.012758440173071674 0 -0.001306261046602082 0.012732883086934642 0 -0.00073453380618208972 0.012758440173071674 0 -0.0012915528749363806 0.013224958318420793 0 -0.001306261046602082 0.012732883086934642 0 -0.0012915528749363806 0.013224958318420793 0 -0.0015694829904588053 0.013101379278133774 0 -0.0012915528749363806 0.013224958318420793 0 -0.0016215494503644963 0.013631853878294313 0 -0.0012343543236163778 0.013677804292061453 0 -0.0012915528749363806 0.013224958318420793 0 -0.0015694829904588053 0.013101379278133774 0 -0.0016215494503644963 0.013631853878294313 0 -0.0014156991720487933 0.020036233504211791 0 -0.0015590606158415628 0.02074194107641297 0 -0.0015630320383183864 0.013859767098597514 0 -0.0016215494503644963 0.013631853878294313 0 -0.0013881388349276608 0.013787421239675843 0 -0.0015630320383183864 0.013859767098597514 0 -0.0013881388349276608 0.013787421239675843 0 -0.0014439123691719949 0.013838872246487079 0 -0.0016215494503644963 0.013631853878294313 0 -0.0012343543236163778 0.013677804292061453 0 -0.0013881388349276608 0.013787421239675843 0 -0.0012343543236163778 0.013677804292061453 0 -0.0013881388349276608 0.013787421239675843 0 -0.0013136192943306361 0.013726325261669208 0 -0.0013881388349276608 0.013787421239675843 0 -0.0013136192943306361 0.013726325261669208 0 -0.0013892663293396585 0.013760308217535613 0 -0.0013136192943306361 0.013726325261669208 0 -0.0013537113480644829 0.013732428176525591 0 -0.0013892663293396585 0.013760308217535613 0 -0.0012841705081365555 0.014051118103585204 0 -0.0006759518658910849 0.012070728614757768 0 -0.0012343543236163778 0.013677804292061453 0 -0.0013136192943306361 0.013726325261669208 0 -0.0013077753455455004 0.013712172030842512 0 -0.0013981835775811456 0.010390090735460806 0 -0.001583225438212113 0.011795289222569182 0 -0.00080325650000857135 0.010872370730012923 0 -0.0006759518658910849 0.012070728614757768 0 -0.0015323995393575632 0.012773886973935042 0 -0.0013136192943306361 0.013726325261669208 0 -0.0013077753455455004 0.013712172030842512 0 -0.0013537113480644829 0.013732428176525591 0 -0.0015323995393575632 0.012773886973935042 0 -0.0014440016995020788 0.013547506261889719 0 -0.001583225438212113 0.011795289222569182 0 -0.0012988939384857843 0.013079688058494162 0 -0.0014478122438589727 0.01362618659488839 0 -0.001583225438212113 0.011795289222569182 0 -0.0012988939384857843 0.013079688058494162 0 -0.00091715373839261624 0.012302619722913501 0 -0.0012988939384857843 0.013079688058494162 0 -0.00091715373839261624 0.012302619722913501 0 -0.00066758797583343454 0.013145662747840015 0 -0.0012988939384857843 0.013079688058494162 0 -0.0014478122438589727 0.01362618659488839 0 -0.00086852153813398315 0.013284835056901376 0 -0.00099909446919305925 0.012337178766838363 0 -0.00039686345231390016 0.010588857026979885 0 -0.0014478122438589727 0.01362618659488839 0 -0.00086852153813398315 0.013284835056901376 0 -0.0012780614998739591 0.013833767064705495 0 -0.0014478122438589727 0.01362618659488839 0 -0.0014907810726809316 0.013783373735845188 0 -0.0012780614998739591 0.013833767064705495 0 -0.0014478122438589727 0.01362618659488839 0 -0.0014425836055155241 0.013727637798505056 0 -0.0013892663293396585 0.013760308217535613 0 -0.0014478122438589727 0.01362618659488839 0 -0.0014907810726809316 0.013783373735845188 0 -0.0014425836055155241 0.013727637798505056 0 -0.0014907810726809316 0.013783373735845188 0 -0.0014425836055155241 0.013727637798505056 0 -0.001444290418810217 0.013792798772169013 0 -0.0014425836055155241 0.013727637798505056 0 -0.0013892663293396585 0.013760308217535613 0 -0.001444290418810217 0.013792798772169013 0 -0.0013537113480644829 0.013732428176525591 0 -0.0014478122438589727 0.01362618659488839 0 -0.0013892663293396585 0.013760308217535613 0 -0.0013881388349276608 0.013787421239675843 0 -0.0013892663293396585 0.013760308217535613 0 -0.0014439123691719949 0.013838872246487079 0 -0.0013892663293396585 0.013760308217535613 0 -0.0014439123691719949 0.013838872246487079 0 -0.001444290418810217 0.013792798772169013 0 -0.0023577980616143212 0.016373632255819719 0 -0.003100170566073535 0.021906720612009996 0 -0.0014907810726809316 0.013783373735845188 0 -0.001444290418810217 0.013792798772169013 0 -0.0014710997807385012 0.013856207950542194 0 -0.0014907810726809316 0.013783373735845188 0 -0.0014710997807385012 0.013856207950542194 0 -0.0014910595398358948 0.013934824979141721 0 -0.0014439123691719949 0.013838872246487079 0 -0.001444290418810217 0.013792798772169013 0 -0.0014710997807385012 0.013856207950542194 0 -0.0014710997807385012 0.013856207950542194 0 -0.0014910595398358948 0.013934824979141721 0 -0.0014950878501007096 0.013894043772911722 0 -0.0030153459838691229 0.02665539190704614 0 -0.003100170566073535 0.021906720612009996 0 -0.0027003942841547597 0.023200502374781839 0 -0.003100170566073535 0.021906720612009996 0 -0.0028602983004924437 0.028742239873983458 0 -0.002946557164146477 0.028740286056546313 0 -0.0028870933741397247 0.028698342095147128 0 -0.0015270253637605221 0.013949276233098265 0 -0.0014910595398358948 0.013934824979141721 0 -0.0014950878501007096 0.013894043772911722 0 -0.0015630320383183864 0.013859767098597514 0 -0.0014439123691719949 0.013838872246487079 0 -0.0014950878501007096 0.013894043772911722 0 -0.0015630320383183864 0.013859767098597514 0 -0.0015270253637605221 0.013949276233098265 0 -0.0014950878501007096 0.013894043772911722 0 -0.0014439123691719949 0.013838872246487079 0 -0.0014710997807385012 0.013856207950542194 0 -0.0014950878501007096 0.013894043772911722 0 -0.0011007499834076045 0.009048906293243137 0 -0.0013702585050101447 0.0092116113701197558 0 -0.0010303760452976636 0.0094254488806515026 0 -0.0011007499834076045 0.009048906293243137 0 -0.0010303760452976636 0.0094254488806515026 0 -0.00067086023511451923 0.0091363241857000642 0 -0.0010303760452976636 0.0094254488806515026 0 -0.00066506997677679292 0.0095397192592742361 0 -0.00067086023511451923 0.0091363241857000642 0 -0.00088471612204596482 0.0088456684173850442 0 -0.0011007499834076045 0.009048906293243137 0 -0.00067086023511451923 0.0091363241857000642 0 -0.0011007499834076045 0.009048906293243137 0 -0.0014286021136187446 0.0088822361965889274 0 -0.001187381273217253 0.0087346132250336068 0 -0.00088471612204596482 0.0088456684173850442 0 -0.0011007499834076045 0.009048906293243137 0 -0.001187381273217253 0.0087346132250336068 0 -0.0017295937386266026 0.0087059292053192783 0 -0.0014286021136187446 0.0088822361965889274 0 -0.0016971720717181547 0.0090256786300414258 0 -0.0014286021136187446 0.0088822361965889274 0 -0.0016971720717181547 0.0090256786300414258 0 -0.0013702585050101447 0.0092116113701197558 0 -0.0011007499834076045 0.009048906293243137 0 -0.0014286021136187446 0.0088822361965889274 0 -0.0013702585050101447 0.0092116113701197558 0 -0.0013702585050101447 0.0092116113701197558 0 -0.001660305295580983 0.0093959778088797685 0 -0.0013411465182108626 0.0096016027680093496 0 -0.0016971720717181547 0.0090256786300414258 0 -0.0013702585050101447 0.0092116113701197558 0 -0.001660305295580983 0.0093959778088797685 0 -0.0020098392044093738 0.009807103400400299 0 -0.0015564786595037813 0.0099139416017391679 0 -0.001660305295580983 0.0093959778088797685 0 -0.0015564786595037813 0.0099139416017391679 0 -0.001660305295580983 0.0093959778088797685 0 -0.0013411465182108626 0.0096016027680093496 0 -0.0011941744606479823 0.010181775558345612 0 -0.0013411465182108626 0.0096016027680093496 0 -0.00095617235451825745 0.0098121321783553143 0 -0.0013702585050101447 0.0092116113701197558 0 -0.0013411465182108626 0.0096016027680093496 0 -0.0010303760452976636 0.0094254488806515026 0 -0.0013411465182108626 0.0096016027680093496 0 -0.0010303760452976636 0.0094254488806515026 0 -0.00095617235451825745 0.0098121321783553143 0 -0.0010303760452976636 0.0094254488806515026 0 -0.00095617235451825745 0.0098121321783553143 0 -0.00066506997677679292 0.0095397192592742361 0 -0.00050946138489242556 0.010169598584986495 0 -0.00095617235451825745 0.0098121321783553143 0 -0.00066506997677679292 0.0095397192592742361 0 -0.00047115740178141835 0.01022033549772627 0 -0.00022202368183369295 0.01030801267154461 0 -0.00030088133491079492 0.010239671706983611 0 -0.00050946138489242556 0.010169598584986495 0 -0.00020383494529367842 0.011420253298468524 0 -0.00050946138489242556 0.010169598584986495 0 -0.00066506997677679292 0.0095397192592742361 0 -0.0001806773171881455 0.0090806680393117831 0 -0.00030088133491079492 0.010239671706983611 0 -0.00080325650000857135 0.010872370730012923 0 -0.00020383494529367842 0.011420253298468524 0 -0.00046849919693864686 0.010136892900195116 0 -0.0006759518658910849 0.012070728614757768 0 -0.00030088133491079492 0.010239671706983611 0 -0.0013981835775811456 0.010390090735460806 0 -0.00080325650000857135 0.010872370730012923 0 -0.001583225438212113 0.011795289222569182 0 -0.00080325650000857135 0.010872370730012923 0 -0.00020383494529367842 0.011420253298468524 0 -0.001583225438212113 0.011795289222569182 0 -0.00020383494529367842 0.011420253298468524 0 -0.00091715373839261624 0.012302619722913501 0 -0.0001806773171881455 0.0090806680393117831 0 -0.00067086023511451923 0.0091363241857000642 0 -0.00043218730206910855 0.0085735795933053662 0 -0.00088471612204596482 0.0088456684173850442 0 -0.00067086023511451923 0.0091363241857000642 0 -0.00043218730206910855 0.0085735795933053662 0 -0.00066506997677679292 0.0095397192592742361 0 -0.0001806773171881455 0.0090806680393117831 0 -0.00067086023511451923 0.0091363241857000642 0 -0.00088471612204596482 0.0088456684173850442 0 -0.00043218730206910855 0.0085735795933053662 0 -0.00082662961276871614 0.0085373402667800746 0 -0.00043218730206910855 0.0085735795933053662 0 -0.00079500425892628773 0.0081264198216121006 0 -0.00082662961276871614 0.0085373402667800746 0 -0.0001806773171881455 0.0090806680393117831 0 -0.00043218730206910855 0.0085735795933053662 0 0.00011184582574845076 0.0083156269717918861 0 -0.00020383494529367842 0.011420253298468524 0 -0.00091715373839261624 0.012302619722913501 0 -0.00066758797583343454 0.013145662747840015 0 -0.00022202368183369295 0.01030801267154461 0 -0.00039686345231390016 0.010588857026979885 0 -0.00039686345231390016 0.010588857026979885 0 -0.0013523734999436549 0.015711544439232897 0 -0.00028500985566587043 0.0099318231362741267 0 -0.00041980714096081411 0.0097751992864863069 0 -0.00020196243980776581 0.0097506493826398609 0 -0.00039686345231390016 0.010588857026979885 0 -0.0006865896041045674 0.0087790036266586925 0 -0.00043218730206910855 0.0085735795933053662 0 0.00011184582574845076 0.0083156269717918861 0 -0.00079500425892628773 0.0081264198216121006 0 -0.00041980714096081411 0.0097751992864863069 0 -0.00066374435226375242 0.0098004438820424207 0 -0.00055183228853143663 0.009619963814130713 0 -0.00028500985566587043 0.0099318231362741267 0 -0.00041980714096081411 0.0097751992864863069 0 -0.00066374435226375242 0.0098004438820424207 0 -0.0006865896041045674 0.0087790036266586925 0 -0.0013477702281070665 0.0087727018367942285 0 -0.00079500425892628773 0.0081264198216121006 0 -0.0011346912750717032 0.0084561550744682093 0 -0.0014050203426468175 0.0083364359158879815 0 -0.00079500425892628773 0.0081264198216121006 0 -0.00082662961276871614 0.0085373402667800746 0 -0.0011346912750717032 0.0084561550744682093 0 -0.00082662961276871614 0.0085373402667800746 0 -0.0011346912750717032 0.0084561550744682093 0 -0.001187381273217253 0.0087346132250336068 0 -0.00088471612204596482 0.0088456684173850442 0 -0.00082662961276871614 0.0085373402667800746 0 -0.001187381273217253 0.0087346132250336068 0 -0.0017295937386266026 0.0087059292053192783 0 -0.0014309706663387144 0.0085998797486502368 0 -0.0016367435127209353 0.0084713573544636326 0 -0.0017295937386266026 0.0087059292053192783 0 -0.0014286021136187446 0.0088822361965889274 0 -0.0014309706663387144 0.0085998797486502368 0 -0.0014286021136187446 0.0088822361965889274 0 -0.001187381273217253 0.0087346132250336068 0 -0.0014309706663387144 0.0085998797486502368 0 -0.0011346912750717032 0.0084561550744682093 0 -0.001187381273217253 0.0087346132250336068 0 -0.0014309706663387144 0.0085998797486502368 0 -0.0011346912750717032 0.0084561550744682093 0 -0.0014309706663387144 0.0085998797486502368 0 -0.0014050203426468175 0.0083364359158879815 0 -0.0014309706663387144 0.0085998797486502368 0 -0.0016367435127209353 0.0084713573544636326 0 -0.0014050203426468175 0.0083364359158879815 0 -0.0016872648142924808 0.0083203319680080802 0 -0.0016367435127209353 0.0084713573544636326 0 -0.0014050203426468175 0.0083364359158879815 0 -0.00066374435226375242 0.0098004438820424207 0 -0.0011511650365767106 0.0096013510690859602 0 -0.0010100312505164823 0.0094438663656748051 0 -0.0016872648142924808 0.0083203319680080802 0 -0.0014050203426468175 0.0083364359158879815 0 -0.0016061648464720667 0.0080708046847081261 0 -0.00079500425892628773 0.0081264198216121006 0 -0.0014050203426468175 0.0083364359158879815 0 -0.0016061648464720667 0.0080708046847081261 0 -0.0006441473723340892 0.0091903487483163682 0 -0.00081386855775401803 0.0089497981389968524 0 -0.0011543008257023906 0.008900547951663406 0 -0.00081386855775401803 0.0089497981389968524 0 -0.00073801789910085897 0.0087319612234639798 0 -0.00056607579454510373 0.0091305427266476259 0 -0.0006441473723340892 0.0091903487483163682 0 -0.00081386855775401803 0.0089497981389968524 0 -0.00056607579454510373 0.0091305427266476259 0 -0.00081386855775401803 0.0089497981389968524 0 -0.00073801789910085897 0.0087319612234639798 0 -0.0010459696904608232 0.0087551960099704444 0 -0.00073801789910085897 0.0087319612234639798 0 -0.00089638788752940783 0.0083175411207811328 0 -0.0010459696904608232 0.0087551960099704444 0 -0.00073801789910085897 0.0087319612234639798 0 -0.00056607579454510373 0.0091305427266476259 0 -0.00029013676271720187 0.0082929780836643908 0 -0.00076992947059554954 0.0094704720935979182 0 -0.00056607579454510373 0.0091305427266476259 0 -0.00052729693587066581 0.0097367178388538082 0 -0.00053667392539820781 0.0091645514199509177 0 -0.00038952476479753046 0.0089059208445102268 0 -0.00076992947059554954 0.0094704720935979182 0 -0.00056607579454510373 0.0091305427266476259 0 -0.00068428967068976678 0.0091716418642822633 0 -0.0006441473723340892 0.0091903487483163682 0 -0.00068428967068976678 0.0091716418642822633 0 -0.00075526081082403704 0.0091352733098897659 0 -0.0006441473723340892 0.0091903487483163682 0 -0.00075526081082403704 0.0091352733098897659 0 -0.00083180178662793571 0.0090476328431229654 0 -0.00066374435226375242 0.0098004438820424207 0 -0.0010100312505164823 0.0094438663656748051 0 -0.00055183228853143663 0.009619963814130713 0 -0.00084900623769488886 0.0091213112213436413 0 -0.00076121841267383079 0.010767327468115227 0 -0.0006441473723340892 0.0091903487483163682 0 -0.00056607579454510373 0.0091305427266476259 0 -0.00068428967068976678 0.0091716418642822633 0 -0.00098813668591269982 0.0090182216447408682 0 -0.00093964646672572831 0.0091603868237423742 0 -0.0013094270927653296 0.0094364846459176598 0 -0.00041980714096081411 0.0097751992864863069 0 -0.00055183228853143663 0.009619963814130713 0 -0.00047058078650974417 0.0096582210384166117 0 -0.00083180178662793571 0.0090476328431229654 0 -0.00098813668591269982 0.0090182216447408682 0 -0.00093964646672572831 0.0091603868237423742 0 -0.00076121841267383079 0.010767327468115227 0 0.00013797082347919985 0.013782408242167652 0 -0.00075526081082403704 0.0091352733098897659 0 -0.00093964646672572831 0.0091603868237423742 0 -0.00093773769451902162 0.0092994155615908104 0 -0.00075526081082403704 0.0091352733098897659 0 -0.00083180178662793571 0.0090476328431229654 0 -0.00093964646672572831 0.0091603868237423742 0 0.00013797082347919985 0.013782408242167652 0 -0.0011110675066575411 0.015435412546755232 0 -0.00041980714096081411 0.0097751992864863069 0 -0.00047058078650974417 0.0096582210384166117 0 -0.00020196243980776581 0.0097506493826398609 0 0.00016893799021732635 0.019696049626309921 0 -0.00078786480394310414 0.020266604967169612 0 -0.00080180913047772141 0.021333897609798546 0 0.00016893799021732635 0.019696049626309921 0 -0.00078786480394310414 0.020266604967169612 0 -0.0015759644508298127 0.01956144762439406 0 0.00013797082347919985 0.013782408242167652 0 -0.0013523734999436549 0.015711544439232897 0 -0.00078786480394310414 0.020266604967169612 0 -0.00080180913047772141 0.021333897609798546 0 -0.0014394554738174279 0.021094440704308371 0 -0.0013094270927653296 0.0094364846459176598 0 -0.0010636254853159098 0.0095211851338171585 0 -0.0012256300669146953 0.0097315614679966134 0 -0.00080180913047772141 0.021333897609798546 0 -0.0014394554738174279 0.021094440704308371 0 -0.0014607106028289251 0.021736630002422548 0 -0.00093964646672572831 0.0091603868237423742 0 -0.0013094270927653296 0.0094364846459176598 0 -0.00093773769451902162 0.0092994155615908104 0 -0.0013094270927653296 0.0094364846459176598 0 -0.00093773769451902162 0.0092994155615908104 0 -0.0010636254853159098 0.0095211851338171585 0 -0.00076992947059554954 0.0094704720935979182 0 -0.00068428967068976678 0.0091716418642822633 0 -0.00093773769451902162 0.0092994155615908104 0 -0.00068428967068976678 0.0091716418642822633 0 -0.00075526081082403704 0.0091352733098897659 0 -0.00093773769451902162 0.0092994155615908104 0 -0.00076992947059554954 0.0094704720935979182 0 -0.00093773769451902162 0.0092994155615908104 0 -0.0010636254853159098 0.0095211851338171585 0 -0.00076992947059554954 0.0094704720935979182 0 -0.0010190316807164243 0.0097461381410748026 0 -0.00079094901581737843 0.0099168122965208778 0 -0.00076992947059554954 0.0094704720935979182 0 -0.0010636254853159098 0.0095211851338171585 0 -0.0010190316807164243 0.0097461381410748026 0 -0.0010636254853159098 0.0095211851338171585 0 -0.0010190316807164243 0.0097461381410748026 0 -0.0012256300669146953 0.0097315614679966134 0 -0.0010190316807164243 0.0097461381410748026 0 -0.0012256300669146953 0.0097315614679966134 0 -0.0010959654214363331 0.010068229439566229 0 -0.0010190316807164243 0.0097461381410748026 0 -0.00079094901581737843 0.0099168122965208778 0 -0.0010959654214363331 0.010068229439566229 0 -0.0011110675066575411 0.015435412546755232 0 -0.0020466444164304177 0.01661406753066343 0 -0.0013094270927653296 0.0094364846459176598 0 -0.0012256300669146953 0.0097315614679966134 0 -0.0015998121492867402 0.0099264728988651685 0 -0.0012256300669146953 0.0097315614679966134 0 -0.0010959654214363331 0.010068229439566229 0 -0.0015998121492867402 0.0099264728988651685 0 -0.00080180913047772141 0.021333897609798546 0 -0.0014607106028289251 0.021736630002422548 0 -0.0019094487488233798 0.02270095587732025 0 -0.0013539313489014835 0.013489668495923649 0 -0.0015122910406174309 0.013537790226332849 0 -0.001285020371873512 0.013650799146805014 0 -0.0013562558001273615 0.011572175606014095 0 -0.0020466444164304177 0.01661406753066343 0 -0.0013539313489014835 0.013489668495923649 0 -0.0015122910406174309 0.013537790226332849 0 -0.0014206990005743334 0.013415427752005056 0 -0.0015122910406174309 0.013537790226332849 0 -0.0017446618079014888 0.013406070033370545 0 -0.001622788504475951 0.013359999198933326 0 -0.0013562558001273615 0.011572175606014095 0 -0.00079233157831332232 0.0093393696317675811 0 -0.00079094901581737843 0.0099168122965208778 0 -0.0010959654214363331 0.010068229439566229 0 -0.00059893980327014229 0.010250274413461461 0 -0.00079233157831332232 0.0093393696317675811 0 -0.00038952476479753046 0.0089059208445102268 0 -0.00016280835797457554 0.0074778412691985131 0 -0.00064856509638007583 0.0078119786593513641 0 -0.00029013676271720187 0.0082929780836643908 0 -0.00079094901581737843 0.0099168122965208778 0 -0.00059893980327014229 0.010250274413461461 0 -0.00052729693587066581 0.0097367178388538082 0 -0.00016280835797457554 0.0074778412691985131 0 -0.00064856509638007583 0.0078119786593513641 0 -0.0007154937453799265 0.0072392652261241237 0 -0.00064856509638007583 0.0078119786593513641 0 -0.0007154937453799265 0.0072392652261241237 0 -0.0011796601494222024 0.0077303590106975722 0 -0.00064856509638007583 0.0078119786593513641 0 -0.00089638788752940783 0.0083175411207811328 0 -0.0011796601494222024 0.0077303590106975722 0 -0.00064856509638007583 0.0078119786593513641 0 -0.00089638788752940783 0.0083175411207811328 0 -0.00029013676271720187 0.0082929780836643908 0 -0.00073801789910085897 0.0087319612234639798 0 -0.00089638788752940783 0.0083175411207811328 0 -0.00029013676271720187 0.0082929780836643908 0 -0.00076992947059554954 0.0094704720935979182 0 -0.00079094901581737843 0.0099168122965208778 0 -0.00052729693587066581 0.0097367178388538082 0 -0.0029069489638280806 0.028366007500235563 0 -0.002879503559316167 0.028516708035655515 0 -0.0030120505486914678 0.028440938506094242 0 -0.0029069489638280806 0.028366007500235563 0 -0.0030120505486914678 0.028440938506094242 0 -0.0030241036672766361 0.028311652883349882 0 -0.0030120505486914678 0.028440938506094242 0 -0.0031410455912140207 0.028366646091222442 0 -0.0030241036672766361 0.028311652883349882 0 -0.0030120505486914678 0.028440938506094242 0 -0.0029925041683054776 0.028600040128592824 0 -0.0030903757883874471 0.028476263564308414 0 -0.002879503559316167 0.028516708035655515 0 -0.0030120505486914678 0.028440938506094242 0 -0.0029925041683054776 0.028600040128592824 0 -0.002879503559316167 0.028516708035655515 0 -0.002826925166780697 0.028669963479274196 0 -0.0029925041683054776 0.028600040128592824 0 -0.002946557164146477 0.028740286056546313 0 -0.0029925041683054776 0.028600040128592824 0 -0.0032169825273606605 0.028499597039468434 0 -0.002946557164146477 0.028740286056546313 0 -0.0028870933741397247 0.028698342095147128 0 -0.0029925041683054776 0.028600040128592824 0 -0.002826925166780697 0.028669963479274196 0 -0.0028870933741397247 0.028698342095147128 0 -0.0029925041683054776 0.028600040128592824 0 -0.003100170566073535 0.021906720612009996 0 -0.0033369567169074439 0.025106176342265803 0 -0.0029925041683054776 0.028600040128592824 0 -0.0032169825273606605 0.028499597039468434 0 -0.0030903757883874471 0.028476263564308414 0 -0.0031579898867293075 0.019925271658119248 0 -0.0044612343936007359 0.01984260113218881 0 -0.0034340940657934162 0.020715068352429651 0 -0.0030120505486914678 0.028440938506094242 0 -0.0030903757883874471 0.028476263564308414 0 -0.0031410455912140207 0.028366646091222442 0 -0.0032169825273606605 0.028499597039468434 0 -0.0030903757883874471 0.028476263564308414 0 -0.0031410455912140207 0.028366646091222442 0 -0.0032169825273606605 0.028499597039468434 0 -0.0031410455912140207 0.028366646091222442 0 -0.0032731996396300413 0.028313384144709634 0 -0.0034340940657934162 0.020715068352429651 0 -0.0025409091906477468 0.020990471597387535 0 -0.0022768466546855735 0.021833116281744301 0 -0.0033369567169074439 0.025106176342265803 0 -0.0027001353368644831 0.0243177653028144 0 -0.0032169825273606605 0.028499597039468434 0 -0.0032731996396300413 0.028313384144709634 0 -0.0034620333792893636 0.02823712596908234 0 -0.0031579898867293075 0.019925271658119248 0 -0.0025711135310163098 0.020462323622414867 0 -0.0017053156333240011 0.019996687471418154 0 -0.0034340940657934162 0.020715068352429651 0 -0.0025409091906477468 0.020990471597387535 0 -0.0025711135310163098 0.020462323622414867 0 -0.0031579898867293075 0.019925271658119248 0 -0.0034340940657934162 0.020715068352429651 0 -0.0025711135310163098 0.020462323622414867 0 -0.0023577980616143212 0.016373632255819719 0 -0.0013523734999436549 0.015711544439232897 0 -0.0025409091906477468 0.020990471597387535 0 -0.0025711135310163098 0.020462323622414867 0 -0.0020012877496708163 0.020681804235120792 0 -0.0025711135310163098 0.020462323622414867 0 -0.0020012877496708163 0.020681804235120792 0 -0.0017053156333240011 0.019996687471418154 0 -0.0025429514835080486 0.021360203166514005 0 -0.0013523734999436549 0.015711544439232897 0 -0.00078786480394310414 0.020266604967169612 0 -0.0020012877496708163 0.020681804235120792 0 -0.0015759644508298127 0.01956144762439406 0 -0.0020012877496708163 0.020681804235120792 0 -0.0014394554738174279 0.021094440704308371 0 -0.00200492777797416 0.021299132983044297 0 -0.00078786480394310414 0.020266604967169612 0 -0.0020012877496708163 0.020681804235120792 0 -0.0014394554738174279 0.021094440704308371 0 -0.0025409091906477468 0.020990471597387535 0 -0.0020012877496708163 0.020681804235120792 0 -0.00200492777797416 0.021299132983044297 0 -0.0025409091906477468 0.020990471597387535 0 -0.00200492777797416 0.021299132983044297 0 -0.0022768466546855735 0.021833116281744301 0 -0.00200492777797416 0.021299132983044297 0 -0.0014607106028289251 0.021736630002422548 0 -0.0022768466546855735 0.021833116281744301 0 -0.0014394554738174279 0.021094440704308371 0 -0.00200492777797416 0.021299132983044297 0 -0.0014607106028289251 0.021736630002422548 0 -0.0014607106028289251 0.021736630002422548 0 -0.0024548466028276594 0.022087037512263551 0 -0.0020866169258229711 0.022381286619430115 0 -0.0014607106028289251 0.021736630002422548 0 -0.0020866169258229711 0.022381286619430115 0 -0.0019094487488233798 0.02270095587732025 0 -0.0012828885997730895 0.022136721367106406 0 -0.0027001353368644831 0.0243177653028144 0 -0.0023054415033434759 0.022471121227197959 0 -0.0020866169258229711 0.022381286619430115 0 -0.0021719612463497401 0.022433464311313676 0 -0.0027001353368644831 0.0243177653028144 0 -0.0028204210824020501 0.023555383000602878 0 -0.0020466444164304177 0.01661406753066343 0 -0.0015376275828483932 0.022326859865639249 0 -0.0028657122663282271 0.02221403187569896 0 -0.0022720104995828869 0.022186358434094187 0 -0.0021719612463497401 0.022433464311313676 0 -0.0028657122663282271 0.02221403187569896 0 -0.002431425259910728 0.02194017209581034 0 -0.0022720104995828869 0.022186358434094187 0 -0.0020866169258229711 0.022381286619430115 0 -0.0019094487488233798 0.02270095587732025 0 -0.0021719612463497401 0.022433464311313676 0 -0.0028657122663282271 0.02221403187569896 0 -0.002431425259910728 0.02194017209581034 0 -0.0025320312582629051 0.021369261799668551 0 -0.0013539313489014835 0.013489668495923649 0 -0.001285020371873512 0.013650799146805014 0 -0.0012635139292547905 0.013470959508147525 0 -0.0020466444164304177 0.01661406753066343 0 -0.0019732164154165287 0.017612338962713213 0 -0.001285020371873512 0.013650799146805014 0 -0.0012635139292547905 0.013470959508147525 0 -0.0012319886195163079 0.01342587852281484 0 -0.002431425259910728 0.02194017209581034 0 -0.002191941977235485 0.021967349781900639 0 -0.0022720104995828869 0.022186358434094187 0 -0.002191941977235485 0.021967349781900639 0 -0.0019378718927530107 0.022208011361811861 0 -0.0022720104995828869 0.022186358434094187 0 -0.002191941977235485 0.021967349781900639 0 -0.0022792555366716056 0.021685085752398744 0 -0.0020201555441750822 0.021787124984499584 0 -0.002431425259910728 0.02194017209581034 0 -0.002191941977235485 0.021967349781900639 0 -0.0022792555366716056 0.021685085752398744 0 -0.002431425259910728 0.02194017209581034 0 -0.0022792555366716056 0.021685085752398744 0 -0.0025320312582629051 0.021369261799668551 0 -0.0022792555366716056 0.021685085752398744 0 -0.0021412607954226243 0.02145497591095636 0 -0.0025320312582629051 0.021369261799668551 0 -0.0022792555366716056 0.021685085752398744 0 -0.0021412607954226243 0.02145497591095636 0 -0.0020201555441750822 0.021787124984499584 0 -0.0018265893259966288 0.021509935222598475 0 -0.0020201555441750822 0.021787124984499584 0 -0.001555542299661239 0.021989733182631099 0 -0.0018265893259966288 0.021509935222598475 0 -0.0021412607954226243 0.02145497591095636 0 -0.0020201555441750822 0.021787124984499584 0 -0.0020201555441750822 0.021787124984499584 0 -0.0019378718927530107 0.022208011361811861 0 -0.001555542299661239 0.021989733182631099 0 -0.002191941977235485 0.021967349781900639 0 -0.0020201555441750822 0.021787124984499584 0 -0.0019378718927530107 0.022208011361811861 0 -0.0027001353368644831 0.0243177653028144 0 -0.0023179549219443422 0.02555563968182201 0 -0.0023054415033434759 0.022471121227197959 0 -0.0021719612463497401 0.022433464311313676 0 -0.0013987625445025193 0.022658768862179286 0 -0.0019378718927530107 0.022208011361811861 0 -0.0021719612463497401 0.022433464311313676 0 -0.0013987625445025193 0.022658768862179286 0 -0.0032731996396300413 0.028313384144709634 0 -0.0034620333792893636 0.02823712596908234 0 -0.0031689928778458228 0.028209704827435594 0 -0.0019378718927530107 0.022208011361811861 0 -0.0022720104995828869 0.022186358434094187 0 -0.0021719612463497401 0.022433464311313676 0 -0.0031410455912140207 0.028366646091222442 0 -0.0032731996396300413 0.028313384144709634 0 -0.0031689928778458228 0.028209704827435594 0 -0.0031410455912140207 0.028366646091222442 0 -0.0031689928778458228 0.028209704827435594 0 -0.0030241036672766361 0.028311652883349882 0 -0.0019378718927530107 0.022208011361811861 0 -0.0013987625445025193 0.022658768862179286 0 -0.001555542299661239 0.021989733182631099 0 -0.0018265893259966288 0.021509935222598475 0 -0.001555542299661239 0.021989733182631099 0 -0.001403868794414254 0.021374628669175177 0 -0.001555542299661239 0.021989733182631099 0 -0.00058386633989532645 0.022004356815897696 0 -0.001403868794414254 0.021374628669175177 0 -0.00058386633989532645 0.022004356815897696 0 -0.00087520349814242549 0.021008983397420293 0 -0.001403868794414254 0.021374628669175177 0 -0.0013987625445025193 0.022658768862179286 0 -0.001555542299661239 0.021989733182631099 0 -0.00058386633989532645 0.022004356815897696 0 -0.00058386633989532645 0.022004356815897696 0 -0.0002784993322642217 0.021221657734300885 0 0.0001926194102960075 0.021659138769857277 0 0.00037540504773656225 0.022228625935598212 0 -0.00058386633989532645 0.022004356815897696 0 0.0001926194102960075 0.021659138769857277 0 0.00031533107756856092 0.022496931739470063 0 0.00037540504773656225 0.022228625935598212 0 -0.00058386633989532645 0.022004356815897696 0 -0.0012905206714528708 0.02528668448455489 0 -0.0023179549219443422 0.02555563968182201 0 -0.0028939467335386704 0.028179383653215935 0 -0.0031689928778458228 0.028209704827435594 0 -0.0030241036672766361 0.028311652883349882 0 0.00031533107756856092 0.022496931739470063 0 -0.0013987625445025193 0.022658768862179286 0 -0.00058386633989532645 0.022004356815897696 0 -0.0029069489638280806 0.028366007500235563 0 -0.0028939467335386704 0.028179383653215935 0 -0.0030241036672766361 0.028311652883349882 0 -0.00058791181031718877 0.019310202059935951 0 7.5469146155143996e-05 0.019621001646881471 0 -0.00023366023169076999 0.018025837003429034 0 -0.00058791181031718877 0.019310202059935951 0 7.5469146155143996e-05 0.019621001646881471 0 -0.00045296577254297994 0.020354872758826376 0 7.5469146155143996e-05 0.019621001646881471 0 6.3852800357045732e-05 0.020714984995261376 0 -0.00045296577254297994 0.020354872758826376 0 6.3852800357045732e-05 0.020714984995261376 0 -0.0002784993322642217 0.021221657734300885 0 -0.00045296577254297994 0.020354872758826376 0 6.3852800357045732e-05 0.020714984995261376 0 -0.0002784993322642217 0.021221657734300885 0 0.0001926194102960075 0.021659138769857277 0 -0.00058386633989532645 0.022004356815897696 0 -0.0002784993322642217 0.021221657734300885 0 -0.00087520349814242549 0.021008983397420293 0 -0.0002784993322642217 0.021221657734300885 0 -0.00045296577254297994 0.020354872758826376 0 -0.00087520349814242549 0.021008983397420293 0 -0.00087520349814242549 0.021008983397420293 0 -0.0015299465087077939 0.020702608949446654 0 -0.0010890540793351599 0.020122556273805704 0 -0.00045296577254297994 0.020354872758826376 0 -0.00087520349814242549 0.021008983397420293 0 -0.0010890540793351599 0.020122556273805704 0 -0.00087520349814242549 0.021008983397420293 0 -0.001403868794414254 0.021374628669175177 0 -0.0015299465087077939 0.020702608949446654 0 -0.001403868794414254 0.021374628669175177 0 -0.0015299465087077939 0.020702608949446654 0 -0.002002738259185094 0.021024503255410647 0 -0.0015299465087077939 0.020702608949446654 0 -0.0016697722920922002 0.020183672385701696 0 -0.0010890540793351599 0.020122556273805704 0 -0.0015299465087077939 0.020702608949446654 0 -0.0016697722920922002 0.020183672385701696 0 -0.002038196681791107 0.02063324048827879 0 -0.0019307075004502522 0.017040895288468857 0 -0.0015872763801056445 0.01657226052977942 0 -0.0016697722920922002 0.020183672385701696 0 -0.0010890540793351599 0.020122556273805704 0 -0.0014002399082076848 0.019383121965189182 0 -0.0014002399082076848 0.019383121965189182 0 -0.0022020780084477882 0.020065413715662023 0 -0.0014304480529293737 0.018119520386042413 0 -0.0016697722920922002 0.020183672385701696 0 -0.0014002399082076848 0.019383121965189182 0 -0.0022020780084477882 0.020065413715662023 0 -0.00058791181031718877 0.019310202059935951 0 -0.00045296577254297994 0.020354872758826376 0 -0.0010890540793351599 0.020122556273805704 0 -0.00058791181031718877 0.019310202059935951 0 -0.0010890540793351599 0.020122556273805704 0 -0.0014002399082076848 0.019383121965189182 0 -0.00058791181031718877 0.019310202059935951 0 -0.0014002399082076848 0.019383121965189182 0 -0.00093135687080594368 0.018755444821267779 0 -0.0014615573970477255 0.014232355409842943 0 -0.0017117235063209631 0.014123853741952632 0 -0.0017843847703897546 0.015040804290605454 0 -0.0012285956537726427 0.013615108276767738 0 -0.00090961863417841492 0.014954206606201113 0 -0.0011051008905388618 0.013122492059410506 0 -0.0010563867807439654 0.013231119535301226 0 -0.00097318675934045186 0.01303258041944674 0 -0.0011051008905388618 0.013122492059410506 0 -0.0010563867807439654 0.013231119535301226 0 -0.001154337585637217 0.013230879978103644 0 -0.0015299465087077939 0.020702608949446654 0 -0.002038196681791107 0.02063324048827879 0 -0.002002738259185094 0.021024503255410647 0 -0.0022020780084477882 0.020065413715662023 0 -0.002038196681791107 0.02063324048827879 0 -0.0025320312582629051 0.021369261799668551 0 -0.0014615573970477255 0.014232355409842943 0 -0.0017117235063209631 0.014123853741952632 0 -0.0011918945569550591 0.013519566741090932 0 -0.0017117235063209631 0.014123853741952632 0 -0.0011918945569550591 0.013519566741090932 0 -0.0012319886195163079 0.01342587852281484 0 -0.0012285956537726427 0.013615108276767738 0 -0.0012110941798975786 0.013583335988969157 0 -0.0016697722920922002 0.020183672385701696 0 -0.0022020780084477882 0.020065413715662023 0 -0.002038196681791107 0.02063324048827879 0 -0.0019307075004502522 0.017040895288468857 0 -0.0019732164154165287 0.017612338962713213 0 -0.0018265893259966288 0.021509935222598475 0 -0.001403868794414254 0.021374628669175177 0 -0.002002738259185094 0.021024503255410647 0 -0.0018265893259966288 0.021509935222598475 0 -0.0021412607954226243 0.02145497591095636 0 -0.002002738259185094 0.021024503255410647 0 -0.002038196681791107 0.02063324048827879 0 -0.002002738259185094 0.021024503255410647 0 -0.0025320312582629051 0.021369261799668551 0 -0.0021412607954226243 0.02145497591095636 0 -0.002002738259185094 0.021024503255410647 0 -0.0025320312582629051 0.021369261799668551 0 -0.0010563867807439654 0.013231119535301226 0 -0.001202661667863781 0.013319459085119903 0 -0.0011918945569550591 0.013519566741090932 0 -0.001202661667863781 0.013319459085119903 0 -0.0012507596038936752 0.013411786395373413 0 -0.0011918945569550591 0.013519566741090932 0 -0.0012635139292547905 0.013470959508147525 0 -0.0011918945569550591 0.013519566741090932 0 -0.0012319886195163079 0.01342587852281484 0 -0.0012507596038936752 0.013411786395373413 0 -0.0011918945569550591 0.013519566741090932 0 -0.0012530634297115795 0.013460707609795862 0 -0.0012635139292547905 0.013470959508147525 0 -0.0011918945569550591 0.013519566741090932 0 -0.0012530634297115795 0.013460707609795862 0 -0.0013539313489014835 0.013489668495923649 0 -0.0012635139292547905 0.013470959508147525 0 -0.0013100325852495875 0.013419187018822835 0 -0.0012635139292547905 0.013470959508147525 0 -0.0012530634297115795 0.013460707609795862 0 -0.0013100325852495875 0.013419187018822835 0 -0.0012507596038936752 0.013411786395373413 0 -0.0012530634297115795 0.013460707609795862 0 -0.0013100325852495875 0.013419187018822835 0 -0.0013100325852495875 0.013419187018822835 0 -0.0012888371927836152 0.013336823807660079 0 -0.0013806547740838266 0.013312061992846371 0 -0.0012888371927836152 0.013336823807660079 0 -0.0013056290170873227 0.013234771858044787 0 -0.0013806547740838266 0.013312061992846371 0 -0.0012507596038936752 0.013411786395373413 0 -0.0013100325852495875 0.013419187018822835 0 -0.0012888371927836152 0.013336823807660079 0 -0.001202661667863781 0.013319459085119903 0 -0.0012507596038936752 0.013411786395373413 0 -0.0012888371927836152 0.013336823807660079 0 -0.001202661667863781 0.013319459085119903 0 -0.0012888371927836152 0.013336823807660079 0 -0.0013056290170873227 0.013234771858044787 0 -0.0013056290170873227 0.013234771858044787 0 -0.0011915439901003979 0.013151051857401159 0 -0.0012236455424334614 0.013013083420973733 0 -0.0013056290170873227 0.013234771858044787 0 -0.001154337585637217 0.013230879978103644 0 -0.0011915439901003979 0.013151051857401159 0 -0.0010563867807439654 0.013231119535301226 0 -0.001202661667863781 0.013319459085119903 0 -0.001154337585637217 0.013230879978103644 0 -0.001202661667863781 0.013319459085119903 0 -0.0013056290170873227 0.013234771858044787 0 -0.001154337585637217 0.013230879978103644 0 -0.0011051008905388618 0.013122492059410506 0 -0.001154337585637217 0.013230879978103644 0 -0.0011915439901003979 0.013151051857401159 0 -0.0011051008905388618 0.013122492059410506 0 -0.0011915439901003979 0.013151051857401159 0 -0.0012236455424334614 0.013013083420973733 0 0.00017549039746547889 0.013093750795198752 0 7.5603207173186158e-07 0.01375025156753845 0 9.5622561843572074e-05 0.012505717908289202 0 0.00017549039746547889 0.013093750795198752 0 7.5603207173186158e-07 0.01375025156753845 0 -2.946264887279165e-06 0.01414365300224542 0 7.5603207173186158e-07 0.01375025156753845 0 -2.946264887279165e-06 0.01414365300224542 0 -1.604354161157036e-06 0.015836124755643857 0 -2.946264887279165e-06 0.01414365300224542 0 -0.00037846105076507321 0.013441791821305882 0 -1.604354161157036e-06 0.015836124755643857 0 -0.00047703293807731652 0.012920868963859843 0 -0.00090961863417841492 0.014954206606201113 0 0.00017549039746547889 0.013093750795198752 0 -2.946264887279165e-06 0.01414365300224542 0 -0.00037846105076507321 0.013441791821305882 0 -0.0011051008905388618 0.013122492059410506 0 -0.0012236455424334614 0.013013083420973733 0 -0.00097318675934045186 0.01303258041944674 0 -0.0017117235063209631 0.014123853741952632 0 -0.0017843847703897546 0.015040804290605454 0 -0.002231986468842719 0.015038627925185013 0 -0.0014525267925226935 0.017903119846526424 0 -0.00072891796304460092 0.017908082771537118 0 -0.00010998503203207502 0.017341684635825624 0 -0.0014525267925226935 0.017903119846526424 0 -0.00010998503203207502 0.017341684635825624 0 -0.0002391508238261092 0.016942922027610538 0 -0.0014002399082076848 0.019383121965189182 0 -0.0014304480529293737 0.018119520386042413 0 -0.00093135687080594368 0.018755444821267779 0 -0.00090961863417841492 0.014954206606201113 0 -0.0015872763801056445 0.01657226052977942 0 -0.0015872763801056445 0.01657226052977942 0 -0.00037899074520777456 0.01744274739876326 0 -0.00058791181031718877 0.019310202059935951 0 -0.00093135687080594368 0.018755444821267779 0 -0.00023366023169076999 0.018025837003429034 0 -0.0014304480529293737 0.018119520386042413 0 -0.00093135687080594368 0.018755444821267779 0 -0.00023366023169076999 0.018025837003429034 0 -0.00072891796304460092 0.017908082771537118 0 -0.00010998503203207502 0.017341684635825624 0 -0.00023366023169076999 0.018025837003429034 0 -0.0014525267925226935 0.017903119846526424 0 -2.723502298100259e-06 0.015842624148994504 0 -0.0002391508238261092 0.016942922027610538 0 -0.00010998503203207502 0.017341684635825624 0 -0.0002391508238261092 0.016942922027610538 0 2.0700315537764566e-06 0.016470045892782323 0 -0.00090961863417841492 0.014954206606201113 0 -5.3889556646448285e-07 0.01583981922584932 0 -2.723502298100259e-06 0.015842624148994504 0 -0.0002391508238261092 0.016942922027610538 0 2.0700315537764566e-06 0.016470045892782323 0 -1.4262874724443184e-06 0.016477159532022809 0 0.00014937578624983972 0.017603547645947151 0 -0.00029413089504257828 0.018209351803634415 0 1.8627336264863504e-06 0.018349405777502669 0 -1.4262874724443184e-06 0.016477159532022809 0 0.00014937578624983972 0.017603547645947151 0 -5.6566074394584352e-08 0.016473631071059036 0 -6.265928620081978e-07 0.017924866517953386 0 -0.00010998503203207502 0.017341684635825624 0 2.0700315537764566e-06 0.016470045892782323 0 0.00027201870238411518 0.01752753555077316 0 0.00035663170241593021 0.01801031629334459 0 0.00014937578624983972 0.017603547645947151 0 -0.00029413089504257828 0.018209351803634415 0 0.00010949367979769416 0.019381302605340933 0 -6.265928620081978e-07 0.017924866517953386 0 0.00027958346683174277 0.018735187633160722 0 0.00035663170241593021 0.01801031629334459 0 -0.00029413089504257828 0.018209351803634415 0 7.5469146155143996e-05 0.019621001646881471 0 0.00027201870238411518 0.01752753555077316 0 -0.00023366023169076999 0.018025837003429034 0 0.00027958346683174277 0.018735187633160722 0 7.5469146155143996e-05 0.019621001646881471 0 -0.00029413089504257828 0.018209351803634415 0 -0.00010998503203207502 0.017341684635825624 0 0.00027201870238411518 0.01752753555077316 0 -0.00023366023169076999 0.018025837003429034 0 -0.0018905301660397649 0.009361214098783658 0 -0.0013507144962149407 0.0099247641865483124 0 -0.001913394544348899 0.0056245224063059089 0 -0.0015273226233028041 0.0058397978304185975 0 -0.0020208397659722539 0.0062180201860331458 0 -0.001913394544348899 0.0056245224063059089 0 -0.0015273226233028041 0.0058397978304185975 0 -0.001587079259204276 0.0054731098807082167 0 -0.0015273226233028041 0.0058397978304185975 0 -0.0012504005995324476 0.0055858884704514137 0 -0.0011099446696287533 0.0058213475540063002 0 -0.0015273226233028041 0.0058397978304185975 0 -0.0012504005995324476 0.0055858884704514137 0 -0.001587079259204276 0.0054731098807082167 0 -0.0012504005995324476 0.0055858884704514137 0 -0.0014362273726794114 0.0052381341603890226 0 -0.0010876295247764472 0.0053551297420440912 0 -0.0007154937453799265 0.0072392652261241237 0 -0.0012558244586853332 0.0070080395790608849 0 -0.0011796601494222024 0.0077303590106975722 0 -0.0012504005995324476 0.0055858884704514137 0 -0.001587079259204276 0.0054731098807082167 0 -0.0014362273726794114 0.0052381341603890226 0 -0.0010255408329921118 0.006280478225158777 0 -0.0019639505757513848 0.003545830319615658 0 -0.0018044537644914063 0.0051163828014810942 0 -0.001587079259204276 0.0054731098807082167 0 -0.0014362273726794114 0.0052381341603890226 0 -0.0017446618079014888 0.013406070033370545 0 -0.0017191392935523749 0.013189539535900421 0 -0.001622788504475951 0.013359999198933326 0 -0.00079233157831332232 0.0093393696317675811 0 -0.0018905301660397649 0.009361214098783658 0 -0.00079233157831332232 0.0093393696317675811 0 -0.0010255408329921118 0.006280478225158777 0 -0.0018044537644914063 0.0051163828014810942 0 -0.001913394544348899 0.0056245224063059089 0 -0.001587079259204276 0.0054731098807082167 0 -0.0017191392935523749 0.013189539535900421 0 -0.001622788504475951 0.013359999198933326 0 -0.0015158592344540619 0.013305201116999997 0 -0.0015122910406174309 0.013537790226332849 0 -0.001622788504475951 0.013359999198933326 0 -0.0015158592344540619 0.013305201116999997 0 -0.0015122910406174309 0.013537790226332849 0 -0.0015158592344540619 0.013305201116999997 0 -0.0014206990005743334 0.013415427752005056 0 -0.0013100325852495875 0.013419187018822835 0 -0.0014206990005743334 0.013415427752005056 0 -0.0013806547740838266 0.013312061992846371 0 -0.0013539313489014835 0.013489668495923649 0 -0.0013100325852495875 0.013419187018822835 0 -0.0014206990005743334 0.013415427752005056 0 -0.0015158592344540619 0.013305201116999997 0 -0.0014206990005743334 0.013415427752005056 0 -0.0013806547740838266 0.013312061992846371 0 -0.0013056290170873227 0.013234771858044787 0 -0.0012236455424334614 0.013013083420973733 0 -0.0014441302327077169 0.01316321024464324 0 -0.0013056290170873227 0.013234771858044787 0 -0.0013806547740838266 0.013312061992846371 0 -0.0014441302327077169 0.01316321024464324 0 -0.0015158592344540619 0.013305201116999997 0 -0.0013806547740838266 0.013312061992846371 0 -0.0014441302327077169 0.01316321024464324 0 -0.0014441302327077169 0.01316321024464324 0 -0.0015786928419101712 0.013109660908434467 0 -0.0014594348295859428 0.012990355448391638 0 -0.0017191392935523749 0.013189539535900421 0 -0.0015786928419101712 0.013109660908434467 0 -0.0016891554781087725 0.012958049041455623 0 -0.0015158592344540619 0.013305201116999997 0 -0.0014441302327077169 0.01316321024464324 0 -0.0015786928419101712 0.013109660908434467 0 -0.0017191392935523749 0.013189539535900421 0 -0.0015158592344540619 0.013305201116999997 0 -0.0015786928419101712 0.013109660908434467 0 -0.0015786928419101712 0.013109660908434467 0 -0.0014594348295859428 0.012990355448391638 0 -0.0016891554781087725 0.012958049041455623 0 8.8578039695999449e-05 0.012138044173096938 0 2.9516434224769649e-05 0.011602199573897239 0 -4.9724956541282949e-05 0.010938650735800222 0 -0.00050932793310301799 0.012662669929217819 0 -0.0013507144962149407 0.0099247641865483124 0 2.9516434224769649e-05 0.011602199573897239 0 -6.1704560878240517e-05 0.010804376465093614 0 -4.9724956541282949e-05 0.010938650735800222 0 -0.0012236455424334614 0.013013083420973733 0 -0.0014441302327077169 0.01316321024464324 0 -0.0014594348295859428 0.012990355448391638 0 0.00017549039746547889 0.013093750795198752 0 8.8578039695999449e-05 0.012138044173096938 0 9.5622561843572074e-05 0.012505717908289202 0 -0.00047703293807731652 0.012920868963859843 0 -0.00050932793310301799 0.012662669929217819 0 8.8578039695999449e-05 0.012138044173096938 0 9.5622561843572074e-05 0.012505717908289202 0 2.9516434224769649e-05 0.011602199573897239 0 7.5603207173186158e-07 0.01375025156753845 0 9.5622561843572074e-05 0.012505717908289202 0 -1.5566804977203895e-08 0.011660922939839776 0 2.9516434224769649e-05 0.011602199573897239 0 -1.5566804977203895e-08 0.011660922939839776 0 -6.1704560878240517e-05 0.010804376465093614 0 9.5622561843572074e-05 0.012505717908289202 0 2.9516434224769649e-05 0.011602199573897239 0 -1.5566804977203895e-08 0.011660922939839776 0 -6.1704560878240517e-05 0.010804376465093614 0 -3.5102468454842731e-05 0.0099466941804451769 0 -6.3994766902714269e-08 0.0095722650249787551 0 -1.5566804977203895e-08 0.011660922939839776 0 -6.1704560878240517e-05 0.010804376465093614 0 -6.3994766902714269e-08 0.0095722650249787551 0 -0.0013507144962149407 0.0099247641865483124 0 -0.00044517259903480193 0.0072612717467276126 0 -4.962976050722002e-05 0.010636308900472168 0 -3.5102468454842731e-05 0.0099466941804451769 0 -6.0571350506307809e-05 0.0087427440650445047 0 -6.1704560878240517e-05 0.010804376465093614 0 -4.962976050722002e-05 0.010636308900472168 0 -3.5102468454842731e-05 0.0099466941804451769 0 -0.0011567886114829797 0.010304759893859242 0 -0.0013507144962149407 0.0099247641865483124 0 -0.0015273226233028041 0.0058397978304185975 0 -0.0020208397659722539 0.0062180201860331458 0 -0.0012308573611808748 0.006241469609474702 0 -0.0015273226233028041 0.0058397978304185975 0 -0.0012308573611808748 0.006241469609474702 0 -0.0011099446696287533 0.0058213475540063002 0 -3.5102468454842731e-05 0.0099466941804451769 0 -6.0571350506307809e-05 0.0087427440650445047 0 -6.3994766902714269e-08 0.0095722650249787551 0 -6.0571350506307809e-05 0.0087427440650445047 0 -2.7173571566586201e-07 0.0074829630040238963 0 -8.5243475557770812e-05 0.0063829674185733746 0 -6.0571350506307809e-05 0.0087427440650445047 0 -6.3994766902714269e-08 0.0095722650249787551 0 -2.7173571566586201e-07 0.0074829630040238963 0 -2.7173571566586201e-07 0.0074829630040238963 0 -8.5243475557770812e-05 0.0063829674185733746 0 3.6368991834360215e-05 0.0057623708774302753 0 -8.5243475557770812e-05 0.0063829674185733746 0 9.5501475818970507e-05 0.0055358455668008321 0 -7.4322182783721275e-05 0.0057302120055080837 0 -8.5243475557770812e-05 0.0063829674185733746 0 -0.00059097506664375376 0.0058315423483409588 0 -7.4322182783721275e-05 0.0057302120055080837 0 -0.0012308573611808748 0.006241469609474702 0 -0.0011099446696287533 0.0058213475540063002 0 -0.00059097506664375376 0.0058315423483409588 0 -0.00044517259903480193 0.0072612717467276126 0 -3.9208213157847867e-05 0.0066285952109381031 0 -0.0012308573611808748 0.006241469609474702 0 -8.5243475557770812e-05 0.0063829674185733746 0 -0.00059097506664375376 0.0058315423483409588 0 1.1506447845714956e-07 0.005394000763115846 0 -1.7905271423141713e-05 0.0048462470895659334 0 -8.112409933464937e-05 0.0038067438322475274 0 -2.7173571566586201e-07 0.0074829630040238963 0 1.1506447845714956e-07 0.005394000763115846 0 3.6368991834360215e-05 0.0057623708774302753 0 1.1506447845714956e-07 0.005394000763115846 0 -1.7905271423141713e-05 0.0048462470895659334 0 3.6368991834360215e-05 0.0057623708774302753 0 -8.5243475557770812e-05 0.0063829674185733746 0 3.6368991834360215e-05 0.0057623708774302753 0 9.5501475818970507e-05 0.0055358455668008321 0 9.5501475818970507e-05 0.0055358455668008321 0 4.801484253079416e-05 0.0050186096934073275 0 2.130892252942169e-05 0.0050611951099568406 0 -1.7905271423141713e-05 0.0048462470895659334 0 3.6368991834360215e-05 0.0057623708774302753 0 4.801484253079416e-05 0.0050186096934073275 0 3.6368991834360215e-05 0.0057623708774302753 0 9.5501475818970507e-05 0.0055358455668008321 0 4.801484253079416e-05 0.0050186096934073275 0 -0.00021062401063614956 0.004099022954096059 0 -0.00020983851885906604 0.0036966214470298287 0 -8.6117124935793687e-05 0.0043460328386984801 0 2.130892252942169e-05 0.0050611951099568406 0 -0.00019714942340199327 0.0034420384650228693 0 -1.7905271423141713e-05 0.0048462470895659334 0 4.801484253079416e-05 0.0050186096934073275 0 -8.6117124935793687e-05 0.0043460328386984801 0 4.801484253079416e-05 0.0050186096934073275 0 -8.6117124935793687e-05 0.0043460328386984801 0 2.130892252942169e-05 0.0050611951099568406 0 -1.7905271423141713e-05 0.0048462470895659334 0 -8.6117124935793687e-05 0.0043460328386984801 0 -8.112409933464937e-05 0.0038067438322475274 0 -0.0014744023270122427 0.0011021171240047207 0 -0.0011984644615822134 0.0032814417002553944 0 -0.00058213664565568183 0.0029813319504096028 0 -0.00085947186088371403 0.0031682374390262428 0 -0.00019714942340199327 0.0034420384650228693 0 -0.00058213664565568183 0.0029813319504096028 0 -0.00085947186088371403 0.0031682374390262428 0 -0.0015004491675441483 0.0029099282550960372 0 -0.0019528254527412929 -0.00037903690305815264 0 -0.0029042433153372671 -0.00056479874911014385 0 -0.0024451580234591749 -0.0010143069768911602 0 -0.0019528254527412929 -0.00037903690305815264 0 -0.0024451580234591749 -0.0010143069768911602 0 -0.001891162391959904 -0.0010032653355598977 0 9.5501475818970507e-05 0.0055358455668008321 0 2.130892252942169e-05 0.0050611951099568406 0 7.8742496104135595e-05 0.0054813042465267203 0 -0.0029042433153372671 -0.00056479874911014385 0 -0.0030935392300616826 -0.00097932304030222384 0 -0.0024451580234591749 -0.0010143069768911602 0 -0.00021062401063614956 0.004099022954096059 0 -0.0011984644615822134 0.0032814417002553944 0 9.5501475818970507e-05 0.0055358455668008321 0 7.8742496104135595e-05 0.0054813042465267203 0 -7.4322182783721275e-05 0.0057302120055080837 0 -0.0029343499509467234 -0.0014325294548808735 0 -0.0024451580234591749 -0.0010143069768911602 0 -0.0021496887397803935 -0.0015888759790354113 0 -0.0030935392300616826 -0.00097932304030222384 0 -0.0029343499509467234 -0.0014325294548808735 0 -0.0024451580234591749 -0.0010143069768911602 0 -0.0021496887397803935 -0.0015888759790354113 0 -0.001891162391959904 -0.0010032653355598977 0 -0.0013027952299295954 -0.0021017580054603783 0 -0.0024451580234591749 -0.0010143069768911602 0 -0.0021496887397803935 -0.0015888759790354113 0 -0.001891162391959904 -0.0010032653355598977 0 -0.00059157680028683421 0.0054802691299151883 0 -0.0003357259001168253 0.0053289106854807972 0 -0.00094556574351068986 0.0051113587790065571 0 -0.00059157680028683421 0.0054802691299151883 0 -0.00085085154892864528 0.0056111966909370477 0 -0.00094556574351068986 0.0051113587790065571 0 -0.0012504005995324476 0.0055858884704514137 0 -0.00085085154892864528 0.0056111966909370477 0 -0.00094556574351068986 0.0051113587790065571 0 -0.0016128899052822482 0.005411688812181065 0 -0.0019639505757513848 0.003545830319615658 0 -0.0012504005995324476 0.0055858884704514137 0 -0.00085085154892864528 0.0056111966909370477 0 -0.0011099446696287533 0.0058213475540063002 0 -0.00085085154892864528 0.0056111966909370477 0 -0.0011099446696287533 0.0058213475540063002 0 -0.00059097506664375376 0.0058315423483409588 0 -0.00059157680028683421 0.0054802691299151883 0 -0.00085085154892864528 0.0056111966909370477 0 -0.00059097506664375376 0.0058315423483409588 0 -0.00059097506664375376 0.0058315423483409588 0 -7.4322182783721275e-05 0.0057302120055080837 0 -0.0002614684335322413 0.005488752025483476 0 -0.00059157680028683421 0.0054802691299151883 0 -0.00059097506664375376 0.0058315423483409588 0 -0.0002614684335322413 0.005488752025483476 0 7.8742496104135595e-05 0.0054813042465267203 0 -7.4322182783721275e-05 0.0057302120055080837 0 -0.0002614684335322413 0.005488752025483476 0 0.00011220868733759322 0.0055019433521816237 0 -0.0002614684335322413 0.005488752025483476 0 -0.0003357259001168253 0.0053289106854807972 0 -0.0029042433153372671 -0.00056479874911014385 0 -0.0030935392300616826 -0.00097932304030222384 0 -0.003535112004973646 -0.00082835648704819142 0 -0.0011984644615822134 0.0032814417002553944 0 0.00018179655621035649 0.0051049116236861264 0 -0.0011984644615822134 0.0032814417002553944 0 -0.0021929973203377758 0.0021874460797177849 0 -0.00059157680028683421 0.0054802691299151883 0 -0.0002614684335322413 0.005488752025483476 0 -0.0003357259001168253 0.0053289106854807972 0 -0.0035121844500817147 -0.0014272586179939783 0 -0.0042014391847201397 -0.0010659285855678362 0 -0.0034930601348854709 -0.0020342790003964962 0 -0.003535112004973646 -0.00082835648704819142 0 -0.0036587379107626719 -0.0011104554727189248 0 -0.003390712196263258 -0.0011218032383922419 0 -0.0036587379107626719 -0.0011104554727189248 0 -0.003390712196263258 -0.0011218032383922419 0 -0.0035121844500817147 -0.0014272586179939783 0 -0.0030935392300616826 -0.00097932304030222384 0 -0.003535112004973646 -0.00082835648704819142 0 -0.003390712196263258 -0.0011218032383922419 0 -0.0030935392300616826 -0.00097932304030222384 0 -0.0029343499509467234 -0.0014325294548808735 0 -0.003390712196263258 -0.0011218032383922419 0 -0.0029343499509467234 -0.0014325294548808735 0 -0.003390712196263258 -0.0011218032383922419 0 -0.0035121844500817147 -0.0014272586179939783 0 -0.0036587379107626719 -0.0011104554727189248 0 -0.0035121844500817147 -0.0014272586179939783 0 -0.0042014391847201397 -0.0010659285855678362 0 -0.0019639505757513848 0.003545830319615658 0 -0.0027587685225812838 0.0027694577394290969 0 -0.003535112004973646 -0.00082835648704819142 0 -0.0036587379107626719 -0.0011104554727189248 0 -0.0042014391847201397 -0.0010659285855678362 0 -0.0021929973203377758 0.0021874460797177849 0 -0.0019639505757513848 0.003545830319615658 0 -0.0011796601494222024 0.0077303590106975722 0 -0.0016505138047843643 0.0083310509639384148 0 -0.0018096518990210128 0.007756262554348357 0 -0.0012558244586853332 0.0070080395790608849 0 -0.0011796601494222024 0.0077303590106975722 0 -0.0018096518990210128 0.007756262554348357 0 -0.00089638788752940783 0.0083175411207811328 0 -0.0011796601494222024 0.0077303590106975722 0 -0.0016505138047843643 0.0083310509639384148 0 -0.00089638788752940783 0.0083175411207811328 0 -0.0014376227573874101 0.0084779823089866889 0 -0.0010459696904608232 0.0087551960099704444 0 -0.000882066596618163 0.0082605828883594214 0 -0.001630664383517164 0.0087812405722651494 0 -0.0016505138047843643 0.0083310509639384148 0 -0.0018096518990210128 0.007756262554348357 0 -0.0023101250122407385 0.0083799827291692868 0 -0.0027587685225812838 0.0027694577394290969 0 -0.0023185812162826312 0.002917890496259486 0 -0.001630664383517164 0.0087812405722651494 0 -0.0023185812162826312 0.002917890496259486 0 -0.0029343499509467234 -0.0014325294548808735 0 -0.0034930601348854709 -0.0020342790003964962 0 -0.0028329404049304281 -0.0021631519652101413 0 -0.0029343499509467234 -0.0014325294548808735 0 -0.0035121844500817147 -0.0014272586179939783 0 -0.0034930601348854709 -0.0020342790003964962 0 -0.0029343499509467234 -0.0014325294548808735 0 -0.0021496887397803935 -0.0015888759790354113 0 -0.0021991657748182446 -0.0022012855814018068 0 -0.0029343499509467234 -0.0014325294548808735 0 -0.0028329404049304281 -0.0021631519652101413 0 -0.0021991657748182446 -0.0022012855814018068 0 -0.0021496887397803935 -0.0015888759790354113 0 -0.0021991657748182446 -0.0022012855814018068 0 -0.0013027952299295954 -0.0021017580054603783 0 -0.0021991657748182446 -0.0022012855814018068 0 -0.00171691754527944 -0.0025865748781272397 0 -0.0013027952299295954 -0.0021017580054603783 0 -0.0021991657748182446 -0.0022012855814018068 0 -0.00171691754527944 -0.0025865748781272397 0 -0.0027066778914948612 -0.0029419481579565959 0 -0.00171691754527944 -0.0025865748781272397 0 -0.0027066778914948612 -0.0029419481579565959 0 -0.0016566680912985059 -0.003035627620373195 0 -0.0034930601348854709 -0.0020342790003964962 0 -0.0028329404049304281 -0.0021631519652101413 0 -0.0027066778914948612 -0.0029419481579565959 0 -0.0028329404049304281 -0.0021631519652101413 0 -0.0021991657748182446 -0.0022012855814018068 0 -0.0027066778914948612 -0.0029419481579565959 0 -0.0019739476904717637 0.008559353553474645 0 -0.002183116536216854 0.0090116405567512454 0 -0.0017879436184267939 0.0088760939023162129 0 -0.0019739476904717637 0.008559353553474645 0 -0.002372419567055686 0.0090668296198177373 0 -0.002183116536216854 0.0090116405567512454 0 -0.0023185812162826312 0.002917890496259486 0 -0.0012914900645529359 0.0035970788759591976 0 -0.0023003541108652529 -0.0021107046341080405 0 -0.0015607663865454485 -0.0023339361558118105 0 -0.0017889109070228582 -0.0027894990970317815 0 -0.0023185812162826312 0.002917890496259486 0 -0.0015495590074534697 -0.0031994339550043575 0 -0.00070651223765062006 0.0037082590354300263 0 -0.0012914900645529359 0.0035970788759591976 0 0.0011508161376660574 -0.00053383318254448479 0 0.0019535272252776204 -0.00158307600116588 0 0.0012297838593712529 -0.0013419781799628373 0 -0.002441419159079374 0.0081270701218939187 0 -0.0026719440335244773 0.0081867755594788542 0 -0.0024978223793135418 0.0079459005781065996 0 -0.0022912132281038386 0.0081319513382232204 0 -0.002441419159079374 0.0081270701218939187 0 -0.0024978223793135418 0.0079459005781065996 0 -0.002372419567055686 0.0090668296198177373 0 -0.002183116536216854 0.0090116405567512454 0 -0.0017200867588966489 0.0093482174361450461 0 -0.0012914900645529359 0.0035970788759591976 0 -0.0020699566601735161 0.009364401224677214 0 -0.0022912132281038386 0.0081319513382232204 0 -0.0024978223793135418 0.0079459005781065996 0 -0.0021144487511134207 0.0080525130434446479 0 -0.002183116536216854 0.0090116405567512454 0 -0.0014672298802670839 0.0091381152820946068 0 -0.0017879436184267939 0.0088760939023162129 0 -0.0021579475799001573 0.0090268961169005704 0 -0.0015189593471612809 0.0092088605540409183 0 -0.002183116536216854 0.0090116405567512454 0 -0.0017200867588966489 0.0093482174361450461 0 -0.0015552332524705816 0.0092428821824066792 0 -0.0011511650365767106 0.0096013510690859602 0 -0.0017200867588966489 0.0093482174361450461 0 -0.0015552332524705816 0.0092428821824066792 0 -0.00084900623769488886 0.0091213112213436413 0 -0.0015189593471612809 0.0092088605540409183 0 -0.0011511650365767106 0.0096013510690859602 0 -0.0010100312505164823 0.0094438663656748051 0 -0.0015552332524705816 0.0092428821824066792 0 -0.0013477702281070665 0.0087727018367942285 0 -0.0020699566601735161 0.009364401224677214 0 -0.0006441473723340892 0.0091903487483163682 0 -0.0014672298802670839 0.0091381152820946068 0 -0.0011543008257023906 0.008900547951663406 0 -0.0014672298802670839 0.0091381152820946068 0 -0.0011543008257023906 0.008900547951663406 0 -0.0015243523917408599 0.0087975816001575249 0 -0.00081386855775401803 0.0089497981389968524 0 -0.0011543008257023906 0.008900547951663406 0 -0.0010459696904608232 0.0087551960099704444 0 -0.0014376227573874101 0.0084779823089866889 0 -0.0011543008257023906 0.008900547951663406 0 -0.0015243523917408599 0.0087975816001575249 0 -0.0014376227573874101 0.0084779823089866889 0 -0.0011543008257023906 0.008900547951663406 0 -0.0010459696904608232 0.0087551960099704444 0 -0.0014376227573874101 0.0084779823089866889 0 -0.0019739476904717637 0.008559353553474645 0 -0.0015243523917408599 0.0087975816001575249 0 -0.0019739476904717637 0.008559353553474645 0 -0.0017879436184267939 0.0088760939023162129 0 -0.0015243523917408599 0.0087975816001575249 0 -0.0014672298802670839 0.0091381152820946068 0 -0.0017879436184267939 0.0088760939023162129 0 -0.0015243523917408599 0.0087975816001575249 0 -0.0012304028251174015 -0.002592015749963619 0 -0.0017897840426099269 -0.0023732364228472337 0 -0.0012785306700549631 -0.0019357553431738493 0 -0.00086239269586437211 -0.0024399089290934894 0 -0.0012304028251174015 -0.002592015749963619 0 -0.0012785306700549631 -0.0019357553431738493 0 -0.00086239269586437211 -0.0024399089290934894 0 -0.0012304028251174015 -0.002592015749963619 0 -0.0010716984263503631 -0.0027970097548457541 0 -0.0012304028251174015 -0.002592015749963619 0 -0.0017897840426099269 -0.0023732364228472337 0 -0.0013792007811347991 -0.0031984438742846204 0 -0.0017897840426099269 -0.0023732364228472337 0 -0.0018864511186858577 -0.0011080995212543021 0 -0.0028918017844463371 -0.0011736134601706403 0 -0.0017897840426099269 -0.0023732364228472337 0 -0.0018864511186858577 -0.0011080995212543021 0 -0.0012785306700549631 -0.0019357553431738493 0 -0.0023833905763451114 -3.9823591690759663e-05 0 -0.0018864511186858577 -0.0011080995212543021 0 -0.0028918017844463371 -0.0011736134601706403 0 -0.0018864511186858577 -0.0011080995212543021 0 -0.0011864572968510242 -0.0010507862945473572 0 -0.0012785306700549631 -0.0019357553431738493 0 -0.0011864572968510242 -0.0010507862945473572 0 -0.0012785306700549631 -0.0019357553431738493 0 -0.00072538253811908553 -0.0014606127073230888 0 -0.00086239269586437211 -0.0024399089290934894 0 -0.0012785306700549631 -0.0019357553431738493 0 -0.00072538253811908553 -0.0014606127073230888 0 -0.00056845078467753635 -0.00056863010696568358 0 -0.0011864572968510242 -0.0010507862945473572 0 -0.00072538253811908553 -0.0014606127073230888 0 -0.00072538253811908553 -0.0014606127073230888 0 -0.00016674777909944511 -0.00094454217581147967 0 -0.00010490356234839616 -0.0015761912324630167 0 -0.00086239269586437211 -0.0024399089290934894 0 -0.00010490356234839616 -0.0015761912324630167 0 0.00068757016388526981 -0.0019591085850636726 0 -0.00056845078467753635 -0.00056863010696568358 0 -0.00072538253811908553 -0.0014606127073230888 0 -0.00016674777909944511 -0.00094454217581147967 0 -0.00016674777909944511 -0.00094454217581147967 0 -0.00010490356234839616 -0.0015761912324630167 0 0.00052942049102684371 -0.0011992393082683034 0 -0.00010490356234839616 -0.0015761912324630167 0 0.00052942049102684371 -0.0011992393082683034 0 0.00068757016388526981 -0.0019591085850636726 0 -0.00086239269586437211 -0.0024399089290934894 0 -0.00072538253811908553 -0.0014606127073230888 0 -0.00010490356234839616 -0.0015761912324630167 0 -0.0012914900645529359 0.0035970788759591976 0 -0.00020710449938998938 -0.0026540033453533664 0 0.0019535272252776204 -0.00158307600116588 0 0.0012297838593712529 -0.0013419781799628373 0 0.00068757016388526981 -0.0019591085850636726 0 0.0011508161376660574 -0.00053383318254448479 0 0.0012297838593712529 -0.0013419781799628373 0 0.00052942049102684371 -0.0011992393082683034 0 0.0012297838593712529 -0.0013419781799628373 0 0.00052942049102684371 -0.0011992393082683034 0 0.00068757016388526981 -0.0019591085850636726 0 -0.0015607663865454485 -0.0023339361558118105 0 -0.0012158037909565866 -0.0027267619779550944 0 -0.0010054332361391553 -0.0026158737642642226 0 -0.0015607663865454485 -0.0023339361558118105 0 -0.0017889109070228582 -0.0027894990970317815 0 -0.0012158037909565866 -0.0027267619779550944 0 -0.0016566680912985059 -0.003035627620373195 0 -0.0010054332361391553 -0.0026158737642642226 0 -0.0011614401245974868 -0.0027264010738035391 0 -0.0015495590074534697 -0.0031994339550043575 0 -0.0011421468708095782 -0.0025331059329693922 0 -0.0008439011673476778 -0.0024090432407313628 0 -0.00020710449938998938 -0.0026540033453533664 0 -0.00086239269586437211 -0.0024399089290934894 0 -0.0012158037909565866 -0.0027267619779550944 0 -0.0010054332361391553 -0.0026158737642642226 0 -0.00086239269586437211 -0.0024399089290934894 0 -0.0010054332361391553 -0.0026158737642642226 0 -0.0010716984263503631 -0.0027970097548457541 0 -0.0010054332361391553 -0.0026158737642642226 0 -0.0011614401245974868 -0.0027264010738035391 0 -0.0010716984263503631 -0.0027970097548457541 0 -0.001175346147498853 -0.0027330467313896709 0 -0.0012616021282473146 -0.0029650337547793373 0 -0.0010716984263503631 -0.0027970097548457541 0 -0.0011614401245974868 -0.0027264010738035391 0 -0.001175346147498853 -0.0027330467313896709 0 -0.0010716984263503631 -0.0027970097548457541 0 -0.0011614401245974868 -0.0027264010738035391 0 -0.001175346147498853 -0.0027330467313896709 0 -0.0013105991347701891 -0.0026549784438565254 0 -0.0016566680912985059 -0.003035627620373195 0 -0.0011614401245974868 -0.0027264010738035391 0 -0.0013105991347701891 -0.0026549784438565254 0 -0.00171691754527944 -0.0025865748781272397 0 -0.0016566680912985059 -0.003035627620373195 0 -0.0013105991347701891 -0.0026549784438565254 0 -0.00171691754527944 -0.0025865748781272397 0 -0.0013105991347701891 -0.0026549784438565254 0 -0.0013027952299295954 -0.0021017580054603783 0 -0.001175346147498853 -0.0027330467313896709 0 -0.0013105991347701891 -0.0026549784438565254 0 -0.0013027952299295954 -0.0021017580054603783 0 -0.001175346147498853 -0.0027330467313896709 0 -0.0013027952299295954 -0.0021017580054603783 0 -0.0012616021282473146 -0.0029650337547793373 0 -0.0013027952299295954 -0.0021017580054603783 0 -0.0012616021282473146 -0.0029650337547793373 0 -0.001417230613279573 -0.003195249343167434 0 -0.0012616021282473146 -0.0029650337547793373 0 -0.0015728087907388127 -0.0034805117708052199 0 -0.001417230613279573 -0.003195249343167434 0 -0.0012616021282473146 -0.0029650337547793373 0 -0.0013792007811347991 -0.0031984438742846204 0 -0.0015728087907388127 -0.0034805117708052199 0 -0.0012616021282473146 -0.0029650337547793373 0 -0.0013792007811347991 -0.0031984438742846204 0 -0.0010716984263503631 -0.0027970097548457541 0 -0.0012304028251174015 -0.002592015749963619 0 -0.0013792007811347991 -0.0031984438742846204 0 -0.0010716984263503631 -0.0027970097548457541 0 -0.0017897840426099269 -0.0023732364228472337 0 -0.0013792007811347991 -0.0031984438742846204 0 -0.0018185814026990548 -0.0038191022592855149 0 -0.0013792007811347991 -0.0031984438742846204 0 -0.0018185814026990548 -0.0038191022592855149 0 -0.0015728087907388127 -0.0034805117708052199 0 -0.0015728087907388127 -0.0034805117708052199 0 -0.001417230613279573 -0.003195249343167434 0 -0.0015367669150666678 -0.0032459188012390226 0 -5.3410569031881211e-05 -0.00057211714904864173 0 9.080843451809749e-05 0.00058297475744133382 0 -0.00083557760477310258 1.732277467776218e-05 0 -5.3410569031881211e-05 -0.00057211714904864173 0 9.080843451809749e-05 0.00058297475744133382 0 0.00027780971108947903 7.6440289976278378e-06 0 -0.00081778580596280834 -0.0018855376339940173 0 -0.00055059409756852906 -0.0016868523856093782 0 -0.001891162391959904 -0.0010032653355598977 0 -0.0013027952299295954 -0.0021017580054603783 0 -0.0012417129027461635 -0.00079559423745204257 0 -0.0013449811899024153 -0.0021388901901918597 0 -0.00081778580596280834 -0.0018855376339940173 0 -0.0013027952299295954 -0.0021017580054603783 0 -5.3410569031881211e-05 -0.00057211714904864173 0 -0.0012417129027461635 -0.00079559423745204257 0 -5.3410569031881211e-05 -0.00057211714904864173 0 -0.0012417129027461635 -0.00079559423745204257 0 -0.00083557760477310258 1.732277467776218e-05 0 0.0001704434105960404 0.00074853150733474559 0 -0.00025981320835857477 0.0011612550740782233 0 -0.0019528254527412929 -0.00037903690305815264 0 -0.0012417129027461635 -0.00079559423745204257 0 -0.00083557760477310258 1.732277467776218e-05 0 -0.0014744023270122427 0.0011021171240047207 0 -0.00025981320835857477 0.0011612550740782233 0 -0.00058213664565568183 0.0029813319504096028 0 3.4869308514415201e-05 0.0023900449631533366 0 -0.00019714942340199327 0.0034420384650228693 0 -0.0019528254527412929 -0.00037903690305815264 0 -0.001891162391959904 -0.0010032653355598977 0 -0.0012417129027461635 -0.00079559423745204257 0 -0.00019714942340199327 0.0034420384650228693 0 4.3180532923443695e-06 0.0021115306841643249 0 -8.112409933464937e-05 0.0038067438322475274 0 -8.6117124935793687e-05 0.0043460328386984801 0 -0.00019714942340199327 0.0034420384650228693 0 -8.112409933464937e-05 0.0038067438322475274 0 3.4869308514415201e-05 0.0023900449631533366 0 -0.00019714942340199327 0.0034420384650228693 0 4.3180532923443695e-06 0.0021115306841643249 0 9.080843451809749e-05 0.00058297475744133382 0 3.4869308514415201e-05 0.0023900449631533366 0 4.3180532923443695e-06 0.0021115306841643249 0 4.3180532923443695e-06 0.0021115306841643249 0 -2.5303525566380293e-07 0.0033051035755615578 0 3.3008186563948197e-07 0.0012162303743367419 0 1.1506447845714956e-07 0.005394000763115846 0 -2.5303525566380293e-07 0.0033051035755615578 0 -8.112409933464937e-05 0.0038067438322475274 0 4.3180532923443695e-06 0.0021115306841643249 0 -2.5303525566380293e-07 0.0033051035755615578 0 -8.112409933464937e-05 0.0038067438322475274 0 9.080843451809749e-05 0.00058297475744133382 0 0.00027780971108947903 7.6440289976278378e-06 0 0.00012313328480745598 2.3544318140519805e-05 0 9.080843451809749e-05 0.00058297475744133382 0 4.3180532923443695e-06 0.0021115306841643249 0 0.00012313328480745598 2.3544318140519805e-05 0 4.3180532923443695e-06 0.0021115306841643249 0 0.00012313328480745598 2.3544318140519805e-05 0 3.3008186563948197e-07 0.0012162303743367419 0 0.00012313328480745598 2.3544318140519805e-05 0 3.3008186563948197e-07 0.0012162303743367419 0 -3.068217148570144e-07 -0.00087306462926402663 0 0.00027780971108947903 7.6440289976278378e-06 0 0.00012313328480745598 2.3544318140519805e-05 0 -0.00032698818829555358 -0.0022703076450385417 0 0.00012313328480745598 2.3544318140519805e-05 0 -3.068217148570144e-07 -0.00087306462926402663 0 -0.00032698818829555358 -0.0022703076450385417 0 -3.068217148570144e-07 -0.00087306462926402663 0 -0.00032698818829555358 -0.0022703076450385417 0 -1.6491722928030943e-09 -0.0029615278010064025 0 -0.00032698818829555358 -0.0022703076450385417 0 -1.6491722928030943e-09 -0.0029615278010064025 0 0.00014016003485478837 -0.0044026637737855159 0 -1.6491722928030943e-09 -0.0029615278010064025 0 0.00014016003485478837 -0.0044026637737855159 0 3.3216031083132053e-07 -0.0050504435835939127 0 -0.00032698818829555358 -0.0022703076450385417 0 0.00014016003485478837 -0.0044026637737855159 0 -0.00019328062773240525 -0.0039197912069088969 0 0.00014016003485478837 -0.0044026637737855159 0 -0.00019328062773240525 -0.0039197912069088969 0 0.00010777070557832601 -0.0049007223870824474 0 -0.00019328062773240525 -0.0039197912069088969 0 -0.0010281857494973208 -0.0038510663610210878 0 -0.00012134212904331034 -0.0047034293828946434 0 -0.00019328062773240525 -0.0039197912069088969 0 0.00010777070557832601 -0.0049007223870824474 0 -0.00012134212904331034 -0.0047034293828946434 0 -0.00019328062773240525 -0.0039197912069088969 0 -0.0010281857494973208 -0.0038510663610210878 0 -0.00090397976085170885 -0.0033339955394140093 0 -0.0015728087907388127 -0.0034805117708052199 0 -0.0015367669150666678 -0.0032459188012390226 0 -0.0010281857494973208 -0.0038510663610210878 0 -0.0015367669150666678 -0.0032459188012390226 0 -0.0010281857494973208 -0.0038510663610210878 0 -0.00090397976085170885 -0.0033339955394140093 0 -0.00055059409756852906 -0.0016868523856093782 0 -0.0002776408075487019 -0.0020940366855577391 0 -0.0015367669150666678 -0.0032459188012390226 0 -0.00032698818829555358 -0.0022703076450385417 0 -0.00090397976085170885 -0.0033339955394140093 0 -0.00032698818829555358 -0.0022703076450385417 0 -0.00019328062773240525 -0.0039197912069088969 0 -0.00090397976085170885 -0.0033339955394140093 0 2.5745199340332993e-07 -0.0071393439901951657 0 0.00015754572296662299 -0.005960193847079763 0 9.771970172422459e-05 -0.0072274340526556112 0 2.5745199340332993e-07 -0.0071393439901951657 0 9.771970172422459e-05 -0.0072274340526556112 0 -0.00010202615769823171 -0.0085966551938836903 0 2.5745199340332993e-07 -0.0071393439901951657 0 -3.2970212795911857e-07 -0.0092283330475873109 0 -0.00010202615769823171 -0.0085966551938836903 0 2.5745199340332993e-07 -0.0071393439901951657 0 0.00015754572296662299 -0.005960193847079763 0 3.3216031083132053e-07 -0.0050504435835939127 0 0.00014016003485478837 -0.0044026637737855159 0 0.00015754572296662299 -0.005960193847079763 0 3.3216031083132053e-07 -0.0050504435835939127 0 0.00014016003485478837 -0.0044026637737855159 0 0.00010777070557832601 -0.0049007223870824474 0 0.00026868972220829264 -0.0059638472535179484 0 0.00014016003485478837 -0.0044026637737855159 0 0.00015754572296662299 -0.005960193847079763 0 0.00026868972220829264 -0.0059638472535179484 0 0.00010777070557832601 -0.0049007223870824474 0 0.00026868972220829264 -0.0059638472535179484 0 0.00016773579813370926 -0.0054358913515724465 0 0.00015754572296662299 -0.005960193847079763 0 0.00026868972220829264 -0.0059638472535179484 0 9.771970172422459e-05 -0.0072274340526556112 0 0.00026868972220829264 -0.0059638472535179484 0 9.771970172422459e-05 -0.0072274340526556112 0 -7.6012769514366077e-05 -0.0067459297129813514 0 9.771970172422459e-05 -0.0072274340526556112 0 -7.6012769514366077e-05 -0.0067459297129813514 0 -0.00038986153764433934 -0.0079643264970735879 0 9.771970172422459e-05 -0.0072274340526556112 0 -0.00038986153764433934 -0.0079643264970735879 0 -0.00010202615769823171 -0.0085966551938836903 0 -7.6012769514366077e-05 -0.0067459297129813514 0 0.00010256447830953169 -0.0059356403814329849 0 -0.00061987775869793522 -0.006275997686524459 0 0.00026868972220829264 -0.0059638472535179484 0 -7.6012769514366077e-05 -0.0067459297129813514 0 0.00017766065830725588 -0.00593972251301122 0 -7.6012769514366077e-05 -0.0067459297129813514 0 0.00017766065830725588 -0.00593972251301122 0 0.00010256447830953169 -0.0059356403814329849 0 0.00017766065830725588 -0.00593972251301122 0 5.332473810656749e-05 -0.0056368342141264417 0 0.00010256447830953169 -0.0059356403814329849 0 0.00017766065830725588 -0.00593972251301122 0 0.00016773579813370926 -0.0054358913515724465 0 5.332473810656749e-05 -0.0056368342141264417 0 0.00026868972220829264 -0.0059638472535179484 0 0.00017766065830725588 -0.00593972251301122 0 0.00016773579813370926 -0.0054358913515724465 0 0.00016773579813370926 -0.0054358913515724465 0 5.332473810656749e-05 -0.0056368342141264417 0 -0.00012508405472261457 -0.0052367157371106159 0 5.332473810656749e-05 -0.0056368342141264417 0 -9.5174619203137312e-05 -0.0055070408069085915 0 -5.987426749844618e-05 -0.0055459179216274185 0 -9.5174619203137312e-05 -0.0055070408069085915 0 -5.987426749844618e-05 -0.0055459179216274185 0 -9.5239357507337266e-05 -0.0055787428203515014 0 -9.5174619203137312e-05 -0.0055070408069085915 0 -0.00026462443753012642 -0.0055785310035985315 0 -0.00035475758829690666 -0.0053494842756990034 0 5.332473810656749e-05 -0.0056368342141264417 0 -9.5174619203137312e-05 -0.0055070408069085915 0 -0.00026462443753012642 -0.0055785310035985315 0 8.0348478054734603e-05 -0.0056703088796992603 0 -0.00025579080959494852 -0.0059818260424534158 0 5.332473810656749e-05 -0.0056368342141264417 0 -0.00026462443753012642 -0.0055785310035985315 0 -0.00046494337430066967 -0.0059633077565752072 0 -0.00026462443753012642 -0.0055785310035985315 0 -0.00046494337430066967 -0.0059633077565752072 0 -0.0005649510299793757 -0.0056655338393058873 0 -0.00026462443753012642 -0.0055785310035985315 0 -0.0004950228496018005 -0.005466918807751347 0 -0.0005649510299793757 -0.0056655338393058873 0 -0.00026462443753012642 -0.0055785310035985315 0 -0.0004950228496018005 -0.005466918807751347 0 -0.00035475758829690666 -0.0053494842756990034 0 -0.0005649510299793757 -0.0056655338393058873 0 -0.00074535574262776804 -0.0055425858884992733 0 -0.00086947900918952733 -0.005798634381876445 0 -0.0004950228496018005 -0.005466918807751347 0 -0.0005649510299793757 -0.0056655338393058873 0 -0.00074535574262776804 -0.0055425858884992733 0 -0.0004950228496018005 -0.005466918807751347 0 -0.00074535574262776804 -0.0055425858884992733 0 -0.0006793100303665395 -0.0054040053809213239 0 -0.00074535574262776804 -0.0055425858884992733 0 -0.0006793100303665395 -0.0054040053809213239 0 -0.0010223553273699323 -0.0055535040298419743 0 -0.00074535574262776804 -0.0055425858884992733 0 -0.0009760585124826386 -0.0055887046221208851 0 -0.0010223553273699323 -0.0055535040298419743 0 -3.5973918184367997e-05 -0.0048013599183077517 0 -0.0022694749968712176 -0.0083183990476594326 0 -0.00074535574262776804 -0.0055425858884992733 0 -0.00086947900918952733 -0.005798634381876445 0 -0.0009760585124826386 -0.0055887046221208851 0 -0.00025579080959494852 -0.0059818260424534158 0 -0.00062183392063577792 -0.0059766148361041485 0 -0.00046494337430066967 -0.0059633077565752072 0 -0.00086947900918952733 -0.005798634381876445 0 -0.0011728227098572995 -0.0062229475760470889 0 -0.00046494337430066967 -0.0059633077565752072 0 -0.0005649510299793757 -0.0056655338393058873 0 -0.00086947900918952733 -0.005798634381876445 0 -0.0018185814026990548 -0.0038191022592855149 0 -0.00064054187989648727 -0.0045910516188038515 0 -0.00086770155972011305 -0.0052358759541608338 0 -0.0019159002832313244 -0.0038528757368458707 0 -0.0022975617567967334 -0.0039214613437898007 0 -0.0018185814026990548 -0.0038191022592855149 0 -0.0015728087907388127 -0.0034805117708052199 0 -0.0010281857494973208 -0.0038510663610210878 0 -0.0018185814026990548 -0.0038191022592855149 0 -0.0010281857494973208 -0.0038510663610210878 0 -0.00064054187989648727 -0.0045910516188038515 0 -0.0010281857494973208 -0.0038510663610210878 0 -0.00064054187989648727 -0.0045910516188038515 0 -0.00012134212904331034 -0.0047034293828946434 0 0.00010777070557832601 -0.0049007223870824474 0 0.00016773579813370926 -0.0054358913515724465 0 -0.00012134212904331034 -0.0047034293828946434 0 0.00016773579813370926 -0.0054358913515724465 0 -0.00012134212904331034 -0.0047034293828946434 0 -0.00012508405472261457 -0.0052367157371106159 0 -0.00064054187989648727 -0.0045910516188038515 0 -0.00012134212904331034 -0.0047034293828946434 0 -0.00012508405472261457 -0.0052367157371106159 0 -0.00064054187989648727 -0.0045910516188038515 0 -0.00012508405472261457 -0.0052367157371106159 0 -0.00086770155972011305 -0.0052358759541608338 0 -0.00012508405472261457 -0.0052367157371106159 0 -0.00028269846104491227 -0.0056144829472803623 0 -0.00086770155972011305 -0.0052358759541608338 0 -0.00012508405472261457 -0.0052367157371106159 0 -5.987426749844618e-05 -0.0055459179216274185 0 -0.00028269846104491227 -0.0056144829472803623 0 5.332473810656749e-05 -0.0056368342141264417 0 -0.00012508405472261457 -0.0052367157371106159 0 -5.987426749844618e-05 -0.0055459179216274185 0 -5.987426749844618e-05 -0.0055459179216274185 0 -0.00028269846104491227 -0.0056144829472803623 0 -9.5239357507337266e-05 -0.0055787428203515014 0 -0.0033918199098661212 -0.003185863482939632 0 -0.0022975617567967334 -0.0039214613437898007 0 -0.0057185002654798383 -0.001198171509423207 0 -0.004230140594682812 -0.0010642165428862425 0 -0.0039505032002621699 -0.0025747403772890423 0 -0.004230140594682812 -0.0010642165428862425 0 -0.0039505032002621699 -0.0025747403772890423 0 -0.0028918017844463371 -0.0011736134601706403 0 -0.0017897840426099269 -0.0023732364228472337 0 -0.0018185814026990548 -0.0038191022592855149 0 -0.0039505032002621699 -0.0025747403772890423 0 -0.0017897840426099269 -0.0023732364228472337 0 -0.0039505032002621699 -0.0025747403772890423 0 -0.0028918017844463371 -0.0011736134601706403 0 -0.004230140594682812 -0.0010642165428862425 0 -0.0028918017844463371 -0.0011736134601706403 0 -0.0032879911751814732 3.5046705656091167e-05 0 -0.0032879911751814732 3.5046705656091167e-05 0 -0.004472156104926712 0.0003419245817440825 0 -0.003492431828892559 0.0011303072033565821 0 -0.0023833905763451114 -3.9823591690759663e-05 0 -0.0028918017844463371 -0.0011736134601706403 0 -0.0032879911751814732 3.5046705656091167e-05 0 -0.0023833905763451114 -3.9823591690759663e-05 0 -0.0032879911751814732 3.5046705656091167e-05 0 -0.0026744730818017946 0.00095263963756065523 0 -0.004230140594682812 -0.0010642165428862425 0 -0.0032879911751814732 3.5046705656091167e-05 0 -0.004472156104926712 0.0003419245817440825 0 -0.0057185002654798383 -0.001198171509423207 0 -0.004230140594682812 -0.0010642165428862425 0 -0.004472156104926712 0.0003419245817440825 0 -0.004472156104926712 0.0003419245817440825 0 -0.0042728092689260045 0.0015452239615741735 0 -0.0051476350898159787 0.0015534323233621862 0 -0.004472156104926712 0.0003419245817440825 0 -0.0042728092689260045 0.0015452239615741735 0 -0.003492431828892559 0.0011303072033565821 0 -0.0032879911751814732 3.5046705656091167e-05 0 -0.0026744730818017946 0.00095263963756065523 0 -0.003492431828892559 0.0011303072033565821 0 -0.0042728092689260045 0.0015452239615741735 0 -0.003492431828892559 0.0011303072033565821 0 -0.0035174013169968245 0.002028576503254346 0 -0.003492431828892559 0.0011303072033565821 0 -0.0028680442657100145 0.0018599395848354068 0 -0.0035174013169968245 0.002028576503254346 0 -0.0026744730818017946 0.00095263963756065523 0 -0.003492431828892559 0.0011303072033565821 0 -0.0028680442657100145 0.0018599395848354068 0 -0.0022918763551119776 0.0025406340147287416 0 -0.0028680442657100145 0.0018599395848354068 0 -0.0030568510527375853 0.0026919290031406089 0 -0.0028680442657100145 0.0018599395848354068 0 -0.0030568510527375853 0.0026919290031406089 0 -0.0035174013169968245 0.002028576503254346 0 -0.0024682186984111136 0.003180904513492067 0 -0.0030568510527375853 0.0026919290031406089 0 -0.0032120634654097418 0.0035096774446985728 0 -0.0030568510527375853 0.0026919290031406089 0 -0.003807125040487237 0.0028034769535437158 0 -0.0032120634654097418 0.0035096774446985728 0 -0.0035174013169968245 0.002028576503254346 0 -0.0040679201329717144 0.0021923068259636744 0 -0.003807125040487237 0.0028034769535437158 0 -0.0030568510527375853 0.0026919290031406089 0 -0.0035174013169968245 0.002028576503254346 0 -0.003807125040487237 0.0028034769535437158 0 -0.0046683479435875178 0.0023607145557161115 0 -0.0042447088934846403 0.0033707781255327188 0 -0.0051639183091353406 0.0025242085010786989 0 -0.0040679201329717144 0.0021923068259636744 0 -0.0046683479435875178 0.0023607145557161115 0 -0.003807125040487237 0.0028034769535437158 0 -0.0042728092689260045 0.0015452239615741735 0 -0.0040679201329717144 0.0021923068259636744 0 -0.0046683479435875178 0.0023607145557161115 0 -0.0042728092689260045 0.0015452239615741735 0 -0.0035174013169968245 0.002028576503254346 0 -0.0040679201329717144 0.0021923068259636744 0 -0.0046683479435875178 0.0023607145557161115 0 -0.003807125040487237 0.0028034769535437158 0 -0.0041548170443258111 0.0038844376362414594 0 -0.0042728092689260045 0.0015452239615741735 0 -0.0046683479435875178 0.0023607145557161115 0 -0.0051476350898159787 0.0015534323233621862 0 -0.0043878435629492998 0.0035291907344162797 0 -0.0032179699299215709 0.00013229013375660889 0 -0.0032179699299215709 0.00013229013375660889 0 -0.0033164038686921997 -0.0014772882320929449 0 -0.0019476511399424466 0.0038533299626604968 0 -0.0032120634654097418 0.0035096774446985728 0 -0.0030792657051946465 0.0048582396484589093 0 -0.0040245360538647378 0.0038395396570513321 0 -0.0032120634654097418 0.0035096774446985728 0 -0.0030792657051946465 0.0048582396484589093 0 -0.0032179699299215709 0.00013229013375660889 0 -0.0040981867845942014 0.0031498495668086175 0 -0.003807125040487237 0.0028034769535437158 0 -0.0041548170443258111 0.0038844376362414594 0 -0.0032120634654097418 0.0035096774446985728 0 -0.0012440827451586306 -0.0054205830212194894 0 -0.0010526380279430199 -0.0052728302871921937 0 -0.00083145163714535067 -0.0054822664939522293 0 -0.00083145163714535067 -0.0054822664939522293 0 -0.00077572755544292791 -0.0057026527727913074 0 -0.0012375899048063744 -0.0056931883235329037 0 -0.0012440827451586306 -0.0054205830212194894 0 -0.00083145163714535067 -0.0054822664939522293 0 -0.0012375899048063744 -0.0056931883235329037 0 -0.0017046162367848274 -0.0054553318509063297 0 -0.0012440827451586306 -0.0054205830212194894 0 -0.0014044631328300897 -0.0051950431840775664 0 -0.0032179699299215709 0.00013229013375660889 0 -0.0010915715787990169 -0.0048210207122192398 0 -0.0017046162367848274 -0.0054553318509063297 0 -0.0012440827451586306 -0.0054205830212194894 0 -0.0012375899048063744 -0.0056931883235329037 0 -0.0014044631328300897 -0.0051950431840775664 0 -0.0010526380279430199 -0.0052728302871921937 0 -0.001124650702553039 -0.0049432853253449822 0 -0.0012440827451586306 -0.0054205830212194894 0 -0.0014044631328300897 -0.0051950431840775664 0 -0.0010526380279430199 -0.0052728302871921937 0 -0.0051639183091353406 0.0025242085010786989 0 -0.0062521639887147037 0.0013400262568387081 0 -0.0051476350898159787 0.0015534323233621862 0 -0.0046683479435875178 0.0023607145557161115 0 -0.0051639183091353406 0.0025242085010786989 0 -0.0051476350898159787 0.0015534323233621862 0 -0.0033164038686921997 -0.0014772882320929449 0 -0.0038627774167354009 -0.0017704323772807209 0 -0.0010526380279430199 -0.0052728302871921937 0 -0.0006375346032682261 -0.0052397976037064763 0 -0.00083145163714535067 -0.0054822664939522293 0 -0.0010526380279430199 -0.0052728302871921937 0 -0.00088186022026865069 -0.0051213809628966479 0 -0.0006375346032682261 -0.0052397976037064763 0 -0.0010526380279430199 -0.0052728302871921937 0 -0.00088186022026865069 -0.0051213809628966479 0 -0.001124650702553039 -0.0049432853253449822 0 -0.0062521639887147037 0.0013400262568387081 0 -0.0057834469632907807 0.00043592649043916552 0 -0.0073117732723944756 0.00014465919807265712 0 -0.00088186022026865069 -0.0051213809628966479 0 -0.001124650702553039 -0.0049432853253449822 0 -0.00074361127765724705 -0.0049885271844925536 0 -0.001124650702553039 -0.0049432853253449822 0 -0.00082872633206820562 -0.004627758709745692 0 -0.00074361127765724705 -0.0049885271844925536 0 -0.0038627774167354009 -0.0017704323772807209 0 -0.0018435948687092821 -0.0034523588582199851 0 -0.004472156104926712 0.0003419245817440825 0 -0.0051476350898159787 0.0015534323233621862 0 -0.0057834469632907807 0.00043592649043916552 0 -0.0062521639887147037 0.0013400262568387081 0 -0.0051476350898159787 0.0015534323233621862 0 -0.0057834469632907807 0.00043592649043916552 0 -0.0057185002654798383 -0.001198171509423207 0 -0.004472156104926712 0.0003419245817440825 0 -0.0057834469632907807 0.00043592649043916552 0 -0.0057185002654798383 -0.001198171509423207 0 -0.0057834469632907807 0.00043592649043916552 0 -0.0073117732723944756 0.00014465919807265712 0 -0.0033918199098661212 -0.003185863482939632 0 -0.0018435948687092821 -0.0034523588582199851 0 -9.5174619203137312e-05 -0.0055070408069085915 0 6.5051574243450301e-05 -0.0053001140737542491 0 -0.00023918319518357348 -0.0052841263393696367 0 -0.00024941779443118131 -0.0054297871980186182 0 -0.0018435948687092821 -0.0034523588582199851 0 -9.5174619203137312e-05 -0.0055070408069085915 0 -0.00035475758829690666 -0.0053494842756990034 0 -0.00023918319518357348 -0.0052841263393696367 0 -0.00035475758829690666 -0.0053494842756990034 0 -0.00023918319518357348 -0.0052841263393696367 0 -0.00036216537896115668 -0.0052015086911820817 0 -0.00023918319518357348 -0.0052841263393696367 0 -0.00036216537896115668 -0.0052015086911820817 0 -0.00038383603750273711 -0.0050772470938365375 0 -0.00038555515552994715 -0.0051345994144947615 0 -0.00038383603750273711 -0.0050772470938365375 0 -0.00038629220701166795 -0.0051723550321579248 0 -0.00036216537896115668 -0.0052015086911820817 0 -0.00038555515552994715 -0.0051345994144947615 0 -0.00038383603750273711 -0.0050772470938365375 0 -0.00038383603750273711 -0.0050772470938365375 0 -0.00074361127765724705 -0.0049885271844925536 0 -0.0006375346032682261 -0.0052397976037064763 0 6.5051574243450301e-05 -0.0053001140737542491 0 -0.00023918319518357348 -0.0052841263393696367 0 -0.00038383603750273711 -0.0050772470938365375 0 -0.00082872633206820562 -0.004627758709745692 0 -0.00038383603750273711 -0.0050772470938365375 0 -0.00074361127765724705 -0.0049885271844925536 0 -0.0018435948687092821 -0.0034523588582199851 0 0.00027090913523828477 -0.0056642552512327351 0 -0.0006793100303665395 -0.0054040053809213239 0 -0.00050767267070792423 -0.0053118272555789259 0 -0.00061767234892463831 -0.0051461350727201932 0 -0.00086666779341881177 -0.0053132220210179593 0 -0.0006793100303665395 -0.0054040053809213239 0 -0.0010048647086365592 -0.0057421362518991423 0 -0.00086666779341881177 -0.0053132220210179593 0 -0.0006793100303665395 -0.0054040053809213239 0 -0.00061767234892463831 -0.0051461350727201932 0 -0.0014915757080499706 -0.0087203719061250719 0 -0.0001726563140216468 -0.0071867690866664197 0 -0.0017698279900150177 -0.0085216157873959347 0 -0.0004950228496018005 -0.005466918807751347 0 -0.0006793100303665395 -0.0054040053809213239 0 -0.00050767267070792423 -0.0053118272555789259 0 -0.0004950228496018005 -0.005466918807751347 0 -0.00035475758829690666 -0.0053494842756990034 0 -0.00050767267070792423 -0.0053118272555789259 0 -0.00035475758829690666 -0.0053494842756990034 0 -0.00050767267070792423 -0.0053118272555789259 0 -0.0004444351386202852 -0.0051873755976870857 0 -0.00035475758829690666 -0.0053494842756990034 0 -0.00036216537896115668 -0.0052015086911820817 0 -0.0004444351386202852 -0.0051873755976870857 0 -0.00036216537896115668 -0.0052015086911820817 0 -0.00038555515552994715 -0.0051345994144947615 0 -0.0004444351386202852 -0.0051873755976870857 0 -0.00038555515552994715 -0.0051345994144947615 0 -0.0004444351386202852 -0.0051873755976870857 0 -0.00038933849945840598 -0.0051117449042481873 0 -0.0004444351386202852 -0.0051873755976870857 0 -0.00061767234892463831 -0.0051461350727201932 0 -0.00038933849945840598 -0.0051117449042481873 0 -0.00066232519379469271 -0.0074776810767769398 0 -0.00019552195399814691 -0.0051131136168185848 0 -0.00050767267070792423 -0.0053118272555789259 0 -0.0004444351386202852 -0.0051873755976870857 0 -0.00061767234892463831 -0.0051461350727201932 0 -0.0008748270797351832 -0.011547545114967998 0 -0.00082548986027576805 -0.011770755067645107 0 -0.00074480029645138904 -0.011622132546323136 0 -0.0008748270797351832 -0.011547545114967998 0 -0.00074480029645138904 -0.011622132546323136 0 -0.00074127828771824685 -0.011454036977368513 0 -0.00066232519379469271 -0.0074776810767769398 0 -0.0012307736100211015 -0.0099755013386107518 0 -0.00079385859115573562 -0.0065744277274578785 0 -0.00066232519379469271 -0.0074776810767769398 0 -0.0008748270797351832 -0.011547545114967998 0 -0.00082548986027576805 -0.011770755067645107 0 -0.001058038331199796 -0.011737002485159173 0 -0.00082548986027576805 -0.011770755067645107 0 -0.0007001371296430105 -0.011731186516322161 0 -0.00074480029645138904 -0.011622132546323136 0 -0.00082548986027576805 -0.011770755067645107 0 -0.001058038331199796 -0.011737002485159173 0 -0.0010067396471213064 -0.01196825022694839 0 -0.00044080211926074192 -0.0054663503634263724 0 -0.00036666791884544948 -0.0053816429890907397 0 -0.00036387025955047993 -0.0053508051312637578 0 -0.00066232519379469271 -0.0074776810767769398 0 -0.00077963571803478765 -0.0087152408537089898 0 -0.00038555515552994715 -0.0051345994144947615 0 -0.00038933849945840598 -0.0051117449042481873 0 -0.00038629220701166795 -0.0051723550321579248 0 -0.00019552195399814691 -0.0051131136168185848 0 -0.00049225688632978132 -0.0053944336158689848 0 -0.00036666791884544948 -0.0053816429890907397 0 -0.00036387025955047993 -0.0053508051312637578 0 -0.00041590963392676292 -0.0053557693756520718 0 -0.001058038331199796 -0.011737002485159173 0 -0.0010067396471213064 -0.01196825022694839 0 -0.0012650422025888932 -0.011960151470501872 0 -0.0010067396471213064 -0.01196825022694839 0 -0.00077927548462627201 -0.011990664675251035 0 -0.00089278912708632189 -0.012133955780448716 0 -0.00082548986027576805 -0.011770755067645107 0 -0.0010067396471213064 -0.01196825022694839 0 -0.00077927548462627201 -0.011990664675251035 0 -0.00082548986027576805 -0.011770755067645107 0 -0.00077927548462627201 -0.011990664675251035 0 -0.00066636064572635949 -0.011851358962350894 0 -0.00088186022026865069 -0.0051213809628966479 0 -0.00074361127765724705 -0.0049885271844925536 0 -0.0006375346032682261 -0.0052397976037064763 0 -0.0006375346032682261 -0.0052397976037064763 0 -0.00038629220701166795 -0.0051723550321579248 0 -0.00041590963392676292 -0.0053557693756520718 0 -0.00038383603750273711 -0.0050772470938365375 0 -0.0006375346032682261 -0.0052397976037064763 0 -0.00038629220701166795 -0.0051723550321579248 0 -0.0006375346032682261 -0.0052397976037064763 0 -0.00041590963392676292 -0.0053557693756520718 0 -0.00057170181080404422 -0.0053967524137322953 0 -0.00038933849945840598 -0.0051117449042481873 0 -0.00038629220701166795 -0.0051723550321579248 0 -0.00041590963392676292 -0.0053557693756520718 0 -0.00036387025955047993 -0.0053508051312637578 0 -0.00041590963392676292 -0.0053557693756520718 0 -0.00043665717302507091 -0.0055292081493733053 0 -0.00077963571803478765 -0.0087152408537089898 0 -0.00083070484938660254 -0.0086887824584795884 0 -0.0010067396471213064 -0.01196825022694839 0 -0.0012650422025888932 -0.011960151470501872 0 -0.0011664683942684455 -0.012098827110616004 0 -0.00041590963392676292 -0.0053557693756520718 0 -0.00043665717302507091 -0.0055292081493733053 0 -0.00057170181080404422 -0.0053967524137322953 0 -0.00043665717302507091 -0.0055292081493733053 0 -0.00083145163714535067 -0.0054822664939522293 0 -0.00077572755544292791 -0.0057026527727913074 0 -0.00043665717302507091 -0.0055292081493733053 0 -0.00057170181080404422 -0.0053967524137322953 0 -0.00083145163714535067 -0.0054822664939522293 0 -0.0006375346032682261 -0.0052397976037064763 0 -0.00057170181080404422 -0.0053967524137322953 0 -0.00083145163714535067 -0.0054822664939522293 0 -0.00043665717302507091 -0.0055292081493733053 0 -0.00077572755544292791 -0.0057026527727913074 0 -0.00070601128199175762 -0.0058973480931770001 0 -0.00083070484938660254 -0.0086887824584795884 0 -0.0010349878271216663 -0.0092786449106633841 0 -0.00077572755544292791 -0.0057026527727913074 0 -0.00070601128199175762 -0.0058973480931770001 0 -0.00078837946004406737 -0.0059076317881398659 0 -0.0010349878271216663 -0.0092786449106633841 0 -0.0010058286187478286 -0.0075017927404109992 0 -0.0012768871799905379 -0.0083314456288201364 0 -0.0010795405168530505 -0.008098008867899343 0 -0.00073170092958649801 -0.0082420014447756786 0 -0.00095862173197006192 -0.009434907260301632 0 -0.0010058286187478286 -0.0075017927404109992 0 -0.0010349878271216663 -0.0092786449106633841 0 -0.00095862173197006192 -0.009434907260301632 0 -0.0010349878271216663 -0.0092786449106633841 0 -0.0016284156248355035 -0.011236577038529373 0 -0.0012650422025888932 -0.011960151470501872 0 -0.0014618095737985236 -0.01218059043909403 0 -0.0013230927699727278 -0.012173020435593946 0 -0.0012650422025888932 -0.011960151470501872 0 -0.0011664683942684455 -0.012098827110616004 0 -0.0013230927699727278 -0.012173020435593946 0 -0.0011664683942684455 -0.012098827110616004 0 -0.0011849949812728206 -0.012220712885495959 0 -0.0013230927699727278 -0.012173020435593946 0 -0.001477206448905345 -0.012182380986757384 0 -0.0013230927699727278 -0.012173020435593946 0 -0.0012655220189676493 -0.012342737995361706 0 -0.0011849949812728206 -0.012220712885495959 0 -0.0013230927699727278 -0.012173020435593946 0 -0.0012655220189676493 -0.012342737995361706 0 -0.00092751232454727362 -0.012562493410817053 0 -0.00073859086661761536 -0.014457149711892624 0 -0.00065758206921408323 -0.012720584116627328 0 -0.00039788071629925502 -0.01295210348515374 0 -0.00086949284468180457 -0.013141587672228009 0 -0.0011849949812728206 -0.012220712885495959 0 -0.0012655220189676493 -0.012342737995361706 0 -0.0010736908069931392 -0.012337815253567322 0 -0.00095862173197006192 -0.009434907260301632 0 -0.00092751232454727362 -0.012562493410817053 0 -0.00065758206921408323 -0.012720584116627328 0 -0.0011114207602375033 -0.012935223813613192 0 -0.00086949284468180457 -0.013141587672228009 0 -0.001477206448905345 -0.012182380986757384 0 -0.0014987611345608366 -0.012206257862270226 0 -0.0012655220189676493 -0.012342737995361706 0 -0.0010663877641503912 -0.012525226225392179 0 -0.00065758206921408323 -0.012720584116627328 0 -0.0011114207602375033 -0.012935223813613192 0 -0.00077927548462627201 -0.011990664675251035 0 -0.00071143892967087479 -0.012251273225198263 0 -0.00089278912708632189 -0.012133955780448716 0 -0.00071143892967087479 -0.012251273225198263 0 -0.00089278912708632189 -0.012133955780448716 0 -0.00090174897252065869 -0.012308534466362514 0 -0.00089278912708632189 -0.012133955780448716 0 -0.0010469476148184309 -0.012169696025239461 0 -0.00090174897252065869 -0.012308534466362514 0 -0.0010469476148184309 -0.012169696025239461 0 -0.0010736908069931392 -0.012337815253567322 0 -0.00090174897252065869 -0.012308534466362514 0 -0.0010067396471213064 -0.01196825022694839 0 -0.00089278912708632189 -0.012133955780448716 0 -0.0010469476148184309 -0.012169696025239461 0 -0.0010067396471213064 -0.01196825022694839 0 -0.0011664683942684455 -0.012098827110616004 0 -0.0010469476148184309 -0.012169696025239461 0 -0.0011849949812728206 -0.012220712885495959 0 -0.0010469476148184309 -0.012169696025239461 0 -0.0010736908069931392 -0.012337815253567322 0 -0.0011664683942684455 -0.012098827110616004 0 -0.0011849949812728206 -0.012220712885495959 0 -0.0010469476148184309 -0.012169696025239461 0 -0.0012655220189676493 -0.012342737995361706 0 -0.0010736908069931392 -0.012337815253567322 0 -0.0010347623859593119 -0.012487805270639781 0 -0.00065758206921408323 -0.012720584116627328 0 -0.00039788071629925502 -0.01295210348515374 0 -0.00025333506959257577 -0.012915664344929276 0 -0.00051778622013339383 -0.015255092032586463 0 -0.00047825296193859299 -0.015165038700026969 0 -0.00051778622013339383 -0.015255092032586463 0 -0.00042542156812692218 -0.015737121491876515 0 -0.00051778622013339383 -0.015255092032586463 0 -0.00073859086661761536 -0.014457149711892624 0 -0.00044079595400558309 -0.015443566732531158 0 -0.00060754132155960768 -0.015511224331553152 0 -0.00070878341239741455 -0.015469866524910761 0 -0.00035014120891670484 -0.012950024048324843 0 -0.00039788071629925502 -0.01295210348515374 0 -0.00025333506959257577 -0.012915664344929276 0 -0.0010736908069931392 -0.012337815253567322 0 -0.00099118759286873385 -0.012475577813842913 0 -0.0010347623859593119 -0.012487805270639781 0 -0.00066058667159980811 -0.014217975164308092 0 -0.00073859086661761536 -0.014457149711892624 0 -0.00099118759286873385 -0.012475577813842913 0 -0.0010362578386850603 -0.012498258637134678 0 -0.0010004601958347912 -0.012511481309108858 0 -0.00073859086661761536 -0.014457149711892624 0 -0.00042542156812692218 -0.015737121491876515 0 -0.00042542156812692218 -0.015737121491876515 0 0.00022184977433025054 -0.016780265686964738 0 -0.0010736908069931392 -0.012337815253567322 0 -0.00099118759286873385 -0.012475577813842913 0 -0.00090174897252065869 -0.012308534466362514 0 -0.00071143892967087479 -0.012251273225198263 0 -0.00090174897252065869 -0.012308534466362514 0 -0.00063655161848920545 -0.012526015424841153 0 -0.000200713522524791 -0.019161633146346571 0 -0.00014039820778518074 -0.019187508467197675 0 9.0314171513246141e-05 -0.019109622369208712 0 -0.00099118759286873385 -0.012475577813842913 0 -0.00090174897252065869 -0.012308534466362514 0 -0.00063655161848920545 -0.012526015424841153 0 -0.00042542156812692218 -0.015737121491876515 0 -0.00031693344712996905 -0.015724136692708186 0 -0.00099118759286873385 -0.012475577813842913 0 -0.0010004601958347912 -0.012511481309108858 0 -0.00063655161848920545 -0.012526015424841153 0 -0.00014039820778518074 -0.019187508467197675 0 -2.2316809483397649e-06 -0.01925968457215578 0 9.0314171513246141e-05 -0.019109622369208712 0 -2.2316809483397649e-06 -0.01925968457215578 0 -0.00011633636451003254 -0.019335968397297589 0 1.6683657100940523e-05 -0.019443536261781306 0 -0.00014039820778518074 -0.019187508467197675 0 -2.2316809483397649e-06 -0.01925968457215578 0 -0.00011633636451003254 -0.019335968397297589 0 -0.00011633636451003254 -0.019335968397297589 0 -0.00021095378364007332 -0.019303638011442508 0 -0.00022987369704257485 -0.01947572069837326 0 -0.00014039820778518074 -0.019187508467197675 0 -0.00011633636451003254 -0.019335968397297589 0 -0.00021095378364007332 -0.019303638011442508 0 -0.00018504949777760842 -0.019174547551154844 0 -0.00014039820778518074 -0.019187508467197675 0 -0.00021095378364007332 -0.019303638011442508 0 -0.00024425119033101171 -0.019189424621699321 0 -0.00018504949777760842 -0.019174547551154844 0 -0.00021095378364007332 -0.019303638011442508 0 -0.00022987369704257485 -0.01947572069837326 0 1.6683657100940523e-05 -0.019443536261781306 0 -0.00014066782471039752 -0.019738292271769049 0 -0.00011633636451003254 -0.019335968397297589 0 -0.00022987369704257485 -0.01947572069837326 0 1.6683657100940523e-05 -0.019443536261781306 0 -0.00062847947026741023 -0.016257024059713916 0 -0.00097374411833227358 -0.01655991278309232 0 -0.0011114207602375033 -0.012935223813613192 0 -0.00086949284468180457 -0.013141587672228009 0 -0.0013904893242389573 -0.013336562245017409 0 -0.00051778622013339383 -0.015255092032586463 0 -0.00062847947026741023 -0.016257024059713916 0 -0.00021095378364007332 -0.019303638011442508 0 -0.00022987369704257485 -0.01947572069837326 0 -0.00041860195410089453 -0.019278594435451667 0 -0.00024425119033101171 -0.019189424621699321 0 -0.00021095378364007332 -0.019303638011442508 0 -0.00041860195410089453 -0.019278594435451667 0 -0.00034992965691803079 -0.012949526352817403 0 -0.00039788071629925502 -0.01295210348515374 0 -0.00086949284468180457 -0.013141587672228009 0 -0.00022987369704257485 -0.01947572069837326 0 -0.00041860195410089453 -0.019278594435451667 0 -0.00039364375937606219 -0.019490864799790279 0 -0.00041860195410089453 -0.019278594435451667 0 -0.00039364375937606219 -0.019490864799790279 0 -0.00058044911425798775 -0.019325968901584851 0 -0.00039364375937606219 -0.019490864799790279 0 -0.00058044911425798775 -0.019325968901584851 0 -0.00056716607717453111 -0.019519644188670401 0 -0.00058044911425798775 -0.019325968901584851 0 -0.00076261806341891385 -0.019349698922830484 0 -0.00056716607717453111 -0.019519644188670401 0 -0.0011114207602375033 -0.012935223813613192 0 -0.0013904893242389573 -0.013336562245017409 0 -0.0014897267176293787 -0.013033133364419754 0 -0.0013904893242389573 -0.013336562245017409 0 -0.0014897267176293787 -0.013033133364419754 0 -0.0016721914813517071 -0.013253526733418982 0 -0.001810159956968283 -0.010801158973197939 0 -0.001812163345918483 -0.0093500121842111858 0 -0.0014347657114517729 -0.0072165021046397063 0 -0.0025467679402195313 -0.0074169458792202655 0 -0.0022706495505428735 -0.0064036318516781611 0 -0.001812163345918483 -0.0093500121842111858 0 -0.0024175751998699859 -0.0073190258662728337 0 -0.0021711957691609254 -0.0082968142598521602 0 -0.0020642620599383753 -0.0087468755830386533 0 -0.0026109341926940565 -0.0082202764249213935 0 -0.0017325631828147097 -0.008351358584566768 0 -0.0021711957691609254 -0.0082968142598521602 0 -0.0020642620599383753 -0.0087468755830386533 0 -0.0014347657114517729 -0.0072165021046397063 0 -0.0020954618809361416 -0.0079870064021317216 0 -0.0025467679402195313 -0.0074169458792202655 0 -0.001812163345918483 -0.0093500121842111858 0 -0.0019919986589980961 -0.013796577563745924 0 -0.0013904893242389573 -0.013336562245017409 0 -0.0016721914813517071 -0.013253526733418982 0 -0.001905217134910223 -0.013533872366970796 0 -0.00097374411833227358 -0.01655991278309232 0 -0.0019919986589980961 -0.013796577563745924 0 -0.0020954618809361416 -0.0079870064021317216 0 -0.0032457007953821887 -0.0084140524662865684 0 -0.0029089651597005864 -0.0080672614920436429 0 -0.0019919986589980961 -0.013796577563745924 0 -0.002474730774036038 -0.0074003738920097994 0 -0.0016710665310468954 -0.0039942666677278598 0 -0.0016743355572057229 -0.0039778458703226965 0 -0.0016760005428161011 -0.0040011623795229408 0 -0.0032457007953821887 -0.0084140524662865684 0 -0.0032486152422975308 -0.0079987657269571678 0 -0.0029089651597005864 -0.0080672614920436429 0 -0.002474730774036038 -0.0074003738920097994 0 -0.0024715269308231225 -0.0055521424946378363 0 -0.0024715269308231225 -0.0055521424946378363 0 -0.0026368146393275006 -0.0061225439237657647 0 -0.0032591447883899491 -0.0079983053022291903 0 -0.0029089651597005864 -0.0080672614920436429 0 -0.0025467679402195313 -0.0074169458792202655 0 -0.0020954618809361416 -0.0079870064021317216 0 -0.0029089651597005864 -0.0080672614920436429 0 -0.0025467679402195313 -0.0074169458792202655 0 -0.0022335018577392118 -0.0033308685852592242 0 -0.0025545060315562951 -0.003262039755492887 0 -0.002246167352779117 -0.0027247839308785168 0 -0.0017204936531061467 -0.0039689692607993337 0 -0.0017058186699794903 -0.0039725003207247683 0 -0.001703076450480579 -0.0039575920391326973 0 -0.0017597183163787639 -0.0027182811786632755 0 -0.0014314986280221872 -0.0041052223607256216 0 -0.0017058186699794903 -0.0039725003207247683 0 -0.001703076450480579 -0.0039575920391326973 0 -0.0016760005428161011 -0.0040011623795229408 0 -0.0016743355572057229 -0.0039778458703226965 0 -0.0017005907260233971 -0.0039679504769636774 0 -0.0016760005428161011 -0.0040011623795229408 0 -0.0024715269308231225 -0.0055521424946378363 0 -0.0017597183163787639 -0.0027182811786632755 0 -0.0026437139254072528 0.0014466402100974745 0 -0.0017597183163787639 -0.0027182811786632755 0 -0.0017597183163787639 -0.0027182811786632755 0 -0.0024889398147332461 0.00016393887129980631 0 -0.0029056689014420422 -0.00063217895108412894 0 -0.0019138040116305104 -0.00082149827484795184 0 -0.0025985382002232807 0.00018171977436586071 0 -0.002779746979879491 -0.0029213622403659015 0 -0.002246167352779117 -0.0027247839308785168 0 -0.0024935376807994126 -0.0021619821189150755 0 -0.0024889398147332461 0.00016393887129980631 0 -0.0026405851907257962 -0.00064786974905740933 0 -0.0025545060315562951 -0.003262039755492887 0 -0.002779746979879491 -0.0029213622403659015 0 -0.002246167352779117 -0.0027247839308785168 0 -0.0024715269308231225 -0.0055521424946378363 0 -0.002764265913479226 -0.0048139399150320282 0 -0.0032591447883899491 -0.0079983053022291903 0 -0.0025467679402195313 -0.0074169458792202655 0 -0.0032848811061521269 -0.0068255973235046919 0 -0.0025467679402195313 -0.0074169458792202655 0 -0.0032848811061521269 -0.0068255973235046919 0 -0.0022706495505428735 -0.0064036318516781611 0 -0.0026109341926940565 -0.0082202764249213935 0 -0.0031481076491447755 -0.0076950082209776482 0 -0.0021129985563490797 -0.0075614271118442152 0 -0.0032848811061521269 -0.0068255973235046919 0 -0.0031020606340737013 -0.0055998466662358316 0 -0.0033031744592632939 -0.0056296957405144541 0 -0.0024175751998699859 -0.0073190258662728337 0 -0.0030014412431072133 -0.0049617580403534534 0 -0.0030014412431072133 -0.0049617580403534534 0 -0.0018060887982739998 -0.0058342254530221122 0 -0.002764265913479226 -0.0048139399150320282 0 -0.0030125633306748428 -0.003754623986278498 0 -0.0030295394903085493 -0.0044336068967587997 0 -0.0023718246253370359 -0.0039080888465736876 0 -0.0016226690186275923 -0.0042369252311642725 0 -0.0032848811061521269 -0.0068255973235046919 0 -0.0022706495505428735 -0.0064036318516781611 0 -0.0031020606340737013 -0.0055998466662358316 0 -0.0030014412431072133 -0.0049617580403534534 0 -0.0030125633306748428 -0.003754623986278498 0 -0.0031353164443073574 -0.0043734325066468946 0 -0.0032422824672936829 -0.0043893749332104973 0 -0.0032442353646666101 -0.0042697367263195753 0 -0.0030295394903085493 -0.0044336068967587997 0 -0.0032096763924099794 -0.0042644682351376337 0 -0.0028898672172215163 -0.0039700150551053087 0 -0.0030125633306748428 -0.003754623986278498 0 -0.0030985411038284899 -0.0035471258010667172 0 -0.0030014412431072133 -0.0049617580403534534 0 -0.0030985411038284899 -0.0035471258010667172 0 -0.002246167352779117 -0.0027247839308785168 0 -0.0022586635592361189 -0.0021300421009828874 0 -0.0024935376807994126 -0.0021619821189150755 0 -0.0019830236387177523 0.0024352387563335567 0 -0.0031164449102200321 0.0022356984423128595 0 -0.0029341622466905956 0.0014227937226158451 0 -0.0025217448863559732 0.001448389855943821 0 -0.0024012209108564045 0.0012120382631110543 0 -0.0023075716151980028 0.0014649123570512313 0 -0.0031642668430417807 -0.0021659465097020021 0 -0.002963647085406963 -0.0020357341992966907 0 -0.0030529021427671654 -0.0022681371398742449 0 -0.0026405851907257962 -0.00064786974905740933 0 -0.0030979231950390212 -0.0010809597238134443 0 -0.003165019959882589 -0.0020721155094357811 0 -0.0031642668430417807 -0.0021659465097020021 0 -0.002963647085406963 -0.0020357341992966907 0 -0.0030125633306748428 -0.003754623986278498 0 -0.0026405851907257962 -0.00064786974905740933 0 -0.0030985411038284899 -0.0035471258010667172 0 -0.0030979231950390212 -0.0010809597238134443 0 -0.0035043092734088599 0.00066835505758551864 0 -0.0030036012259797569 0.0012005008754245982 0 -0.0032230768397100988 0.0014013794919719761 0 -0.0031164449102200321 0.0022356984423128595 0 -0.0029341622466905956 0.0014227937226158451 0 -0.0032977122205145315 0.0017572775442893642 0 -0.0032091969742494867 -0.0042367315750716974 0 -0.0034373840516854505 -0.0040269311507307986 0 -0.0032144453107969817 -0.0037361512937289822 0 -0.0033460464276738469 0.0039374638189919693 0 -0.0030979231950390212 -0.0010809597238134443 0 -0.0032179699299215709 0.00013229013375660889 0 -0.0033460464276738469 0.0039374638189919693 0 -0.0032179699299215709 0.00013229013375660889 0 -0.0030979231950390212 -0.0010809597238134443 0 -0.0029810183100129309 -0.0028141431175491404 0 -0.0026917629449187759 -0.0034895325071832256 0 -0.0015937148370394171 -0.0034345773447419042 0 -0.0029810183100129309 -0.0028141431175491404 0 -0.0034373840516854505 -0.0040269311507307986 0 -0.0032144453107969817 -0.0037361512937289822 0 -0.0030295394903085493 -0.0044336068967587997 0 -0.0023718246253370359 -0.0039080888465736876 0 -0.0028898672172215163 -0.0039700150551053087 0 -0.0023718246253370359 -0.0039080888465736876 0 -0.0028898672172215163 -0.0039700150551053087 0 -0.0026917629449187759 -0.0034895325071832256 0 -0.0032096763924099794 -0.0042644682351376337 0 -0.0032144453107969817 -0.0037361512937289822 0 -0.0028898672172215163 -0.0039700150551053087 0 -0.0032144453107969817 -0.0037361512937289822 0 -0.0028898672172215163 -0.0039700150551053087 0 -0.0026917629449187759 -0.0034895325071832256 0 -0.0030985411038284899 -0.0035471258010667172 0 -0.0031519826831598735 -0.003902643558310446 0 -0.0029810183100129309 -0.0028141431175491404 0 -0.0032144453107969817 -0.0037361512937289822 0 -0.0026917629449187759 -0.0034895325071832256 0 -0.0023718246253370359 -0.0039080888465736876 0 -0.0026917629449187759 -0.0034895325071832256 0 -0.0015937148370394171 -0.0034345773447419042 0 -0.0023718246253370359 -0.0039080888465736876 0 -0.0015937148370394171 -0.0034345773447419042 0 -0.0016226690186275923 -0.0042369252311642725 0 -0.0010058286187478286 -0.0075017927404109992 0 -0.0010915715787990169 -0.0048210207122192398 0 -0.00077572755544292791 -0.0057026527727913074 0 -0.00078837946004406737 -0.0059076317881398659 0 -0.0012375899048063744 -0.0056931883235329037 0 -0.0010058286187478286 -0.0075017927404109992 0 -0.0018060887982739998 -0.0058342254530221122 0 -0.0002346765722241787 -0.0040647957840144735 0 -0.0015937148370394171 -0.0034345773447419042 0 -0.0016226690186275923 -0.0042369252311642725 0 -0.0010663877641503912 -0.012525226225392179 0 -0.0011114207602375033 -0.012935223813613192 0 -0.0014897267176293787 -0.013033133364419754 0 -0.00095862173197006192 -0.009434907260301632 0 -0.001810159956968283 -0.010801158973197939 0 -0.00098449102189498462 -0.0074753076358049864 0 -0.0010998538292105668 -0.007424482724102466 0 -0.0017325631828147097 -0.008351358584566768 0 -0.0010998538292105668 -0.007424482724102466 0 -0.0017325631828147097 -0.008351358584566768 0 -0.0021129985563490797 -0.0075614271118442152 0 -0.0017325631828147097 -0.008351358584566768 0 -0.0021711957691609254 -0.0082968142598521602 0 -0.0021129985563490797 -0.0075614271118442152 0 -0.0021711957691609254 -0.0082968142598521602 0 -0.0026109341926940565 -0.0082202764249213935 0 -0.0021129985563490797 -0.0075614271118442152 0 -0.0020815510527790329 -0.0193834463830816 0 -0.0035739926531105286 -0.019490414857359643 0 -0.0027020144352063414 -0.01896052108115481 0 -0.0020815510527790329 -0.0193834463830816 0 -0.0033813873902030344 -0.019516228107274575 0 -0.0022060301616814854 -0.020287897123076822 0 -0.0028034836772977295 -0.019366324455125927 0 -0.0019082304065768296 -0.019739182968320178 0 -0.0019082304065768296 -0.019739182968320178 0 -0.00078218744664067057 -0.021059436087992354 0 0.00045087519322733821 -0.021544831534653933 0 0.00039816362722901866 -0.021553979039884919 0 0.00045053816689301753 -0.021541907962150775 0 0.00045087519322733821 -0.021544831534653933 0 0.00045053816689301753 -0.021541907962150775 0 0.0004618125924307192 -0.0215392121431532 0 -0.0035739926531105286 -0.019490414857359643 0 -0.003292054196873514 -0.019026950105222408 0 -0.0035357430400083283 -0.019066758863049729 0 -0.0035739926531105286 -0.019490414857359643 0 -0.0035357430400083283 -0.019066758863049729 0 -0.004053944810204632 -0.019180492129931368 0 -0.0035739926531105286 -0.019490414857359643 0 -0.003292054196873514 -0.019026950105222408 0 -0.0027020144352063414 -0.01896052108115481 0 -0.0033564209132814133 -0.018587182248276542 0 -0.004053944810204632 -0.019180492129931368 0 -0.0032322718983496621 -0.01765302779886796 0 -0.0025521380387195755 -0.016238835618751848 0 -0.0025491858308964157 -0.016251649237680892 0 -0.0025480249690285218 -0.016278399011180798 0 -0.0025112018168680036 -0.017791078063015747 0 -0.0030026056369032795 -0.016963017912807805 0 -0.003292054196873514 -0.019026950105222408 0 -0.0033564209132814133 -0.018587182248276542 0 -0.0027020144352063414 -0.01896052108115481 0 -0.0035357430400083283 -0.019066758863049729 0 -0.0033564209132814133 -0.018587182248276542 0 -0.004053944810204632 -0.019180492129931368 0 -0.003292054196873514 -0.019026950105222408 0 -0.0035357430400083283 -0.019066758863049729 0 -0.0033564209132814133 -0.018587182248276542 0 -0.0033564209132814133 -0.018587182248276542 0 -0.0027866799176169388 -0.018285806352183177 0 -0.0027020144352063414 -0.01896052108115481 0 -0.0027866799176169388 -0.018285806352183177 0 -0.0027020144352063414 -0.01896052108115481 0 -0.0022265218319242083 -0.018461403609128867 0 -0.0020815510527790329 -0.0193834463830816 0 -0.0027020144352063414 -0.01896052108115481 0 -0.0022265218319242083 -0.018461403609128867 0 -0.0020815510527790329 -0.0193834463830816 0 -0.0022265218319242083 -0.018461403609128867 0 -0.0013110961728951872 -0.018632282324062294 0 -0.0022265218319242083 -0.018461403609128867 0 -0.0013110961728951872 -0.018632282324062294 0 -0.0016232243674807367 -0.017825023143077101 0 -0.0013110961728951872 -0.018632282324062294 0 -0.00045515482507815335 -0.019702063601162362 0 -3.9193861368283547e-05 -0.018357148482564114 0 -0.0013110961728951872 -0.018632282324062294 0 -0.00045515482507815335 -0.019702063601162362 0 -0.0013544039608513695 -0.019880816958097187 0 -0.0020815510527790329 -0.0193834463830816 0 -0.0013110961728951872 -0.018632282324062294 0 -0.0013544039608513695 -0.019880816958097187 0 -0.0020815510527790329 -0.0193834463830816 0 -0.0013544039608513695 -0.019880816958097187 0 -0.0022060301616814854 -0.020287897123076822 0 0.00031869454585244978 -0.02156177648255066 0 0.00040147705173962215 -0.021522395550119807 0 0.00039816362722901866 -0.021553979039884919 0 -0.0013544039608513695 -0.019880816958097187 0 -0.00095410702290150723 -0.021058289164663846 0 -0.0022060301616814854 -0.020287897123076822 0 -0.00035003270245073312 -0.021274743672865571 0 -0.00078218744664067057 -0.021059436087992354 0 -0.00045515482507815335 -0.019702063601162362 0 -0.0013544039608513695 -0.019880816958097187 0 -0.00095410702290150723 -0.021058289164663846 0 -0.00045515482507815335 -0.019702063601162362 0 -0.00095410702290150723 -0.021058289164663846 0 0.00024930441099047516 -0.020690215561697908 0 -0.00035003270245073312 -0.021274743672865571 0 0.00016272025453182781 -0.021576145880795906 0 0.00031869454585244978 -0.02156177648255066 0 0.00040147705173962215 -0.021522395550119807 0 0.00038014810493820637 -0.021487382123371371 0 0.00040147705173962215 -0.021522395550119807 0 0.00044866274838262845 -0.021484621081155088 0 0.00038014810493820637 -0.021487382123371371 0 0.00040147705173962215 -0.021522395550119807 0 0.00045721817435279263 -0.021520694533607332 0 0.00044866274838262845 -0.021484621081155088 0 0.00040147705173962215 -0.021522395550119807 0 0.00039816362722901866 -0.021553979039884919 0 0.00045721817435279263 -0.021520694533607332 0 0.00039816362722901866 -0.021553979039884919 0 0.00045053816689301753 -0.021541907962150775 0 0.00045721817435279263 -0.021520694533607332 0 0.00045053816689301753 -0.021541907962150775 0 0.00045721817435279263 -0.021520694533607332 0 0.00047583664080988003 -0.021540200696062734 0 0.00045053816689301753 -0.021541907962150775 0 0.00047583664080988003 -0.021540200696062734 0 0.0004618125924307192 -0.0215392121431532 0 0.00045721817435279263 -0.021520694533607332 0 0.00047583664080988003 -0.021540200696062734 0 0.00049895546126616571 -0.021513288613035086 0 0.00045721817435279263 -0.021520694533607332 0 0.00044866274838262845 -0.021484621081155088 0 0.00050753001747670863 -0.021482369543978624 0 0.00045721817435279263 -0.021520694533607332 0 0.00050753001747670863 -0.021482369543978624 0 0.00049895546126616571 -0.021513288613035086 0 0.00044866274838262845 -0.021484621081155088 0 0.00050753001747670863 -0.021482369543978624 0 0.00049927493610206377 -0.021445898999375546 0 0.00053297047446409021 -0.021490305438423975 0 0.00056485674719389733 -0.021507666359726414 0 0.00057253272200806168 -0.021410653524101413 0 0.00050753001747670863 -0.021482369543978624 0 0.00053297047446409021 -0.021490305438423975 0 0.00057253272200806168 -0.021410653524101413 0 0.00050753001747670863 -0.021482369543978624 0 0.00053297047446409021 -0.021490305438423975 0 0.00049895546126616571 -0.021513288613035086 0 0.00053297047446409021 -0.021490305438423975 0 0.00056485674719389733 -0.021507666359726414 0 0.0005238281533698942 -0.02152357766527296 0 0.00053297047446409021 -0.021490305438423975 0 0.00049895546126616571 -0.021513288613035086 0 0.0005238281533698942 -0.02152357766527296 0 0.00053689564928680294 -0.021040430029002122 0 0.00055093246905598911 -0.020926096001866925 0 0.00063307729652650388 -0.021143104316600384 0 0.00029209898086836263 -0.021138264794789988 0 0.00064097077738642404 -0.021294911931097029 0 -0.00021413219824436812 -0.020815036476752244 0 -0.00074378057605228756 -0.01971752269808269 0 -0.00018671699768171106 -0.019845799653825855 0 0.00065475006934484882 -0.019642188611021072 0 0.00054367982856683183 -0.019117224326405089 0 0.00045814973687021516 -0.019356242499025785 0 0.00029209898086836263 -0.021138264794789988 0 0.00015840405221048928 -0.019765065905485366 0 0.00053689564928680294 -0.021040430029002122 0 0.00055093246905598911 -0.020926096001866925 0 0.0004692979180676785 -0.020766998315874346 0 -0.00021413219824436812 -0.020815036476752244 0 -0.00018671699768171106 -0.019845799653825855 0 0.00045280301673559993 -0.019644836384268803 0 0.00065023616758698845 -0.020385383033982594 0 0.00015840405221048928 -0.019765065905485366 0 0.00029209898086836263 -0.021138264794789988 0 -1.6033826070249836e-05 -0.020410094631059209 0 0.00047583664080988003 -0.021540200696062734 0 0.0005238281533698942 -0.02152357766527296 0 0.00052555545537073757 -0.021563808524055088 0 0.00056485674719389733 -0.021507666359726414 0 0.0005238281533698942 -0.02152357766527296 0 0.00052555545537073757 -0.021563808524055088 0 0.00047583664080988003 -0.021540200696062734 0 0.0004618125924307192 -0.0215392121431532 0 0.00045610848022331515 -0.021533519374765414 0 0.00074744122311780467 -0.021513575984153301 0 -1.6033826070249836e-05 -0.020410094631059209 0 0.00047583664080988003 -0.021540200696062734 0 0.00049895546126616571 -0.021513288613035086 0 0.0005238281533698942 -0.02152357766527296 0 1.6683657100940523e-05 -0.019443536261781306 0 0.00024533950437994706 -0.019482005835431374 0 0.0001785999113340749 -0.019718121471641471 0 0.00065475006934484882 -0.019642188611021072 0 0.00039518564517182806 -0.019616513515601435 0 0.00045814973687021516 -0.019356242499025785 0 0.00024533950437994706 -0.019482005835431374 0 0.00039518564517182806 -0.019616513515601435 0 0.00045814973687021516 -0.019356242499025785 0 0.00024533950437994706 -0.019482005835431374 0 0.00039518564517182806 -0.019616513515601435 0 0.0001785999113340749 -0.019718121471641471 0 0.00045814973687021516 -0.019356242499025785 0 0.00020268095466913829 -0.019276790778798982 0 0.0004346413324266938 -0.019056769708786277 0 0.00050964987053051664 -0.020086298302287711 0 0.00023352764930908781 -0.01692606154719354 0 0.00024533950437994706 -0.019482005835431374 0 0.00045814973687021516 -0.019356242499025785 0 0.00020268095466913829 -0.019276790778798982 0 0.00054367982856683183 -0.019117224326405089 0 0.00045814973687021516 -0.019356242499025785 0 0.00042476782478744943 -0.018990745450864845 0 1.6683657100940523e-05 -0.019443536261781306 0 0.00024533950437994706 -0.019482005835431374 0 0.00020268095466913829 -0.019276790778798982 0 -2.2316809483397649e-06 -0.01925968457215578 0 0.00020268095466913829 -0.019276790778798982 0 9.0314171513246141e-05 -0.019109622369208712 0 -2.2316809483397649e-06 -0.01925968457215578 0 1.6683657100940523e-05 -0.019443536261781306 0 0.00020268095466913829 -0.019276790778798982 0 0.00020268095466913829 -0.019276790778798982 0 9.0314171513246141e-05 -0.019109622369208712 0 0.0004346413324266938 -0.019056769708786277 0 -0.00063655161848920545 -0.012526015424841153 0 -0.00046131296341711937 -0.012360405980280041 0 -0.00021650350152038099 -0.012536351482304571 0 -0.00031693344712996905 -0.015724136692708186 0 0.00023352764930908781 -0.01692606154719354 0 -0.00071143892967087479 -0.012251273225198263 0 -0.00063655161848920545 -0.012526015424841153 0 -0.00046131296341711937 -0.012360405980280041 0 -0.00046131296341711937 -0.012360405980280041 0 -0.00021650350152038099 -0.012536351482304571 0 -0.00022830760283765723 -0.012340477600265019 0 0.00054367982856683183 -0.019117224326405089 0 0.00042476782478744943 -0.018990745450864845 0 0.00052054262345664496 -0.019069760890460179 0 0.00023352764930908781 -0.01692606154719354 0 -0.0004360545675633634 -0.017781737155609816 0 0.00042476782478744943 -0.018990745450864845 0 0.00051455072289814045 -0.018981595274356541 0 0.00052054262345664496 -0.019069760890460179 0 -0.00081707823759923049 -0.016956143186455469 0 -8.1201233533095203e-05 -0.016892799623409324 0 -0.00053813498633684044 -0.016235841751469034 0 -8.1201233533095203e-05 -0.016892799623409324 0 -0.00053813498633684044 -0.016235841751469034 0 -0.00032688162332488417 -0.015736342469002438 0 -0.0004360545675633634 -0.017781737155609816 0 -0.0014540565373535195 -0.015922165222963337 0 -0.00081707823759923049 -0.016956143186455469 0 -0.00053813498633684044 -0.016235841751469034 0 -0.00092771330154494357 -0.015357845670216658 0 0.00023352764930908781 -0.01692606154719354 0 -0.0010043459668859027 -0.01419719798454128 0 -0.00053813498633684044 -0.016235841751469034 0 -0.00032688162332488417 -0.015736342469002438 0 -0.00092771330154494357 -0.015357845670216658 0 -0.0014540565373535195 -0.015922165222963337 0 -0.0010043459668859027 -0.01419719798454128 0 -0.0004488572803339867 -0.012260524175024948 0 -0.00056634164074203879 -0.012047200176979425 0 -0.00049491845427197172 -0.011979502979847994 0 -0.0004488572803339867 -0.012260524175024948 0 -0.00049491845427197172 -0.011979502979847994 0 -0.00047084069307143963 -0.011963184639905726 0 -0.0010043459668859027 -0.01419719798454128 0 -0.001775360989146198 -0.013815721257116146 0 -0.0025591198133274613 -0.016231585439775396 0 -0.002555011815778194 -0.016224537756999245 0 -0.0025613605182557477 -0.016207902755410342 0 -0.0025588471344207067 -0.016232943848139753 0 -0.0025591198133274613 -0.016231585439775396 0 -0.0025613605182557477 -0.016207902755410342 0 -0.0014540565373535195 -0.015922165222963337 0 -0.0018326064436992426 -0.016069395305073356 0 -0.0025533203209097779 -0.01623313920179472 0 -0.0025588471344207067 -0.016232943848139753 0 -0.0025591198133274613 -0.016231585439775396 0 -0.0004488572803339867 -0.012260524175024948 0 -0.00063388766358988657 -0.012118062304756571 0 -0.00056634164074203879 -0.012047200176979425 0 -0.00046131296341711937 -0.012360405980280041 0 -0.00022830760283765723 -0.012340477600265019 0 -0.00050035967730076769 -0.012151984733529957 0 -0.0010043459668859027 -0.01419719798454128 0 -0.00062966204263234667 -0.012081859072596941 0 -0.00077927548462627201 -0.011990664675251035 0 -0.00071143892967087479 -0.012251273225198263 0 -0.00050035967730076769 -0.012151984733529957 0 -0.00073103812687874985 -0.01202481035520488 0 -0.00062966204263234667 -0.012081859072596941 0 -0.00071143892967087479 -0.012251273225198263 0 -0.00046131296341711937 -0.012360405980280041 0 -0.00050035967730076769 -0.012151984733529957 0 -0.0025266865927078739 -0.016269170463047489 0 -0.0025006060371547223 -0.016294455003452561 0 -0.002488852258715302 -0.016273562499390892 0 -0.0011895966275722331 -0.01883237190221481 0 -0.0013329777288346454 -0.017891736410169584 0 -0.0025266865927078739 -0.016269170463047489 0 -0.0025006060371547223 -0.016294455003452561 0 -0.0025406541757092478 -0.016284148317516071 0 -0.0019082304065768296 -0.019739182968320178 0 -0.0025112018168680036 -0.017791078063015747 0 -0.0019464236783717575 -0.019017530163365187 0 -0.0017931584990279984 -0.019000165839888478 0 -0.001841248265646175 -0.019080064081832666 0 -0.0019082304065768296 -0.019739182968320178 0 -0.0011895966275722331 -0.01883237190221481 0 -0.0011895966275722331 -0.01883237190221481 0 -0.0025112018168680036 -0.017791078063015747 0 0.00045087519322733821 -0.021544831534653933 0 0.00045629265485001293 -0.021530694114227564 0 0.0004618125924307192 -0.0215392121431532 0 0.00045629265485001293 -0.021530694114227564 0 0.0004618125924307192 -0.0215392121431532 0 0.00045610848022331515 -0.021533519374765414 0 -0.00068295400207445079 -0.018733449172537091 0 -0.00082000014422615943 -0.01897532218292896 0 -0.0011428307625460914 -0.018768251751626067 0 -0.0011895966275722331 -0.01883237190221481 0 -1.6033826070249836e-05 -0.020410094631059209 0 -0.00018671699768171106 -0.019845799653825855 0 0.00045280301673559993 -0.019644836384268803 0 -0.00024177972733263768 -0.019204769390672834 0 -1.6033826070249836e-05 -0.020410094631059209 0 -0.0013329777288346454 -0.017891736410169584 0 -0.0004360545675633634 -0.017781737155609816 0 -0.0013329777288346454 -0.017891736410169584 0 -0.00074378057605228756 -0.01971752269808269 0 -0.00084166800996555958 -0.01925453350697089 0 -0.00024177972733263768 -0.019204769390672834 0 -0.00074378057605228756 -0.01971752269808269 0 -0.00018671699768171106 -0.019845799653825855 0 -0.00024177972733263768 -0.019204769390672834 0 0.00054288655682564551 -0.019118461484295097 0 0.00051455072289814045 -0.018981595274356541 0 0.00052054262345664496 -0.019069760890460179 0 0.00015840405221048928 -0.019765065905485366 0 -0.0004360545675633634 -0.017781737155609816 0 0.00015840405221048928 -0.019765065905485366 0 0.00014997933092393285 -0.019649351354248029 0 -0.0014540565373535195 -0.015922165222963337 0 -0.0013329777288346454 -0.017891736410169584 0 -0.0025605060077447434 -0.016254436151878132 0 -0.0025406541757092478 -0.016284148317516071 0 -0.0025481199071053463 -0.016247478854246745 0 -0.0011385921716812212 -0.017345008943341615 0 -0.0011945380392153625 -0.017079912102592291 0 -0.00082323631540088713 -0.017320448568194813 0 -0.0025266865927078739 -0.016269170463047489 0 -0.0025406541757092478 -0.016284148317516071 0 -0.0025481199071053463 -0.016247478854246745 0 -0.0025266865927078739 -0.016269170463047489 0 -0.0025481199071053463 -0.016247478854246745 0 -0.0025376138911373945 -0.016243030362221914 0 -0.0025605060077447434 -0.016254436151878132 0 -0.0025591198133274613 -0.016231585439775396 0 -0.0025481199071053463 -0.016247478854246745 0 -0.0025591198133274613 -0.016231585439775396 0 -0.0025481199071053463 -0.016247478854246745 0 -0.002555011815778194 -0.016224537756999245 0 -0.0025376138911373945 -0.016243030362221914 0 -0.0025523447282908211 -0.01623554940126918 0 -0.002555011815778194 -0.016224537756999245 0 -0.0025481199071053463 -0.016247478854246745 0 -0.0025376138911373945 -0.016243030362221914 0 -0.002555011815778194 -0.016224537756999245 0 -0.0025460815105857073 -0.016245509611455496 0 -0.0025376138911373945 -0.016243030362221914 0 -0.0025523447282908211 -0.01623554940126918 0 -0.0025521380387195755 -0.016238835618751848 0 -0.0025460815105857073 -0.016245509611455496 0 -0.0025491858308964157 -0.016251649237680892 0 -0.0025112018168680036 -0.017791078063015747 0 -0.002830988276923619 -0.016342528572625716 0 -0.0025266865927078739 -0.016269170463047489 0 -0.002488852258715302 -0.016273562499390892 0 -0.0025376138911373945 -0.016243030362221914 0 -0.0025521380387195755 -0.016238835618751848 0 -0.0025460815105857073 -0.016245509611455496 0 -0.0025376138911373945 -0.016243030362221914 0 -0.0025460815105857073 -0.016245509611455496 0 -0.0025491858308964157 -0.016251649237680892 0 -0.0025523447282908211 -0.01623554940126918 0 -0.0025523447282908211 -0.01623554940126918 0 -0.0025643314142580215 -0.016208621253836517 0 -0.0025592983630984027 -0.016215802297674935 0 -0.0025491858308964157 -0.016251649237680892 0 -0.0025532316299889 -0.016242687326028859 0 -0.0025523447282908211 -0.01623554940126918 0 -0.0025532316299889 -0.016242687326028859 0 -0.0025592983630984027 -0.016215802297674935 0 -0.0025512296385348161 -0.016209362385007305 0 -0.0025532316299889 -0.016242687326028859 0 -0.0025523447282908211 -0.01623554940126918 0 -0.0025592983630984027 -0.016215802297674935 0 -0.0025523447282908211 -0.01623554940126918 0 -0.002555011815778194 -0.016224537756999245 0 -0.0025643314142580215 -0.016208621253836517 0 -0.0027387532607907805 -0.015211284021650442 0 -0.001775360989146198 -0.013815721257116146 0 -0.002555011815778194 -0.016224537756999245 0 -0.0025643314142580215 -0.016208621253836517 0 -0.0025613605182557477 -0.016207902755410342 0 -0.0026106459038412635 -0.013946645792792827 0 -0.0021438827117487651 -0.014314137439798183 0 -0.0027994407299130005 -0.014414394955287985 0 -0.0025643314142580215 -0.016208621253836517 0 -0.0025592983630984027 -0.016215802297674935 0 -0.0025651733771020814 -0.016183098532866209 0 -0.0026106459038412635 -0.013946645792792827 0 -0.0030331344555282508 -0.014251531028675065 0 -0.0027994407299130005 -0.014414394955287985 0 -0.0027387532607907805 -0.015211284021650442 0 -0.0027726362069147702 -0.015356903199254915 0 -0.0025592983630984027 -0.016215802297674935 0 -0.0025651733771020814 -0.016183098532866209 0 -0.0025512296385348161 -0.016209362385007305 0 -0.00077927548462627201 -0.011990664675251035 0 -0.00063850454048267524 -0.011980583063030504 0 -0.00066636064572635949 -0.011851358962350894 0 -0.00077927548462627201 -0.011990664675251035 0 -0.00063388766358988657 -0.012118062304756571 0 -0.00063850454048267524 -0.011980583063030504 0 -0.00063850454048267524 -0.011980583063030504 0 -0.000566043834963981 -0.011943907709921283 0 -0.00056634164074203879 -0.012047200176979425 0 -0.00063388766358988657 -0.012118062304756571 0 -0.00063850454048267524 -0.011980583063030504 0 -0.00056634164074203879 -0.012047200176979425 0 -0.000566043834963981 -0.011943907709921283 0 -0.00056014038715533393 -0.011845533029913209 0 -0.00066636064572635949 -0.011851358962350894 0 -0.00063850454048267524 -0.011980583063030504 0 -0.000566043834963981 -0.011943907709921283 0 -0.00066636064572635949 -0.011851358962350894 0 -0.000566043834963981 -0.011943907709921283 0 -0.00047252168101651824 -0.011962742012045759 0 -0.00056014038715533393 -0.011845533029913209 0 -0.000566043834963981 -0.011943907709921283 0 -0.00056634164074203879 -0.012047200176979425 0 -0.00049491845427197172 -0.011979502979847994 0 -0.000566043834963981 -0.011943907709921283 0 -0.00049491845427197172 -0.011979502979847994 0 -0.00047252168101651824 -0.011962742012045759 0 -0.0014667280454371168 -0.013546785345150622 0 -0.001775360989146198 -0.013815721257116146 0 -0.00047252168101651824 -0.011962742012045759 0 -0.00056014038715533393 -0.011845533029913209 0 -0.00051654206888571131 -0.01162631192330151 0 -0.001775360989146198 -0.013815721257116146 0 -0.0017519046428025251 -0.012620235140087069 0 -0.00056014038715533393 -0.011845533029913209 0 -0.00059773272081347967 -0.011741620570157459 0 -0.00051654206888571131 -0.01162631192330151 0 -0.0026106459038412635 -0.013946645792792827 0 -0.0021884702771508011 -0.013646268357147976 0 -0.0021438827117487651 -0.014314137439798183 0 -0.00059773272081347967 -0.011741620570157459 0 -0.00058024615621040103 -0.011631358189704604 0 -0.00051654206888571131 -0.01162631192330151 0 -0.00056014038715533393 -0.011845533029913209 0 -0.00059773272081347967 -0.011741620570157459 0 -0.00066636064572635949 -0.011851358962350894 0 -0.00059773272081347967 -0.011741620570157459 0 -0.0007001371296430105 -0.011731186516322161 0 -0.00066636064572635949 -0.011851358962350894 0 -0.00065610410734351929 -0.011661491204188763 0 -0.00059773272081347967 -0.011741620570157459 0 -0.0007001371296430105 -0.011731186516322161 0 -0.00065610410734351929 -0.011661491204188763 0 -0.00059773272081347967 -0.011741620570157459 0 -0.00058024615621040103 -0.011631358189704604 0 -0.00065610410734351929 -0.011661491204188763 0 -0.0007001371296430105 -0.011731186516322161 0 -0.00074480029645138904 -0.011622132546323136 0 -0.00082548986027576805 -0.011770755067645107 0 -0.0007001371296430105 -0.011731186516322161 0 -0.00066636064572635949 -0.011851358962350894 0 -0.00074480029645138904 -0.011622132546323136 0 -0.00066205328371696356 -0.011573925732279557 0 -0.00074127828771824685 -0.011454036977368513 0 -0.00065610410734351929 -0.011661491204188763 0 -0.00074480029645138904 -0.011622132546323136 0 -0.00066205328371696356 -0.011573925732279557 0 -0.00065610410734351929 -0.011661491204188763 0 -0.00066205328371696356 -0.011573925732279557 0 -0.00058024615621040103 -0.011631358189704604 0 -0.00066205328371696356 -0.011573925732279557 0 -0.00060086120681200226 -0.01158303826202489 0 -0.00058024615621040103 -0.011631358189704604 0 -0.00066205328371696356 -0.011573925732279557 0 -0.00062604644301895594 -0.011503466706254881 0 -0.00074127828771824685 -0.011454036977368513 0 -0.00066205328371696356 -0.011573925732279557 0 -0.00062604644301895594 -0.011503466706254881 0 -0.00060086120681200226 -0.01158303826202489 0 -0.00062604644301895594 -0.011503466706254881 0 -0.00053901467638746599 -0.01162429608980689 0 -0.0005828959637565927 -0.011399916533757428 0 -0.0017519046428025251 -0.012620235140087069 0 -0.0035661436390005581 -0.012605109927504377 0 -0.003150806658185732 -0.013342521301474598 0 -0.0031633209182443337 -0.013291212487803961 0 -0.0031327907786948845 -0.013319559402366723 0 -0.00062604644301895594 -0.011503466706254881 0 -0.00060086120681200226 -0.01158303826202489 0 -0.00053901467638746599 -0.01162429608980689 0 -0.00060086120681200226 -0.01158303826202489 0 -0.00058024615621040103 -0.011631358189704604 0 -0.00053901467638746599 -0.01162429608980689 0 -0.00096996515444836581 -0.012328042342126351 0 -0.0017519046428025251 -0.012620235140087069 0 -0.0035661436390005581 -0.012605109927504377 0 -0.0042940574855691348 -0.014091886705772787 0 -0.0057716485384142853 -0.013837784744542482 0 -0.0064867918995541608 -0.014189741773760168 0 -0.0053183167976615818 -0.015003311251959065 0 -0.0057716485384142853 -0.013837784744542482 0 -0.0064867918995541608 -0.014189741773760168 0 -0.0065503646272647041 -0.013493580874267108 0 -0.0041715979342167187 -0.012064231936967528 0 -0.0042067017573271005 -0.012037534815619876 0 -0.0041793242283727165 -0.012013801624604865 0 -0.0035661436390005581 -0.012605109927504377 0 -0.0052403246316980378 -0.012898775869137156 0 -0.0035661436390005581 -0.012605109927504377 0 -0.0032984080518113908 -0.011145145388468339 0 -0.0005828959637565927 -0.011399916533757428 0 -0.0006375307693955016 -0.011430521794815466 0 -0.00063361386160597081 -0.011365522021157148 0 -0.00062604644301895594 -0.011503466706254881 0 -0.0005828959637565927 -0.011399916533757428 0 -0.0006375307693955016 -0.011430521794815466 0 -0.00086666779341881177 -0.0053132220210179593 0 -0.0010048647086365592 -0.0057421362518991423 0 -0.0011656023922966214 -0.0056409642313730848 0 -0.00062604644301895594 -0.011503466706254881 0 -0.0006375307693955016 -0.011430521794815466 0 -0.00074127828771824685 -0.011454036977368513 0 -0.0032984080518113908 -0.011145145388468339 0 -0.0012307736100211015 -0.0099755013386107518 0 -0.0006375307693955016 -0.011430521794815466 0 -0.00063361386160597081 -0.011365522021157148 0 -0.00074127828771824685 -0.011454036977368513 0 -0.0034081835091461193 -0.0099071477440266613 0 -0.0017698279900150177 -0.0085216157873959347 0 -0.0028444067141304235 -0.010309452070043726 0 -0.00079385859115573562 -0.0065744277274578785 0 -0.0039403729596584206 -0.0095609706881185311 0 -0.0014915757080499706 -0.0087203719061250719 0 -0.0017698279900150177 -0.0085216157873959347 0 -0.0028444067141304235 -0.010309452070043726 0 -0.0042012017573990947 -0.01574384720374862 0 -0.0034696988174685041 -0.014746120273810392 0 -0.0025042664482708907 -0.015451270086751718 0 -0.0029934379661502243 -0.015226571805819678 0 -0.00321350333290206 -0.015066914120774903 0 -0.0026698075884751525 -0.015000248861898624 0 -0.0034678241143829224 -0.014612749936298535 0 -0.0025960116333841278 -0.015356783426267121 0 -0.0042012017573990947 -0.01574384720374862 0 -0.0043933506223189211 -0.014767970681932498 0 -0.0034696988174685041 -0.014746120273810392 0 -0.0027726362069147702 -0.015356903199254915 0 -0.0034678241143829224 -0.014612749936298535 0 -0.0017519046428025251 -0.012620235140087069 0 -0.0034678241143829224 -0.014612749936298535 0 -0.003150806658185732 -0.013342521301474598 0 -0.0031065026386215043 -0.013348475859624565 0 -0.0031327907786948845 -0.013319559402366723 0 -0.0034678241143829224 -0.014612749936298535 0 -0.0042940574855691348 -0.014091886705772787 0 -0.0042012017573990947 -0.01574384720374862 0 -0.0043933506223189211 -0.014767970681932498 0 -0.0053183167976615818 -0.015003311251959065 0 -0.0043933506223189211 -0.014767970681932498 0 -0.0053183167976615818 -0.015003311251959065 0 -0.005009044449636583 -0.013866518738179486 0 -0.0057716485384142853 -0.013837784744542482 0 -0.0053183167976615818 -0.015003311251959065 0 -0.005009044449636583 -0.013866518738179486 0 -0.0043933506223189211 -0.014767970681932498 0 -0.005009044449636583 -0.013866518738179486 0 -0.004236233735978796 -0.013901978867534876 0 -0.0043933506223189211 -0.014767970681932498 0 -0.004236233735978796 -0.013901978867534876 0 -0.0034696988174685041 -0.014746120273810392 0 -0.004236233735978796 -0.013901978867534876 0 -0.0034696988174685041 -0.014746120273810392 0 -0.0032719855644589985 -0.013969905764154092 0 -0.0034696988174685041 -0.014746120273810392 0 -0.0024469389975537684 -0.01433279476719306 0 -0.0025042664482708907 -0.015451270086751718 0 -0.0024469389975537684 -0.01433279476719306 0 -0.0014975417221975741 -0.014675288055825086 0 -0.0025042664482708907 -0.015451270086751718 0 -0.0034696988174685041 -0.014746120273810392 0 -0.0032719855644589985 -0.013969905764154092 0 -0.0024469389975537684 -0.01433279476719306 0 -0.0032719855644589985 -0.013969905764154092 0 -0.0024469389975537684 -0.01433279476719306 0 -0.0027007462645587598 -0.013722059955946905 0 -0.0024469389975537684 -0.01433279476719306 0 -0.0014975417221975741 -0.014675288055825086 0 -0.0017634885816179002 -0.014014678222722879 0 -0.0015204305204652168 -0.014708966359446837 0 -0.0025960116333841278 -0.015356783426267121 0 -0.0014975417221975741 -0.014675288055825086 0 -0.0011892975025004852 -0.014020365053343458 0 -0.0017634885816179002 -0.014014678222722879 0 -0.0014975417221975741 -0.014675288055825086 0 -0.0011109174458881243 -0.014666834117036089 0 -0.0011892975025004852 -0.014020365053343458 0 -0.0014975417221975741 -0.014675288055825086 0 -0.0015539321463470322 -0.015134084943057732 0 -0.0011109174458881243 -0.014666834117036089 0 -0.0018392538988570104 -0.015337066170977083 0 -0.0025960116333841278 -0.015356783426267121 0 -0.0014975417221975741 -0.014675288055825086 0 -0.0015539321463470322 -0.015134084943057732 0 -0.0023187321493385198 -0.015236259130549813 0 -0.002269948421674689 -0.015550180411401522 0 -0.0022439618011949906 -0.015944475949784338 0 -0.002509049168860804 -0.015938228937550581 0 -0.002269948421674689 -0.015550180411401522 0 -0.0022439618011949906 -0.015944475949784338 0 -0.0016561267309896186 -0.01589011638844532 0 -0.0022439618011949906 -0.015944475949784338 0 -0.0017172863220912429 -0.016592560788795611 0 -0.0016561267309896186 -0.01589011638844532 0 -0.0028839305834457581 -0.015941280729088261 0 -0.0026226231425368635 -0.01571681076382889 0 -0.002509049168860804 -0.015938228937550581 0 -0.002269948421674689 -0.015550180411401522 0 -0.0026226231425368635 -0.01571681076382889 0 -0.002509049168860804 -0.015938228937550581 0 -0.0027726362069147702 -0.015356903199254915 0 -0.0025960116333841278 -0.015356783426267121 0 -0.0025651733771020814 -0.016183098532866209 0 -0.0025512296385348161 -0.016209362385007305 0 -0.002502503877714491 -0.01616556879783651 0 -0.0028839305834457581 -0.015941280729088261 0 -0.002509049168860804 -0.015938228937550581 0 -0.002502503877714491 -0.01616556879783651 0 -0.0027726362069147702 -0.015356903199254915 0 -0.002423447672911474 -0.01632561302114189 0 -0.0022439618011949906 -0.015944475949784338 0 -0.002509049168860804 -0.015938228937550581 0 -0.002502503877714491 -0.01616556879783651 0 -0.0022439618011949906 -0.015944475949784338 0 -0.002502503877714491 -0.01616556879783651 0 -0.0025480249690285218 -0.016278399011180798 0 -0.002237246797044313 -0.015972798831142353 0 -0.0030026056369032795 -0.016963017912807805 0 -0.0022439618011949906 -0.015944475949784338 0 -0.0023307969851884673 -0.017022886392659184 0 -0.0017172863220912429 -0.016592560788795611 0 -0.0022439618011949906 -0.015944475949784338 0 -0.0023307969851884673 -0.017022886392659184 0 -0.0032322718983496621 -0.01765302779886796 0 -0.0023307969851884673 -0.017022886392659184 0 -0.0019126021410006025 -0.017285858444605721 0 -0.0017172863220912429 -0.016592560788795611 0 -0.0023307969851884673 -0.017022886392659184 0 -0.0024121424949487967 -0.017743371647796161 0 -0.0032322718983496621 -0.01765302779886796 0 -0.0023307969851884673 -0.017022886392659184 0 -0.0024121424949487967 -0.017743371647796161 0 -0.0019126021410006025 -0.017285858444605721 0 -0.0024121424949487967 -0.017743371647796161 0 -0.0016232243674807367 -0.017825023143077101 0 -0.0019126021410006025 -0.017285858444605721 0 -0.0022265218319242083 -0.018461403609128867 0 -0.0024121424949487967 -0.017743371647796161 0 -0.0016232243674807367 -0.017825023143077101 0 -0.0027866799176169388 -0.018285806352183177 0 -0.0024121424949487967 -0.017743371647796161 0 -0.0032322718983496621 -0.01765302779886796 0 -0.0027866799176169388 -0.018285806352183177 0 -0.0022265218319242083 -0.018461403609128867 0 -0.0024121424949487967 -0.017743371647796161 0 -0.0033564209132814133 -0.018587182248276542 0 -0.0027866799176169388 -0.018285806352183177 0 -0.0032322718983496621 -0.01765302779886796 0 -0.0025491858308964157 -0.016251649237680892 0 -0.0025532316299889 -0.016242687326028859 0 -0.0025480249690285218 -0.016278399011180798 0 -0.0025532316299889 -0.016242687326028859 0 -0.0025512296385348161 -0.016209362385007305 0 -0.0025480249690285218 -0.016278399011180798 0 -0.0025512296385348161 -0.016209362385007305 0 -0.002502503877714491 -0.01616556879783651 0 -0.0025480249690285218 -0.016278399011180798 0 -0.00074924289434335014 -0.017624029545322276 0 4.7060639758666162e-05 -0.016844522061410763 0 -3.9193861368283547e-05 -0.018357148482564114 0 -0.0013110961728951872 -0.018632282324062294 0 -0.00074924289434335014 -0.017624029545322276 0 -3.9193861368283547e-05 -0.018357148482564114 0 -0.0013110961728951872 -0.018632282324062294 0 -0.00074924289434335014 -0.017624029545322276 0 -0.0016232243674807367 -0.017825023143077101 0 -0.00074924289434335014 -0.017624029545322276 0 -0.0016232243674807367 -0.017825023143077101 0 -0.0012225965643356592 -0.017130577171910685 0 -0.0016232243674807367 -0.017825023143077101 0 -0.0019126021410006025 -0.017285858444605721 0 -0.0012225965643356592 -0.017130577171910685 0 -0.0019126021410006025 -0.017285858444605721 0 -0.0012225965643356592 -0.017130577171910685 0 -0.0017172863220912429 -0.016592560788795611 0 -0.0017172863220912429 -0.016592560788795611 0 -0.0016561267309896186 -0.01589011638844532 0 -0.0010896603506154203 -0.016216719030506539 0 -0.0012225965643356592 -0.017130577171910685 0 -0.0017172863220912429 -0.016592560788795611 0 -0.0010896603506154203 -0.016216719030506539 0 -0.0012225965643356592 -0.017130577171910685 0 -0.00065011004855616535 -0.016709248526960114 0 -0.0010896603506154203 -0.016216719030506539 0 -0.00065011004855616535 -0.016709248526960114 0 -0.00032270991517069548 -0.015865258534271259 0 -0.0010896603506154203 -0.016216719030506539 0 -0.00074924289434335014 -0.017624029545322276 0 -0.0012225965643356592 -0.017130577171910685 0 -0.00065011004855616535 -0.016709248526960114 0 -0.00074924289434335014 -0.017624029545322276 0 -0.00065011004855616535 -0.016709248526960114 0 4.7060639758666162e-05 -0.016844522061410763 0 -0.00065011004855616535 -0.016709248526960114 0 -0.00032270991517069548 -0.015865258534271259 0 4.7060639758666162e-05 -0.016844522061410763 0 -0.00032270991517069548 -0.015865258534271259 0 -0.00029526857942334395 -0.014866442676571928 0 0.00044375478903013055 -0.015777418759119193 0 -0.00032270991517069548 -0.015865258534271259 0 -0.0010601451065509484 -0.015211641580425192 0 -0.00029526857942334395 -0.014866442676571928 0 -0.00032270991517069548 -0.015865258534271259 0 -0.0010896603506154203 -0.016216719030506539 0 -0.0010601451065509484 -0.015211641580425192 0 -0.0018392538988570104 -0.015337066170977083 0 -0.0011576065774360786 -0.015230996325239866 0 -0.002269948421674689 -0.015550180411401522 0 -0.0016561267309896186 -0.01589011638844532 0 -0.0010601451065509484 -0.015211641580425192 0 -0.0016561267309896186 -0.01589011638844532 0 -0.0010896603506154203 -0.016216719030506539 0 -0.0010601451065509484 -0.015211641580425192 0 -0.0010601451065509484 -0.015211641580425192 0 -0.0011109174458881243 -0.014666834117036089 0 -0.00029526857942334395 -0.014866442676571928 0 -0.0011109174458881243 -0.014666834117036089 0 -0.00029526857942334395 -0.014866442676571928 0 -0.00061934192266930373 -0.014043411551396072 0 -0.0015539321463470322 -0.015134084943057732 0 -0.0010601451065509484 -0.015211641580425192 0 -0.0011109174458881243 -0.014666834117036089 0 -0.0011109174458881243 -0.014666834117036089 0 -0.00061934192266930373 -0.014043411551396072 0 -0.0011892975025004852 -0.014020365053343458 0 -0.00029526857942334395 -0.014866442676571928 0 -0.00061934192266930373 -0.014043411551396072 0 0.00015963088851690771 -0.014146578495456332 0 -0.00017741789798677459 -0.013353597978739333 0 -0.00061934192266930373 -0.014043411551396072 0 0.00015963088851690771 -0.014146578495456332 0 -0.00017741789798677459 -0.013353597978739333 0 5.9513236293102432e-05 -0.01296174762547752 0 0.00053777600022123244 -0.013406469185350411 0 -0.00017741789798677459 -0.013353597978739333 0 -0.00030368592273440461 -0.012443608532109516 0 5.9513236293102432e-05 -0.01296174762547752 0 -0.00030368592273440461 -0.012443608532109516 0 -0.0006918750606218514 -0.013220962947774709 0 -0.0012518318263564242 -0.012146627698525311 0 -0.00017741789798677459 -0.013353597978739333 0 -0.00030368592273440461 -0.012443608532109516 0 -0.0006918750606218514 -0.013220962947774709 0 -0.00017741789798677459 -0.013353597978739333 0 -0.0006918750606218514 -0.013220962947774709 0 -0.00061934192266930373 -0.014043411551396072 0 -0.0006918750606218514 -0.013220962947774709 0 -0.00061934192266930373 -0.014043411551396072 0 -0.0011892975025004852 -0.014020365053343458 0 -0.0011892975025004852 -0.014020365053343458 0 -0.0017634885816179002 -0.014014678222722879 0 -0.0014716017220989198 -0.013230251897222808 0 -0.0017634885816179002 -0.014014678222722879 0 -0.0014716017220989198 -0.013230251897222808 0 -0.0021244950524651651 -0.013480388369745661 0 -0.0014716017220989198 -0.013230251897222808 0 -0.0021244950524651651 -0.013480388369745661 0 -0.002195615316969669 -0.01240316154933653 0 -0.0006918750606218514 -0.013220962947774709 0 -0.0011892975025004852 -0.014020365053343458 0 -0.0014716017220989198 -0.013230251897222808 0 -0.0032719855644589985 -0.013969905764154092 0 -0.0027007462645587598 -0.013722059955946905 0 -0.0029763899307670093 -0.013104590202870829 0 -0.0027007462645587598 -0.013722059955946905 0 -0.0021244950524651651 -0.013480388369745661 0 -0.0029763899307670093 -0.013104590202870829 0 -0.0024469389975537684 -0.01433279476719306 0 -0.0027007462645587598 -0.013722059955946905 0 -0.0021244950524651651 -0.013480388369745661 0 -0.0024469389975537684 -0.01433279476719306 0 -0.0017634885816179002 -0.014014678222722879 0 -0.0021244950524651651 -0.013480388369745661 0 -0.0021244950524651651 -0.013480388369745661 0 -0.0029763899307670093 -0.013104590202870829 0 -0.002195615316969669 -0.01240316154933653 0 -0.0029763899307670093 -0.013104590202870829 0 -0.002195615316969669 -0.01240316154933653 0 -0.0032731356309314815 -0.012228831623268488 0 -0.002195615316969669 -0.01240316154933653 0 -0.0012518318263564242 -0.012146627698525311 0 -0.0020476076041572575 -0.011128744454445378 0 -0.002195615316969669 -0.01240316154933653 0 -0.0028522524138033891 -0.011267673561150554 0 -0.0020476076041572575 -0.011128744454445378 0 -0.002195615316969669 -0.01240316154933653 0 -0.0028522524138033891 -0.011267673561150554 0 -0.0032731356309314815 -0.012228831623268488 0 -0.0006918750606218514 -0.013220962947774709 0 -0.0014716017220989198 -0.013230251897222808 0 -0.0012518318263564242 -0.012146627698525311 0 -0.0014716017220989198 -0.013230251897222808 0 -0.002195615316969669 -0.01240316154933653 0 -0.0012518318263564242 -0.012146627698525311 0 -0.00030368592273440461 -0.012443608532109516 0 -0.0012518318263564242 -0.012146627698525311 0 -0.0014312775083291287 -0.0098935670854520194 0 -0.00031287199400669341 -0.012246061705636125 0 -0.00079663081275983404 -0.011193325481910217 0 -0.0012518318263564242 -0.012146627698525311 0 -0.0014312775083291287 -0.0098935670854520194 0 -0.0020476076041572575 -0.011128744454445378 0 -0.0014312775083291287 -0.0098935670854520194 0 -0.0020476076041572575 -0.011128744454445378 0 -0.0025948627546673406 -0.0097965287447164973 0 -0.0028522524138033891 -0.011267673561150554 0 -0.0020476076041572575 -0.011128744454445378 0 -0.0025948627546673406 -0.0097965287447164973 0 -0.00079663081275983404 -0.011193325481910217 0 -0.0013915550476997992 -0.010326669748513895 0 -4.5545327501631437e-05 -0.012433718342288182 0 6.9018881304214145e-05 -0.012365496765382405 0 7.6757625230594224e-05 -0.012401878647307867 0 -0.0014312775083291287 -0.0098935670854520194 0 -0.0025948627546673406 -0.0097965287447164973 0 -0.0028875194970400873 -0.0082323027508695058 0 -4.5545327501631437e-05 -0.012433718342288182 0 -8.8619744372713479e-05 -0.012480227786199328 0 7.6757625230594224e-05 -0.012401878647307867 0 -4.5545327501631437e-05 -0.012433718342288182 0 -8.8619744372713479e-05 -0.012480227786199328 0 -0.00019380346468671433 -0.012538073963539535 0 -8.8619744372713479e-05 -0.012480227786199328 0 -0.00019380346468671433 -0.012538073963539535 0 -0.00014490790066188822 -0.01250998531957039 0 -0.00014490790066188822 -0.01250998531957039 0 -5.0087433306924565e-05 -0.01246295858152841 0 0.00014024592027763355 -0.012704084550677003 0 -0.00019380346468671433 -0.012538073963539535 0 -0.00014490790066188822 -0.01250998531957039 0 0.00014024592027763355 -0.012704084550677003 0 -0.00030368592273440461 -0.012443608532109516 0 -0.00019380346468671433 -0.012538073963539535 0 5.9513236293102432e-05 -0.01296174762547752 0 -0.00019380346468671433 -0.012538073963539535 0 5.9513236293102432e-05 -0.01296174762547752 0 0.00014024592027763355 -0.012704084550677003 0 -0.00030368592273440461 -0.012443608532109516 0 -4.5545327501631437e-05 -0.012433718342288182 0 -0.00019380346468671433 -0.012538073963539535 0 -0.00086947900918952733 -0.005798634381876445 0 -0.0011699419631788133 -0.0059199317517785724 0 -0.0011728227098572995 -0.0062229475760470889 0 -0.0011699419631788133 -0.0059199317517785724 0 -0.001609663539200844 -0.0058894163095271927 0 -0.0011728227098572995 -0.0062229475760470889 0 -0.0011699419631788133 -0.0059199317517785724 0 -0.0011152516792033132 -0.0057650684901631366 0 -0.001609663539200844 -0.0058894163095271927 0 -0.00086947900918952733 -0.005798634381876445 0 -0.0011699419631788133 -0.0059199317517785724 0 -0.0011152516792033132 -0.0057650684901631366 0 -0.0011152516792033132 -0.0057650684901631366 0 -0.001051273187726891 -0.0055307748046083587 0 -0.001609663539200844 -0.0058894163095271927 0 -0.00086947900918952733 -0.005798634381876445 0 -0.0011152516792033132 -0.0057650684901631366 0 -0.0009760585124826386 -0.0055887046221208851 0 -0.0065285535688631401 -0.012657483672180201 0 -0.006111236524908044 -0.01239447645945161 0 -0.0061976130652977414 -0.012584185434738809 0 -0.0011152516792033132 -0.0057650684901631366 0 -0.0009760585124826386 -0.0055887046221208851 0 -0.001051273187726891 -0.0055307748046083587 0 -0.0065285535688631401 -0.012657483672180201 0 -0.006111236524908044 -0.01239447645945161 0 -0.0061144022871515366 -0.012127848502455765 0 -0.0022694749968712176 -0.0083183990476594326 0 -0.0041810447030134852 -0.0092321872994146383 0 -0.0022567072510238195 -0.00801915253490325 0 -0.0022694749968712176 -0.0083183990476594326 0 -0.0022694749968712176 -0.0083183990476594326 0 -0.0039403729596584206 -0.0095609706881185311 0 -0.0065285535688631401 -0.012657483672180201 0 -0.0063490957181667673 -0.012770255569705787 0 -0.0061976130652977414 -0.012584185434738809 0 -0.0061858067396576228 -0.012765388090465698 0 -0.0062635246558208017 -0.012711893900924334 0 -0.0061725033724242687 -0.012684420094494383 0 -0.0032984080518113908 -0.011145145388468339 0 -0.0039403729596584206 -0.0095609706881185311 0 -0.0039403729596584206 -0.0095609706881185311 0 -0.0063494948853596205 -0.012590679346297864 0 -0.0062635246558208017 -0.012711893900924334 0 -0.0061976130652977414 -0.012584185434738809 0 -0.0061725033724242687 -0.012684420094494383 0 -0.006111236524908044 -0.01239447645945161 0 -0.0061003985100829047 -0.012645379112172221 0 -0.0061976130652977414 -0.012584185434738809 0 -0.0061003985100829047 -0.012645379112172221 0 -0.0061725033724242687 -0.012684420094494383 0 -0.0061077252650848903 -0.012704427260293522 0 -0.0061003985100829047 -0.012645379112172221 0 -0.0061976130652977414 -0.012584185434738809 0 -0.0061725033724242687 -0.012684420094494383 0 -0.0054119458646183427 -0.012758824011655274 0 -0.0052403246316980378 -0.012898775869137156 0 -0.0032984080518113908 -0.011145145388468339 0 -0.0052403246316980378 -0.012898775869137156 0 -0.0061858067396576228 -0.012765388090465698 0 -0.0061725033724242687 -0.012684420094494383 0 -0.0061077252650848903 -0.012704427260293522 0 -0.0057716485384142853 -0.013837784744542482 0 -0.0065503646272647041 -0.013493580874267108 0 -0.00549137355127565 -0.012543620608518789 0 -0.0052403246316980378 -0.012898775869137156 0 -0.0058154475746333128 -0.012809821715385496 0 -0.006111236524908044 -0.01239447645945161 0 -0.0061003985100829047 -0.012645379112172221 0 -0.00549137355127565 -0.012543620608518789 0 -0.0061003985100829047 -0.012645379112172221 0 -0.006094047777700686 -0.012824718525402349 0 -0.00549137355127565 -0.012543620608518789 0 -0.0061144022871515366 -0.012127848502455765 0 -0.0052372511624981357 -0.011844148397004581 0 -0.00549137355127565 -0.012543620608518789 0 -0.001609663539200844 -0.0058894163095271927 0 -0.0022154940483790119 -0.0063972132357952172 0 -0.0011728227098572995 -0.0062229475760470889 0 -0.0041810447030134852 -0.0092321872994146383 0 -0.0033352156580888077 -0.0083706108642397341 0 -0.006111236524908044 -0.01239447645945161 0 -0.0061144022871515366 -0.012127848502455765 0 -0.00549137355127565 -0.012543620608518789 0 -0.0061144022871515366 -0.012127848502455765 0 -0.0052372511624981357 -0.011844148397004581 0 -0.0051758840771058377 -0.010958379090509111 0 -0.0052372511624981357 -0.011844148397004581 0 -0.004807206592996641 -0.01137683251821721 0 -0.0051758840771058377 -0.010958379090509111 0 -0.004807206592996641 -0.01137683251821721 0 -0.0046811097374749883 -0.011861167588541865 0 -0.0040202325041482139 -0.011461246151091615 0 -0.004807206592996641 -0.01137683251821721 0 -0.0040202325041482139 -0.011461246151091615 0 -0.0047329501082770805 -0.010763358144912647 0 -0.0052372511624981357 -0.011844148397004581 0 -0.004807206592996641 -0.01137683251821721 0 -0.0046811097374749883 -0.011861167588541865 0 -0.0052372511624981357 -0.011844148397004581 0 -0.0046811097374749883 -0.011861167588541865 0 -0.0048754771565476095 -0.012330302721929446 0 -0.0046811097374749883 -0.011861167588541865 0 -0.0048754771565476095 -0.012330302721929446 0 -0.0041822190640948597 -0.01230074003155847 0 -0.0052372511624981357 -0.011844148397004581 0 -0.0048754771565476095 -0.012330302721929446 0 -0.00549137355127565 -0.012543620608518789 0 -0.0048754771565476095 -0.012330302721929446 0 -0.00549137355127565 -0.012543620608518789 0 -0.0045903905031018065 -0.013015053364130964 0 -0.0057716485384142853 -0.013837784744542482 0 -0.005009044449636583 -0.013866518738179486 0 -0.00549137355127565 -0.012543620608518789 0 -0.005009044449636583 -0.013866518738179486 0 -0.00549137355127565 -0.012543620608518789 0 -0.0045903905031018065 -0.013015053364130964 0 -0.005009044449636583 -0.013866518738179486 0 -0.004236233735978796 -0.013901978867534876 0 -0.0045903905031018065 -0.013015053364130964 0 -0.0048754771565476095 -0.012330302721929446 0 -0.0045903905031018065 -0.013015053364130964 0 -0.0041822190640948597 -0.01230074003155847 0 -0.0045903905031018065 -0.013015053364130964 0 -0.0038114939177119373 -0.013147986770152654 0 -0.0041822190640948597 -0.01230074003155847 0 -0.004236233735978796 -0.013901978867534876 0 -0.0032719855644589985 -0.013969905764154092 0 -0.0038114939177119373 -0.013147986770152654 0 -0.004236233735978796 -0.013901978867534876 0 -0.0045903905031018065 -0.013015053364130964 0 -0.0038114939177119373 -0.013147986770152654 0 -0.0032719855644589985 -0.013969905764154092 0 -0.0029763899307670093 -0.013104590202870829 0 -0.0038114939177119373 -0.013147986770152654 0 -0.0029763899307670093 -0.013104590202870829 0 -0.0038114939177119373 -0.013147986770152654 0 -0.0032731356309314815 -0.012228831623268488 0 -0.0038114939177119373 -0.013147986770152654 0 -0.0032731356309314815 -0.012228831623268488 0 -0.0041822190640948597 -0.01230074003155847 0 -0.0032731356309314815 -0.012228831623268488 0 -0.0041822190640948597 -0.01230074003155847 0 -0.0040202325041482139 -0.011461246151091615 0 -0.0046811097374749883 -0.011861167588541865 0 -0.0041822190640948597 -0.01230074003155847 0 -0.0040202325041482139 -0.011461246151091615 0 -0.0028522524138033891 -0.011267673561150554 0 -0.0032731356309314815 -0.012228831623268488 0 -0.0040202325041482139 -0.011461246151091615 0 -0.0028522524138033891 -0.011267673561150554 0 -0.0040202325041482139 -0.011461246151091615 0 -0.003415983170755059 -0.010434950675267949 0 -0.0028522524138033891 -0.011267673561150554 0 -0.0025948627546673406 -0.0097965287447164973 0 -0.003415983170755059 -0.010434950675267949 0 -0.0040202325041482139 -0.011461246151091615 0 -0.003415983170755059 -0.010434950675267949 0 -0.0047329501082770805 -0.010763358144912647 0 -0.003415983170755059 -0.010434950675267949 0 -0.003232696737881042 -0.0086845502605298348 0 -0.0047329501082770805 -0.010763358144912647 0 -0.0025948627546673406 -0.0097965287447164973 0 -0.003415983170755059 -0.010434950675267949 0 -0.003232696737881042 -0.0086845502605298348 0 -0.0025948627546673406 -0.0097965287447164973 0 -0.003232696737881042 -0.0086845502605298348 0 -0.0028875194970400873 -0.0082323027508695058 0 -0.0027296677581699577 -0.0082623344179083447 0 -0.003232696737881042 -0.0086845502605298348 0 -0.0022007832035462814 -0.0078081928384397918 0 -0.0027296677581699577 -0.0082623344179083447 0 -0.003232696737881042 -0.0086845502605298348 0 -0.0028875194970400873 -0.0082323027508695058 0 -0.003232696737881042 -0.0086845502605298348 0 -0.0047329501082770805 -0.010763358144912647 0 -0.0056767545293499319 -0.010857087451993139 0 -0.003232696737881042 -0.0086845502605298348 0 -0.0022007832035462814 -0.0078081928384397918 0 -0.0021669758832318152 -0.0066888627271747946 0 -0.0022007832035462814 -0.0078081928384397918 0 -0.001827199890631482 -0.0071732590079429835 0 -0.0021669758832318152 -0.0066888627271747946 0 -0.0034791859107572865 -0.0087605648594661738 0 -0.0033352156580888077 -0.0083706108642397341 0 -0.0046757504371546989 -0.0092228455404816268 0 -0.0033352156580888077 -0.0083706108642397341 0 -0.004807206592996641 -0.01137683251821721 0 -0.0047329501082770805 -0.010763358144912647 0 -0.0051758840771058377 -0.010958379090509111 0 -0.001827199890631482 -0.0071732590079429835 0 -0.0021669758832318152 -0.0066888627271747946 0 -0.0012971012662670548 -0.0068980018863148869 0 -0.0021669758832318152 -0.0066888627271747946 0 -0.0012971012662670548 -0.0068980018863148869 0 -0.00061987775869793522 -0.006275997686524459 0 -0.0033352156580888077 -0.0083706108642397341 0 -0.00062183392063577792 -0.0059766148361041485 0 -0.0022007832035462814 -0.0078081928384397918 0 -0.001827199890631482 -0.0071732590079429835 0 -0.0012987522999582523 -0.0075336366971682474 0 -0.001827199890631482 -0.0071732590079429835 0 -0.0012971012662670548 -0.0068980018863148869 0 -0.0012987522999582523 -0.0075336366971682474 0 -0.0012971012662670548 -0.0068980018863148869 0 -0.0012987522999582523 -0.0075336366971682474 0 -0.00067549369224029828 -0.006951791571264021 0 -7.6012769514366077e-05 -0.0067459297129813514 0 -0.00067549369224029828 -0.006951791571264021 0 -0.00038986153764433934 -0.0079643264970735879 0 -0.0012987522999582523 -0.0075336366971682474 0 -0.00067549369224029828 -0.006951791571264021 0 -0.00038986153764433934 -0.0079643264970735879 0 -7.6012769514366077e-05 -0.0067459297129813514 0 -0.00067549369224029828 -0.006951791571264021 0 -0.00061987775869793522 -0.006275997686524459 0 -0.0012971012662670548 -0.0068980018863148869 0 -0.00067549369224029828 -0.006951791571264021 0 -0.00061987775869793522 -0.006275997686524459 0 -0.0012987522999582523 -0.0075336366971682474 0 -0.00038986153764433934 -0.0079643264970735879 0 -0.0022925220196764345 -0.0086506654395621697 0 -0.00038986153764433934 -0.0079643264970735879 0 -0.0022925220196764345 -0.0086506654395621697 0 -0.00059085797902432913 -0.0096466281143639115 0 -0.00038986153764433934 -0.0079643264970735879 0 -0.00059085797902432913 -0.0096466281143639115 0 -0.00010202615769823171 -0.0085966551938836903 0 -0.0011236480474435301 -0.010191496695352496 0 -0.0006483304949703977 -0.0098205464984699453 0 -0.00010248093178161382 -0.011823605025631565 0 9.1042188665286126e-05 -0.011709388441214982 0 -0.00059085797902432913 -0.0096466281143639115 0 -0.0022007832035462814 -0.0078081928384397918 0 -0.0012987522999582523 -0.0075336366971682474 0 -0.0022925220196764345 -0.0086506654395621697 0 -0.0027296677581699577 -0.0082623344179083447 0 -0.0022007832035462814 -0.0078081928384397918 0 -0.0022925220196764345 -0.0086506654395621697 0 -0.0011236480474435301 -0.010191496695352496 0 -0.0013915550476997992 -0.010326669748513895 0 -0.00010248093178161382 -0.011823605025631565 0 6.9018881304214145e-05 -0.012365496765382405 0 8.8912924758005149e-05 -0.012143003853280175 0 -0.0027296677581699577 -0.0082623344179083447 0 -0.0022925220196764345 -0.0086506654395621697 0 -0.0028875194970400873 -0.0082323027508695058 0 -0.00010248093178161382 -0.011823605025631565 0 8.8912924758005149e-05 -0.012143003853280175 0 9.1042188665286126e-05 -0.011709388441214982 0 8.8912924758005149e-05 -0.012143003853280175 0 9.1042188665286126e-05 -0.011709388441214982 0 0.0001487778381117837 -0.012306932203439621 0 9.1042188665286126e-05 -0.011709388441214982 0 0.0001487778381117837 -0.012306932203439621 0 0.00010267100399463433 -0.012885634668581674 0 9.1042188665286126e-05 -0.011709388441214982 0 0.00010267100399463433 -0.012885634668581674 0 6.4981678736887821e-07 -0.013405621975610129 0 9.1042188665286126e-05 -0.011709388441214982 0 -3.013320614878648e-07 -0.011316652497657313 0 6.4981678736887821e-07 -0.013405621975610129 0 9.1042188665286126e-05 -0.011709388441214982 0 -3.013320614878648e-07 -0.011316652497657313 0 -0.00059085797902432913 -0.0096466281143639115 0 -3.013320614878648e-07 -0.011316652497657313 0 -0.00059085797902432913 -0.0096466281143639115 0 -3.2970212795911857e-07 -0.0092283330475873109 0 -0.00059085797902432913 -0.0096466281143639115 0 -3.2970212795911857e-07 -0.0092283330475873109 0 -0.00010202615769823171 -0.0085966551938836903 0 -0.00018491314118085554 -0.01266492719178262 0 -7.1612702447265087e-05 -0.012564923952818122 0 -0.00017581903202305718 -0.012931261895682148 0 -0.00018491314118085554 -0.01266492719178262 0 -0.00017742123238251634 -0.012702848375682099 0 -5.0087433306924565e-05 -0.01246295858152841 0 -0.00018491314118085554 -0.01266492719178262 0 -0.00014490790066188822 -0.01250998531957039 0 -5.0087433306924565e-05 -0.01246295858152841 0 -0.00018491314118085554 -0.01266492719178262 0 -0.00014490790066188822 -0.01250998531957039 0 -7.1612702447265087e-05 -0.012564923952818122 0 -8.8619744372713479e-05 -0.012480227786199328 0 -0.00014490790066188822 -0.01250998531957039 0 -7.1612702447265087e-05 -0.012564923952818122 0 -8.8619744372713479e-05 -0.012480227786199328 0 7.6757625230594224e-05 -0.012401878647307867 0 -7.1612702447265087e-05 -0.012564923952818122 0 6.9018881304214145e-05 -0.012365496765382405 0 8.8912924758005149e-05 -0.012143003853280175 0 7.6757625230594224e-05 -0.012401878647307867 0 8.8912924758005149e-05 -0.012143003853280175 0 7.6757625230594224e-05 -0.012401878647307867 0 0.0001487778381117837 -0.012306932203439621 0 7.6757625230594224e-05 -0.012401878647307867 0 0.0001487778381117837 -0.012306932203439621 0 7.5007448690734288e-05 -0.012699169087345913 0 7.6757625230594224e-05 -0.012401878647307867 0 7.5007448690734288e-05 -0.012699169087345913 0 -7.1612702447265087e-05 -0.012564923952818122 0 7.5007448690734288e-05 -0.012699169087345913 0 -7.1612702447265087e-05 -0.012564923952818122 0 -0.00017581903202305718 -0.012931261895682148 0 7.5007448690734288e-05 -0.012699169087345913 0 -1.5213229875792402e-05 -0.013942632400294124 0 0.00010267100399463433 -0.012885634668581674 0 7.5007448690734288e-05 -0.012699169087345913 0 -1.5213229875792402e-05 -0.013942632400294124 0 -0.00017581903202305718 -0.012931261895682148 0 0.0001487778381117837 -0.012306932203439621 0 7.5007448690734288e-05 -0.012699169087345913 0 0.00010267100399463433 -0.012885634668581674 0 -1.5213229875792402e-05 -0.013942632400294124 0 0.00010267100399463433 -0.012885634668581674 0 6.4981678736887821e-07 -0.013405621975610129 0 -1.5213229875792402e-05 -0.013942632400294124 0 6.4981678736887821e-07 -0.013405621975610129 0 -6.814762647086998e-07 -0.015494404172134747 0 -1.5213229875792402e-05 -0.013942632400294124 0 -6.814762647086998e-07 -0.015494404172134747 0 -0.00011961122559547179 -0.016933941076535952 0 -1.5213229875792402e-05 -0.013942632400294124 0 -0.00017581903202305718 -0.012931261895682148 0 -0.00029422469708708179 -0.012894426713902207 0 -0.00018491314118085554 -0.01266492719178262 0 -0.00017581903202305718 -0.012931261895682148 0 -0.00029422469708708179 -0.012894426713902207 0 0.00015634411291862399 -0.014111385720656205 0 -8.5241279877220079e-05 -0.014944287655517191 0 -0.00018491314118085554 -0.01266492719178262 0 -0.00029422469708708179 -0.012894426713902207 0 -0.00017742123238251634 -0.012702848375682099 0 -6.814762647086998e-07 -0.015494404172134747 0 -0.00011961122559547179 -0.016933941076535952 0 -6.3781769595373745e-08 -0.017584362399649889 0 -0.00011961122559547179 -0.016933941076535952 0 -6.3781769595373745e-08 -0.017584362399649889 0 -2.676018815268359e-05 -0.019129560312213498 0 -6.3781769595373745e-08 -0.017584362399649889 0 -7.1060671788969859e-08 -0.019673224784763604 0 -2.676018815268359e-05 -0.019129560312213498 0 -0.00020500469411836671 -0.012734320684170663 0 -0.00017742123238251634 -0.012702848375682099 0 -0.0002277865599254889 -0.012706018522210588 0 -0.00029422469708708179 -0.012894426713902207 0 -0.00020500469411836671 -0.012734320684170663 0 -0.00017742123238251634 -0.012702848375682099 0 -8.5241279877220079e-05 -0.014944287655517191 0 8.3111368945826145e-05 -0.015702513175376558 0 -0.00017742123238251634 -0.012702848375682099 0 -0.0002277865599254889 -0.012706018522210588 0 -5.0087433306924565e-05 -0.01246295858152841 0 -0.0002277865599254889 -0.012706018522210588 0 -0.00020780381283011932 -0.012617816832580961 0 -5.0087433306924565e-05 -0.01246295858152841 0 0.0008350047229722684 -0.012106613812079073 0 0.00058058985468625868 -0.012563359296083527 0 0.0012652649977469628 -0.012539618354045112 0 0.0008350047229722684 -0.012106613812079073 0 -5.0087433306924565e-05 -0.01246295858152841 0 0.00058058985468625868 -0.012563359296083527 0 0.00032377591222656403 -0.012407704941510805 0 2.8677361173913649e-05 -0.012431333952103983 0 -0.00022993109828122119 -0.012743194233283095 0 -0.00020953592353472594 -0.012745770916258349 0 -0.00015822417949302062 -0.012828004484730364 0 0.0009190965676740344 -0.012090352090618988 0 0.00021360996648197694 -0.017260916786675233 0 -0.00020780381283011932 -0.012617816832580961 0 -0.00022993109828122119 -0.012743194233283095 0 -0.00023721756417580174 -0.012722365072194774 0 0.0008350047229722684 -0.012106613812079073 0 0.0018188904011305193 -0.012085715940789513 0 0.0012652649977469628 -0.012539618354045112 0 0.00032377591222656403 -0.012407704941510805 0 0.0009190965676740344 -0.012090352090618988 0 -0.0002277865599254889 -0.012706018522210588 0 -0.00020780381283011932 -0.012617816832580961 0 -0.00023721756417580174 -0.012722365072194774 0 -0.0002277865599254889 -0.012706018522210588 0 -0.00023721756417580174 -0.012722365072194774 0 -0.00024164142551656403 -0.012753021988972985 0 -0.00023721756417580174 -0.012722365072194774 0 -0.00020953592353472594 -0.012745770916258349 0 -0.00024164142551656403 -0.012753021988972985 0 -0.0012155985715992777 -0.021396762856218748 0 -0.0016068037880845871 -0.020761878918887981 0 -0.00087149546103161904 -0.02087693597439981 0 -0.00090485688139843644 -0.01676050339239097 0 -0.00067208542777095397 -0.018705981640268793 0 -0.00022993109828122119 -0.012743194233283095 0 -0.00023721756417580174 -0.012722365072194774 0 -0.00020953592353472594 -0.012745770916258349 0 -0.00067208542777095397 -0.018705981640268793 0 -0.0010534979925405741 -0.024429730228545981 0 2.0409129104090151e-05 -0.022058623955428569 0 -3.7906583539966984e-05 -0.021274656431426058 0 4.7139488952307866e-05 -0.022572136641874293 0 -3.7906583539966984e-05 -0.021274656431426058 0 2.4117258972917206e-06 -0.021696751379835965 0 -4.4656059714813214e-05 -0.020940548567619271 0 2.0409129104090151e-05 -0.022058623955428569 0 -3.7906583539966984e-05 -0.021274656431426058 0 2.4117258972917206e-06 -0.021696751379835965 0 2.0409129104090151e-05 -0.022058623955428569 0 2.4117258972917206e-06 -0.021696751379835965 0 3.3252865782075928e-05 -0.022195303465328237 0 -2.676018815268359e-05 -0.019129560312213498 0 -4.715794468888898e-05 -0.021088630795240822 0 -4.4656059714813214e-05 -0.020940548567619271 0 8.3111368945826145e-05 -0.015702513175376558 0 -0.00067208542777095397 -0.018705981640268793 0 -0.00020500469411836671 -0.012734320684170663 0 -0.0002277865599254889 -0.012706018522210588 0 -0.00024164142551656403 -0.012753021988972985 0 -0.00067208542777095397 -0.018705981640268793 0 -0.00015505239081494771 -0.019739242878014734 0 -7.1060671788969859e-08 -0.019673224784763604 0 -2.676018815268359e-05 -0.019129560312213498 0 -4.4656059714813214e-05 -0.020940548567619271 0 -7.1060671788969859e-08 -0.019673224784763604 0 -4.4656059714813214e-05 -0.020940548567619271 0 1.1762234254073527e-07 -0.021762101794198203 0 2.4117258972917206e-06 -0.021696751379835965 0 1.1762234254073527e-07 -0.021762101794198203 0 3.3252865782075928e-05 -0.022195303465328237 0 2.4117258972917206e-06 -0.021696751379835965 0 -4.4656059714813214e-05 -0.020940548567619271 0 1.1762234254073527e-07 -0.021762101794198203 0 1.1762234254073527e-07 -0.021762101794198203 0 3.3252865782075928e-05 -0.022195303465328237 0 8.6833615755040002e-05 -0.022878875286577928 0 1.1762234254073527e-07 -0.021762101794198203 0 1.0163921180557531e-08 -0.023850956750303399 0 8.6833615755040002e-05 -0.022878875286577928 0 1.0163921180557531e-08 -0.023850956750303399 0 8.6833615755040002e-05 -0.022878875286577928 0 0.00020955997903312917 -0.02420001505507997 0 4.7139488952307866e-05 -0.022572136641874293 0 8.6833615755040002e-05 -0.022878875286577928 0 0.00020955997903312917 -0.02420001505507997 0 -0.0010534979925405741 -0.024429730228545981 0 -0.00018443070295717784 -0.02666770678354698 0 2.0409129104090151e-05 -0.022058623955428569 0 4.7139488952307866e-05 -0.022572136641874293 0 3.3252865782075928e-05 -0.022195303465328237 0 4.7139488952307866e-05 -0.022572136641874293 0 3.3252865782075928e-05 -0.022195303465328237 0 8.6833615755040002e-05 -0.022878875286577928 0 1.0163921180557531e-08 -0.023850956750303399 0 1.1347309639661801e-06 -0.025940010320050919 0 0.00020955997903312917 -0.02420001505507997 0 1.1347309639661801e-06 -0.025940010320050919 0 0.00020955997903312917 -0.02420001505507997 0 0.00013137194324837201 -0.025439138647760703 0 -0.00072513497052637975 -0.02908878259262683 0 -0.00046269667011609349 -0.028949477721570929 0 -0.00036883934295732978 -0.029499117991694673 0 -0.00018443070295717784 -0.02666770678354698 0 -0.00018001936522051411 -0.027132467563341985 0 -0.00091569422741099508 -0.028786173534868287 0 -0.00072513497052637975 -0.02908878259262683 0 -0.00046269667011609349 -0.028949477721570929 0 -0.00091569422741099508 -0.028786173534868287 0 -0.00072513497052637975 -0.02908878259262683 0 -0.0010127207506338066 -0.029107085591355795 0 -0.00072513497052637975 -0.02908878259262683 0 -0.0010127207506338066 -0.029107085591355795 0 -0.00079023818625134027 -0.02939581711208936 0 -0.00072513497052637975 -0.02908878259262683 0 -0.00079023818625134027 -0.02939581711208936 0 -0.00036883934295732978 -0.029499117991694673 0 -0.0012155985715992777 -0.021396762856218748 0 -0.00087149546103161904 -0.02087693597439981 0 -0.00070254159581411722 -0.021487437354273397 0 -0.0010534979925405741 -0.024429730228545981 0 -0.0010616713417949618 -0.025114150431184631 0 -0.00091569422741099508 -0.028786173534868287 0 -0.0013742756344673913 -0.028971030032112065 0 -0.0010127207506338066 -0.029107085591355795 0 -0.0014592854767342771 -0.028641357735943795 0 -0.00091569422741099508 -0.028786173534868287 0 -0.0013742756344673913 -0.028971030032112065 0 -0.0013742756344673913 -0.028971030032112065 0 -0.0010127207506338066 -0.029107085591355795 0 -0.0012834521330208825 -0.029277149408159377 0 -0.0010127207506338066 -0.029107085591355795 0 -0.0012834521330208825 -0.029277149408159377 0 -0.00079023818625134027 -0.02939581711208936 0 -0.0012155985715992777 -0.021396762856218748 0 -0.00070254159581411722 -0.021487437354273397 0 -0.00081073054746930596 -0.022050419899937144 0 -0.00090485688139843644 -0.01676050339239097 0 0.00021360996648197694 -0.017260916786675233 0 -0.00070254159581411722 -0.021487437354273397 0 -0.00052879989378713875 -0.022113877268027202 0 -0.00081073054746930596 -0.022050419899937144 0 -0.0010616713417949618 -0.025114150431184631 0 -0.00025404068967616104 -0.02656873274885593 0 -0.00025404068967616104 -0.02656873274885593 0 0.00021360996648197694 -0.017260916786675233 0 0.0027943016350041039 -0.012249952052886079 0 0.0033783904792760717 -0.013090563456369409 0 0.002109276526849647 -0.012797345017360517 0 0.00021360996648197694 -0.017260916786675233 0 0.0010181177171784878 -0.025483856888353067 0 0.00093654103200300316 -0.021723110267244113 0 -0.00044589760753332216 -0.021468409228596021 0 0.0018573931218319156 -0.025115742092547539 0 -0.00025404068967616104 -0.02656873274885593 0 0.0010181177171784878 -0.025483856888353067 0 -0.00025404068967616104 -0.02656873274885593 0 -0.00033058496410334141 -0.031834800400233558 0 -0.00012141221437273199 -0.032856203384853497 0 -4.6929073761249398e-05 -0.033111823170307295 0 0.00020634933337249984 -0.033039060522523672 0 0.0010181177171784878 -0.025483856888353067 0 0.00095660327275735922 -0.035067542786375583 0 -0.00017543466738054967 -0.032861871407856506 0 9.1427951988055028e-05 -0.033261246262090156 0 8.9037905382782114e-05 -0.033420639409487189 0 0.0010181177171784878 -0.025483856888353067 0 0.0019692320960048226 -0.023023223510086559 0 -4.6929073761249398e-05 -0.033111823170307295 0 0.00012424905829837036 -0.03319349458985793 0 9.1427951988055028e-05 -0.033261246262090156 0 0.0033783904792760717 -0.013090563456369409 0 0.0023175027196082748 -0.013622652343107401 0 0.002109276526849647 -0.012797345017360517 0 -0.00033058496410334141 -0.031834800400233558 0 4.5109869469547071e-05 -0.031304080507779303 0 0.00020634933337249984 -0.033039060522523672 0 0.0002568266134894 -0.033328300886973521 0 0.00046989819791423481 -0.033252020169682178 0 -4.6929073761249398e-05 -0.033111823170307295 0 0.00020634933337249984 -0.033039060522523672 0 0.00012424905829837036 -0.03319349458985793 0 0.00012424905829837036 -0.03319349458985793 0 0.0002568266134894 -0.033328300886973521 0 9.1427951988055028e-05 -0.033261246262090156 0 0.00020634933337249984 -0.033039060522523672 0 0.00012424905829837036 -0.03319349458985793 0 0.0002568266134894 -0.033328300886973521 0 0.0002568266134894 -0.033328300886973521 0 0.00046989819791423481 -0.033252020169682178 0 0.00045737942874628381 -0.03351259727504121 0 0.0002568266134894 -0.033328300886973521 0 0.00026278835845087339 -0.033536618425468338 0 0.00045737942874628381 -0.03351259727504121 0 0.0002568266134894 -0.033328300886973521 0 0.00018047805264238039 -0.033438937218933068 0 9.1427951988055028e-05 -0.033261246262090156 0 0.0002568266134894 -0.033328300886973521 0 0.00026278835845087339 -0.033536618425468338 0 0.00018047805264238039 -0.033438937218933068 0 0.00026278835845087339 -0.033536618425468338 0 0.00018047805264238039 -0.033438937218933068 0 0.00018597320636005435 -0.033445846411648814 0 0.00026278835845087339 -0.033536618425468338 0 0.00034007489267294229 -0.033839853927222711 0 0.00023473749648514393 -0.033797510594256897 0 0.00018047805264238039 -0.033438937218933068 0 8.9037905382782114e-05 -0.033420639409487189 0 0.00018597320636005435 -0.033445846411648814 0 -0.0008577273429210136 -0.036549082913764887 0 0.0016990197763321786 -0.025707526672064031 0 0.00026278835845087339 -0.033536618425468338 0 0.00045615918564721796 -0.033898785431972583 0 0.00034007489267294229 -0.033839853927222711 0 0.00026278835845087339 -0.033536618425468338 0 0.00049691778854672589 -0.033719578162802001 0 0.00045615918564721796 -0.033898785431972583 0 0.0033783904792760717 -0.013090563456369409 0 0.0030369250239713867 -0.014285997008786456 0 0.0023175027196082748 -0.013622652343107401 0 0.0033783904792760717 -0.013090563456369409 0 0.0030369250239713867 -0.014285997008786456 0 0.0037710995901681036 -0.014171721256463618 0 0.00018047805264238039 -0.033438937218933068 0 9.1427951988055028e-05 -0.033261246262090156 0 8.9037905382782114e-05 -0.033420639409487189 0 0.0030369250239713867 -0.014285997008786456 0 0.0033604037418311942 -0.015413412138516594 0 0.0041529325670642539 -0.015312152148676079 0 0.0019692320960048226 -0.023023223510086559 0 0.0016990197763321786 -0.025707526672064031 0 0.0030369250239713867 -0.014285997008786456 0 0.0037710995901681036 -0.014171721256463618 0 0.0041529325670642539 -0.015312152148676079 0 0.0030369250239713867 -0.014285997008786456 0 0.0027296299017120461 -0.01500105039499032 0 0.0033604037418311942 -0.015413412138516594 0 0.0030369250239713867 -0.014285997008786456 0 0.0022228419707381658 -0.014369215789985399 0 0.0027296299017120461 -0.01500105039499032 0 0.0022228419707381658 -0.014369215789985399 0 0.0020802295591711428 -0.015195242897851815 0 0.0027296299017120461 -0.01500105039499032 0 0.0022228419707381658 -0.014369215789985399 0 0.0023175027196082748 -0.013622652343107401 0 0.0013894449445608084 -0.01384841707500593 0 0.0030369250239713867 -0.014285997008786456 0 0.0022228419707381658 -0.014369215789985399 0 0.0023175027196082748 -0.013622652343107401 0 0.0023175027196082748 -0.013622652343107401 0 0.0013894449445608084 -0.01384841707500593 0 0.0011705603801614216 -0.01309356631292255 0 0.0022228419707381658 -0.014369215789985399 0 0.001438372678397512 -0.014587990676165735 0 0.0020802295591711428 -0.015195242897851815 0 0.0022228419707381658 -0.014369215789985399 0 0.0013894449445608084 -0.01384841707500593 0 0.001438372678397512 -0.014587990676165735 0 0.0013894449445608084 -0.01384841707500593 0 0.001438372678397512 -0.014587990676165735 0 0.00083489549823210964 -0.014155174506387119 0 0.001438372678397512 -0.014587990676165735 0 0.00083489549823210964 -0.014155174506387119 0 0.00066845342880648083 -0.014849461587791997 0 0.00083489549823210964 -0.014155174506387119 0 0.00015963088851690771 -0.014146578495456332 0 0.00053777600022123244 -0.013406469185350411 0 0.00083489549823210964 -0.014155174506387119 0 0.00015963088851690771 -0.014146578495456332 0 0.00066845342880648083 -0.014849461587791997 0 -0.00017741789798677459 -0.013353597978739333 0 0.00015963088851690771 -0.014146578495456332 0 0.00053777600022123244 -0.013406469185350411 0 0.0013894449445608084 -0.01384841707500593 0 0.00053777600022123244 -0.013406469185350411 0 0.0011705603801614216 -0.01309356631292255 0 0.0013894449445608084 -0.01384841707500593 0 0.00083489549823210964 -0.014155174506387119 0 0.00053777600022123244 -0.013406469185350411 0 5.9513236293102432e-05 -0.01296174762547752 0 0.00053777600022123244 -0.013406469185350411 0 0.00014024592027763355 -0.012704084550677003 0 0.00053777600022123244 -0.013406469185350411 0 0.0011705603801614216 -0.01309356631292255 0 0.00014024592027763355 -0.012704084550677003 0 -5.0087433306924565e-05 -0.01246295858152841 0 0.00014024592027763355 -0.012704084550677003 0 0.00058058985468625868 -0.012563359296083527 0 0.0011705603801614216 -0.01309356631292255 0 0.00014024592027763355 -0.012704084550677003 0 0.00058058985468625868 -0.012563359296083527 0 0.0011705603801614216 -0.01309356631292255 0 0.00058058985468625868 -0.012563359296083527 0 0.0012652649977469628 -0.012539618354045112 0 0.0018188904011305193 -0.012085715940789513 0 0.0012652649977469628 -0.012539618354045112 0 0.002109276526849647 -0.012797345017360517 0 0.0011705603801614216 -0.01309356631292255 0 0.0012652649977469628 -0.012539618354045112 0 0.002109276526849647 -0.012797345017360517 0 0.0018188904011305193 -0.012085715940789513 0 0.0027943016350041039 -0.012249952052886079 0 0.002109276526849647 -0.012797345017360517 0 0.0023175027196082748 -0.013622652343107401 0 0.0011705603801614216 -0.01309356631292255 0 0.002109276526849647 -0.012797345017360517 0 3.9564390841575683e-06 -0.034994307409361929 0 3.3576316370715498e-09 -0.035000005685194673 0 1.135289113585789e-08 -0.034999939274908541 0 0.00011113112678556885 -0.033228286209679922 0 1.8758507469679778e-07 -0.034998463323818715 0 0.00066110426163294082 -0.029487634360522836 0 0.0005862386041661881 -0.029505258627678499 0 0.00053188575589305947 -0.029458956059445488 0 0.00066110426163294082 -0.029487634360522836 0 0.0005862386041661881 -0.029505258627678499 0 0.00063053990173377852 -0.029646608952936141 0 0.00011113112678556885 -0.033228286209679922 0 -8.6322624851313491e-05 -0.029375843556496115 0 0.00066879498306039915 -0.029592032155128772 0 -8.6322624851313491e-05 -0.029375843556496115 0 9.582180510325902e-05 -0.033784687540548149 0 0.00028721511360451236 -0.033966502093632042 0 0.00025429358385324234 -0.033821010638550288 0 0.00011113112678556885 -0.033228286209679922 0 -4.098870299112482e-07 -0.035001567029354433 0 4.8374746660010489e-07 -0.034995201931933839 0 1.8791900714361449e-09 -0.034999975635472906 0 -1.5817445240809345e-09 -0.035000001709025945 0 9.582180510325902e-05 -0.033784687540548149 0 0.00028721511360451236 -0.033966502093632042 0 -1.3227478226119141e-07 -0.034996268918833583 0 0.00028721511360451236 -0.033966502093632042 0 -1.3227478226119141e-07 -0.034996268918833583 0 0.00015637716637223391 -0.034129951968052324 0 2.8314679584805326e-07 -0.034999829243443213 0 0.00015637716637223391 -0.034129951968052324 0 6.0150144395158034e-07 -0.031698373203668237 0 -1.3227478226119141e-07 -0.034996268918833583 0 2.8314679584805326e-07 -0.034999829243443213 0 0.00015637716637223391 -0.034129951968052324 0 0.00028721511360451236 -0.033966502093632042 0 0.00015637716637223391 -0.034129951968052324 0 0.00020960039558630568 -0.03347258772534685 0 0.00028721511360451236 -0.033966502093632042 0 0.00020960039558630568 -0.03347258772534685 0 0.00017502075880964596 -0.033475114678274354 0 0.00017502075880964596 -0.033475114678274354 0 3.7732253938824243e-05 -0.032727685166123101 0 -0.00018527500006748681 -0.033158706203383459 0 0.00020960039558630568 -0.03347258772534685 0 0.00017502075880964596 -0.033475114678274354 0 3.7732253938824243e-05 -0.032727685166123101 0 0.00015637716637223391 -0.034129951968052324 0 0.00020960039558630568 -0.03347258772534685 0 6.0150144395158034e-07 -0.031698373203668237 0 0.00020960039558630568 -0.03347258772534685 0 3.7732253938824243e-05 -0.032727685166123101 0 6.0150144395158034e-07 -0.031698373203668237 0 6.0150144395158034e-07 -0.031698373203668237 0 -0.00027896874273834532 -0.031826130932317502 0 -0.00021198534479496334 -0.030744817321643723 0 3.7732253938824243e-05 -0.032727685166123101 0 6.0150144395158034e-07 -0.031698373203668237 0 -0.00027896874273834532 -0.031826130932317502 0 -0.00027896874273834532 -0.031826130932317502 0 -0.00018527500006748681 -0.033158706203383459 0 -0.0010478004331161569 -0.031390122184262584 0 3.7732253938824243e-05 -0.032727685166123101 0 -0.00027896874273834532 -0.031826130932317502 0 -0.00018527500006748681 -0.033158706203383459 0 -0.0021503163265313156 -0.026262314404071792 0 -0.0026378586400957853 -0.025734205517321185 0 -0.0017518387042436453 -0.025728790173522597 0 -8.6322624851313491e-05 -0.029375843556496115 0 -0.0010037137948272297 -0.027200931470226685 0 0.00017502075880964596 -0.033475114678274354 0 -0.00018527500006748681 -0.033158706203383459 0 0.00025429358385324234 -0.033821010638550288 0 -0.0014095550020743986 -0.029631631995508868 0 -8.6322624851313491e-05 -0.029375843556496115 0 0.00028721511360451236 -0.033966502093632042 0 0.00017502075880964596 -0.033475114678274354 0 0.00025429358385324234 -0.033821010638550288 0 0.0005862386041661881 -0.029505258627678499 0 0.0004975768302161634 -0.029338371807366655 0 0.00048076884507608698 -0.029476670218959951 0 0.0004975768302161634 -0.029338371807366655 0 0.00048076884507608698 -0.029476670218959951 0 0.00036403369403589369 -0.029466277339353815 0 0.0004975768302161634 -0.029338371807366655 0 0.00036403369403589369 -0.029466277339353815 0 0.00022212606364950036 -0.029225203823197553 0 0.00036403369403589369 -0.029466277339353815 0 0.000109866089164985 -0.029400362671794401 0 0.00022212606364950036 -0.029225203823197553 0 0.000109866089164985 -0.029400362671794401 0 -8.8027723804154066e-05 -0.029094022452599715 0 -0.00015500035818118068 -0.029329326577550739 0 0.000109866089164985 -0.029400362671794401 0 0.00022212606364950036 -0.029225203823197553 0 -8.8027723804154066e-05 -0.029094022452599715 0 -0.0017518387042436453 -0.025728790173522597 0 -0.0013784894033368163 -0.026252256494844004 0 -0.00052115434129527472 -0.025706901848553201 0 -0.0010037137948272297 -0.027200931470226685 0 -0.0002424752604455635 -0.027444076328482683 0 -0.0021503163265313156 -0.026262314404071792 0 -0.0017518387042436453 -0.025728790173522597 0 -0.0013784894033368163 -0.026252256494844004 0 -0.0014095550020743986 -0.029631631995508868 0 -0.00075580080005058052 -0.029642989080433658 0 -0.0021503163265313156 -0.026262314404071792 0 -0.0013784894033368163 -0.026252256494844004 0 -0.0016363910489135285 -0.027081624041358172 0 6.0150144395158034e-07 -0.031698373203668237 0 -0.00021198534479496334 -0.030744817321643723 0 -1.6971776497904437e-06 -0.029318850520593114 0 3.0387276894790515e-05 -0.031298382736308791 0 -0.00075580080005058052 -0.029642989080433658 0 -0.00075580080005058052 -0.029642989080433658 0 2.124084676608558e-07 -0.029317880669857299 0 -0.0016363910489135285 -0.027081624041358172 0 -0.00068450521514234444 -0.026567260264371551 0 -2.0344473306917582e-06 -0.028024903115394136 0 -4.2847391168951205e-06 -0.029955926258142043 0 -3.3032810130507582e-08 -0.029314773501191192 0 2.1043063615514423e-08 -0.028030860451041521 0 -0.00075580080005058052 -0.029642989080433658 0 -1.7895484182417556e-07 -0.028028331719906343 0 -0.0013784894033368163 -0.026252256494844004 0 -0.00068450521514234444 -0.026567260264371551 0 -0.00052115434129527472 -0.025706901848553201 0 -0.0013784894033368163 -0.026252256494844004 0 -0.0016363910489135285 -0.027081624041358172 0 -0.00068450521514234444 -0.026567260264371551 0 1.1347309639661801e-06 -0.025940010320050919 0 -1.7192323626836088e-05 -0.026339308317739826 0 0.00013137194324837201 -0.025439138647760703 0 -0.00068450521514234444 -0.026567260264371551 0 -1.7192323626836088e-05 -0.026339308317739826 0 -0.00052115434129527472 -0.025706901848553201 0 -0.00068450521514234444 -0.026567260264371551 0 -1.7192323626836088e-05 -0.026339308317739826 0 -2.0344473306917582e-06 -0.028024903115394136 0 1.1347309639661801e-06 -0.025940010320050919 0 -1.7192323626836088e-05 -0.026339308317739826 0 -2.0344473306917582e-06 -0.028024903115394136 0 -0.00046269667011609349 -0.028949477721570929 0 -0.00015500035818118068 -0.029329326577550739 0 -0.00036883934295732978 -0.029499117991694673 0 -0.00018001936522051411 -0.027132467563341985 0 -0.0002424752604455635 -0.027444076328482683 0 -1.7192323626836088e-05 -0.026339308317739826 0 0.00013137194324837201 -0.025439138647760703 0 -0.00052115434129527472 -0.025706901848553201 0 -0.00046269667011609349 -0.028949477721570929 0 -8.8027723804154066e-05 -0.029094022452599715 0 -0.00015500035818118068 -0.029329326577550739 0 4.5109869469547071e-05 -0.031304080507779303 0 0.00031381791066231973 -0.031437937766406333 0 -0.00015500035818118068 -0.029329326577550739 0 -0.00036883934295732978 -0.029499117991694673 0 -1.7544313104229088e-05 -0.029580399930915571 0 0.00046989819791423481 -0.033252020169682178 0 0.00059302216380677458 -0.033522021660687282 0 0.00068833156358827092 -0.033486903119984014 0 0.00046989819791423481 -0.033252020169682178 0 0.00059302216380677458 -0.033522021660687282 0 0.00045737942874628381 -0.03351259727504121 0 0.00045737942874628381 -0.03351259727504121 0 0.00049691778854672589 -0.033719578162802001 0 0.00063725328752919713 -0.033729329631205431 0 0.00026278835845087339 -0.033536618425468338 0 0.00045737942874628381 -0.03351259727504121 0 0.00049691778854672589 -0.033719578162802001 0 0.00049691778854672589 -0.033719578162802001 0 0.00062029425973426716 -0.033902564416051509 0 0.00045615918564721796 -0.033898785431972583 0 0.00049691778854672589 -0.033719578162802001 0 0.00063725328752919713 -0.033729329631205431 0 0.00062029425973426716 -0.033902564416051509 0 0.00059302216380677458 -0.033522021660687282 0 0.00063725328752919713 -0.033729329631205431 0 0.00069537750435843312 -0.033614588398479035 0 0.00059302216380677458 -0.033522021660687282 0 0.00045737942874628381 -0.03351259727504121 0 0.00063725328752919713 -0.033729329631205431 0 0.00063725328752919713 -0.033729329631205431 0 0.00078043370800586832 -0.033882188960446286 0 0.00079955741265129421 -0.033768816849890165 0 0.00063725328752919713 -0.033729329631205431 0 0.00079955741265129421 -0.033768816849890165 0 0.00069537750435843312 -0.033614588398479035 0 0.00063725328752919713 -0.033729329631205431 0 0.00078043370800586832 -0.033882188960446286 0 0.00062029425973426716 -0.033902564416051509 0 0.00078043370800586832 -0.033882188960446286 0 0.00085331768257484921 -0.033898597459795163 0 0.00090485493693792565 -0.033967996944104829 0 0.00078043370800586832 -0.033882188960446286 0 0.00079955741265129421 -0.033768816849890165 0 0.00085331768257484921 -0.033898597459795163 0 0.00079955741265129421 -0.033768816849890165 0 0.00085740497008061597 -0.033889500263074808 0 0.00085331768257484921 -0.033898597459795163 0 0.00078788546184013297 -0.033632029005975873 0 0.00068833156358827092 -0.033486903119984014 0 0.00090904089516573446 -0.0336835732655223 0 0.00079955741265129421 -0.033768816849890165 0 0.00084751911474599366 -0.033776191729839145 0 0.00085740497008061597 -0.033889500263074808 0 0.00031381791066231973 -0.031437937766406333 0 0.00060861874596056665 -0.032419152990702103 0 0.00079955741265129421 -0.033768816849890165 0 0.00078788546184013297 -0.033632029005975873 0 0.00084751911474599366 -0.033776191729839145 0 0.00083139375027869414 -0.033541764440784161 0 0.00060861874596056665 -0.032419152990702103 0 0.00079955741265129421 -0.033768816849890165 0 0.00078788546184013297 -0.033632029005975873 0 0.00069537750435843312 -0.033614588398479035 0 0.00059302216380677458 -0.033522021660687282 0 0.00069537750435843312 -0.033614588398479035 0 0.00068833156358827092 -0.033486903119984014 0 0.00078788546184013297 -0.033632029005975873 0 0.00069537750435843312 -0.033614588398479035 0 0.00068833156358827092 -0.033486903119984014 0 0.000109866089164985 -0.029400362671794401 0 -0.00015500035818118068 -0.029329326577550739 0 -1.7544313104229088e-05 -0.029580399930915571 0 0.00036403369403589369 -0.029466277339353815 0 0.000109866089164985 -0.029400362671794401 0 0.0002782874768243832 -0.029656256978202462 0 0.000109866089164985 -0.029400362671794401 0 -1.7544313104229088e-05 -0.029580399930915571 0 0.0002782874768243832 -0.029656256978202462 0 0.00036403369403589369 -0.029466277339353815 0 0.00047849658318982068 -0.029647344459416504 0 0.0002782874768243832 -0.029656256978202462 0 0.0005862386041661881 -0.029505258627678499 0 0.00048076884507608698 -0.029476670218959951 0 0.00047849658318982068 -0.029647344459416504 0 0.00048076884507608698 -0.029476670218959951 0 0.00036403369403589369 -0.029466277339353815 0 0.00047849658318982068 -0.029647344459416504 0 0.0006174587562372462 -0.032691343617582212 0 0.00061383631943261782 -0.032703923168715371 0 0.00065681304492136775 -0.032722895203891739 0 0.00086117031130247346 -0.033955252404795765 0 0.00085781607835273322 -0.034067695540384441 0 0.00094840116707467568 -0.034068967240195987 0 0.00086117031130247346 -0.033955252404795765 0 0.00085740497008061597 -0.033889500263074808 0 0.00085781607835273322 -0.034067695540384441 0 0.00086117031130247346 -0.033955252404795765 0 0.00084751911474599366 -0.033776191729839145 0 0.00085740497008061597 -0.033889500263074808 0 0.00078206958834808416 -0.033327122451466865 0 0.00060861874596056665 -0.032419152990702103 0 0.00055434054815443434 -0.030971813489589089 0 0.00060861874596056665 -0.032419152990702103 0 0.0006174587562372462 -0.032691343617582212 0 0.00061383631943261782 -0.032703923168715371 0 0.00057008200284361875 -0.032683295391110978 0 0.00085740497008061597 -0.033889500263074808 0 0.00087831790318103722 -0.033981208632615556 0 0.00085781607835273322 -0.034067695540384441 0 0.00085740497008061597 -0.033889500263074808 0 0.00087831790318103722 -0.033981208632615556 0 0.00085331768257484921 -0.033898597459795163 0 0.00087831790318103722 -0.033981208632615556 0 0.00085331768257484921 -0.033898597459795163 0 0.00090485493693792565 -0.033967996944104829 0 0.00090485493693792565 -0.033967996944104829 0 0.00088427287924304607 -0.034057645724289466 0 0.00081191915476845091 -0.034029280545663697 0 0.00087831790318103722 -0.033981208632615556 0 0.00090485493693792565 -0.033967996944104829 0 0.00088427287924304607 -0.034057645724289466 0 0.00053084153074638791 -0.034421724904555258 0 0.00044065420797842296 -0.034523853219856557 0 0.00088427287924304607 -0.034057645724289466 0 0.00085781607835273322 -0.034067695540384441 0 0.00086957756405626986 -0.034299550623663848 0 0.00087831790318103722 -0.033981208632615556 0 0.00088427287924304607 -0.034057645724289466 0 0.00085781607835273322 -0.034067695540384441 0 0.00082198898580416199 -0.034401745411644043 0 0.00060804712638155584 -0.034256372405224167 0 0.00016966556222686415 -0.03487857411105956 0 4.2529885620698886e-05 -0.034991805132584833 0 1.2652874247204112e-05 -0.034940122739973996 0 0.00085781607835273322 -0.034067695540384441 0 0.00086957756405626986 -0.034299550623663848 0 0.00094840116707467568 -0.034068967240195987 0 0.00086957756405626986 -0.034299550623663848 0 0.0004397648652992591 -0.034695484433467712 0 0.00068336701776905223 -0.035068810377377101 0 0.00086957756405626986 -0.034299550623663848 0 0.00081191915476845091 -0.034029280545663697 0 0.0004397648652992591 -0.034695484433467712 0 0.00088427287924304607 -0.034057645724289466 0 0.00086957756405626986 -0.034299550623663848 0 0.00081191915476845091 -0.034029280545663697 0 4.2529885620698886e-05 -0.034991805132584833 0 8.3525709686914237e-06 -0.034985986779335239 0 1.2652874247204112e-05 -0.034940122739973996 0 8.3525709686914237e-06 -0.034985986779335239 0 2.9852695280625928e-08 -0.034999954311591051 0 1.2652874247204112e-05 -0.034940122739973996 0 4.2529885620698886e-05 -0.034991805132584833 0 8.3525709686914237e-06 -0.034985986779335239 0 -2.2130265293852781e-08 -0.035000020506768585 0 8.3525709686914237e-06 -0.034985986779335239 0 -2.2130265293852781e-08 -0.035000020506768585 0 2.9852695280625928e-08 -0.034999954311591051 0 0.00081191915476845091 -0.034029280545663697 0 0.0004397648652992591 -0.034695484433467712 0 1.588676481578981e-07 -0.034998501745207015 0 0.00044065420797842296 -0.034523853219856557 0 1.5884039324397281e-07 -0.034999809604154532 0 0.0004397648652992591 -0.034695484433467712 0 1.588676481578981e-07 -0.034998501745207015 0 -1.1970604411595574e-07 -0.035000966162084882 0 5.7649666889093699e-09 -0.034999955046304779 0 1.3183371276348069e-05 -0.034993196919282266 0 3.0488145069332334e-05 -0.034979239501565292 0 -9.2083679505713642e-08 -0.035000173203365431 0 0.00060804712638155584 -0.034256372405224167 0 1.3183371276348069e-05 -0.034993196919282266 0 2.5810010902100673e-05 -0.034993315145549403 0 1.0096783891291552e-08 -0.03500002131333526 0 0.0004397648652992591 -0.034695484433467712 0 -1.1970604411595574e-07 -0.035000966162084882 0 0.00068336701776905223 -0.035068810377377101 0 5.7649666889093699e-09 -0.034999955046304779 0 1.3183371276348069e-05 -0.034993196919282266 0 1.0096783891291552e-08 -0.03500002131333526 0 0.00055434054815443434 -0.030971813489589089 0 0.00056722196545119731 -0.032763905652875167 0 0.0006174587562372462 -0.032691343617582212 0 0.00065681304492136775 -0.032722895203891739 0 0.00066413119137676989 -0.032696884636305698 0 0.00078206958834808416 -0.033327122451466865 0 0.00060804712638155584 -0.034256372405224167 0 1.3183371276348069e-05 -0.034993196919282266 0 3.0488145069332334e-05 -0.034979239501565292 0 2.5810010902100673e-05 -0.034993315145549403 0 0.00060804712638155584 -0.034256372405224167 0 0.00056722196545119731 -0.032763905652875167 0 0.0005862386041661881 -0.029505258627678499 0 0.00047849658318982068 -0.029647344459416504 0 0.00063053990173377852 -0.029646608952936141 0 0.00011113112678556885 -0.033228286209679922 0 0.00056722196545119731 -0.032763905652875167 0 0.00056722196545119731 -0.032763905652875167 0 -6.3320582649280704e-07 -0.035000113339100088 0 3.9564390841575683e-06 -0.034994307409361929 0 1.3829398320111425e-05 -0.034978740533305998 0 1.135289113585789e-08 -0.034999939274908541 0 4.4560304666981226e-08 -0.034999792700623096 0 -4.5413877532072317e-05 -0.034812274636386233 0 -2.4228127594669808e-05 -0.034995479212471571 0 -4.5413877532072317e-05 -0.034812274636386233 0 8.6449770540271846e-05 -0.034621423191458833 0 -0.00013868285380379649 -0.034434450346340108 0 -5.3002637988211982e-05 -0.034801125637469302 0 -7.7570167416388496e-05 -0.034718206115752902 0 -4.5413877532072317e-05 -0.034812274636386233 0 8.3809500773839114e-05 -0.034723260021286145 0 8.6449770540271846e-05 -0.034621423191458833 0 -4.5413877532072317e-05 -0.034812274636386233 0 5.8614788987821494e-06 -0.034852681354409221 0 8.3809500773839114e-05 -0.034723260021286145 0 4.4560304666981226e-08 -0.034999792700623096 0 -4.5413877532072317e-05 -0.034812274636386233 0 -7.2438310705131506e-08 -0.034999762772803013 0 -4.5413877532072317e-05 -0.034812274636386233 0 5.8614788987821494e-06 -0.034852681354409221 0 -7.2438310705131506e-08 -0.034999762772803013 0 -7.2438310705131506e-08 -0.034999762772803013 0 1.2652874247204112e-05 -0.034940122739973996 0 3.5613762340864215e-05 -0.034858403571240829 0 -7.2438310705131506e-08 -0.034999762772803013 0 2.9852695280625928e-08 -0.034999954311591051 0 1.2652874247204112e-05 -0.034940122739973996 0 5.8614788987821494e-06 -0.034852681354409221 0 3.5613762340864215e-05 -0.034858403571240829 0 8.3809500773839114e-05 -0.034723260021286145 0 5.8614788987821494e-06 -0.034852681354409221 0 -7.2438310705131506e-08 -0.034999762772803013 0 3.5613762340864215e-05 -0.034858403571240829 0 3.5613762340864215e-05 -0.034858403571240829 0 0.00017515731786447704 -0.034668913388731196 0 8.3809500773839114e-05 -0.034723260021286145 0 0.00016966556222686415 -0.03487857411105956 0 1.2652874247204112e-05 -0.034940122739973996 0 3.5613762340864215e-05 -0.034858403571240829 0 0.00016966556222686415 -0.03487857411105956 0 3.5613762340864215e-05 -0.034858403571240829 0 0.00017515731786447704 -0.034668913388731196 0 0.00016966556222686415 -0.03487857411105956 0 0.00017515731786447704 -0.034668913388731196 0 0.00035930236827714298 -0.034639508231788317 0 0.00017515731786447704 -0.034668913388731196 0 0.00018944748763870581 -0.03453730874030566 0 0.000271137303945396 -0.034458869728352187 0 0.00017515731786447704 -0.034668913388731196 0 8.3809500773839114e-05 -0.034723260021286145 0 0.00018944748763870581 -0.03453730874030566 0 8.3809500773839114e-05 -0.034723260021286145 0 8.6449770540271846e-05 -0.034621423191458833 0 0.00018944748763870581 -0.03453730874030566 0 8.6449770540271846e-05 -0.034621423191458833 0 0.00018944748763870581 -0.03453730874030566 0 0.00011193441137924147 -0.034413790538839958 0 0.0002689754404263354 -0.034396220056648066 0 0.00018944748763870581 -0.03453730874030566 0 0.00011193441137924147 -0.034413790538839958 0 0.0002689754404263354 -0.034396220056648066 0 0.00018944748763870581 -0.03453730874030566 0 0.000271137303945396 -0.034458869728352187 0 0.0002689754404263354 -0.034396220056648066 0 0.00033523100632592423 -0.034282414513107616 0 0.000271137303945396 -0.034458869728352187 0 0.00031930175807417068 -0.034257596305552612 0 0.00029237268169825091 -0.034206509884863873 0 0.0002689754404263354 -0.034396220056648066 0 0.00033523100632592423 -0.034282414513107616 0 0.00031902364721715713 -0.034340001709248731 0 0.00033523100632592423 -0.034282414513107616 0 0.00048092607067220139 -0.034147398239732944 0 0.00042623173776509804 -0.034007563395602257 0 0.00038122474877260761 -0.034386948122605954 0 0.00054959482549287331 -0.034190016788343332 0 0.00048092607067220139 -0.034147398239732944 0 0.00033523100632592423 -0.034282414513107616 0 0.00038122474877260761 -0.034386948122605954 0 0.00048092607067220139 -0.034147398239732944 0 0.00033523100632592423 -0.034282414513107616 0 0.00038122474877260761 -0.034386948122605954 0 0.000271137303945396 -0.034458869728352187 0 0.00017515731786447704 -0.034668913388731196 0 0.00038122474877260761 -0.034386948122605954 0 0.000271137303945396 -0.034458869728352187 0 0.00017515731786447704 -0.034668913388731196 0 0.00038122474877260761 -0.034386948122605954 0 0.00035930236827714298 -0.034639508231788317 0 0.00053084153074638791 -0.034421724904555258 0 0.00056927899519910205 -0.034323895493620429 0 0.00078043370800586832 -0.033882188960446286 0 0.00090485493693792565 -0.033967996944104829 0 0.00080706370661974276 -0.034012733354855093 0 0.00080706370661974276 -0.034012733354855093 0 0.00054959482549287331 -0.034190016788343332 0 0.00062029425973426716 -0.033902564416051509 0 0.00078043370800586832 -0.033882188960446286 0 0.00080706370661974276 -0.034012733354855093 0 0.00062029425973426716 -0.033902564416051509 0 0.00038122474877260761 -0.034386948122605954 0 0.00035930236827714298 -0.034639508231788317 0 0.00054959482549287331 -0.034190016788343332 0 0.00056927899519910205 -0.034323895493620429 0 0.00054289272079410377 -0.0342202155941101 0 0.00054959482549287331 -0.034190016788343332 0 0.00062029425973426716 -0.033902564416051509 0 0.00045615918564721796 -0.033898785431972583 0 0.00054959482549287331 -0.034190016788343332 0 0.00045615918564721796 -0.033898785431972583 0 0.000479307515718953 -0.034023227864468535 0 0.00054959482549287331 -0.034190016788343332 0 0.000479307515718953 -0.034023227864468535 0 0.0005113125542519077 -0.034059827437676972 0 0.000479307515718953 -0.034023227864468535 0 0.0005113125542519077 -0.034059827437676972 0 0.00047049460551974167 -0.033996350329890672 0 0.00054959482549287331 -0.034190016788343332 0 0.0005113125542519077 -0.034059827437676972 0 0.00048092607067220139 -0.034147398239732944 0 0.00048092607067220139 -0.034147398239732944 0 0.00050712387973780566 -0.033994213092380487 0 0.00047615628720603054 -0.034004957839863181 0 0.00048092607067220139 -0.034147398239732944 0 0.00047615628720603054 -0.034004957839863181 0 0.00042623173776509804 -0.034007563395602257 0 0.0005113125542519077 -0.034059827437676972 0 0.00050712387973780566 -0.033994213092380487 0 0.0005358036177464348 -0.033983025468655538 0 0.0005113125542519077 -0.034059827437676972 0 0.00048092607067220139 -0.034147398239732944 0 0.00050712387973780566 -0.033994213092380487 0 0.00050712387973780566 -0.033994213092380487 0 0.00053784485565197483 -0.033936447002788007 0 0.0005358036177464348 -0.033983025468655538 0 0.00050712387973780566 -0.033994213092380487 0 0.00053784485565197483 -0.033936447002788007 0 0.0005266125429016082 -0.033925739397700362 0 0.00058201868721157379 -0.033795762378295797 0 0.0004754250680944027 -0.033933625979983575 0 0.00019382583951960036 -0.033496962597750334 0 0.00058201868721157379 -0.033795762378295797 0 0.00054297232869421417 -0.033880227608879265 0 0.0004754250680944027 -0.033933625979983575 0 0.00058201868721157379 -0.033795762378295797 0 0.00054297232869421417 -0.033880227608879265 0 0.00056865810372922496 -0.033865752383116753 0 0.00054297232869421417 -0.033880227608879265 0 0.0005266125429016082 -0.033925739397700362 0 0.0004754250680944027 -0.033933625979983575 0 0.00050712387973780566 -0.033994213092380487 0 0.0005266125429016082 -0.033925739397700362 0 0.0004754250680944027 -0.033933625979983575 0 0.00053784485565197483 -0.033936447002788007 0 0.0005266125429016082 -0.033925739397700362 0 0.00056865810372922496 -0.033865752383116753 0 0.00054297232869421417 -0.033880227608879265 0 0.0005266125429016082 -0.033925739397700362 0 0.00056865810372922496 -0.033865752383116753 0 0.00050712387973780566 -0.033994213092380487 0 0.0004754250680944027 -0.033933625979983575 0 0.00047615628720603054 -0.034004957839863181 0 0.0004754250680944027 -0.033933625979983575 0 0.00046488380956361691 -0.033965318410417639 0 0.00047615628720603054 -0.034004957839863181 0 0.00046488380956361691 -0.033965318410417639 0 0.00047615628720603054 -0.034004957839863181 0 0.00042623173776509804 -0.034007563395602257 0 0.00045734738161367895 -0.033920133583331361 0 0.00038588867228455922 -0.033907473966066359 0 0.00042623173776509804 -0.034007563395602257 0 0.00046488380956361691 -0.033965318410417639 0 0.00045734738161367895 -0.033920133583331361 0 0.00042623173776509804 -0.034007563395602257 0 0.0004754250680944027 -0.033933625979983575 0 0.00046488380956361691 -0.033965318410417639 0 0.00045734738161367895 -0.033920133583331361 0 0.00040423667010795479 -0.03383638820051648 0 0.00015457532273578328 -0.033740071976461512 0 0.0004754250680944027 -0.033933625979983575 0 -0.00026451616779276971 -0.033233845221913458 0 0.00019382583951960036 -0.033496962597750334 0 0.0004754250680944027 -0.033933625979983575 0 0.00045734738161367895 -0.033920133583331361 0 0.00045673978399581044 -0.033851650813524536 0 0.00045734738161367895 -0.033920133583331361 0 0.00043295296395262818 -0.033892606790189815 0 0.00038588867228455922 -0.033907473966066359 0 0.00045734738161367895 -0.033920133583331361 0 0.00043295296395262818 -0.033892606790189815 0 0.00045673978399581044 -0.033851650813524536 0 0.00043295296395262818 -0.033892606790189815 0 0.00045673978399581044 -0.033851650813524536 0 0.00037978492892965795 -0.03383389037885115 0 -0.00026451616779276971 -0.033233845221913458 0 -3.9406151508097933e-05 -0.033009938310639801 0 0.00019382583951960036 -0.033496962597750334 0 -0.00022726530059531767 -0.032863937660450891 0 -0.0016102222654671263 -0.031557758346869996 0 -0.0011190173519878136 -0.031889205588682426 0 -0.0027595096461661413 -0.030135303660807244 0 -0.0017803355098805352 -0.030601446501655503 0 0.00058201868721157379 -0.033795762378295797 0 -3.9406151508097933e-05 -0.033009938310639801 0 0.00019382583951960036 -0.033496962597750334 0 -0.0027595096461661413 -0.030135303660807244 0 -0.0017803355098805352 -0.030601446501655503 0 -0.001886323609769447 -0.029770438634827676 0 -0.0017803355098805352 -0.030601446501655503 0 -0.0013599594203099869 -0.03062088561869282 0 -0.001886323609769447 -0.029770438634827676 0 -0.0011190173519878136 -0.031889205588682426 0 -0.0017803355098805352 -0.030601446501655503 0 -0.0013599594203099869 -0.03062088561869282 0 -0.0011190173519878136 -0.031889205588682426 0 -0.00080936494154205474 -0.031149496409991713 0 -0.0013599594203099869 -0.03062088561869282 0 -0.0011190173519878136 -0.031889205588682426 0 -0.00080936494154205474 -0.031149496409991713 0 -0.0004418207895276846 -0.031648753294122249 0 -0.0013599594203099869 -0.03062088561869282 0 -0.00088919493705525083 -0.029904481053673545 0 -0.001886323609769447 -0.029770438634827676 0 -0.00080936494154205474 -0.031149496409991713 0 -0.0013599594203099869 -0.03062088561869282 0 -0.00088919493705525083 -0.029904481053673545 0 -0.00088919493705525083 -0.029904481053673545 0 -0.0019785627785410998 -0.028683377670164989 0 -0.00035206411248348072 -0.027867521129307345 0 -0.001886323609769447 -0.029770438634827676 0 -0.0019785627785410998 -0.028683377670164989 0 -0.0024170519363221144 -0.029364319595231708 0 -0.00088919493705525083 -0.029904481053673545 0 -0.001886323609769447 -0.029770438634827676 0 -0.0019785627785410998 -0.028683377670164989 0 -0.0019785627785410998 -0.028683377670164989 0 -0.00035206411248348072 -0.027867521129307345 0 -0.0017648030645897343 -0.026537419631880148 0 0.0029755963191263426 -0.022093051891746689 0 0.0030085320298973935 -0.022202972457106188 0 0.0031237941036249338 -0.022224793606063654 0 0.0014526675907335636 -0.025157724455293986 0 0.0001431240763009076 -0.025052235709062232 0 -0.0019785627785410998 -0.028683377670164989 0 -0.003101636137401032 -0.027516960388721479 0 -0.0017648030645897343 -0.026537419631880148 0 -0.0019476008991367501 -0.027420207154571472 0 0.0001431240763009076 -0.025052235709062232 0 -0.0019785627785410998 -0.028683377670164989 0 -0.003101636137401032 -0.027516960388721479 0 -0.0030390015458039502 -0.028864113627171176 0 -0.003101636137401032 -0.027516960388721479 0 -0.0030390015458039502 -0.028864113627171176 0 -0.0044051145946754511 -0.028480383512989458 0 -0.00026451616779276971 -0.033233845221913458 0 -3.9406151508097933e-05 -0.033009938310639801 0 -0.0010214248880892013 -0.031996756786957868 0 -0.0027595096461661413 -0.030135303660807244 0 -0.0030390015458039502 -0.028864113627171176 0 -0.0044051145946754511 -0.028480383512989458 0 -0.0016102222654671263 -0.031557758346869996 0 -0.0012080146554041935 -0.029728114147141167 0 -0.0019785627785410998 -0.028683377670164989 0 -0.0030390015458039502 -0.028864113627171176 0 -0.0024170519363221144 -0.029364319595231708 0 -0.0027595096461661413 -0.030135303660807244 0 -0.001886323609769447 -0.029770438634827676 0 -0.0024170519363221144 -0.029364319595231708 0 -0.0027595096461661413 -0.030135303660807244 0 -0.0030390015458039502 -0.028864113627171176 0 -0.0024170519363221144 -0.029364319595231708 0 -0.00026451616779276971 -0.033233845221913458 0 -0.0012022377361712215 -0.03212685535717362 0 -0.0010214248880892013 -0.031996756786957868 0 0.00015457532273578328 -0.033740071976461512 0 -0.00030319237165835164 -0.031616727040117608 0 0.00031869829336227676 -0.033648517312079643 0 0.00029355156053424621 -0.033834904803449008 0 0.00037978492892965795 -0.03383389037885115 0 0.00045673978399581044 -0.033851650813524536 0 0.00031869829336227676 -0.033648517312079643 0 0.00037978492892965795 -0.03383389037885115 0 -0.00030319237165835164 -0.031616727040117608 0 -0.0012080146554041935 -0.029728114147141167 0 -0.00039902669034326028 -0.026947645691316687 0 -0.00083763177188097193 -0.027255397609842951 0 -0.00083399639395572139 -0.026845897727415999 0 -0.0019476008991367501 -0.027420207154571472 0 -0.0012080146554041935 -0.029728114147141167 0 -0.00034171877030171789 -0.030079361192982729 0 -0.0001763807107406755 -0.029959100944149976 0 -0.00083169847519856698 -0.029292681550795716 0 -0.00083763177188097193 -0.027255397609842951 0 -0.00083399639395572139 -0.026845897727415999 0 -0.0012110550132860439 -0.026841784545602054 0 -0.0012080146554041935 -0.029728114147141167 0 -0.0011203793656125534 -0.027979537832933745 0 -0.0010484294261613157 -0.026727031710519614 0 -0.00083399639395572139 -0.026845897727415999 0 -0.00096569912595709446 -0.026557250296994801 0 -0.0010484294261613157 -0.026727031710519614 0 -0.00083399639395572139 -0.026845897727415999 0 -0.0012110550132860439 -0.026841784545602054 0 -0.00039902669034326028 -0.026947645691316687 0 -0.00083399639395572139 -0.026845897727415999 0 -0.00066756339889629038 -0.026586791249456378 0 0.00088806430984494575 -0.032086162194481856 0 -0.0003282955475158484 -0.030660995211485447 0 -0.00081216217857507645 -0.031889521146467696 0 -0.00030319237165835164 -0.031616727040117608 0 -0.00060416943124353513 -0.029756093697345946 0 -0.00034171877030171789 -0.030079361192982729 0 -0.0011784575447070624 -0.029067038230274511 0 -0.00083169847519856698 -0.029292681550795716 0 -0.0003282955475158484 -0.030660995211485447 0 -0.00081216217857507645 -0.031889521146467696 0 -0.0011491840992448096 -0.03069398514990564 0 -0.0010484294261613157 -0.026727031710519614 0 -0.0012110550132860439 -0.026841784545602054 0 -0.0011950377893221523 -0.026631304586550719 0 0.00088806430984494575 -0.032086162194481856 0 -0.00047844043339629493 -0.033075805141379526 0 -0.00081216217857507645 -0.031889521146467696 0 0.00031869829336227676 -0.033648517312079643 0 0.00015383393044196119 -0.033775694138362386 0 0.00029355156053424621 -0.033834904803449008 0 -0.00030319237165835164 -0.031616727040117608 0 9.5506063965475281e-05 -0.033809644214139047 0 9.5506063965475281e-05 -0.033809644214139047 0 -0.00018161132466765301 -0.032893082088641779 0 0.00015383393044196119 -0.033775694138362386 0 0.00029355156053424621 -0.033834904803449008 0 0.00021938773755947224 -0.033985264701819347 0 9.5506063965475281e-05 -0.033809644214139047 0 0.00029237268169825091 -0.034206509884863873 0 0.00029663131046418095 -0.034230890279363928 0 0.00031902364721715713 -0.034340001709248731 0 0.00022830123293517298 -0.034279660252074198 0 0.00029355156053424621 -0.033834904803449008 0 0.00038588867228455922 -0.033907473966066359 0 0.00021938773755947224 -0.033985264701819347 0 0.00043295296395262818 -0.033892606790189815 0 0.00037978492892965795 -0.03383389037885115 0 0.00038588867228455922 -0.033907473966066359 0 0.00029355156053424621 -0.033834904803449008 0 0.00037978492892965795 -0.03383389037885115 0 0.00038588867228455922 -0.033907473966066359 0 0.00033523100632592423 -0.034282414513107616 0 0.00042623173776509804 -0.034007563395602257 0 0.00021938773755947224 -0.033985264701819347 0 0.00038588867228455922 -0.033907473966066359 0 0.00042623173776509804 -0.034007563395602257 0 0.00021938773755947224 -0.033985264701819347 0 0.0002689754404263354 -0.034396220056648066 0 0.00011193441137924147 -0.034413790538839958 0 0.00022830123293517298 -0.034279660252074198 0 0.0002689754404263354 -0.034396220056648066 0 0.00031902364721715713 -0.034340001709248731 0 0.00022830123293517298 -0.034279660252074198 0 7.6667358485747614e-05 -0.034188480634591879 0 0.00022830123293517298 -0.034279660252074198 0 0.00024495349989334613 -0.034063924671831981 0 0.00011193441137924147 -0.034413790538839958 0 7.6667358485747614e-05 -0.034188480634591879 0 -4.9024519790890529e-05 -0.034283976570718071 0 0.00011193441137924147 -0.034413790538839958 0 7.6667358485747614e-05 -0.034188480634591879 0 0.00022830123293517298 -0.034279660252074198 0 0.00046233862902566556 -0.034114110817819746 0 0.00022830123293517298 -0.034279660252074198 0 0.00024495349989334613 -0.034063924671831981 0 9.5506063965475281e-05 -0.033809644214139047 0 0.00027795254355626465 -0.034310808470313911 0 0.00046233862902566556 -0.034114110817819746 0 0.00024495349989334613 -0.034063924671831981 0 0.00040817555527294756 -0.033909694165711608 0 0.00024495349989334613 -0.034063924671831981 0 0.00040817555527294756 -0.033909694165711608 0 0.00019650578862259556 -0.033911280938996098 0 0.00040817555527294756 -0.033909694165711608 0 0.00035259261876607461 -0.033702252326757894 0 0.00019650578862259556 -0.033911280938996098 0 -0.00018161132466765301 -0.032893082088641779 0 8.3105466126919328e-05 -0.031818740783901046 0 0.00047815075967707493 -0.031302963184898544 0 -0.0015037417043454984 -0.031879162971641228 0 -0.0007077919715843266 -0.030650376847330955 0 8.3105466126919328e-05 -0.031818740783901046 0 -0.00061475610713283282 -0.032986843809300927 0 0.00035259261876607461 -0.033702252326757894 0 0.00019650578862259556 -0.033911280938996098 0 2.2644292868870548e-05 -0.03381372304698866 0 0.00019650578862259556 -0.033911280938996098 0 2.2644292868870548e-05 -0.03381372304698866 0 4.2352686223500133e-05 -0.03393641661536783 0 -0.00061475610713283282 -0.032986843809300927 0 -0.00022603013993359995 -0.033939087037908294 0 4.2352686223500133e-05 -0.03393641661536783 0 0.00011352688341939367 -0.034031700389269857 0 9.7624276846024538e-06 -0.034063833836908607 0 0.00019650578862259556 -0.033911280938996098 0 4.2352686223500133e-05 -0.03393641661536783 0 0.00011352688341939367 -0.034031700389269857 0 0.00024495349989334613 -0.034063924671831981 0 0.00019650578862259556 -0.033911280938996098 0 0.00011352688341939367 -0.034031700389269857 0 7.6667358485747614e-05 -0.034188480634591879 0 0.00024495349989334613 -0.034063924671831981 0 0.00011352688341939367 -0.034031700389269857 0 7.6667358485747614e-05 -0.034188480634591879 0 0.00011352688341939367 -0.034031700389269857 0 9.7624276846024538e-06 -0.034063833836908607 0 9.7624276846024538e-06 -0.034063833836908607 0 -0.00010290675100987168 -0.034018529114845882 0 -5.1496836926824288e-05 -0.03414574718814347 0 -0.00010290675100987168 -0.034018529114845882 0 -0.00019356453510754884 -0.034173615056691732 0 -5.1496836926824288e-05 -0.03414574718814347 0 -0.00015426180745250557 -0.034008685195852255 0 -0.0002807874544091697 -0.033814915712930528 0 -0.00010290675100987168 -0.034018529114845882 0 -0.00012289004561545538 -0.033899075262666764 0 -0.00023076935064203887 -0.033930439302459849 0 4.2352686223500133e-05 -0.03393641661536783 0 -0.00010290675100987168 -0.034018529114845882 0 -0.00012756521408428318 -0.03388188260102501 0 4.2352686223500133e-05 -0.03393641661536783 0 9.7624276846024538e-06 -0.034063833836908607 0 -0.00010290675100987168 -0.034018529114845882 0 -0.00061475610713283282 -0.032986843809300927 0 -0.0002807874544091697 -0.033814915712930528 0 2.8496096683003454e-05 -0.033831979559350009 0 4.2352686223500133e-05 -0.03393641661536783 0 -0.00012756521408428318 -0.03388188260102501 0 -0.00074350937347477525 -0.032893924238248655 0 -0.00035205299894108501 -0.032786275345298592 0 -0.00050043703625569458 -0.033185579772508557 0 -3.3078683666015351e-05 -0.034588369223050593 0 4.7273208987061246e-06 -0.03492923939514947 0 -1.6229559126306163e-07 -0.034998653072926128 0 -1.8441621992282004e-08 -0.034999969047691058 0 3.6476863390814632e-08 -0.035000050108403138 0 -0.0001356334001905305 -0.034499644783916331 0 -3.2617386031267109e-05 -0.034472928686824687 0 -9.2564925794560646e-05 -0.034760100370614555 0 -0.0002807874544091697 -0.033814915712930528 0 -3.3078683666015351e-05 -0.034588369223050593 0 -0.00010290675100987168 -0.034018529114845882 0 -0.00023076935064203887 -0.033930439302459849 0 -0.00019356453510754884 -0.034173615056691732 0 -3.3078683666015351e-05 -0.034588369223050593 0 -8.8184441797752705e-08 -0.034999733968777334 0 -3.3078683666015351e-05 -0.034588369223050593 0 -0.00010758119786321043 -0.03455962356492754 0 -1.3726768792080399e-06 -0.034998550261705896 0 7.9391336938076172e-09 -0.034999969093178804 0 -5.6385765009687545e-06 -0.034999913579501871 0 7.9391336938076172e-09 -0.034999969093178804 0 -2.8644931022727718e-08 -0.035000060265326094 0 -5.6385765009687545e-06 -0.034999913579501871 0 -2.8644931022727718e-08 -0.035000060265326094 0 -5.6385765009687545e-06 -0.034999913579501871 0 -2.4228127594669808e-05 -0.034995479212471571 0 -0.00010758119786321043 -0.03455962356492754 0 -7.7570167416388496e-05 -0.034718206115752902 0 -0.00019356453510754884 -0.034173615056691732 0 -5.1496836926824288e-05 -0.03414574718814347 0 -4.9024519790890529e-05 -0.034283976570718071 0 -0.00019356453510754884 -0.034173615056691732 0 -4.9024519790890529e-05 -0.034283976570718071 0 -0.00013868285380379649 -0.034434450346340108 0 7.6667358485747614e-05 -0.034188480634591879 0 -5.1496836926824288e-05 -0.03414574718814347 0 -4.9024519790890529e-05 -0.034283976570718071 0 7.6667358485747614e-05 -0.034188480634591879 0 9.7624276846024538e-06 -0.034063833836908607 0 -5.1496836926824288e-05 -0.03414574718814347 0 8.6449770540271846e-05 -0.034621423191458833 0 0.00011193441137924147 -0.034413790538839958 0 -0.00013868285380379649 -0.034434450346340108 0 0.00011193441137924147 -0.034413790538839958 0 -4.9024519790890529e-05 -0.034283976570718071 0 -0.00013868285380379649 -0.034434450346340108 0 4.4560304666981226e-08 -0.034999792700623096 0 -2.8644931022727718e-08 -0.035000060265326094 0 -2.4228127594669808e-05 -0.034995479212471571 0 0.0020524338576974805 -0.017182241368548196 0 0.001015490094925413 -0.017835527078450469 0 0.0011356144920957657 -0.016528174884020953 0 0.0020524338576974805 -0.017182241368548196 0 0.0011356144920957657 -0.016528174884020953 0 0.001979506288027707 -0.016020477675877196 0 0.0020524338576974805 -0.017182241368548196 0 0.0027255756356974197 -0.016495421477596261 0 0.0031205585733535203 -0.017391351684220301 0 0.0020524338576974805 -0.017182241368548196 0 0.0027255756356974197 -0.016495421477596261 0 0.001979506288027707 -0.016020477675877196 0 0.0022930649073490536 -0.01939149176656544 0 0.0019710266931566582 -0.019684819120263881 0 0.0020524338576974805 -0.017182241368548196 0 0.0031205585733535203 -0.017391351684220301 0 0.0023997429946226146 -0.018814364767552993 0 0.0020524338576974805 -0.017182241368548196 0 0.001015490094925413 -0.017835527078450469 0 0.0023997429946226146 -0.018814364767552993 0 0.001015490094925413 -0.017835527078450469 0 4.7060639758666162e-05 -0.016844522061410763 0 -3.9193861368283547e-05 -0.018357148482564114 0 4.7060639758666162e-05 -0.016844522061410763 0 0.0011356144920957657 -0.016528174884020953 0 0.00044375478903013055 -0.015777418759119193 0 0.001015490094925413 -0.017835527078450469 0 4.7060639758666162e-05 -0.016844522061410763 0 0.0011356144920957657 -0.016528174884020953 0 0.0011356144920957657 -0.016528174884020953 0 0.0012856281542229946 -0.015510256505990831 0 0.00044375478903013055 -0.015777418759119193 0 -0.00032270991517069548 -0.015865258534271259 0 4.7060639758666162e-05 -0.016844522061410763 0 0.00044375478903013055 -0.015777418759119193 0 -0.00029526857942334395 -0.014866442676571928 0 0.00015963088851690771 -0.014146578495456332 0 0.00066845342880648083 -0.014849461587791997 0 -0.00029526857942334395 -0.014866442676571928 0 0.00044375478903013055 -0.015777418759119193 0 0.00066845342880648083 -0.014849461587791997 0 0.001438372678397512 -0.014587990676165735 0 0.0012856281542229946 -0.015510256505990831 0 0.00066845342880648083 -0.014849461587791997 0 0.0012856281542229946 -0.015510256505990831 0 0.00044375478903013055 -0.015777418759119193 0 0.00066845342880648083 -0.014849461587791997 0 0.001438372678397512 -0.014587990676165735 0 0.0012856281542229946 -0.015510256505990831 0 0.0020802295591711428 -0.015195242897851815 0 0.0011356144920957657 -0.016528174884020953 0 0.0012856281542229946 -0.015510256505990831 0 0.001979506288027707 -0.016020477675877196 0 0.0012856281542229946 -0.015510256505990831 0 0.0020802295591711428 -0.015195242897851815 0 0.001979506288027707 -0.016020477675877196 0 0.0027255756356974197 -0.016495421477596261 0 0.001979506288027707 -0.016020477675877196 0 0.0027492245066892363 -0.015731537007670039 0 0.0020802295591711428 -0.015195242897851815 0 0.001979506288027707 -0.016020477675877196 0 0.0027492245066892363 -0.015731537007670039 0 0.0020802295591711428 -0.015195242897851815 0 0.0027492245066892363 -0.015731537007670039 0 0.0027296299017120461 -0.01500105039499032 0 0.0027492245066892363 -0.015731537007670039 0 0.0027296299017120461 -0.01500105039499032 0 0.0033604037418311942 -0.015413412138516594 0 0.0033604037418311942 -0.015413412138516594 0 0.0036289155777789205 -0.016226288998959889 0 0.0041529325670642539 -0.015312152148676079 0 0.001875235389014138 -0.020980793977789597 0 0.0017404762049074449 -0.021316019790659307 0 0.0016947471906861922 -0.021013647050071842 0 0.0032836816114182508 -0.017150408806302395 0 0.0016990197763321786 -0.025707526672064031 0 0.0027492245066892363 -0.015731537007670039 0 0.0033604037418311942 -0.015413412138516594 0 0.0036289155777789205 -0.016226288998959889 0 0.0027255756356974197 -0.016495421477596261 0 0.0027492245066892363 -0.015731537007670039 0 0.0036289155777789205 -0.016226288998959889 0 0.00045615918564721796 -0.033898785431972583 0 0.00034007489267294229 -0.033839853927222711 0 0.00041311101703627075 -0.03393393549891692 0 0.00034007489267294229 -0.033839853927222711 0 0.00023473749648514393 -0.033797510594256897 0 0.00035941264081975103 -0.033913022573833544 0 0.0016990197763321786 -0.025707526672064031 0 0.00097827184673723215 -0.027173164895064338 0 0.00023473749648514393 -0.033797510594256897 0 0.00045064128388865829 -0.03380127974565944 0 0.00035941264081975103 -0.033913022573833544 0 0.00034007489267294229 -0.033839853927222711 0 0.00035941264081975103 -0.033913022573833544 0 0.00041311101703627075 -0.03393393549891692 0 0.00045615918564721796 -0.033898785431972583 0 0.000479307515718953 -0.034023227864468535 0 0.00041311101703627075 -0.03393393549891692 0 0.00035941264081975103 -0.033913022573833544 0 0.00047049460551974167 -0.033996350329890672 0 0.00041311101703627075 -0.03393393549891692 0 0.000479307515718953 -0.034023227864468535 0 0.00047049460551974167 -0.033996350329890672 0 0.00041311101703627075 -0.03393393549891692 0 0.00035941264081975103 -0.033913022573833544 0 0.00052807697547510319 -0.034002456619756399 0 0.00068178523281895353 -0.034000606764161445 0 0.00035941264081975103 -0.033913022573833544 0 0.00047049460551974167 -0.033996350329890672 0 0.00052807697547510319 -0.034002456619756399 0 0.0005113125542519077 -0.034059827437676972 0 0.00053892325240954798 -0.034010428304591375 0 0.00052807697547510319 -0.034002456619756399 0 0.0005113125542519077 -0.034059827437676972 0 0.00053892325240954798 -0.034010428304591375 0 0.0005358036177464348 -0.033983025468655538 0 0.00053892325240954798 -0.034010428304591375 0 0.00052807697547510319 -0.034002456619756399 0 0.00057258092959050131 -0.033984903490474679 0 0.0005113125542519077 -0.034059827437676972 0 0.00047049460551974167 -0.033996350329890672 0 0.00052807697547510319 -0.034002456619756399 0 0.00029682451224424502 -0.035462805562817175 0 0.00079666291266712954 -0.029881008708803506 0 0.00045064128388865829 -0.03380127974565944 0 0.00035941264081975103 -0.033913022573833544 0 0.00025327961881729339 -0.033072051188925138 0 0.0016947471906861922 -0.021013647050071842 0 0.0017461172128691179 -0.020877480543891613 0 0.0017996323691417001 -0.020867592443121811 0 0.00097827184673723215 -0.027173164895064338 0 0.00079666291266712954 -0.029881008708803506 0 0.0017461172128691179 -0.020877480543891613 0 0.0017996323691417001 -0.020867592443121811 0 0.0018179630696553981 -0.020784502195022807 0 0.00079666291266712954 -0.029881008708803506 0 0.0012914509916943661 -0.032979973372336102 0 0.00052807697547510319 -0.034002456619756399 0 0.00068178523281895353 -0.034000606764161445 0 0.00057258092959050131 -0.033984903490474679 0 0.00057258092959050131 -0.033984903490474679 0 0.0006098510643111145 -0.033829658912931715 0 0.00056165389400765627 -0.033912426279911402 0 0.00068178523281895353 -0.034000606764161445 0 0.00057258092959050131 -0.033984903490474679 0 0.0006098510643111145 -0.033829658912931715 0 0.00068178523281895353 -0.034000606764161445 0 0.0006098510643111145 -0.033829658912931715 0 0.00086343846176981565 -0.033787676141572576 0 0.0006098510643111145 -0.033829658912931715 0 0.00056165389400765627 -0.033912426279911402 0 0.00056865810372922496 -0.033865752383116753 0 0.00053784485565197483 -0.033936447002788007 0 0.00056165389400765627 -0.033912426279911402 0 0.00056865810372922496 -0.033865752383116753 0 0.00053784485565197483 -0.033936447002788007 0 0.00056165389400765627 -0.033912426279911402 0 0.0005358036177464348 -0.033983025468655538 0 0.00057258092959050131 -0.033984903490474679 0 0.00056165389400765627 -0.033912426279911402 0 0.0005358036177464348 -0.033983025468655538 0 0.00053892325240954798 -0.034010428304591375 0 0.00057258092959050131 -0.033984903490474679 0 0.0005358036177464348 -0.033983025468655538 0 0.0032836816114182508 -0.017150408806302395 0 0.0022930649073490536 -0.01939149176656544 0 0.0027255756356974197 -0.016495421477596261 0 0.0036289155777789205 -0.016226288998959889 0 0.0031205585733535203 -0.017391351684220301 0 0.001875235389014138 -0.020980793977789597 0 0.0016947471906861922 -0.021013647050071842 0 0.0017996323691417001 -0.020867592443121811 0 0.001875235389014138 -0.020980793977789597 0 0.0017996323691417001 -0.020867592443121811 0 0.0018037954531836219 -0.020739960971017948 0 0.0017996323691417001 -0.020867592443121811 0 0.0018179630696553981 -0.020784502195022807 0 0.0018037954531836219 -0.020739960971017948 0 0.0018179630696553981 -0.020784502195022807 0 0.0018037954531836219 -0.020739960971017948 0 0.0017346752124419679 -0.020714554662391211 0 0.0017346752124419679 -0.020714554662391211 0 0.0016074219977167052 -0.020852417346091577 0 0.0015317915489334792 -0.020650077369984421 0 0.0018179630696553981 -0.020784502195022807 0 0.0017346752124419679 -0.020714554662391211 0 0.0018935043349984635 -0.020760976862482988 0 0.0018935043349984635 -0.020760976862482988 0 0.0016074219977167052 -0.020852417346091577 0 0.0020501967989383714 -0.021135721059120295 0 0.0017346752124419679 -0.020714554662391211 0 0.0018935043349984635 -0.020760976862482988 0 0.0016074219977167052 -0.020852417346091577 0 0.00058201868721157379 -0.033795762378295797 0 0.0006098510643111145 -0.033829658912931715 0 0.00056865810372922496 -0.033865752383116753 0 -0.00022726530059531767 -0.032863937660450891 0 0.00055870769681642994 -0.033755007730940444 0 -0.0011190173519878136 -0.031889205588682426 0 0.0006098510643111145 -0.033829658912931715 0 0.00019639739054083227 -0.03238792476156354 0 0.00086343846176981565 -0.033787676141572576 0 0.00019639739054083227 -0.03238792476156354 0 0.0011576407910120917 -0.031761609467896253 0 0.00019639739054083227 -0.03238792476156354 0 -2.3309717591695233e-05 -0.031178560439631107 0 -0.0004418207895276846 -0.031648753294122249 0 -0.0011190173519878136 -0.031889205588682426 0 0.00019639739054083227 -0.03238792476156354 0 -0.0004418207895276846 -0.031648753294122249 0 0.0006098510643111145 -0.033829658912931715 0 0.00086343846176981565 -0.033787676141572576 0 0.00019639739054083227 -0.03238792476156354 0 0.00019639739054083227 -0.03238792476156354 0 0.0011576407910120917 -0.031761609467896253 0 -2.3309717591695233e-05 -0.031178560439631107 0 0.0010109960469679555 -0.034513657557087331 0 0.00086343846176981565 -0.033787676141572576 0 0.0011576407910120917 -0.031761609467896253 0 0.00079666291266712954 -0.029881008708803506 0 0.0014527072910325617 -0.02617093450026715 0 0.0017461172128691179 -0.020877480543891613 0 0.0018179630696553981 -0.020784502195022807 0 0.0018241692109117447 -0.020822226272340767 0 0.0018179630696553981 -0.020784502195022807 0 0.0018935043349984635 -0.020760976862482988 0 0.0018241692109117447 -0.020822226272340767 0 0.0018935043349984635 -0.020760976862482988 0 0.0018241692109117447 -0.020822226272340767 0 0.0018431735293051605 -0.020827288237231532 0 0.0014527072910325617 -0.02617093450026715 0 0.0023104332419765536 -0.023425356434861364 0 0.0017321506014054979 -0.01990995251042673 0 0.0023104332419765536 -0.023425356434861364 0 0.0018935043349984635 -0.020760976862482988 0 0.0027236777421331773 -0.021158725484732799 0 0.0020501967989383714 -0.021135721059120295 0 0.0011576407910120917 -0.031761609467896253 0 0.00019215448529356772 -0.029963374393624797 0 0.0011081218627087765 -0.029201860139983649 0 0.0011576407910120917 -0.031761609467896253 0 -2.3309717591695233e-05 -0.031178560439631107 0 0.00019215448529356772 -0.029963374393624797 0 -0.00080936494154205474 -0.031149496409991713 0 -0.00088919493705525083 -0.029904481053673545 0 -2.3309717591695233e-05 -0.031178560439631107 0 -0.00088919493705525083 -0.029904481053673545 0 -2.3309717591695233e-05 -0.031178560439631107 0 0.00019215448529356772 -0.029963374393624797 0 -0.00080936494154205474 -0.031149496409991713 0 -2.3309717591695233e-05 -0.031178560439631107 0 -0.0004418207895276846 -0.031648753294122249 0 0.00019215448529356772 -0.029963374393624797 0 0.0011081218627087765 -0.029201860139983649 0 -0.00035206411248348072 -0.027867521129307345 0 -0.00088919493705525083 -0.029904481053673545 0 0.00019215448529356772 -0.029963374393624797 0 -0.00035206411248348072 -0.027867521129307345 0 0.0023104332419765536 -0.023425356434861364 0 0.0014526675907335636 -0.025157724455293986 0 0.0027236777421331773 -0.021158725484732799 0 0.0023571465324995771 -0.02155195686723169 0 0.0020501967989383714 -0.021135721059120295 0 0.0027236777421331773 -0.021158725484732799 0 0.0023571465324995771 -0.02155195686723169 0 0.0028573389642752071 -0.022145013023657005 0 0.0023104332419765536 -0.023425356434861364 0 0.0029537648007491517 -0.021356770398141222 0 0.0023571465324995771 -0.02155195686723169 0 0.0023016631195222582 -0.021965367782583324 0 0.0028573389642752071 -0.022145013023657005 0 0.0028814241591653589 -0.022027336783719979 0 0.0029755963191263426 -0.022093051891746689 0 0.0028573389642752071 -0.022145013023657005 0 0.0029755963191263426 -0.022093051891746689 0 0.0030085320298973935 -0.022202972457106188 0 0.0028573389642752071 -0.022145013023657005 0 0.0016074219977167052 -0.020852417346091577 0 0.0020501967989383714 -0.021135721059120295 0 0.001835919171065874 -0.021505507782381788 0 0.0016074219977167052 -0.020852417346091577 0 0.001835919171065874 -0.021505507782381788 0 0.0012298301276322517 -0.021286198432721906 0 0.0023571465324995771 -0.02155195686723169 0 0.0020501967989383714 -0.021135721059120295 0 0.001835919171065874 -0.021505507782381788 0 0.0023571465324995771 -0.02155195686723169 0 0.001835919171065874 -0.021505507782381788 0 0.0023016631195222582 -0.021965367782583324 0 0.001835919171065874 -0.021505507782381788 0 0.0023016631195222582 -0.021965367782583324 0 0.0018941835709909366 -0.022318676586514884 0 0.001835919171065874 -0.021505507782381788 0 0.0012298301276322517 -0.021286198432721906 0 0.0013798161777639237 -0.021928198241782753 0 0.0016074219977167052 -0.020852417346091577 0 0.0012298301276322517 -0.021286198432721906 0 0.0012194611305262697 -0.020511372615559631 0 0.0012298301276322517 -0.021286198432721906 0 0.00068394269613295878 -0.021398966945677018 0 0.00068003477672250764 -0.021843208205195863 0 0.0012298301276322517 -0.021286198432721906 0 0.0012194611305262697 -0.020511372615559631 0 0.00068394269613295878 -0.021398966945677018 0 0.0016074219977167052 -0.020852417346091577 0 0.0012194611305262697 -0.020511372615559631 0 0.0015317915489334792 -0.020650077369984421 0 0.0012194611305262697 -0.020511372615559631 0 0.0023997429946226146 -0.018814364767552993 0 0.00060775676790306675 -0.019319476587774415 0 0.0012594763573817477 -0.020519553253628937 0 0.0019710266931566582 -0.019684819120263881 0 0.001015490094925413 -0.017835527078450469 0 0.0023997429946226146 -0.018814364767552993 0 0.00060775676790306675 -0.019319476587774415 0 0.0018037954531836219 -0.020739960971017948 0 0.0017346752124419679 -0.020714554662391211 0 0.0015317915489334792 -0.020650077369984421 0 -0.00045515482507815335 -0.019702063601162362 0 -3.9193861368283547e-05 -0.018357148482564114 0 0.00060775676790306675 -0.019319476587774415 0 0.001015490094925413 -0.017835527078450469 0 -3.9193861368283547e-05 -0.018357148482564114 0 0.00060775676790306675 -0.019319476587774415 0 0.0012194611305262697 -0.020511372615559631 0 0.00060775676790306675 -0.019319476587774415 0 0.00024930441099047516 -0.020690215561697908 0 -0.00045515482507815335 -0.019702063601162362 0 0.00060775676790306675 -0.019319476587774415 0 0.00024930441099047516 -0.020690215561697908 0 0.0012194611305262697 -0.020511372615559631 0 0.00024930441099047516 -0.020690215561697908 0 0.00068394269613295878 -0.021398966945677018 0 0.00024930441099047516 -0.020690215561697908 0 0.00068394269613295878 -0.021398966945677018 0 0.00019067216288965385 -0.0215813599677551 0 -0.00095410702290150723 -0.021058289164663846 0 0.00024930441099047516 -0.020690215561697908 0 0.00019067216288965385 -0.0215813599677551 0 0.00068394269613295878 -0.021398966945677018 0 0.00019067216288965385 -0.0215813599677551 0 0.00043661094706748269 -0.021803374655847755 0 0.00043661094706748269 -0.021803374655847755 0 0.00036511118931326347 -0.021652534600348897 0 0.0003755986751334525 -0.021723877492652997 0 0.00019067216288965385 -0.0215813599677551 0 0.00043661094706748269 -0.021803374655847755 0 0.00036511118931326347 -0.021652534600348897 0 0.00019067216288965385 -0.0215813599677551 0 0.00036511118931326347 -0.021652534600348897 0 0.00032784176780056428 -0.021522584758879814 0 0.00036511118931326347 -0.021652534600348897 0 0.00032784176780056428 -0.021522584758879814 0 0.00038895062672555117 -0.021445815443797228 0 0.00036511118931326347 -0.021652534600348897 0 0.00039200714489269256 -0.021497668211610546 0 0.00038895062672555117 -0.021445815443797228 0 0.00036511118931326347 -0.021652534600348897 0 0.0003755986751334525 -0.021723877492652997 0 0.00039200714489269256 -0.021497668211610546 0 0.0003755986751334525 -0.021723877492652997 0 0.00039200714489269256 -0.021497668211610546 0 0.00029962926501479639 -0.021517132543297086 0 0.00039200714489269256 -0.021497668211610546 0 0.00038895062672555117 -0.021445815443797228 0 0.00041658843000270696 -0.02136703395319723 0 0.00032925662512117389 -0.022621432356627141 0 0.00035542685082418134 -0.022998154642067736 0 7.2578970542024632e-05 -0.023130190604868418 0 0.00032925662512117389 -0.022621432356627141 0 -0.00010940162869854677 -0.022975953721177018 0 7.2578970542024632e-05 -0.023130190604868418 0 0.00032925662512117389 -0.022621432356627141 0 -0.00010940162869854677 -0.022975953721177018 0 0.00029594371247924288 -0.021982912266602869 0 0.00013386956401775796 -0.02223373672765791 0 0.00026620412674165626 -0.021992167087387889 0 0.0003755986751334525 -0.021723877492652997 0 0.00029962926501479639 -0.021517132543297086 0 0.00029594371247924288 -0.021982912266602869 0 0.00032925662512117389 -0.022621432356627141 0 0.00029594371247924288 -0.021982912266602869 0 0.00057917233917559926 -0.021976282159776105 0 0.00067361352641408852 -0.021918462013258901 0 0.00098828174376330499 -0.022442644326821592 0 0.00029594371247924288 -0.021982912266602869 0 0.00068003477672250764 -0.021843208205195863 0 0.00057917233917559926 -0.021976282159776105 0 0.00043661094706748269 -0.021803374655847755 0 0.00029594371247924288 -0.021982912266602869 0 0.00068003477672250764 -0.021843208205195863 0 0.00043661094706748269 -0.021803374655847755 0 0.0003755986751334525 -0.021723877492652997 0 0.00029594371247924288 -0.021982912266602869 0 0.00068394269613295878 -0.021398966945677018 0 0.00043661094706748269 -0.021803374655847755 0 0.00068003477672250764 -0.021843208205195863 0 0.00068003477672250764 -0.021843208205195863 0 0.0013798161777639237 -0.021928198241782753 0 0.0013281794628562118 -0.022929962367881022 0 0.0012298301276322517 -0.021286198432721906 0 0.00068003477672250764 -0.021843208205195863 0 0.0013798161777639237 -0.021928198241782753 0 0.0013798161777639237 -0.021928198241782753 0 0.0018941835709909366 -0.022318676586514884 0 0.0013281794628562118 -0.022929962367881022 0 0.001835919171065874 -0.021505507782381788 0 0.0013798161777639237 -0.021928198241782753 0 0.0018941835709909366 -0.022318676586514884 0 0.0023016631195222582 -0.021965367782583324 0 0.002261123662738044 -0.022371106799852596 0 0.0018941835709909366 -0.022318676586514884 0 0.002261123662738044 -0.022371106799852596 0 0.0018941835709909366 -0.022318676586514884 0 0.0022741348806038842 -0.022891235202019442 0 0.0019890254880078318 -0.023138315168242139 0 0.0013281794628562118 -0.022929962367881022 0 0.0021919596925215044 -0.023758523347382175 0 0.0018941835709909366 -0.022318676586514884 0 0.0022741348806038842 -0.022891235202019442 0 0.0019890254880078318 -0.023138315168242139 0 0.0022741348806038842 -0.022891235202019442 0 0.0019890254880078318 -0.023138315168242139 0 0.0023464632360123191 -0.023722134403373566 0 0.0018941835709909366 -0.022318676586514884 0 0.0019890254880078318 -0.023138315168242139 0 0.0013281794628562118 -0.022929962367881022 0 0.003011446428548089 -0.022366390838570019 0 0.0028573389642752071 -0.022145013023657005 0 0.0026848982426997186 -0.0224938625753352 0 0.0021967639708193078 -0.024163843638631284 0 0.0031811613741985585 -0.022334891941844171 0 0.003011446428548089 -0.022366390838570019 0 0.0030085320298973935 -0.022202972457106188 0 0.0028573389642752071 -0.022145013023657005 0 0.0023016631195222582 -0.021965367782583324 0 0.0028573389642752071 -0.022145013023657005 0 0.0026848982426997186 -0.0224938625753352 0 0.0023016631195222582 -0.021965367782583324 0 0.002261123662738044 -0.022371106799852596 0 0.0026848982426997186 -0.0224938625753352 0 0.002261123662738044 -0.022371106799852596 0 0.0022741348806038842 -0.022891235202019442 0 0.0026848982426997186 -0.0224938625753352 0 0.0022741348806038842 -0.022891235202019442 0 0.0026848982426997186 -0.0224938625753352 0 0.0031268829060340049 -0.023063548991480779 0 0.0022741348806038842 -0.022891235202019442 0 0.0031268829060340049 -0.023063548991480779 0 0.0023464632360123191 -0.023722134403373566 0 0.0019029113349985343 -0.024857758104023891 0 0.0019110822626369187 -0.024071344478925991 0 0.0023464632360123191 -0.023722134403373566 0 0.0024902551138220293 -0.023941132708147354 0 0.0023489533399620698 -0.023856201526691656 0 0.0038429664348011584 -0.0225516847804124 0 0.0026848982426997186 -0.0224938625753352 0 0.0031268829060340049 -0.023063548991480779 0 0.0011984540231247301 -0.0257238702792871 0 0.0019029113349985343 -0.024857758104023891 0 0.0012364103388483485 -0.02457688916527468 0 0.0021967639708193078 -0.024163843638631284 0 0.0024902551138220293 -0.023941132708147354 0 0.0019029113349985343 -0.024857758104023891 0 0.0012364103388483485 -0.02457688916527468 0 0.0019110822626369187 -0.024071344478925991 0 0.001639485389516773 -0.023705089920931219 0 0.0014865086447208669 -0.023132590524774576 0 0.00092395429057320693 -0.024033265559820202 0 0.0012364103388483485 -0.02457688916527468 0 0.001639485389516773 -0.023705089920931219 0 0.00092395429057320693 -0.024033265559820202 0 0.0012364103388483485 -0.02457688916527468 0 0.001639485389516773 -0.023705089920931219 0 0.0019110822626369187 -0.024071344478925991 0 0.0020321538214907627 -0.02370538705637466 0 0.0023464632360123191 -0.023722134403373566 0 0.0021919596925215044 -0.023758523347382175 0 0.0020321538214907627 -0.02370538705637466 0 0.0017545059274829875 -0.02325626275332799 0 0.0021919596925215044 -0.023758523347382175 0 0.001639485389516773 -0.023705089920931219 0 0.0020321538214907627 -0.02370538705637466 0 0.0019110822626369187 -0.024071344478925991 0 0.0020321538214907627 -0.02370538705637466 0 0.0019110822626369187 -0.024071344478925991 0 0.0023464632360123191 -0.023722134403373566 0 0.001639485389516773 -0.023705089920931219 0 0.0020321538214907627 -0.02370538705637466 0 0.0017545059274829875 -0.02325626275332799 0 0.0017545059274829875 -0.02325626275332799 0 0.0011611292950770402 -0.022468348813481708 0 0.0014001339659727814 -0.023094914287407158 0 0.0017545059274829875 -0.02325626275332799 0 0.0014865086447208669 -0.023132590524774576 0 0.0017325961382944799 -0.023575835102432201 0 0.0017471844767528622 -0.023234234031778246 0 0.0016488100015711429 -0.023097301474182264 0 0.001639485389516773 -0.023705089920931219 0 0.0017545059274829875 -0.02325626275332799 0 0.0014865086447208669 -0.023132590524774576 0 0.00057917233917559926 -0.021976282159776105 0 0.0011611292950770402 -0.022468348813481708 0 0.00065678201209862545 -0.022631156545740123 0 0.00032925662512117389 -0.022621432356627141 0 0.00057917233917559926 -0.021976282159776105 0 0.00065678201209862545 -0.022631156545740123 0 0.00098828174376330499 -0.022442644326821592 0 0.0016488100015711429 -0.023097301474182264 0 0.0019890254880078318 -0.023138315168242139 0 0.0023464632360123191 -0.023722134403373566 0 0.0021919596925215044 -0.023758523347382175 0 0.0011611292950770402 -0.022468348813481708 0 0.00090341047794395384 -0.023076149111014226 0 0.00065678201209862545 -0.022631156545740123 0 0.0011611292950770402 -0.022468348813481708 0 0.0014001339659727814 -0.023094914287407158 0 0.00090341047794395384 -0.023076149111014226 0 0.00090341047794395384 -0.023076149111014226 0 0.00065678201209862545 -0.022631156545740123 0 0.00035542685082418134 -0.022998154642067736 0 0.00032925662512117389 -0.022621432356627141 0 0.00065678201209862545 -0.022631156545740123 0 0.00035542685082418134 -0.022998154642067736 0 0.00090341047794395384 -0.023076149111014226 0 0.00035542685082418134 -0.022998154642067736 0 -1.6676102688502579e-05 -0.02362713250291644 0 0.00090341047794395384 -0.023076149111014226 0 -1.6676102688502579e-05 -0.02362713250291644 0 0.0017325961382944799 -0.023575835102432201 0 0.0014001339659727814 -0.023094914287407158 0 0.00090341047794395384 -0.023076149111014226 0 0.0017325961382944799 -0.023575835102432201 0 0.00017721351445978151 -0.025105772723463274 0 0.00057653033429594825 -0.025043298464026094 0 -0.00029617996856950757 -0.02569702443992105 0 0.00017735324854992315 -0.02504752730827935 0 -0.00043530031989091444 -0.026509554136995437 0 -1.6676102688502579e-05 -0.02362713250291644 0 0.00017735324854992315 -0.02504752730827935 0 -0.00039984627806659349 -0.025625012505114661 0 -1.6676102688502579e-05 -0.02362713250291644 0 0.00017735324854992315 -0.02504752730827935 0 0.0017325961382944799 -0.023575835102432201 0 -0.0012098582761859798 -0.027141081708918352 0 -0.0010277382647330066 -0.026556829387339324 0 -0.00043530031989091444 -0.026509554136995437 0 -0.0010277382647330066 -0.026556829387339324 0 -0.0012906797256510083 -0.026839865709864325 0 -0.0015230847891729827 -0.026824802896557341 0 -0.0012098582761859798 -0.027141081708918352 0 -0.0010277382647330066 -0.026556829387339324 0 -0.0012906797256510083 -0.026839865709864325 0 0.0001129400347279473 -0.025146987558259976 0 0.00057653033429594825 -0.025043298464026094 0 0.0017545059274829875 -0.02325626275332799 0 0.0014001339659727814 -0.023094914287407158 0 0.0017325961382944799 -0.023575835102432201 0 -0.00029617996856950757 -0.02569702443992105 0 -0.00043530031989091444 -0.026509554136995437 0 -0.00077407684956199352 -0.026074072633865186 0 -0.0010277382647330066 -0.026556829387339324 0 -0.00043530031989091444 -0.026509554136995437 0 -0.00077407684956199352 -0.026074072633865186 0 -0.0010277382647330066 -0.026556829387339324 0 -0.00077407684956199352 -0.026074072633865186 0 -0.0012551881890083547 -0.026336351546751052 0 -0.00077407684956199352 -0.026074072633865186 0 -0.00094001386911375174 -0.025933044330511849 0 -0.0012551881890083547 -0.026336351546751052 0 -0.00094001386911375174 -0.025933044330511849 0 -0.00054044446956888047 -0.025714156446938512 0 -0.00085680396799686404 -0.025644166906873097 0 -0.00029617996856950757 -0.02569702443992105 0 -0.00077407684956199352 -0.026074072633865186 0 -0.00054044446956888047 -0.025714156446938512 0 -0.00077407684956199352 -0.026074072633865186 0 -0.00094001386911375174 -0.025933044330511849 0 -0.00054044446956888047 -0.025714156446938512 0 -0.00054044446956888047 -0.025714156446938512 0 -0.00085680396799686404 -0.025644166906873097 0 -0.0004662471303210822 -0.025476004662147722 0 -0.00085680396799686404 -0.025644166906873097 0 -0.0004662471303210822 -0.025476004662147722 0 -0.00075744531470878988 -0.025407918184553072 0 -0.00094001386911375174 -0.025933044330511849 0 -0.00085680396799686404 -0.025644166906873097 0 -0.0012985333104536543 -0.025930793341376265 0 -0.00085680396799686404 -0.025644166906873097 0 -0.0012985333104536543 -0.025930793341376265 0 -0.0011066415540631758 -0.025357976628521562 0 -0.00017505278185800182 -0.025522267064549457 0 -0.00026471076000173557 -0.02549111886435947 0 -0.00039984627806659349 -0.025625012505114661 0 0.00017735324854992315 -0.02504752730827935 0 -0.00017505278185800182 -0.025522267064549457 0 -0.00020402695909114551 -0.025548287305115016 0 0.00017735324854992315 -0.02504752730827935 0 -0.00017505278185800182 -0.025522267064549457 0 -0.00039984627806659349 -0.025625012505114661 0 -0.00029617996856950757 -0.02569702443992105 0 0.00017735324854992315 -0.02504752730827935 0 -0.00020402695909114551 -0.025548287305115016 0 -0.00029617996856950757 -0.02569702443992105 0 -0.00054044446956888047 -0.025714156446938512 0 -0.00020402695909114551 -0.025548287305115016 0 -0.00054044446956888047 -0.025714156446938512 0 -0.00020402695909114551 -0.025548287305115016 0 -0.0004662471303210822 -0.025476004662147722 0 -0.00020402695909114551 -0.025548287305115016 0 -0.0004662471303210822 -0.025476004662147722 0 -0.00026471076000173557 -0.02549111886435947 0 -0.00017505278185800182 -0.025522267064549457 0 -0.00020402695909114551 -0.025548287305115016 0 -0.00026471076000173557 -0.02549111886435947 0 -0.00026471076000173557 -0.02549111886435947 0 -0.00039984627806659349 -0.025625012505114661 0 -7.2867118474466625e-05 -0.025366397238294865 0 -0.00020076945429185777 -0.024112142886559614 0 8.6523168895683573e-06 -0.024312589007151674 0 -8.2857834674011693e-05 -0.022628975490638928 0 -5.0042927694699868e-05 -0.02288417790814036 0 0.00013979181045145633 -0.023241634703400817 0 -8.2857834674011693e-05 -0.022628975490638928 0 -0.00012871676050666423 -0.022560170449588756 0 -5.0042927694699868e-05 -0.02288417790814036 0 -8.2857834674011693e-05 -0.022628975490638928 0 -0.00012871676050666423 -0.022560170449588756 0 -4.3810791941305085e-05 -0.022977957869183614 0 -5.0042927694699868e-05 -0.02288417790814036 0 -0.00019893574168343653 -0.023132919456269285 0 0.00013979181045145633 -0.023241634703400817 0 -0.00012964501237963614 -0.022503244462724826 0 -8.5140253930844764e-05 -0.022189529104853199 0 -0.00012871676050666423 -0.022560170449588756 0 -5.0042927694699868e-05 -0.02288417790814036 0 -0.00019893574168343653 -0.023132919456269285 0 -1.4487451473330484e-05 -0.02125187099874918 0 0.00042379891325118439 -0.021677950847271896 0 0.00022852029561305293 -0.021091148736439871 0 0.00038969410720832094 -0.021194393862102041 0 0.00042379891325118439 -0.021677950847271896 0 0.00045856880275458065 -0.02135866585849145 0 0.00038969410720832094 -0.021194393862102041 0 0.00042379891325118439 -0.021677950847271896 0 0.00022852029561305293 -0.021091148736439871 0 0.00042379891325118439 -0.021677950847271896 0 0.00041010641263636066 -0.021365391909096761 0 0.00045856880275458065 -0.02135866585849145 0 -0.00012871676050666423 -0.022560170449588756 0 -1.4487451473330484e-05 -0.02125187099874918 0 0.00042379891325118439 -0.021677950847271896 0 -0.00012871676050666423 -0.022560170449588756 0 0.00042379891325118439 -0.021677950847271896 0 0.00023668609918688991 -0.022958948761409869 0 0.00042505613108829396 -0.021736314877618929 0 0.00030217134435099325 -0.022157361764142763 0 0.00041668571333388249 -0.02139778080884943 0 0.00041658843000270696 -0.02136703395319723 0 0.00041010641263636066 -0.021365391909096761 0 0.00042379891325118439 -0.021677950847271896 0 0.00041668571333388249 -0.02139778080884943 0 0.00041010641263636066 -0.021365391909096761 0 0.00039200714489269256 -0.021497668211610546 0 0.00041668571333388249 -0.02139778080884943 0 0.00041658843000270696 -0.02136703395319723 0 0.00013386956401775796 -0.02223373672765791 0 0.00030217134435099325 -0.022157361764142763 0 0.00039200714489269256 -0.021497668211610546 0 0.00029962926501479639 -0.021517132543297086 0 0.00041668571333388249 -0.02139778080884943 0 -0.00010940162869854677 -0.022975953721177018 0 5.1689255248875919e-06 -0.023122633340544058 0 7.2578970542024632e-05 -0.023130190604868418 0 -0.00010940162869854677 -0.022975953721177018 0 0.00023668609918688991 -0.022958948761409869 0 5.1689255248875919e-06 -0.023122633340544058 0 -1.6676102688502579e-05 -0.02362713250291644 0 5.1689255248875919e-06 -0.023122633340544058 0 7.2578970542024632e-05 -0.023130190604868418 0 0.00035542685082418134 -0.022998154642067736 0 -1.6676102688502579e-05 -0.02362713250291644 0 7.2578970542024632e-05 -0.023130190604868418 0 -1.6676102688502579e-05 -0.02362713250291644 0 5.1689255248875919e-06 -0.023122633340544058 0 -4.3810791941305085e-05 -0.022977957869183614 0 -0.00012871676050666423 -0.022560170449588756 0 5.1689255248875919e-06 -0.023122633340544058 0 -4.3810791941305085e-05 -0.022977957869183614 0 -1.6676102688502579e-05 -0.02362713250291644 0 -8.2857834674011693e-05 -0.022628975490638928 0 -4.3810791941305085e-05 -0.022977957869183614 0 -3.3307426938071679e-05 -0.023618364754497446 0 -0.00020076945429185777 -0.024112142886559614 0 -0.00012871676050666423 -0.022560170449588756 0 0.00023668609918688991 -0.022958948761409869 0 5.1689255248875919e-06 -0.023122633340544058 0 -8.2302630558569713e-05 -0.034926946411871919 0 -8.7980236879811889e-05 -0.034611683377977438 0 -9.3807833242635973e-05 -0.034955311638663972 0 -4.9647303789544231e-06 -0.034995244216498182 0 1.4141359536533972e-07 -0.03500008859705242 0 -4.9647303789544231e-06 -0.034995244216498182 0 -1.0837968653681885e-07 -0.034999849199442143 0 1.4141359536533972e-07 -0.03500008859705242 0 -9.3807833242635973e-05 -0.034955311638663972 0 -4.9647303789544231e-06 -0.034995244216498182 0 -4.7267930113356675e-05 -0.034954544158174394 0 -9.3807833242635973e-05 -0.034955311638663972 0 -0.00029777205985111931 -0.034626040257940319 0 -0.00011066816621319608 -0.034252566908993858 0 -9.3807833242635973e-05 -0.034955311638663972 0 -0.00041552104365355746 -0.034950692768208232 0 -0.00029777205985111931 -0.034626040257940319 0 -0.0018406864750717164 -0.027158005567912463 0 -0.0016741317208881135 -0.027951160835777023 0 -0.0018671125858178901 -0.028222741389517841 0 -0.00041552104365355746 -0.034950692768208232 0 -0.00029777205985111931 -0.034626040257940319 0 -0.00058492998948107291 -0.034297230249274134 0 -0.00014719216777184433 -0.031410722655194845 0 -0.0013016843395961654 -0.03121322604535744 0 -0.0018406864750717164 -0.027158005567912463 0 -0.0016741317208881135 -0.027951160835777023 0 -0.0014915869915072019 -0.027605175938506726 0 -0.00029777205985111931 -0.034626040257940319 0 -0.00058492998948107291 -0.034297230249274134 0 -0.00011066816621319608 -0.034252566908993858 0 -0.00058492998948107291 -0.034297230249274134 0 -0.00011066816621319608 -0.034252566908993858 0 -0.00040069592535044049 -0.033904207713588472 0 -4.9647303789544231e-06 -0.034995244216498182 0 -1.0837968653681885e-07 -0.034999849199442143 0 1.1940879274190209e-06 -0.035000783314583395 0 -4.9647303789544231e-06 -0.034995244216498182 0 -4.7267930113356675e-05 -0.034954544158174394 0 3.2041396479219804e-06 -0.03478830373570542 0 -4.7267930113356675e-05 -0.034954544158174394 0 3.2041396479219804e-06 -0.03478830373570542 0 -9.2564925794560646e-05 -0.034760100370614555 0 -1.0837968653681885e-07 -0.034999849199442143 0 3.6476863390814632e-08 -0.035000050108403138 0 1.1940879274190209e-06 -0.035000783314583395 0 -4.2315077650603148e-06 -0.03497375348663502 0 4.7273208987061246e-06 -0.03492923939514947 0 -8.7980236879811889e-05 -0.034611683377977438 0 -0.00016032794291949215 -0.034090651415244935 0 -3.2617386031267109e-05 -0.034472928686824687 0 3.2041396479219804e-06 -0.03478830373570542 0 -9.2564925794560646e-05 -0.034760100370614555 0 -1.6229559126306163e-07 -0.034998653072926128 0 3.6476863390814632e-08 -0.035000050108403138 0 1.1940879274190209e-06 -0.035000783314583395 0 -0.00074350937347477525 -0.032893924238248655 0 -0.00050043703625569458 -0.033185579772508557 0 -0.00067398846418084181 -0.033572935543316973 0 -0.00035205299894108501 -0.032786275345298592 0 -0.00023226250549352752 -0.033493667922123979 0 -0.00050043703625569458 -0.033185579772508557 0 -0.00061475610713283282 -0.032986843809300927 0 -0.0012344654981639649 -0.031694397129449818 0 -0.0002807874544091697 -0.033814915712930528 0 -0.00016032794291949215 -0.034090651415244935 0 -0.00023226250549352752 -0.033493667922123979 0 -0.00050043703625569458 -0.033185579772508557 0 -0.00067398846418084181 -0.033572935543316973 0 -0.00011066816621319608 -0.034252566908993858 0 -0.00023226250549352752 -0.033493667922123979 0 -0.00040069592535044049 -0.033904207713588472 0 -0.00058492998948107291 -0.034297230249274134 0 -0.00067398846418084181 -0.033572935543316973 0 -0.00040069592535044049 -0.033904207713588472 0 -0.0013016843395961654 -0.03121322604535744 0 -0.0012344654981639649 -0.031694397129449818 0 -0.00023226250549352752 -0.033493667922123979 0 -0.00067398846418084181 -0.033572935543316973 0 -0.00040069592535044049 -0.033904207713588472 0 -0.0018671125858178901 -0.028222741389517841 0 -0.0017105103688438681 -0.030043010868602196 0 -0.00080809496873449115 -0.02883653243317473 0 -0.00080809496873449115 -0.02883653243317473 0 -0.00079016016622967438 -0.029844629827981906 0 6.847137120585661e-05 -0.029848497292818757 0 -0.0017105103688438681 -0.030043010868602196 0 -0.00080809496873449115 -0.02883653243317473 0 -0.00079016016622967438 -0.029844629827981906 0 -0.0015037417043454984 -0.031879162971641228 0 -0.0017105103688438681 -0.030043010868602196 0 -0.0007077919715843266 -0.030650376847330955 0 -0.0017105103688438681 -0.030043010868602196 0 -0.00079016016622967438 -0.029844629827981906 0 -0.0007077919715843266 -0.030650376847330955 0 -0.00079016016622967438 -0.029844629827981906 0 -0.0007077919715843266 -0.030650376847330955 0 6.847137120585661e-05 -0.029848497292818757 0 -0.0011491840992448096 -0.03069398514990564 0 -0.0008258545866906867 -0.030064156436720592 0 -0.0015626738159101343 -0.029192591551982738 0 8.3105466126919328e-05 -0.031818740783901046 0 -0.0010177895535428986 -0.028559055638570183 0 0.00047815075967707493 -0.031302963184898544 0 -0.0007077919715843266 -0.030650376847330955 0 6.847137120585661e-05 -0.029848497292818757 0 -0.0015172013105599375 -0.02649068248167228 0 -0.0015717398392323934 -0.026352112226950164 0 -0.0015561550603154803 -0.026332047407728612 0 -0.0013652700643355874 -0.028319649233077216 0 -0.0010177895535428986 -0.028559055638570183 0 -0.0015717398392323934 -0.026352112226950164 0 -0.0016206563967726532 -0.026454771330227153 0 -0.0016911186095957967 -0.026381913884363187 0 -0.0015561550603154803 -0.026332047407728612 0 -0.0015593612413885263 -0.026607534841887794 0 -0.0013198388067981936 -0.026751937599849236 0 -0.0015717398392323934 -0.026352112226950164 0 -0.0016206563967726532 -0.026454771330227153 0 -0.0015561550603154803 -0.026332047407728612 0 -0.0012090539138575871 -0.02843386136278319 0 -0.00079336268332699746 -0.028913928680026922 0 -0.00097476768021790194 -0.028225543433731258 0 -0.0010177895535428986 -0.028559055638570183 0 -0.0012077342081600524 -0.027320923949464851 0 -0.00090686662439113492 -0.028766645677109466 0 -0.0010177895535428986 -0.028559055638570183 0 -0.0016206563967726532 -0.026454771330227153 0 -0.0015561550603154803 -0.026332047407728612 0 -0.0015593612413885263 -0.026607534841887794 0 -0.0016206563967726532 -0.026454771330227153 0 -0.0015593612413885263 -0.026607534841887794 0 -0.0017024267304958745 -0.026639770721202442 0 -0.0013198388067981936 -0.026751937599849236 0 -0.0012099916994426951 -0.027420000772725665 0 -0.0014511544019295498 -0.027156115321568024 0 -0.0015593612413885263 -0.026607534841887794 0 -0.0016427409526023795 -0.026881136355163728 0 -0.0017024267304958745 -0.026639770721202442 0 -0.0016427409526023795 -0.026881136355163728 0 -0.0013198388067981936 -0.026751937599849236 0 -0.0014511544019295498 -0.027156115321568024 0 -0.0015593612413885263 -0.026607534841887794 0 -0.0016427409526023795 -0.026881136355163728 0 -0.0013198388067981936 -0.026751937599849236 0 -0.0012090539138575871 -0.02843386136278319 0 -0.00097476768021790194 -0.028225543433731258 0 -0.001208361000210909 -0.028173135905124422 0 -0.0012090539138575871 -0.02843386136278319 0 -0.001208361000210909 -0.028173135905124422 0 -0.0013773398006722329 -0.028038752021188842 0 -0.00097476768021790194 -0.028225543433731258 0 -0.0012816785793792224 -0.027769755159384509 0 -0.0012099916994426951 -0.027420000772725665 0 -0.0012077342081600524 -0.027320923949464851 0 -0.0011796849684668116 -0.027479650505508244 0 -0.00097476768021790194 -0.028225543433731258 0 -0.001208361000210909 -0.028173135905124422 0 -0.0012686995383640069 -0.02798934851822121 0 -0.0016741317208881135 -0.027951160835777023 0 -0.0018671125858178901 -0.028222741389517841 0 -0.00080809496873449115 -0.02883653243317473 0 -0.0016207189440702579 -0.027983733320899769 0 -0.00090686662439113492 -0.028766645677109466 0 -0.0016741317208881135 -0.027951160835777023 0 -0.0012090539138575871 -0.02843386136278319 0 -0.0013773398006722329 -0.028038752021188842 0 -0.0016741317208881135 -0.027951160835777023 0 -0.0013773398006722329 -0.028038752021188842 0 -0.0014395591139052782 -0.027868132351425521 0 -0.0013773398006722329 -0.028038752021188842 0 -0.0014395591139052782 -0.027868132351425521 0 -0.0012686995383640069 -0.02798934851822121 0 -0.0014395591139052782 -0.027868132351425521 0 -0.0012686995383640069 -0.02798934851822121 0 -0.0012816785793792224 -0.027769755159384509 0 -0.0016741317208881135 -0.027951160835777023 0 -0.0014395591139052782 -0.027868132351425521 0 -0.0014915869915072019 -0.027605175938506726 0 -0.00097476768021790194 -0.028225543433731258 0 -0.0012686995383640069 -0.02798934851822121 0 -0.0012816785793792224 -0.027769755159384509 0 -0.001208361000210909 -0.028173135905124422 0 -0.0013773398006722329 -0.028038752021188842 0 -0.0012686995383640069 -0.02798934851822121 0 -0.0012099916994426951 -0.027420000772725665 0 -0.0011908066610089975 -0.027397770551460188 0 -0.0014511544019295498 -0.027156115321568024 0 -0.00014719216777184433 -0.031410722655194845 0 -0.0012696211008293749 -0.027088834954260177 0 0.0012378187398265007 -0.027456070759695635 0 -0.0010682908471218804 -0.027219460077683014 0 -0.00034995313773804782 -0.027988768611407134 0 -0.0018406864750717164 -0.027158005567912463 0 -0.0012099916994426951 -0.027420000772725665 0 -0.0014915869915072019 -0.027605175938506726 0 -0.0018406864750717164 -0.027158005567912463 0 -0.0012099916994426951 -0.027420000772725665 0 -0.0011908066610089975 -0.027397770551460188 0 -0.0012816785793792224 -0.027769755159384509 0 -0.0012099916994426951 -0.027420000772725665 0 -0.0014915869915072019 -0.027605175938506726 0 -0.0014395591139052782 -0.027868132351425521 0 -0.0012816785793792224 -0.027769755159384509 0 -0.0014915869915072019 -0.027605175938506726 0 -0.0012696211008293749 -0.027088834954260177 0 -0.0017559356756629214 -0.027298424628327243 0 -0.0011908066610089975 -0.027397770551460188 0 -0.0014511544019295498 -0.027156115321568024 0 -0.0019033081192999172 -0.027284627713494398 0 -0.0010682908471218804 -0.027219460077683014 0 -0.0019033081192999172 -0.027284627713494398 0 -0.0017929638830821415 -0.027701658090171156 0 -0.0019033081192999172 -0.027284627713494398 0 -0.002074260413648703 -0.027675011626213882 0 -0.0017929638830821415 -0.027701658090171156 0 -0.0016427409526023795 -0.026881136355163728 0 -0.0014511544019295498 -0.027156115321568024 0 -0.0019033081192999172 -0.027284627713494398 0 -0.0019033081192999172 -0.027284627713494398 0 -0.0019784882782018912 -0.027091699596836299 0 -0.0018413474641716739 -0.026881535897876827 0 -0.0019033081192999172 -0.027284627713494398 0 -0.0019784882782018912 -0.027091699596836299 0 -0.0020092367542271523 -0.027343882080899044 0 -0.0019033081192999172 -0.027284627713494398 0 -0.0020092367542271523 -0.027343882080899044 0 -0.002074260413648703 -0.027675011626213882 0 -0.0019784882782018912 -0.027091699596836299 0 -0.001881502131730635 -0.027130968942906841 0 -0.0020092367542271523 -0.027343882080899044 0 -0.0019784882782018912 -0.027091699596836299 0 -0.0019373210124769113 -0.026782844993224836 0 -0.0018413474641716739 -0.026881535897876827 0 -0.0019784882782018912 -0.027091699596836299 0 -0.0019373210124769113 -0.026782844993224836 0 -0.0019850866935689714 -0.027163517534909115 0 -0.0018630842159536023 -0.02614140364129541 0 -0.0011328544309914543 -0.02565170758939523 0 -0.0019373210124769113 -0.026782844993224836 0 -0.0019527847471882875 -0.026218640431618732 0 -0.0019850866935689714 -0.027163517534909115 0 -0.0019373210124769113 -0.026782844993224836 0 -0.0018413474641716739 -0.026881535897876827 0 -0.0018026940913207408 -0.026512938623592816 0 -0.0016427409526023795 -0.026881136355163728 0 -0.0019033081192999172 -0.027284627713494398 0 -0.0018413474641716739 -0.026881535897876827 0 -0.0018413474641716739 -0.026881535897876827 0 -0.0017024267304958745 -0.026639770721202442 0 -0.0018026940913207408 -0.026512938623592816 0 -0.0016427409526023795 -0.026881136355163728 0 -0.0018413474641716739 -0.026881535897876827 0 -0.0017024267304958745 -0.026639770721202442 0 -0.0017024267304958745 -0.026639770721202442 0 -0.001717996023966043 -0.02649574733434553 0 -0.0018026940913207408 -0.026512938623592816 0 -0.0016206563967726532 -0.026454771330227153 0 -0.0017024267304958745 -0.026639770721202442 0 -0.001717996023966043 -0.02649574733434553 0 -0.0015717398392323934 -0.026352112226950164 0 -0.0016911186095957967 -0.026381913884363187 0 -0.0019060839372238498 -0.026365533074597026 0 -0.001841184477318259 -0.02634679560364795 0 -0.0016911186095957967 -0.026381913884363187 0 -0.0019060839372238498 -0.026365533074597026 0 -0.001717996023966043 -0.02649574733434553 0 -0.0018026940913207408 -0.026512938623592816 0 -0.0017605258801907094 -0.026421783617523942 0 -0.0018026940913207408 -0.026512938623592816 0 -0.001841184477318259 -0.02634679560364795 0 -0.0017605258801907094 -0.026421783617523942 0 -0.0018026940913207408 -0.026512938623592816 0 -0.001841184477318259 -0.02634679560364795 0 -0.0019527847471882875 -0.026218640431618732 0 -0.001841184477318259 -0.02634679560364795 0 -0.0017605258801907094 -0.026421783617523942 0 -0.0016911186095957967 -0.026381913884363187 0 -0.0016206563967726532 -0.026454771330227153 0 -0.001717996023966043 -0.02649574733434553 0 -0.0016911186095957967 -0.026381913884363187 0 -0.001717996023966043 -0.02649574733434553 0 -0.0017605258801907094 -0.026421783617523942 0 -0.0016911186095957967 -0.026381913884363187 0 -0.0015172013105599375 -0.02649068248167228 0 -0.0015717398392323934 -0.026352112226950164 0 -0.0012394671338007909 -0.026481866074429598 0 -0.0015921576155279622 -0.026349666107103816 0 -0.0013779517863335541 -0.026288697259549704 0 -0.0015717398392323934 -0.026352112226950164 0 -0.0012394671338007909 -0.026481866074429598 0 -0.0010259559177593109 -0.026270363741741052 0 -0.0012110550132860439 -0.026841784545602054 0 -0.0015172013105599375 -0.02649068248167228 0 -0.0011950377893221523 -0.026631304586550719 0 -0.0012394671338007909 -0.026481866074429598 0 -0.0011950377893221523 -0.026631304586550719 0 -0.00096569912595709446 -0.026557250296994801 0 -0.0011784575447070624 -0.029067038230274511 0 -0.00083169847519856698 -0.029292681550795716 0 -0.0015184821639199295 -0.028653723219898626 0 -0.0015172013105599375 -0.02649068248167228 0 -0.0012394671338007909 -0.026481866074429598 0 -0.0011950377893221523 -0.026631304586550719 0 -0.0003282955475158484 -0.030660995211485447 0 -0.0011491840992448096 -0.03069398514990564 0 -0.0008258545866906867 -0.030064156436720592 0 -0.0011203793656125534 -0.027979537832933745 0 -0.0013652700643355874 -0.028319649233077216 0 -0.00060416943124353513 -0.029756093697345946 0 -0.0013652700643355874 -0.028319649233077216 0 -0.0010259559177593109 -0.026270363741741052 0 -0.00066774311452063933 -0.026420421572557619 0 -0.00021761697441543317 -0.026183521899621809 0 -0.0013779517863335541 -0.026288697259549704 0 -0.0005860442037574704 -0.026304847096582016 0 -0.00066756339889629038 -0.026586791249456378 0 -0.00096569912595709446 -0.026557250296994801 0 -0.00066774311452063933 -0.026420421572557619 0 -0.00083399639395572139 -0.026845897727415999 0 -0.00066756339889629038 -0.026586791249456378 0 -0.00096569912595709446 -0.026557250296994801 0 -0.0010484294261613157 -0.026727031710519614 0 -0.0011950377893221523 -0.026631304586550719 0 -0.00096569912595709446 -0.026557250296994801 0 -0.0012394671338007909 -0.026481866074429598 0 -0.00096569912595709446 -0.026557250296994801 0 -0.0010259559177593109 -0.026270363741741052 0 -0.00096569912595709446 -0.026557250296994801 0 -0.0010259559177593109 -0.026270363741741052 0 -0.00066774311452063933 -0.026420421572557619 0 -0.0019060839372238498 -0.026365533074597026 0 -0.0011872600517941977 -0.025954466841548875 0 -0.00042429194865247432 -0.026114181266984636 0 -0.0011872600517941977 -0.025954466841548875 0 -0.0019527847471882875 -0.026218640431618732 0 -0.00038606682016004959 -0.024142416840193547 0 -0.001841184477318259 -0.02634679560364795 0 -0.0019060839372238498 -0.026365533074597026 0 -0.0019527847471882875 -0.026218640431618732 0 -0.0019060839372238498 -0.026365533074597026 0 -0.0011872600517941977 -0.025954466841548875 0 -0.0019527847471882875 -0.026218640431618732 0 -0.0019373210124769113 -0.026782844993224836 0 -0.0018026940913207408 -0.026512938623592816 0 -0.0019527847471882875 -0.026218640431618732 0 -0.0011872600517941977 -0.025954466841548875 0 -0.00024968344207819989 -0.025233603273697235 0 -0.00038606682016004959 -0.024142416840193547 0 -0.0011872600517941977 -0.025954466841548875 0 -0.00024968344207819989 -0.025233603273697235 0 -0.00042429194865247432 -0.026114181266984636 0 -0.00066774311452063933 -0.026420421572557619 0 -0.00021761697441543317 -0.026183521899621809 0 -0.00043280716833251487 -0.026477415102429989 0 -0.00021761697441543317 -0.026183521899621809 0 -0.00012186459253218155 -0.026431908278815877 0 -0.00043280716833251487 -0.026477415102429989 0 -0.00039902669034326028 -0.026947645691316687 0 -0.00012186459253218155 -0.026431908278815877 0 -0.00043280716833251487 -0.026477415102429989 0 -0.00039902669034326028 -0.026947645691316687 0 -0.00012186459253218155 -0.026431908278815877 0 7.5362095744791952e-05 -0.026618389888003881 0 -0.00039902669034326028 -0.026947645691316687 0 -0.00066756339889629038 -0.026586791249456378 0 -0.00043280716833251487 -0.026477415102429989 0 -0.00066756339889629038 -0.026586791249456378 0 -0.00066774311452063933 -0.026420421572557619 0 -0.00043280716833251487 -0.026477415102429989 0 0.00085220714887079471 -0.026147619817170925 0 -0.00021761697441543317 -0.026183521899621809 0 -0.00012186459253218155 -0.026431908278815877 0 0.0021967639708193078 -0.024163843638631284 0 -0.0005860442037574704 -0.026304847096582016 0 0.00085220714887079471 -0.026147619817170925 0 -0.00012186459253218155 -0.026431908278815877 0 0.00014339990480595596 -0.026671728994124257 0 0.003011446428548089 -0.022366390838570019 0 0.0030085320298973935 -0.022202972457106188 0 0.0031237941036249338 -0.022224793606063654 0 0.00036888579228102909 -0.025996974742742436 0 0.0001431240763009076 -0.025052235709062232 0 0.0021967639708193078 -0.024163843638631284 0 0.0001431240763009076 -0.025052235709062232 0 0.0011984540231247301 -0.0257238702792871 0 0.0012364103388483485 -0.02457688916527468 0 0.00039133815659882671 -0.025247100552079012 0 0.0011984540231247301 -0.0257238702792871 0 -0.00042429194865247432 -0.026114181266984636 0 0.00039133815659882671 -0.025247100552079012 0 -0.00024968344207819989 -0.025233603273697235 0 -0.00042429194865247432 -0.026114181266984636 0 0.00039133815659882671 -0.025247100552079012 0 -0.00024968344207819989 -0.025233603273697235 0 0.00039133815659882671 -0.025247100552079012 0 0.00042543332027698312 -0.02461413645709749 0 0.0012364103388483485 -0.02457688916527468 0 0.00039133815659882671 -0.025247100552079012 0 0.00042543332027698312 -0.02461413645709749 0 0.0014865086447208669 -0.023132590524774576 0 0.00092395429057320693 -0.024033265559820202 0 -0.00038606682016004959 -0.024142416840193547 0 0.00092395429057320693 -0.024033265559820202 0 0.00042543332027698312 -0.02461413645709749 0 -0.00038606682016004959 -0.024142416840193547 0 0.0012364103388483485 -0.02457688916527468 0 0.00092395429057320693 -0.024033265559820202 0 0.00042543332027698312 -0.02461413645709749 0 -0.00024968344207819989 -0.025233603273697235 0 0.00042543332027698312 -0.02461413645709749 0 -0.00038606682016004959 -0.024142416840193547 0 -0.0019850866935689714 -0.027163517534909115 0 -0.001881502131730635 -0.027130968942906841 0 -0.0016043887402982075 -0.027048211963567003 0 -0.0019784882782018912 -0.027091699596836299 0 -0.0019850866935689714 -0.027163517534909115 0 -0.001881502131730635 -0.027130968942906841 0 -0.0012098582761859798 -0.027141081708918352 0 -0.0019850866935689714 -0.027163517534909115 0 -0.0016043887402982075 -0.027048211963567003 0 0.0001129400347279473 -0.025146987558259976 0 -0.0011328544309914543 -0.02565170758939523 0 -0.0012098582761859798 -0.027141081708918352 0 -0.0012906797256510083 -0.026839865709864325 0 -0.0016043887402982075 -0.027048211963567003 0 -0.001881502131730635 -0.027130968942906841 0 -0.0016043887402982075 -0.027048211963567003 0 -0.0015230847891729827 -0.026824802896557341 0 -0.0012906797256510083 -0.026839865709864325 0 -0.0016043887402982075 -0.027048211963567003 0 -0.0015230847891729827 -0.026824802896557341 0 -0.001881502131730635 -0.027130968942906841 0 -0.0015230847891729827 -0.026824802896557341 0 -0.001849972252736364 -0.027054330649304455 0 -0.0015230847891729827 -0.026824802896557341 0 -0.0016135845031120977 -0.026715142372006659 0 -0.001849972252736364 -0.027054330649304455 0 -0.0017426822156877163 -0.026751486113477607 0 -0.0015964960892793701 -0.026430003840115408 0 -0.0019036690931185313 -0.026807931343639145 0 -0.0016135845031120977 -0.026715142372006659 0 -0.0017426822156877163 -0.026751486113477607 0 -0.001849972252736364 -0.027054330649304455 0 -0.0016135845031120977 -0.026715142372006659 0 -0.0017426822156877163 -0.026751486113477607 0 -0.0015964960892793701 -0.026430003840115408 0 -0.0010277382647330066 -0.026556829387339324 0 -0.0015230847891729827 -0.026824802896557341 0 -0.0012551881890083547 -0.026336351546751052 0 -0.0015230847891729827 -0.026824802896557341 0 -0.0016135845031120977 -0.026715142372006659 0 -0.0012551881890083547 -0.026336351546751052 0 -0.0016135845031120977 -0.026715142372006659 0 -0.0012551881890083547 -0.026336351546751052 0 -0.0015964960892793701 -0.026430003840115408 0 -0.0012551881890083547 -0.026336351546751052 0 -0.0012985333104536543 -0.025930793341376265 0 -0.0015964960892793701 -0.026430003840115408 0 -0.00094001386911375174 -0.025933044330511849 0 -0.0012551881890083547 -0.026336351546751052 0 -0.0012985333104536543 -0.025930793341376265 0 -0.0012985333104536543 -0.025930793341376265 0 -0.0015754346888914744 -0.026091119716440177 0 -0.001618522455899388 -0.025802939570313977 0 -0.0015754346888914744 -0.026091119716440177 0 -0.0017938643682350395 -0.026182071870635718 0 -0.001618522455899388 -0.025802939570313977 0 -0.0012985333104536543 -0.025930793341376265 0 -0.0015754346888914744 -0.026091119716440177 0 -0.0015964960892793701 -0.026430003840115408 0 -0.0015754346888914744 -0.026091119716440177 0 -0.0015964960892793701 -0.026430003840115408 0 -0.0017938643682350395 -0.026182071870635718 0 -0.0017938643682350395 -0.026182071870635718 0 -0.0021025151781504979 -0.0265828699650748 0 -0.0019036690931185313 -0.026807931343639145 0 -0.0015964960892793701 -0.026430003840115408 0 -0.0017938643682350395 -0.026182071870635718 0 -0.0019036690931185313 -0.026807931343639145 0 -0.0017938643682350395 -0.026182071870635718 0 -0.0022150691883375826 -0.02621361768913727 0 -0.0020743086461959912 -0.025885745921708236 0 -0.0022571260883294678 -0.024585172690010763 0 -0.0015240474856842694 -0.02997136127806754 0 -0.0017938643682350395 -0.026182071870635718 0 -0.0022150691883375826 -0.02621361768913727 0 -0.0021025151781504979 -0.0265828699650748 0 -0.0024460217385550943 -0.029908326734978001 0 -0.0025380923197387967 -0.029236235752014065 0 -0.0025271846958351361 -0.033580057301107517 0 -0.0028814524267350701 -0.031773086173970053 0 -0.002438647971377144 -0.032530436670791821 0 -0.0022150691883375826 -0.02621361768913727 0 -0.0021025151781504979 -0.0265828699650748 0 -0.0024212216376789252 -0.026879492494542766 0 -0.0021025151781504979 -0.0265828699650748 0 -0.0021066142275808137 -0.026940239007418123 0 -0.0019036690931185313 -0.026807931343639145 0 -0.0021025151781504979 -0.0265828699650748 0 -0.0024212216376789252 -0.026879492494542766 0 -0.0021066142275808137 -0.026940239007418123 0 -0.0024212216376789252 -0.026879492494542766 0 -0.0020460577353815937 -0.027451162771617302 0 -0.0021066142275808137 -0.026940239007418123 0 -0.0024212216376789252 -0.026879492494542766 0 -0.0020460577353815937 -0.027451162771617302 0 -0.0021965373382820661 -0.028361349571339435 0 -0.0020460577353815937 -0.027451162771617302 0 -0.0021066142275808137 -0.026940239007418123 0 -0.0019036690931185313 -0.026807931343639145 0 -0.0020460577353815937 -0.027451162771617302 0 -0.0019036690931185313 -0.026807931343639145 0 -0.001849972252736364 -0.027054330649304455 0 -0.0017426822156877163 -0.026751486113477607 0 -0.0019036690931185313 -0.026807931343639145 0 -0.001849972252736364 -0.027054330649304455 0 -0.001881502131730635 -0.027130968942906841 0 -0.0020092367542271523 -0.027343882080899044 0 -0.001849972252736364 -0.027054330649304455 0 -0.0020460577353815937 -0.027451162771617302 0 -0.0020092367542271523 -0.027343882080899044 0 -0.001849972252736364 -0.027054330649304455 0 -0.0020460577353815937 -0.027451162771617302 0 -0.0020092367542271523 -0.027343882080899044 0 -0.002074260413648703 -0.027675011626213882 0 -0.0020460577353815937 -0.027451162771617302 0 -0.002074260413648703 -0.027675011626213882 0 -0.0021965373382820661 -0.028361349571339435 0 -0.002074260413648703 -0.027675011626213882 0 -0.0021965373382820661 -0.028361349571339435 0 -0.0017929638830821415 -0.027701658090171156 0 -0.0010682908471218804 -0.027219460077683014 0 -0.0017929638830821415 -0.027701658090171156 0 -0.001172190570029796 -0.028041110565236151 0 -0.0021965373382820661 -0.028361349571339435 0 -0.0017929638830821415 -0.027701658090171156 0 -0.001172190570029796 -0.028041110565236151 0 -0.0021965373382820661 -0.028361349571339435 0 -0.001172190570029796 -0.028041110565236151 0 -0.00026367237034436233 -0.029319620866881013 0 0.0012378187398265007 -0.027456070759695635 0 -0.00034995313773804782 -0.027988768611407134 0 -0.00026367237034436233 -0.029319620866881013 0 -0.0010682908471218804 -0.027219460077683014 0 -0.001172190570029796 -0.028041110565236151 0 -0.00034995313773804782 -0.027988768611407134 0 -0.001172190570029796 -0.028041110565236151 0 -0.00034995313773804782 -0.027988768611407134 0 -0.00026367237034436233 -0.029319620866881013 0 -0.00026367237034436233 -0.029319620866881013 0 -0.0012605138274277613 -0.031806122646917331 0 0.00019432425397174137 -0.0323736723198478 0 -0.0025380923197387967 -0.029236235752014065 0 -0.0022472335830972263 -0.028383608462731882 0 -0.0028814524267350701 -0.031773086173970053 0 -0.0021965373382820661 -0.028361349571339435 0 -0.0012605138274277613 -0.031806122646917331 0 -0.0021965373382820661 -0.028361349571339435 0 -0.00026367237034436233 -0.029319620866881013 0 -0.0012605138274277613 -0.031806122646917331 0 -0.0028814524267350701 -0.031773086173970053 0 -0.0012605138274277613 -0.031806122646917331 0 -0.002438647971377144 -0.032530436670791821 0 -0.0012605138274277613 -0.031806122646917331 0 -0.002438647971377144 -0.032530436670791821 0 -0.0006472264256199414 -0.033404053214402568 0 -0.0023155579319124415 -0.03265356750196239 0 -0.0008059489875249235 -0.033415813128832669 0 -0.0025271846958351361 -0.033580057301107517 0 -0.002438647971377144 -0.032530436670791821 0 -0.0017262608262648233 -0.033658088284838766 0 -0.002438647971377144 -0.032530436670791821 0 -0.0017262608262648233 -0.033658088284838766 0 -0.00085568812625077476 -0.033421417981110306 0 -0.0017262608262648233 -0.033658088284838766 0 -0.0010506145535960139 -0.034168057498209732 0 -0.001582740250533376 -0.034268333072336954 0 -0.0025271846958351361 -0.033580057301107517 0 -0.0017262608262648233 -0.033658088284838766 0 -0.001582740250533376 -0.034268333072336954 0 -0.0010506145535960139 -0.034168057498209732 0 -0.00085568812625077476 -0.033421417981110306 0 -0.00051195700306279422 -0.034429733817522186 0 -0.0017262608262648233 -0.033658088284838766 0 -0.0010506145535960139 -0.034168057498209732 0 -0.00085568812625077476 -0.033421417981110306 0 -0.0012605138274277613 -0.031806122646917331 0 -0.0006472264256199414 -0.033404053214402568 0 0.00019432425397174137 -0.0323736723198478 0 0.00019432425397174137 -0.0323736723198478 0 0.00079365930551340575 -0.034198247965205153 0 0.0015798040360135211 -0.030483434582930943 0 -0.0006472264256199414 -0.033404053214402568 0 0.00019432425397174137 -0.0323736723198478 0 0.00079365930551340575 -0.034198247965205153 0 0.00084503673783935718 -0.033987103056482761 0 0.0010363599372224569 -0.032698075381695432 0 -0.0008059489875249235 -0.033415813128832669 0 0.0001901729276163522 -0.034306768209480559 0 -0.0006472264256199414 -0.033404053214402568 0 0.00079365930551340575 -0.034198247965205153 0 0.00068292511821493689 -0.034410491818309859 0 -0.00085568812625077476 -0.033421417981110306 0 -0.00022830120480537587 -0.034181096004470619 0 -0.00051195700306279422 -0.034429733817522186 0 -0.00022830120480537587 -0.034181096004470619 0 -0.00051195700306279422 -0.034429733817522186 0 -0.00019503435902704604 -0.034587826182193124 0 -0.00022830120480537587 -0.034181096004470619 0 1.5661621235249938e-07 -0.034998734980670798 0 -0.00019503435902704604 -0.034587826182193124 0 0.0001901729276163522 -0.034306768209480559 0 1.554752750726723e-07 -0.034999680590802613 0 0.00079365930551340575 -0.034198247965205153 0 0.00068292511821493689 -0.034410491818309859 0 7.7626483242543034e-07 -0.034998431903581595 0 0.00079365930551340575 -0.034198247965205153 0 6.0788225401213551e-08 -0.034999629251013992 0 0.00043223564451719661 -0.03497640597676268 0 0.00079365930551340575 -0.034198247965205153 0 7.7626483242543034e-07 -0.034998431903581595 0 6.0788225401213551e-08 -0.034999629251013992 0 6.0788225401213551e-08 -0.034999629251013992 0 0.00043223564451719661 -0.03497640597676268 0 2.9800860949304066e-07 -0.035000632805990868 0 -0.00026367237034436233 -0.029319620866881013 0 0.00019432425397174137 -0.0323736723198478 0 0.0015798040360135211 -0.030483434582930943 0 0.0012378187398265007 -0.027456070759695635 0 -0.00026367237034436233 -0.029319620866881013 0 0.0015798040360135211 -0.030483434582930943 0 -0.00014719216777184433 -0.031410722655194845 0 0.0010363599372224569 -0.032698075381695432 0 0.00036400066212492478 -0.035113421333757028 0 0.00043223564451719661 -0.03497640597676268 0 2.9800860949304066e-07 -0.035000632805990868 0 -0.00014719216777184433 -0.031410722655194845 0 8.0904957007355807e-07 -0.035001696420070429 0 -9.3807833242635973e-05 -0.034955311638663972 0 -0.00041552104365355746 -0.034950692768208232 0 1.4141359536533972e-07 -0.03500008859705242 0 -1.5070451138679005e-07 -0.035000110705890236 0 -0.00028753938494245054 -0.035050458561708117 0 -0.00017551914109449856 -0.035065675091411758 0 -0.00028753938494245054 -0.035050458561708117 0 -0.00052300574145300533 -0.035227593964100495 0 -0.00017551914109449856 -0.035065675091411758 0 -0.00028753938494245054 -0.035050458561708117 0 -0.00035650155140256852 -0.034907671417169689 0 -0.00072996637729447742 -0.035020119976454649 0 -1.5070451138679005e-07 -0.035000110705890236 0 -0.00028753938494245054 -0.035050458561708117 0 -1.1600626115514995e-07 -0.035000019438883492 0 -1.1600626115514995e-07 -0.035000019438883492 0 -0.00020016977879962959 -0.03476115835778288 0 -0.00035650155140256852 -0.034907671417169689 0 1.5661621235249938e-07 -0.034998734980670798 0 -0.00019503435902704604 -0.034587826182193124 0 -0.00020016977879962959 -0.03476115835778288 0 1.5661621235249938e-07 -0.034998734980670798 0 -1.1600626115514995e-07 -0.035000019438883492 0 -0.00020016977879962959 -0.03476115835778288 0 -0.00051195700306279422 -0.034429733817522186 0 -0.00020016977879962959 -0.03476115835778288 0 -0.00076314753019475338 -0.03466726450836629 0 -0.00051195700306279422 -0.034429733817522186 0 -0.00019503435902704604 -0.034587826182193124 0 -0.00020016977879962959 -0.03476115835778288 0 -0.00020016977879962959 -0.03476115835778288 0 -0.00035650155140256852 -0.034907671417169689 0 -0.00076314753019475338 -0.03466726450836629 0 -0.00028753938494245054 -0.035050458561708117 0 -1.1600626115514995e-07 -0.035000019438883492 0 -0.00035650155140256852 -0.034907671417169689 0 -0.00035650155140256852 -0.034907671417169689 0 -0.00076314753019475338 -0.03466726450836629 0 -0.00072996637729447742 -0.035020119976454649 0 -0.00076314753019475338 -0.03466726450836629 0 -0.0013186321227953515 -0.034731541087158604 0 -0.00072996637729447742 -0.035020119976454649 0 -0.0010506145535960139 -0.034168057498209732 0 -0.00076314753019475338 -0.03466726450836629 0 -0.001582740250533376 -0.034268333072336954 0 -0.0010506145535960139 -0.034168057498209732 0 -0.00051195700306279422 -0.034429733817522186 0 -0.00076314753019475338 -0.03466726450836629 0 -0.00076314753019475338 -0.03466726450836629 0 -0.001582740250533376 -0.034268333072336954 0 -0.0013186321227953515 -0.034731541087158604 0 -0.0013186321227953515 -0.034731541087158604 0 -0.001314435225631857 -0.035124177719344292 0 -0.00072996637729447742 -0.035020119976454649 0 -0.001314435225631857 -0.035124177719344292 0 -0.00072996637729447742 -0.035020119976454649 0 -0.00052300574145300533 -0.035227593964100495 0 -0.00028753938494245054 -0.035050458561708117 0 -0.00072996637729447742 -0.035020119976454649 0 -0.00052300574145300533 -0.035227593964100495 0 -0.00015992170972526539 -0.033813336965960644 0 -1.5956985891579886e-05 -0.034450763743462225 0 -0.0002378848350092425 -0.034430538046564901 0 -0.00060375999086977115 -0.03522004964908515 0 -0.00035573908487858635 -0.034628727465280736 0 -0.00015992170972526539 -0.033813336965960644 0 -0.0002378848350092425 -0.034430538046564901 0 -0.00054922459110085702 -0.03432506750861071 0 -0.00013237888602326265 -0.035079580254285439 0 -0.0010860280123161387 -0.029586192988226793 0 -0.00019725787772979276 -0.034289739746935499 0 -0.00033391352547544655 -0.033887823700250994 0 -0.00040925275886468006 -0.034415576136047107 0 -0.0010860280123161387 -0.029586192988226793 0 -0.0010051941810248425 -0.029598329065787098 0 -0.00015992170972526539 -0.033813336965960644 0 -0.00054922459110085702 -0.03432506750861071 0 -0.00077650639057119566 -0.033849467743261245 0 -0.0013186321227953515 -0.034731541087158604 0 -0.001314435225631857 -0.035124177719344292 0 -0.0023487823886771892 -0.034435107867169211 0 -0.00060375999086977115 -0.03522004964908515 0 -0.0015240474856842694 -0.02997136127806754 0 -0.00015992170972526539 -0.033813336965960644 0 -0.00077650639057119566 -0.033849467743261245 0 -0.00055362232284475118 -0.033027434186215412 0 -0.0024460217385550943 -0.029908326734978001 0 -0.0015240474856842694 -0.02997136127806754 0 -0.001582740250533376 -0.034268333072336954 0 -0.0013186321227953515 -0.034731541087158604 0 -0.0023487823886771892 -0.034435107867169211 0 -0.0025271846958351361 -0.033580057301107517 0 -0.001582740250533376 -0.034268333072336954 0 -0.0023487823886771892 -0.034435107867169211 0 -0.0018720345233767216 -0.025800515725727287 0 -0.0017468277970578107 -0.02575800697140046 0 -0.001618522455899388 -0.025802939570313977 0 -0.0017938643682350395 -0.026182071870635718 0 -0.0018720345233767216 -0.025800515725727287 0 -0.001618522455899388 -0.025802939570313977 0 -0.0017537408996280593 -0.025745674583900827 0 -0.0018720345233767216 -0.025800515725727287 0 -0.0017468277970578107 -0.02575800697140046 0 -0.0010860280123161387 -0.029586192988226793 0 -0.0019517039385881648 -0.024831139200011811 0 -0.0010860280123161387 -0.029586192988226793 0 -0.0015240474856842694 -0.02997136127806754 0 -0.0016774834532581242 -0.025397589520465353 0 -0.0013836356639583456 -0.025425475908114194 0 -0.0015037201054365387 -0.025229569707864944 0 -0.0017344151454041104 -0.025188541221123472 0 -0.0016774834532581242 -0.025397589520465353 0 -0.0015037201054365387 -0.025229569707864944 0 -0.0012985333104536543 -0.025930793341376265 0 -0.001618522455899388 -0.025802939570313977 0 -0.0013836356639583456 -0.025425475908114194 0 -0.0019517039385881648 -0.024831139200011811 0 -0.001526593701134933 -0.026068262822355089 0 -0.0016774834532581242 -0.025397589520465353 0 -0.001618522455899388 -0.025802939570313977 0 -0.0013836356639583456 -0.025425475908114194 0 -0.0012985333104536543 -0.025930793341376265 0 -0.0013836356639583456 -0.025425475908114194 0 -0.0011066415540631758 -0.025357976628521562 0 -0.0012046781092631019 -0.02496460847265719 0 -0.0011171798748041196 -0.025341081547175254 0 -0.0013836356639583456 -0.025425475908114194 0 -0.0012241704552140523 -0.025102026000816534 0 -0.0015037201054365387 -0.025229569707864944 0 -0.0013836356639583456 -0.025425475908114194 0 -0.0012241704552140523 -0.025102026000816534 0 -0.0011066415540631758 -0.025357976628521562 0 -0.0012241704552140523 -0.025102026000816534 0 -0.0015037201054365387 -0.025229569707864944 0 -0.001493162972016356 -0.025058865519510792 0 -0.0017344151454041104 -0.025188541221123472 0 -0.0015037201054365387 -0.025229569707864944 0 -0.001493162972016356 -0.025058865519510792 0 -0.001493162972016356 -0.025058865519510792 0 -0.0012507559085002582 -0.024725115909173874 0 -0.0016337306159731563 -0.024833568699631728 0 -0.0017344151454041104 -0.025188541221123472 0 -0.001493162972016356 -0.025058865519510792 0 -0.0016337306159731563 -0.024833568699631728 0 -0.0012241704552140523 -0.025102026000816534 0 -0.001493162972016356 -0.025058865519510792 0 -0.0012507559085002582 -0.024725115909173874 0 -0.0012046781092631019 -0.02496460847265719 0 -0.0012480472825904994 -0.024561516399564633 0 -0.0010051941810248425 -0.029598329065787098 0 -0.00088251242143384334 -0.029439129454457119 0 -0.0012507559085002582 -0.024725115909173874 0 -0.0016337306159731563 -0.024833568699631728 0 -0.0014910491552932272 -0.024310121572868024 0 -0.00027581155002901706 -0.034577554071422469 0 -0.00025874391178033475 -0.034599821556459277 0 -0.00028771805538322243 -0.034563315265671683 0 -0.00040925275886468006 -0.034415576136047107 0 -0.00027581155002901706 -0.034577554071422469 0 -0.00028771805538322243 -0.034563315265671683 0 -0.0012480472825904994 -0.024561516399564633 0 -0.0013021109630692682 -0.024172605188024599 0 -0.0012368788006585304 -0.024415096868251072 0 -0.0013036905540537104 -0.024153303771310874 0 -0.0011240796416861366 -0.02423503763320262 0 -0.0012507559085002582 -0.024725115909173874 0 -0.0014910491552932272 -0.024310121572868024 0 -0.0013036905540537104 -0.024153303771310874 0 -0.0013036905540537104 -0.024153303771310874 0 -0.0011240796416861366 -0.02423503763320262 0 -0.0011183180204183817 -0.023991216336726465 0 -0.0013036905540537104 -0.024153303771310874 0 -0.0012853266284772189 -0.023852644802163377 0 -0.0011183180204183817 -0.023991216336726465 0 -0.0014910491552932272 -0.024310121572868024 0 -0.0013036905540537104 -0.024153303771310874 0 -0.0012853266284772189 -0.023852644802163377 0 -0.0012853266284772189 -0.023852644802163377 0 -0.0011183180204183817 -0.023991216336726465 0 -0.0010877829586791506 -0.023760396507597561 0 -0.00015019056640989053 -0.034516378129351023 0 -0.00019622533536025187 -0.034516917687532747 0 -0.00022389608793681073 -0.03456973758060948 0 -0.00027581155002901706 -0.034577554071422469 0 -0.00022389608793681073 -0.03456973758060948 0 -0.00025874391178033475 -0.034599821556459277 0 -0.00088251242143384334 -0.029439129454457119 0 -0.00071966066946258205 -0.029186639032651653 0 -0.00027581155002901706 -0.034577554071422469 0 -0.00015019056640989053 -0.034516378129351023 0 -0.00022389608793681073 -0.03456973758060948 0 -0.00025874391178033475 -0.034599821556459277 0 -0.0002337570697312151 -0.034595260008137341 0 -0.00024571608593008964 -0.034649509133183709 0 -0.00022389608793681073 -0.03456973758060948 0 -0.00025874391178033475 -0.034599821556459277 0 -0.0002337570697312151 -0.034595260008137341 0 -0.00019622533536025187 -0.034516917687532747 0 -0.00022389608793681073 -0.03456973758060948 0 -0.0002337570697312151 -0.034595260008137341 0 -0.00022450141420061892 -0.03456061874257247 0 -0.00019622533536025187 -0.034516917687532747 0 -0.0002337570697312151 -0.034595260008137341 0 -0.00022450141420061892 -0.03456061874257247 0 -0.0002337570697312151 -0.034595260008137341 0 -0.00021364591807259561 -0.034620757759481265 0 -0.0002337570697312151 -0.034595260008137341 0 -0.00024571608593008964 -0.034649509133183709 0 -0.00018363533527273514 -0.034781098605743452 0 -0.00022334218210459539 -0.034611251433219928 0 -0.00019381696107229572 -0.034701201232707757 0 -0.00024571608593008964 -0.034649509133183709 0 -0.00027014568285911562 -0.03458667175376319 0 -0.00018581362312365858 -0.034691707681912071 0 -0.00024571608593008964 -0.034649509133183709 0 -0.00018581362312365858 -0.034691707681912071 0 -0.00018363533527273514 -0.034781098605743452 0 -0.00025874391178033475 -0.034599821556459277 0 -0.00024571608593008964 -0.034649509133183709 0 -0.00028771805538322243 -0.034563315265671683 0 -0.00024571608593008964 -0.034649509133183709 0 -0.00028771805538322243 -0.034563315265671683 0 -0.00027014568285911562 -0.03458667175376319 0 -0.00040925275886468006 -0.034415576136047107 0 -0.00028771805538322243 -0.034563315265671683 0 -0.00028891019169592397 -0.034482041857049561 0 -0.00019725787772979276 -0.034289739746935499 0 -0.00028891019169592397 -0.034482041857049561 0 -0.00027014568285911562 -0.03458667175376319 0 -0.00028771805538322243 -0.034563315265671683 0 -0.00028891019169592397 -0.034482041857049561 0 -0.00027014568285911562 -0.03458667175376319 0 -0.00019725787772979276 -0.034289739746935499 0 -0.00040925275886468006 -0.034415576136047107 0 -0.00028891019169592397 -0.034482041857049561 0 -0.0002378848350092425 -0.034430538046564901 0 -0.00027014568285911562 -0.03458667175376319 0 -0.00018581362312365858 -0.034691707681912071 0 -0.0002378848350092425 -0.034430538046564901 0 -0.00054922459110085702 -0.03432506750861071 0 -0.00027014568285911562 -0.03458667175376319 0 -0.00013237888602326265 -0.035079580254285439 0 -0.00038889459997144078 -0.034255137316511142 0 -1.5956985891579886e-05 -0.034450763743462225 0 -0.0002378848350092425 -0.034430538046564901 0 -0.00018581362312365858 -0.034691707681912071 0 -0.00035573908487858635 -0.034628727465280736 0 -0.00011330914545959009 -0.034963187067061384 0 -0.00052300574145300533 -0.035227593964100495 0 -0.00011472679845088061 -0.034915355465034811 0 -0.00017551914109449856 -0.035065675091411758 0 -1.5956985891579886e-05 -0.034450763743462225 0 -0.00011472679845088061 -0.034915355465034811 0 -0.00018581362312365858 -0.034691707681912071 0 -0.00011472679845088061 -0.034915355465034811 0 -0.00018581362312365858 -0.034691707681912071 0 -0.00018363533527273514 -0.034781098605743452 0 -0.00022450141420061892 -0.03456061874257247 0 -0.00021364591807259561 -0.034620757759481265 0 -0.00020291031030773152 -0.034659651016005988 0 -0.00021364591807259561 -0.034620757759481265 0 -0.00020291031030773152 -0.034659651016005988 0 -0.00020801400559894984 -0.034750949034504111 0 -0.00020291031030773152 -0.034659651016005988 0 -0.00020801400559894984 -0.034750949034504111 0 -0.00019391921175186886 -0.034788804281159207 0 -0.00019381696107229572 -0.034701201232707757 0 -0.00016442210183763379 -0.034846456893487456 0 -0.00011472679845088061 -0.034915355465034811 0 -0.00018363533527273514 -0.034781098605743452 0 -0.00011420834009134205 -0.03493874600370403 0 -0.00020801400559894984 -0.034750949034504111 0 -0.00019391921175186886 -0.034788804281159207 0 -2.243307969302834e-08 -0.034999598848600169 0 -0.00011472679845088061 -0.034915355465034811 0 -0.00011420834009134205 -0.03493874600370403 0 -7.9762948905691557e-05 -0.034968588457796296 0 -5.9051358819575372e-05 -0.035023456112876453 0 -0.00019391921175186886 -0.034788804281159207 0 -5.4135894709208294e-05 -0.034944142457902096 0 -0.00015687345078898638 -0.034779741172494424 0 -0.00019049258285125663 -0.034781347902271255 0 -0.00026145975302282884 -0.034544132301988502 0 -0.00020291031030773152 -0.034659651016005988 0 -0.00019391921175186886 -0.034788804281159207 0 -4.3866853139910349e-08 -0.035000023210573716 0 -5.4135894709208294e-05 -0.034944142457902096 0 -2.243307969302834e-08 -0.034999598848600169 0 -0.00019391921175186886 -0.034788804281159207 0 -5.4135894709208294e-05 -0.034944142457902096 0 -2.243307969302834e-08 -0.034999598848600169 0 -0.00011420834009134205 -0.03493874600370403 0 -7.407594832442441e-08 -0.034999986773617577 0 -7.9762948905691557e-05 -0.034968588457796296 0 -0.00016442210183763379 -0.034846456893487456 0 -7.2602071417253006e-08 -0.03499994551352488 0 -7.407594832442441e-08 -0.034999986773617577 0 -7.9762948905691557e-05 -0.034968588457796296 0 -1.2059404577206114e-07 -0.035000048160188556 0 -7.9762948905691557e-05 -0.034968588457796296 0 -0.00017551914109449856 -0.035065675091411758 0 -1.2059404577206114e-07 -0.035000048160188556 0 -0.00011472679845088061 -0.034915355465034811 0 -7.9762948905691557e-05 -0.034968588457796296 0 -0.00017551914109449856 -0.035065675091411758 0 -1.5070451138679005e-07 -0.035000110705890236 0 -0.00017551914109449856 -0.035065675091411758 0 -1.2059404577206114e-07 -0.035000048160188556 0 6.4981658080986182e-05 -0.02488730510448869 0 -0.0002044302085706465 -0.024650251791007306 0 4.6618932035262567e-05 -0.024289225458672927 0 8.0863952761158774e-05 -0.024387868706108953 0 5.4752656434435672e-05 -0.024310370028570418 0 -0.0002044302085706465 -0.024650251791007306 0 -0.00016645169480214241 -0.025041282524357014 0 -0.00036953343087582126 -0.025017303639505783 0 6.4981658080986182e-05 -0.02488730510448869 0 -0.0002044302085706465 -0.024650251791007306 0 -0.00016645169480214241 -0.025041282524357014 0 -0.0002044302085706465 -0.024650251791007306 0 -0.00034298179567305442 -0.024371988246802114 0 -0.00014261668556799696 -0.024293899982944386 0 -0.0002044302085706465 -0.024650251791007306 0 4.6618932035262567e-05 -0.024289225458672927 0 -0.00014261668556799696 -0.024293899982944386 0 4.6618932035262567e-05 -0.024289225458672927 0 -6.1490710931472935e-05 -0.024079841179569347 0 2.5382498028143358e-05 -0.024210429015033678 0 -4.2227365349010709e-05 -0.024179014783452371 0 -6.1490710931472935e-05 -0.024079841179569347 0 2.5382498028143358e-05 -0.024210429015033678 0 -4.2227365349010709e-05 -0.024179014783452371 0 -6.1490710931472935e-05 -0.024079841179569347 0 -0.00022006393006912246 -0.02378683570121284 0 0.00026403821250617132 -0.020396226343084405 0 0.00013523346498907777 -0.020608053765727857 0 0.00031888724205150515 -0.020486377373223411 0 0.00010724596710067239 -0.022287150977638549 0 -2.7575741162410761e-05 -0.022182857449604351 0 0.00011979379354997424 -0.023888252979181034 0 4.6618932035262567e-05 -0.024289225458672927 0 -6.1490710931472935e-05 -0.024079841179569347 0 0.00011979379354997424 -0.023888252979181034 0 -6.1490710931472935e-05 -0.024079841179569347 0 -0.00022006393006912246 -0.02378683570121284 0 0.00011979379354997424 -0.023888252979181034 0 -0.00022006393006912246 -0.02378683570121284 0 -4.3447495135066837e-05 -0.023517091987096478 0 0.00013523346498907777 -0.020608053765727857 0 0.00031888724205150515 -0.020486377373223411 0 0.00032498689547474458 -0.020887551806675567 0 0.00038969410720832094 -0.021194393862102041 0 0.00032498689547474458 -0.020887551806675567 0 0.00052698147258981064 -0.021094981002392269 0 0.00013523346498907777 -0.020608053765727857 0 0.00032498689547474458 -0.020887551806675567 0 0.00022852029561305293 -0.021091148736439871 0 0.00038969410720832094 -0.021194393862102041 0 0.00032498689547474458 -0.020887551806675567 0 0.00022852029561305293 -0.021091148736439871 0 -8.5140253930844764e-05 -0.022189529104853199 0 -2.7575741162410761e-05 -0.022182857449604351 0 -0.00019893574168343653 -0.023132919456269285 0 -0.00022006393006912246 -0.02378683570121284 0 -4.3447495135066837e-05 -0.023517091987096478 0 -1.4487451473330484e-05 -0.02125187099874918 0 0.00013523346498907777 -0.020608053765727857 0 0.00022852029561305293 -0.021091148736439871 0 -0.00019893574168343653 -0.023132919456269285 0 -4.3447495135066837e-05 -0.023517091987096478 0 0.00013979181045145633 -0.023241634703400817 0 8.0863952761158774e-05 -0.024387868706108953 0 8.6523168895683573e-06 -0.024312589007151674 0 0.00011979379354997424 -0.023888252979181034 0 -4.3447495135066837e-05 -0.023517091987096478 0 0.00013979181045145633 -0.023241634703400817 0 6.4981658080986182e-05 -0.02488730510448869 0 -0.00016645169480214241 -0.025041282524357014 0 -7.2867118474466625e-05 -0.025366397238294865 0 -0.00026471076000173557 -0.02549111886435947 0 -7.2867118474466625e-05 -0.025366397238294865 0 -0.00024496621732457207 -0.025249711289326782 0 -0.00016645169480214241 -0.025041282524357014 0 -7.2867118474466625e-05 -0.025366397238294865 0 -0.00024496621732457207 -0.025249711289326782 0 -0.00026471076000173557 -0.02549111886435947 0 -0.00024496621732457207 -0.025249711289326782 0 -0.00039980515267228387 -0.025289454976566053 0 -0.0004662471303210822 -0.025476004662147722 0 -0.00039980515267228387 -0.025289454976566053 0 -0.00060162951329495841 -0.025163150108562141 0 -0.0004662471303210822 -0.025476004662147722 0 -0.00026471076000173557 -0.02549111886435947 0 -0.00039980515267228387 -0.025289454976566053 0 -0.00060162951329495841 -0.025163150108562141 0 -0.00036953343087582126 -0.025017303639505783 0 -0.00048698975546708332 -0.024736638577184202 0 -0.00039980515267228387 -0.025289454976566053 0 -0.00060162951329495841 -0.025163150108562141 0 -0.00036953343087582126 -0.025017303639505783 0 -0.00016645169480214241 -0.025041282524357014 0 -0.00024496621732457207 -0.025249711289326782 0 -0.00036953343087582126 -0.025017303639505783 0 -0.00024496621732457207 -0.025249711289326782 0 -0.00039980515267228387 -0.025289454976566053 0 -0.00036953343087582126 -0.025017303639505783 0 -0.00085680396799686404 -0.025644166906873097 0 -0.0011066415540631758 -0.025357976628521562 0 -0.00075744531470878988 -0.025407918184553072 0 -0.00060162951329495841 -0.025163150108562141 0 -0.0011066415540631758 -0.025357976628521562 0 -0.00075744531470878988 -0.025407918184553072 0 -0.0004662471303210822 -0.025476004662147722 0 -0.00060162951329495841 -0.025163150108562141 0 -0.00075744531470878988 -0.025407918184553072 0 -0.00060162951329495841 -0.025163150108562141 0 -0.0011066415540631758 -0.025357976628521562 0 -0.00077617655722493227 -0.02482292531488673 0 -0.0012026043490908631 -0.024812417301569592 0 -0.0011066415540631758 -0.025357976628521562 0 -0.00077617655722493227 -0.02482292531488673 0 -0.00077617655722493227 -0.02482292531488673 0 -0.00056583628049870554 -0.024451416858727509 0 -0.00093744429619960147 -0.024433870046551356 0 -0.0012026043490908631 -0.024812417301569592 0 -0.0012368788006585304 -0.024415096868251072 0 -0.00093744429619960147 -0.024433870046551356 0 -0.0012026043490908631 -0.024812417301569592 0 -0.00077617655722493227 -0.02482292531488673 0 -0.00093744429619960147 -0.024433870046551356 0 -0.0002044302085706465 -0.024650251791007306 0 -0.00036953343087582126 -0.025017303639505783 0 -0.00048698975546708332 -0.024736638577184202 0 -0.00060162951329495841 -0.025163150108562141 0 -0.00077617655722493227 -0.02482292531488673 0 -0.00048698975546708332 -0.024736638577184202 0 -0.00077617655722493227 -0.02482292531488673 0 -0.00048698975546708332 -0.024736638577184202 0 -0.00056583628049870554 -0.024451416858727509 0 -0.0002044302085706465 -0.024650251791007306 0 -0.00048698975546708332 -0.024736638577184202 0 -0.00034298179567305442 -0.024371988246802114 0 -0.00048698975546708332 -0.024736638577184202 0 -0.00034298179567305442 -0.024371988246802114 0 -0.00056583628049870554 -0.024451416858727509 0 -0.00034298179567305442 -0.024371988246802114 0 -0.00056583628049870554 -0.024451416858727509 0 -0.00050929113564620947 -0.024150472398951763 0 -0.00056583628049870554 -0.024451416858727509 0 -0.00050929113564620947 -0.024150472398951763 0 -0.00072547008278159308 -0.024246226416302533 0 -0.00050929113564620947 -0.024150472398951763 0 -0.00072547008278159308 -0.024246226416302533 0 -0.00073093784074087554 -0.024030202929768867 0 -0.00050929113564620947 -0.024150472398951763 0 -0.00039158749779216013 -0.023988600181343217 0 -0.00024947376953885365 -0.024135878328551824 0 -0.00034298179567305442 -0.024371988246802114 0 -0.00050929113564620947 -0.024150472398951763 0 -0.00024947376953885365 -0.024135878328551824 0 -0.0012368788006585304 -0.024415096868251072 0 -0.00093744429619960147 -0.024433870046551356 0 -0.0011240796416861366 -0.02423503763320262 0 -0.00056583628049870554 -0.024451416858727509 0 -0.00093744429619960147 -0.024433870046551356 0 -0.00072547008278159308 -0.024246226416302533 0 -0.00072547008278159308 -0.024246226416302533 0 -0.00092767874013913035 -0.024136641445581787 0 -0.00073093784074087554 -0.024030202929768867 0 -0.00093744429619960147 -0.024433870046551356 0 -0.00072547008278159308 -0.024246226416302533 0 -0.00092767874013913035 -0.024136641445581787 0 -0.00093744429619960147 -0.024433870046551356 0 -0.0011240796416861366 -0.02423503763320262 0 -0.00092767874013913035 -0.024136641445581787 0 -0.00092767874013913035 -0.024136641445581787 0 -0.0011183180204183817 -0.023991216336726465 0 -0.00095073150292330317 -0.023784169025849389 0 -0.0011240796416861366 -0.02423503763320262 0 -0.00092767874013913035 -0.024136641445581787 0 -0.0011183180204183817 -0.023991216336726465 0 -0.00092767874013913035 -0.024136641445581787 0 -0.00073093784074087554 -0.024030202929768867 0 -0.00095073150292330317 -0.023784169025849389 0 -0.00073093784074087554 -0.024030202929768867 0 -0.00095073150292330317 -0.023784169025849389 0 -0.00062900424127229962 -0.023816501650510417 0 -0.00090458130127484969 -0.023613039797189869 0 -0.00095073150292330317 -0.023784169025849389 0 -0.00078331357425323253 -0.023670487278910735 0 -0.0009385301173197593 -0.023769858781538079 0 -0.00071774858049739466 -0.023745448886816289 0 -0.00090458130127484969 -0.023613039797189869 0 -0.00095073150292330317 -0.023784169025849389 0 -0.0010877829586791506 -0.023760396507597561 0 -0.0011183180204183817 -0.023991216336726465 0 -0.00095073150292330317 -0.023784169025849389 0 -0.0010877829586791506 -0.023760396507597561 0 -0.00039158749779216013 -0.023988600181343217 0 -0.00062900424127229962 -0.023816501650510417 0 -0.00035177044369793956 -0.023848618154352123 0 -0.00050929113564620947 -0.024150472398951763 0 -0.00039158749779216013 -0.023988600181343217 0 -0.00062900424127229962 -0.023816501650510417 0 -0.00050929113564620947 -0.024150472398951763 0 -0.00073093784074087554 -0.024030202929768867 0 -0.00062900424127229962 -0.023816501650510417 0 -0.00077666713838989436 -0.023551982562686393 0 -0.00078331357425323253 -0.023670487278910735 0 -0.00070269344869745745 -0.023557342805890075 0 -0.00078331357425323253 -0.023670487278910735 0 -0.00070269344869745745 -0.023557342805890075 0 -0.00066006054403184905 -0.023592857341947798 0 -0.00070269344869745745 -0.023557342805890075 0 -0.00066006054403184905 -0.023592857341947798 0 -0.00060453146810376978 -0.023487111855273919 0 -0.00071774858049739466 -0.023745448886816289 0 -0.00050837011907478515 -0.023726716076404378 0 -0.00066006054403184905 -0.023592857341947798 0 -0.00060453146810376978 -0.023487111855273919 0 -0.00050672096704288663 -0.023613714423806633 0 -0.00050837011907478515 -0.023726716076404378 0 -0.00027781814606344215 -0.023758904399668612 0 -0.00066006054403184905 -0.023592857341947798 0 -0.00050672096704288663 -0.023613714423806633 0 -0.00043621484597404308 -0.023645519233715152 0 -0.00060453146810376978 -0.023487111855273919 0 -0.00050672096704288663 -0.023613714423806633 0 -0.00050858754432433985 -0.023457995680899305 0 -0.00055993996599885813 -0.023386485210757466 0 -0.00060453146810376978 -0.023487111855273919 0 -0.00050858754432433985 -0.023457995680899305 0 -0.00055993996599885813 -0.023386485210757466 0 -0.00050858754432433985 -0.023457995680899305 0 -0.00035120715422653576 -0.023297785370953204 0 -0.00050809776147452905 -0.023596182449721479 0 -0.00028454732689420356 -0.023366182163366018 0 -0.00050672096704288663 -0.023613714423806633 0 -0.00050858754432433985 -0.023457995680899305 0 -0.00035120715422653576 -0.023297785370953204 0 -0.00050672096704288663 -0.023613714423806633 0 -0.00043621484597404308 -0.023645519233715152 0 -0.00020118954551924997 -0.023426417659742984 0 -0.00014282957341473719 -0.023872877438236448 0 -0.00013377767569834818 -0.023978179271571014 0 -2.4563966769648201e-05 -0.023792794950255058 0 -0.00014282957341473719 -0.023872877438236448 0 -0.00013377767569834818 -0.023978179271571014 0 -0.0002498128871507053 -0.023974016769858712 0 -0.00035177044369793956 -0.023848618154352123 0 -0.00014282957341473719 -0.023872877438236448 0 -0.0002498128871507053 -0.023974016769858712 0 -0.00039158749779216013 -0.023988600181343217 0 -0.00035177044369793956 -0.023848618154352123 0 -0.0002498128871507053 -0.023974016769858712 0 -0.00013377767569834818 -0.023978179271571014 0 -0.0002498128871507053 -0.023974016769858712 0 -0.00024947376953885365 -0.024135878328551824 0 -0.00039158749779216013 -0.023988600181343217 0 -0.0002498128871507053 -0.023974016769858712 0 -0.00024947376953885365 -0.024135878328551824 0 -0.00013377767569834818 -0.023978179271571014 0 -0.00024947376953885365 -0.024135878328551824 0 -4.3125133012296589e-05 -0.024129906101894427 0 -0.00024947376953885365 -0.024135878328551824 0 -0.00014261668556799696 -0.024293899982944386 0 -4.3125133012296589e-05 -0.024129906101894427 0 4.6618932035262567e-05 -0.024289225458672927 0 -0.00014261668556799696 -0.024293899982944386 0 -4.3125133012296589e-05 -0.024129906101894427 0 -0.00034298179567305442 -0.024371988246802114 0 -0.00024947376953885365 -0.024135878328551824 0 -0.00014261668556799696 -0.024293899982944386 0 2.5382498028143358e-05 -0.024210429015033678 0 7.5372842771283122e-05 -0.024044351337077319 0 0.0002621088614722626 -0.024134695861603439 0 -4.2227365349010709e-05 -0.024179014783452371 0 2.5382498028143358e-05 -0.024210429015033678 0 0.0002621088614722626 -0.024134695861603439 0 2.5382498028143358e-05 -0.024210429015033678 0 -4.3125133012296589e-05 -0.024129906101894427 0 7.5372842771283122e-05 -0.024044351337077319 0 4.6618932035262567e-05 -0.024289225458672927 0 2.5382498028143358e-05 -0.024210429015033678 0 -4.3125133012296589e-05 -0.024129906101894427 0 -4.3125133012296589e-05 -0.024129906101894427 0 7.5372842771283122e-05 -0.024044351337077319 0 -2.4563966769648201e-05 -0.023792794950255058 0 -0.00013377767569834818 -0.023978179271571014 0 -4.3125133012296589e-05 -0.024129906101894427 0 -2.4563966769648201e-05 -0.023792794950255058 0 -2.4563966769648201e-05 -0.023792794950255058 0 0.00026470265271145407 -0.023660502077573059 0 0.00023291042171926275 -0.02390333615472507 0 7.5372842771283122e-05 -0.024044351337077319 0 -2.4563966769648201e-05 -0.023792794950255058 0 0.00023291042171926275 -0.02390333615472507 0 -0.00027781814606344215 -0.023758904399668612 0 -3.2084883746050088e-05 -0.023791827566460484 0 -0.00043621484597404308 -0.023645519233715152 0 -2.4563966769648201e-05 -0.023792794950255058 0 -0.00020118954551924997 -0.023426417659742984 0 -2.4563966769648201e-05 -0.023792794950255058 0 -0.00020118954551924997 -0.023426417659742984 0 9.1181791599380399e-05 -0.023499926129485729 0 -2.4563966769648201e-05 -0.023792794950255058 0 9.1181791599380399e-05 -0.023499926129485729 0 0.00026470265271145407 -0.023660502077573059 0 9.1181791599380399e-05 -0.023499926129485729 0 0.00028697758005607067 -0.023397916190438146 0 0.00026470265271145407 -0.023660502077573059 0 0.00026470265271145407 -0.023660502077573059 0 0.00047001883172939868 -0.023468655294243055 0 0.00059074723594485 -0.023772425926196279 0 0.00028697758005607067 -0.023397916190438146 0 0.00026470265271145407 -0.023660502077573059 0 0.00047001883172939868 -0.023468655294243055 0 0.00066921117390452887 -0.023320685026613525 0 0.00047001883172939868 -0.023468655294243055 0 0.00059074723594485 -0.023772425926196279 0 0.00061052544242996853 -0.02120476362823601 0 0.00022430419211594017 -0.022525406099163314 0 0.00066921117390452887 -0.023320685026613525 0 0.00090547828899885515 -0.023266766253849193 0 0.00059074723594485 -0.023772425926196279 0 -7.2289860553006404e-06 -0.020864648820043605 0 -0.00014444923625133314 -0.020837919496787673 0 -8.6535493751087499e-05 -0.020729204841243191 0 0.00026470265271145407 -0.023660502077573059 0 0.00059074723594485 -0.023772425926196279 0 0.00023291042171926275 -0.02390333615472507 0 0.00067839829803856961 -0.018132184026952356 0 0.0012704686581400558 -0.017872237497956599 0 0.00087441946706207281 -0.017280027358182584 0 0.0011367222315470664 -0.018448542446413665 0 0.00067839829803856961 -0.018132184026952356 0 0.0012704686581400558 -0.017872237497956599 0 -0.00011591682254591782 -0.021069743083615051 0 -7.2289860553006404e-06 -0.020864648820043605 0 -0.00019906822054740645 -0.020947142275733608 0 0.00061052544242996853 -0.02120476362823601 0 0.00064638212272142225 -0.01959636275847193 0 -0.00014444923625133314 -0.020837919496787673 0 -0.00028607488403654084 -0.020811388699957988 0 -8.6535493751087499e-05 -0.020729204841243191 0 -0.00019906822054740645 -0.020947142275733608 0 -0.00014444923625133314 -0.020837919496787673 0 -0.00028607488403654084 -0.020811388699957988 0 -0.0013259141961990165 -0.017183606097735175 0 -1.2893487618398547e-05 -0.02168214846797617 0 -7.2289860553006404e-06 -0.020864648820043605 0 -0.00019906822054740645 -0.020947142275733608 0 -0.00014444923625133314 -0.020837919496787673 0 0.00064638212272142225 -0.01959636275847193 0 -0.0013259141961990165 -0.017183606097735175 0 -0.00033631753504436541 -0.020691489762253254 0 -0.00028334256152132126 -0.020535245322421427 0 -0.00058458873371477929 -0.0206346031162262 0 -0.0004034560236263151 -0.020863660788250894 0 -0.00033631753504436541 -0.020691489762253254 0 -0.00058458873371477929 -0.0206346031162262 0 -0.0013259141961990165 -0.017183606097735175 0 -0.0038338168603334294 -0.016023436618242026 0 -0.0004034560236263151 -0.020863660788250894 0 -0.00033631753504436541 -0.020691489762253254 0 -8.6535493751087499e-05 -0.020729204841243191 0 -0.00033631753504436541 -0.020691489762253254 0 -0.00028334256152132126 -0.020535245322421427 0 -8.6535493751087499e-05 -0.020729204841243191 0 -0.00028334256152132126 -0.020535245322421427 0 -8.6535493751087499e-05 -0.020729204841243191 0 -3.5141728332856944e-05 -0.020534375531820102 0 -0.00028334256152132126 -0.020535245322421427 0 -3.5141728332856944e-05 -0.020534375531820102 0 -0.00011907283249290785 -0.02034277873804349 0 -0.00028334256152132126 -0.020535245322421427 0 -0.00045133769748703699 -0.0203231343104548 0 -0.00058458873371477929 -0.0206346031162262 0 7.5372842771283122e-05 -0.024044351337077319 0 0.00023291042171926275 -0.02390333615472507 0 0.0002621088614722626 -0.024134695861603439 0 0.00059074723594485 -0.023772425926196279 0 0.00023291042171926275 -0.02390333615472507 0 0.0002621088614722626 -0.024134695861603439 0 -7.2289860553006404e-06 -0.020864648820043605 0 -8.6535493751087499e-05 -0.020729204841243191 0 0.0001465148425870625 -0.020623004883494497 0 0.00022430419211594017 -0.022525406099163314 0 0.00022405813680405326 -0.022318660624702773 0 -8.6535493751087499e-05 -0.020729204841243191 0 -3.5141728332856944e-05 -0.020534375531820102 0 0.0001465148425870625 -0.020623004883494497 0 -3.5141728332856944e-05 -0.020534375531820102 0 0.0001465148425870625 -0.020623004883494497 0 9.4038699995131408e-05 -0.020441535617289067 0 0.00010724596710067239 -0.022287150977638549 0 0.00022405813680405326 -0.022318660624702773 0 0.00026403821250617132 -0.020396226343084405 0 0.0001465148425870625 -0.020623004883494497 0 9.4038699995131408e-05 -0.020441535617289067 0 0.00026403821250617132 -0.020396226343084405 0 0.00014441532012072117 -0.020340137091410932 0 9.4038699995131408e-05 -0.020441535617289067 0 0.00026403821250617132 -0.020396226343084405 0 0.00031888724205150515 -0.020486377373223411 0 0.00014441532012072117 -0.020340137091410932 0 0.00014441532012072117 -0.020340137091410932 0 -0.00011907283249290785 -0.02034277873804349 0 -7.6510344083378297e-05 -0.02016308894232029 0 -3.5141728332856944e-05 -0.020534375531820102 0 9.4038699995131408e-05 -0.020441535617289067 0 -0.00011907283249290785 -0.02034277873804349 0 0.00014441532012072117 -0.020340137091410932 0 9.4038699995131408e-05 -0.020441535617289067 0 -0.00011907283249290785 -0.02034277873804349 0 -0.00028334256152132126 -0.020535245322421427 0 -0.00011907283249290785 -0.02034277873804349 0 -0.00045133769748703699 -0.0203231343104548 0 -0.00045133769748703699 -0.0203231343104548 0 -0.00036626755533008827 -0.019997505803293021 0 -0.00064186081668650451 -0.020032722934330126 0 -0.00011907283249290785 -0.02034277873804349 0 -0.00045133769748703699 -0.0203231343104548 0 -0.00036626755533008827 -0.019997505803293021 0 -0.00011907283249290785 -0.02034277873804349 0 -7.6510344083378297e-05 -0.02016308894232029 0 -0.00036626755533008827 -0.019997505803293021 0 -0.00036626755533008827 -0.019997505803293021 0 -0.00033393499256553885 -0.019642843530262862 0 4.1921724795386321e-05 -0.019950803771727192 0 -7.6510344083378297e-05 -0.02016308894232029 0 -0.00036626755533008827 -0.019997505803293021 0 4.1921724795386321e-05 -0.019950803771727192 0 -0.00036626755533008827 -0.019997505803293021 0 -0.00033393499256553885 -0.019642843530262862 0 -0.0006426396407814641 -0.019690171252778818 0 0.00059916401550819945 -0.021088547658486747 0 0.0006473900878979802 -0.020929172451331628 0 0.00060086935326570355 -0.021107210899351202 0 0.00012805561533985139 -0.020362099752551804 0 0.00031678273477899334 -0.020435385799263458 0 0.00052698147258981064 -0.021094981002392269 0 0.0006473900878979802 -0.020929172451331628 0 0.00060086935326570355 -0.021107210899351202 0 0.00031888724205150515 -0.020486377373223411 0 0.00032498689547474458 -0.020887551806675567 0 0.00052698147258981064 -0.021094981002392269 0 0.00031888724205150515 -0.020486377373223411 0 0.00014441532012072117 -0.020340137091410932 0 4.1921724795386321e-05 -0.019950803771727192 0 0.00031888724205150515 -0.020486377373223411 0 0.00052698147258981064 -0.021094981002392269 0 0.0006473900878979802 -0.020929172451331628 0 0.00029805079152042571 -0.020464411972205838 0 0.00031678273477899334 -0.020435385799263458 0 0.00014441532012072117 -0.020340137091410932 0 -7.6510344083378297e-05 -0.02016308894232029 0 4.1921724795386321e-05 -0.019950803771727192 0 -0.00084319404009196622 -0.019602317286162404 0 -0.00077723778440174989 -0.01964022585450894 0 -0.0007760135607705514 -0.019817361207013301 0 -0.0017998154718644245 -0.018700317355500339 0 -0.00071429020560192927 -0.019902792949564853 0 -0.00084319404009196622 -0.019602317286162404 0 -0.00079215768473759262 -0.019472030411388161 0 -0.00077723778440174989 -0.01964022585450894 0 -0.0017998154718644245 -0.018700317355500339 0 -0.0014509269978347826 -0.018463052160649741 0 -0.003698566797159302 -0.016984608387203431 0 -0.0023617049537397136 -0.016969946210616312 0 -0.0028529765135956657 -0.016101512848516304 0 -0.003698566797159302 -0.016984608387203431 0 -0.0023617049537397136 -0.016969946210616312 0 -0.0021575749735983692 -0.017930902162388233 0 -0.00094446563802852424 -0.019042551331642496 0 -0.00074311385087871059 -0.019338027261181456 0 -0.00057102035474184722 -0.019200597774645143 0 -0.0023617049537397136 -0.016969946210616312 0 -0.0028529765135956657 -0.016101512848516304 0 -0.0018487934525086365 -0.016365547244120076 0 -0.0017998154718644245 -0.018700317355500339 0 -0.00060943123350867205 -0.019647197840318362 0 -0.00074311385087871059 -0.019338027261181456 0 -0.00057102035474184722 -0.019200597774645143 0 -0.000566648546654289 -0.019266772090343033 0 -0.00074311385087871059 -0.019338027261181456 0 -0.00079215768473759262 -0.019472030411388161 0 -0.00072999203360755082 -0.019448529219998983 0 -0.00074311385087871059 -0.019338027261181456 0 -0.000566648546654289 -0.019266772090343033 0 -0.00072999203360755082 -0.019448529219998983 0 -0.00079215768473759262 -0.019472030411388161 0 -0.00080078293978203539 -0.01952843067572993 0 -0.00072999203360755082 -0.019448529219998983 0 -0.00079215768473759262 -0.019472030411388161 0 -0.00080078293978203539 -0.01952843067572993 0 -0.00077723778440174989 -0.01964022585450894 0 -0.00084319404009196622 -0.019602317286162404 0 -0.00074311385087871059 -0.019338027261181456 0 -0.00079215768473759262 -0.019472030411388161 0 -0.00080078293978203539 -0.01952843067572993 0 -0.0006426396407814641 -0.019690171252778818 0 -0.00077723778440174989 -0.01964022585450894 0 -0.00080078293978203539 -0.01952843067572993 0 -0.0006426396407814641 -0.019690171252778818 0 -0.00069715063589251541 -0.019503490111675358 0 -0.00033393499256553885 -0.019642843530262862 0 -0.0006426396407814641 -0.019690171252778818 0 -0.00069715063589251541 -0.019503490111675358 0 -0.00036626755533008827 -0.019997505803293021 0 -0.0006426396407814641 -0.019690171252778818 0 -0.00066818233213945734 -0.019836808135055162 0 -0.0006426396407814641 -0.019690171252778818 0 -0.00066818233213945734 -0.019836808135055162 0 -0.00077723778440174989 -0.01964022585450894 0 -0.00066818233213945734 -0.019836808135055162 0 -0.00077723778440174989 -0.01964022585450894 0 -0.0007760135607705514 -0.019817361207013301 0 -0.00071429020560192927 -0.019902792949564853 0 -0.00071459753367573129 -0.019962515164392125 0 -0.0010007162604577676 -0.019783272681339149 0 -0.001083456890954492 -0.020041588264905125 0 -0.00064186081668650451 -0.020032722934330126 0 -0.00066818233213945734 -0.019836808135055162 0 -0.0007760135607705514 -0.019817361207013301 0 -0.00064186081668650451 -0.020032722934330126 0 -0.00036626755533008827 -0.019997505803293021 0 -0.00066818233213945734 -0.019836808135055162 0 -0.00064186081668650451 -0.020032722934330126 0 -0.00045133769748703699 -0.0203231343104548 0 -0.00064186081668650451 -0.020032722934330126 0 -0.00079440548082787869 -0.020389419986828358 0 -0.0046422249866047201 -0.015233589480277736 0 -0.0043626114704594255 -0.014258985697248157 0 -0.0054716797452562691 -0.013624299977578087 0 -0.001083456890954492 -0.020041588264905125 0 -0.00064186081668650451 -0.020032722934330126 0 -0.00079440548082787869 -0.020389419986828358 0 -0.0029863270231066602 -0.017509988530980517 0 -0.0030451056296159421 -0.01712660242752094 0 -0.0043626114704594255 -0.014258985697248157 0 -0.0043330274261184857 -0.013417215704887365 0 -0.0054716797452562691 -0.013624299977578087 0 -0.0043626114704594255 -0.014258985697248157 0 -0.0036997990559395747 -0.013935628809767399 0 -0.0043330274261184857 -0.013417215704887365 0 -0.0043626114704594255 -0.014258985697248157 0 -0.0036997990559395747 -0.013935628809767399 0 -0.0036013007031244939 -0.015122433913952984 0 -0.0036997990559395747 -0.013935628809767399 0 -0.0036013007031244939 -0.015122433913952984 0 -0.0030968905776313053 -0.014390546836560688 0 -0.0046422249866047201 -0.015233589480277736 0 -0.0043626114704594255 -0.014258985697248157 0 -0.0036013007031244939 -0.015122433913952984 0 -0.003698566797159302 -0.016984608387203431 0 -0.0036013007031244939 -0.015122433913952984 0 -0.0028529765135956657 -0.016101512848516304 0 -0.003698566797159302 -0.016984608387203431 0 -0.0046422249866047201 -0.015233589480277736 0 -0.0036013007031244939 -0.015122433913952984 0 -0.0017998154718644245 -0.018700317355500339 0 -0.0029863270231066602 -0.017509988530980517 0 -0.0014302859684159168 -0.019559501029352593 0 -0.0010007162604577676 -0.019783272681339149 0 -0.001083456890954492 -0.020041588264905125 0 -0.0028529765135956657 -0.016101512848516304 0 -0.0024738591451565167 -0.015082607137538406 0 -0.0018487934525086365 -0.016365547244120076 0 -0.0036013007031244939 -0.015122433913952984 0 -0.0028529765135956657 -0.016101512848516304 0 -0.0024738591451565167 -0.015082607137538406 0 -0.0024738591451565167 -0.015082607137538406 0 -0.0030968905776313053 -0.014390546836560688 0 -0.0020740735896634705 -0.013760217086460604 0 -0.0036013007031244939 -0.015122433913952984 0 -0.0024738591451565167 -0.015082607137538406 0 -0.0030968905776313053 -0.014390546836560688 0 -0.0030968905776313053 -0.014390546836560688 0 -0.0020740735896634705 -0.013760217086460604 0 -0.0030279141739088912 -0.013545518771647209 0 -0.0036997990559395747 -0.013935628809767399 0 -0.0030968905776313053 -0.014390546836560688 0 -0.0030279141739088912 -0.013545518771647209 0 -0.0020740735896634705 -0.013760217086460604 0 -0.0026547460425175957 -0.012727218396335123 0 -0.0017689071614382908 -0.012432627847082312 0 -0.0020740735896634705 -0.013760217086460604 0 -0.0026547460425175957 -0.012727218396335123 0 -0.0030279141739088912 -0.013545518771647209 0 -0.0026547460425175957 -0.012727218396335123 0 -0.0023063217075244822 -0.011839234006293109 0 -0.0017689071614382908 -0.012432627847082312 0 -0.0026547460425175957 -0.012727218396335123 0 -0.0035996831741525086 -0.012935759564752923 0 -0.0032139853969542602 -0.011818371173944167 0 -0.0026547460425175957 -0.012727218396335123 0 -0.0030279141739088912 -0.013545518771647209 0 -0.0035996831741525086 -0.012935759564752923 0 -0.0036997990559395747 -0.013935628809767399 0 -0.0030279141739088912 -0.013545518771647209 0 -0.0035996831741525086 -0.012935759564752923 0 -0.0036997990559395747 -0.013935628809767399 0 -0.0043330274261184857 -0.013417215704887365 0 -0.0035996831741525086 -0.012935759564752923 0 -0.0043330274261184857 -0.013417215704887365 0 -0.0035996831741525086 -0.012935759564752923 0 -0.0043503946420486656 -0.01231462908691486 0 -0.0043503946420486656 -0.01231462908691486 0 -0.0039231396638634347 -0.011481858486038997 0 -0.0048500921032239037 -0.011038951002215415 0 -0.0035996831741525086 -0.012935759564752923 0 -0.0032139853969542602 -0.011818371173944167 0 -0.0043503946420486656 -0.01231462908691486 0 -0.0032139853969542602 -0.011818371173944167 0 -0.0043503946420486656 -0.01231462908691486 0 -0.0039231396638634347 -0.011481858486038997 0 -0.0032139853969542602 -0.011818371173944167 0 -0.0039231396638634347 -0.011481858486038997 0 -0.0034247237983540011 -0.010664995708709397 0 -0.0032139853969542602 -0.011818371173944167 0 -0.0023063217075244822 -0.011839234006293109 0 -0.002339355796174834 -0.010742128858416768 0 -0.0023063217075244822 -0.011839234006293109 0 -0.002339355796174834 -0.010742128858416768 0 -0.0015521353901447076 -0.011520636034973396 0 -0.0026547460425175957 -0.012727218396335123 0 -0.0032139853969542602 -0.011818371173944167 0 -0.0023063217075244822 -0.011839234006293109 0 -0.00045133769748703699 -0.0203231343104548 0 -0.00079440548082787869 -0.020389419986828358 0 -0.00058458873371477929 -0.0206346031162262 0 -0.0030451056296159421 -0.01712660242752094 0 -0.0038338168603334294 -0.016023436618242026 0 -0.0043330274261184857 -0.013417215704887365 0 -0.0043503946420486656 -0.01231462908691486 0 -0.0054716797452562691 -0.013624299977578087 0 -0.0043503946420486656 -0.01231462908691486 0 -0.0054716797452562691 -0.013624299977578087 0 -0.0063092451051225233 -0.012161754507902111 0 -0.0043503946420486656 -0.01231462908691486 0 -0.0063092451051225233 -0.012161754507902111 0 -0.0048500921032239037 -0.011038951002215415 0 -0.0063092451051225233 -0.012161754507902111 0 -0.005926671303991847 -0.010917934641906721 0 -0.0048500921032239037 -0.011038951002215415 0 -0.0013259141961990165 -0.017183606097735175 0 -0.0030290227787543433 -0.013351168212795491 0 -0.0071632079342856788 -0.010785643745038211 0 -0.0063092451051225233 -0.012161754507902111 0 -0.005926671303991847 -0.010917934641906721 0 -0.0071632079342856788 -0.010785643745038211 0 -0.005926671303991847 -0.010917934641906721 0 -0.0053717779805542111 -0.00968756619385624 0 -0.0048500921032239037 -0.011038951002215415 0 -0.0053717779805542111 -0.00968756619385624 0 -0.0041909624671702186 -0.0098209106528640913 0 -0.005926671303991847 -0.010917934641906721 0 -0.0048500921032239037 -0.011038951002215415 0 -0.0053717779805542111 -0.00968756619385624 0 -0.0021942824106331261 -0.013471861788833981 0 -0.0030290227787543433 -0.013351168212795491 0 -0.0034632880371072441 -0.008588840848458271 0 -0.0053717779805542111 -0.00968756619385624 0 -0.0041909624671702186 -0.0098209106528640913 0 0.00017656869581110035 -0.018644648311471203 0 0.00067839829803856961 -0.018132184026952356 0 -0.00015018639948580656 -0.017828136597500169 0 0.00067839829803856961 -0.018132184026952356 0 0.00087441946706207281 -0.017280027358182584 0 -0.00015018639948580656 -0.017828136597500169 0 -0.0027112203812168323 -0.01020420353849795 0 -0.0034247237983540011 -0.010664995708709397 0 -0.0030922437887383196 -0.0097477404887795823 0 -0.0027112203812168323 -0.01020420353849795 0 -0.002339355796174834 -0.010742128858416768 0 -0.0034247237983540011 -0.010664995708709397 0 -0.0027112203812168323 -0.01020420353849795 0 -0.002339355796174834 -0.010742128858416768 0 -0.002131451805639244 -0.0097116673497574298 0 -0.0032139853969542602 -0.011818371173944167 0 -0.002339355796174834 -0.010742128858416768 0 -0.0034247237983540011 -0.010664995708709397 0 -0.0039231396638634347 -0.011481858486038997 0 -0.0048500921032239037 -0.011038951002215415 0 -0.0034247237983540011 -0.010664995708709397 0 -0.0048500921032239037 -0.011038951002215415 0 -0.0034247237983540011 -0.010664995708709397 0 -0.0041909624671702186 -0.0098209106528640913 0 -0.0034247237983540011 -0.010664995708709397 0 -0.0041909624671702186 -0.0098209106528640913 0 -0.0030922437887383196 -0.0097477404887795823 0 -0.0041909624671702186 -0.0098209106528640913 0 -0.0032963262701637412 -0.00925997045855367 0 -0.0030922437887383196 -0.0097477404887795823 0 -0.0034632880371072441 -0.008588840848458271 0 -0.0041909624671702186 -0.0098209106528640913 0 -0.0032963262701637412 -0.00925997045855367 0 -0.002448467162725408 -0.0088890951532704723 0 -0.0032963262701637412 -0.00925997045855367 0 -0.0030922437887383196 -0.0097477404887795823 0 -0.002448467162725408 -0.0088890951532704723 0 -0.0034632880371072441 -0.008588840848458271 0 -0.0032963262701637412 -0.00925997045855367 0 -0.0027112203812168323 -0.01020420353849795 0 -0.0030922437887383196 -0.0097477404887795823 0 -0.002131451805639244 -0.0097116673497574298 0 -0.002448467162725408 -0.0088890951532704723 0 -0.0030922437887383196 -0.0097477404887795823 0 -0.002131451805639244 -0.0097116673497574298 0 -0.002448467162725408 -0.0088890951532704723 0 -0.002131451805639244 -0.0097116673497574298 0 -0.0019882416112563216 -0.0090774509140512331 0 -0.002131451805639244 -0.0097116673497574298 0 -0.0019882416112563216 -0.0090774509140512331 0 -0.0014375852558490803 -0.0092231252472903778 0 -0.0015398868785688161 -0.0085548735231836016 0 -0.0019882416112563216 -0.0090774509140512331 0 -0.0014375852558490803 -0.0092231252472903778 0 -0.00083717241344219645 -0.0086154672896603685 0 -0.0014375852558490803 -0.0092231252472903778 0 -0.0007471290711351064 -0.0094749456547344804 0 -0.0014066983409213734 -0.010134731592097232 0 -0.00069412177131675213 -0.010170930042320654 0 -0.0007471290711351064 -0.0094749456547344804 0 -0.0014375852558490803 -0.0092231252472903778 0 -0.0014066983409213734 -0.010134731592097232 0 -0.0007471290711351064 -0.0094749456547344804 0 -0.002131451805639244 -0.0097116673497574298 0 -0.0014375852558490803 -0.0092231252472903778 0 -0.0014066983409213734 -0.010134731592097232 0 -0.002339355796174834 -0.010742128858416768 0 -0.002131451805639244 -0.0097116673497574298 0 -0.0014066983409213734 -0.010134731592097232 0 -0.0014066983409213734 -0.010134731592097232 0 -0.00087220119911406895 -0.010791420808916711 0 -0.00069412177131675213 -0.010170930042320654 0 -0.0014066983409213734 -0.010134731592097232 0 -0.00087220119911406895 -0.010791420808916711 0 -0.0015422476628390636 -0.010794289673567022 0 -0.00087220119911406895 -0.010791420808916711 0 -0.0015422476628390636 -0.010794289673567022 0 -0.0015521353901447076 -0.011520636034973396 0 -0.002339355796174834 -0.010742128858416768 0 -0.0015422476628390636 -0.010794289673567022 0 -0.0015521353901447076 -0.011520636034973396 0 -0.002339355796174834 -0.010742128858416768 0 -0.0014066983409213734 -0.010134731592097232 0 -0.0015422476628390636 -0.010794289673567022 0 -0.00011345221067913256 -0.01049540629765815 0 0.00045785998242500172 -0.010682691922618991 0 -4.4680205238423769e-05 -0.011135671508498129 0 -0.00011345221067913256 -0.01049540629765815 0 0.00051834615585529865 -0.01023273180218315 0 0.00045785998242500172 -0.010682691922618991 0 -0.00087220119911406895 -0.010791420808916711 0 -0.00011345221067913256 -0.01049540629765815 0 -4.4680205238423769e-05 -0.011135671508498129 0 -0.00087220119911406895 -0.010791420808916711 0 -0.00011345221067913256 -0.01049540629765815 0 -0.00069412177131675213 -0.010170930042320654 0 -0.00011345221067913256 -0.01049540629765815 0 -0.00069412177131675213 -0.010170930042320654 0 -8.5099413187122191e-05 -0.0099742323834068856 0 -0.00011345221067913256 -0.01049540629765815 0 -8.5099413187122191e-05 -0.0099742323834068856 0 0.00051834615585529865 -0.01023273180218315 0 -8.5099413187122191e-05 -0.0099742323834068856 0 -0.00015642346108259885 -0.0089907009296142926 0 0.00043358988848931197 -0.0095222838701509629 0 -0.00069412177131675213 -0.010170930042320654 0 -8.5099413187122191e-05 -0.0099742323834068856 0 -0.0007471290711351064 -0.0094749456547344804 0 -8.5099413187122191e-05 -0.0099742323834068856 0 -0.0007471290711351064 -0.0094749456547344804 0 -0.00015642346108259885 -0.0089907009296142926 0 -0.00083717241344219645 -0.0086154672896603685 0 -0.0007471290711351064 -0.0094749456547344804 0 -0.00015642346108259885 -0.0089907009296142926 0 0.00067547106461632723 -0.0083676404719066101 0 -0.00015642346108259885 -0.0089907009296142926 0 0.00043358988848931197 -0.0095222838701509629 0 0.00067547106461632723 -0.0083676404719066101 0 0.00043358988848931197 -0.0095222838701509629 0 0.0010732531237958377 -0.010024154906817779 0 0.00089110247285772092 -0.0062628630971161975 0 0.0010037035425953817 -0.0079308244227275539 0 0.0012290381766887353 -0.0050411459204316401 0 0.0012880071284010533 -0.0051563769010148676 0 0.00082172776740825431 -0.0053297029675093092 0 0.0016218263191045245 -0.0052536657601167519 0 0.0012880071284010533 -0.0051563769010148676 0 0.0017848536980852178 -0.0055762240198253057 0 0.0012880071284010533 -0.0051563769010148676 0 0.0017848536980852178 -0.0055762240198253057 0 0.00082172776740825431 -0.0053297029675093092 0 0.0016218263191045245 -0.0052536657601167519 0 0.0017848536980852178 -0.0055762240198253057 0 0.0018383425201652127 -0.0055740744831744666 0 0.0021019775141425858 -0.0064454821159690241 0 0.00082172776740825431 -0.0053297029675093092 0 0.0015705828513622522 -0.011043421876129842 0 0.0017848536980852178 -0.0055762240198253057 0 0.0021019775141425858 -0.0064454821159690241 0 0.0019471709586953454 -0.0059076545043397323 0 0.0017848536980852178 -0.0055762240198253057 0 0.0019471709586953454 -0.0059076545043397323 0 0.0018383425201652127 -0.0055740744831744666 0 0.0017848536980852178 -0.0055762240198253057 0 0.0021019775141425858 -0.0064454821159690241 0 0.00082172776740825431 -0.0053297029675093092 0 0.0021019775141425858 -0.0064454821159690241 0 0.0019471709586953454 -0.0059076545043397323 0 0.0020259322847396089 -0.0059053828878949015 0 0.0021019775141425858 -0.0064454821159690241 0 0.0020259322847396089 -0.0059053828878949015 0 0.0021627876317324257 -0.0055906008045096059 0 0.0019471709586953454 -0.0059076545043397323 0 0.0020259322847396089 -0.0059053828878949015 0 0.0019846694947108631 -0.0056451187211852541 0 0.0010732531237958377 -0.010024154906817779 0 0.00093445744850672685 -0.01065239851035002 0 0.0015705828513622522 -0.011043421876129842 0 0.0010037035425953817 -0.0079308244227275539 0 0.0015563374296214351 -0.010801608148861106 0 0.00043358988848931197 -0.0095222838701509629 0 0.00051834615585529865 -0.01023273180218315 0 0.0010732531237958377 -0.010024154906817779 0 -8.5099413187122191e-05 -0.0099742323834068856 0 0.00043358988848931197 -0.0095222838701509629 0 0.00051834615585529865 -0.01023273180218315 0 0.00051834615585529865 -0.01023273180218315 0 0.0010732531237958377 -0.010024154906817779 0 0.00093445744850672685 -0.01065239851035002 0 0.00093445744850672685 -0.01065239851035002 0 0.00045785998242500172 -0.010682691922618991 0 0.00079618686535929426 -0.01080423413516811 0 0.00051834615585529865 -0.01023273180218315 0 0.00093445744850672685 -0.01065239851035002 0 0.00045785998242500172 -0.010682691922618991 0 0.00045785998242500172 -0.010682691922618991 0 0.0005174244023615699 -0.011175624691038005 0 0.00079618686535929426 -0.01080423413516811 0 0.0005174244023615699 -0.011175624691038005 0 0.00079618686535929426 -0.01080423413516811 0 0.0010561992214226143 -0.011053409248477957 0 0.00093445744850672685 -0.01065239851035002 0 0.0010561992214226143 -0.011053409248477957 0 0.0015705828513622522 -0.011043421876129842 0 0.00093445744850672685 -0.01065239851035002 0 0.00079618686535929426 -0.01080423413516811 0 0.0010561992214226143 -0.011053409248477957 0 0.0010561992214226143 -0.011053409248477957 0 0.0012794900747046352 -0.011459728632406116 0 0.0015705828513622522 -0.011043421876129842 0 0.0010561992214226143 -0.011053409248477957 0 0.0012794900747046352 -0.011459728632406116 0 0.00081575783846787409 -0.011777639179631674 0 0.0005174244023615699 -0.011175624691038005 0 0.00081575783846787409 -0.011777639179631674 0 2.447141062208339e-05 -0.01189213453085749 0 0.0005174244023615699 -0.011175624691038005 0 0.0010561992214226143 -0.011053409248477957 0 0.00081575783846787409 -0.011777639179631674 0 0.0021599588572605755 -0.0066653956006888617 0 0.0022854737152032348 -0.0080871687036706014 0 0.0021019775141425858 -0.0064454821159690241 0 0.0021627876317324257 -0.0055906008045096059 0 0.0024503338650473756 -0.0051710340816431876 0 0.0021019775141425858 -0.0064454821159690241 0 0.0015705828513622522 -0.011043421876129842 0 0.0022053789835157762 -0.01148572442277525 0 0.0019846694947108631 -0.0056451187211852541 0 0.0021627876317324257 -0.0055906008045096059 0 0.0020781151864699347 -0.0053046968311399037 0 0.0020259322847396089 -0.0059053828878949015 0 0.0019846694947108631 -0.0056451187211852541 0 0.0021627876317324257 -0.0055906008045096059 0 0.0012794900747046352 -0.011459728632406116 0 0.0015705828513622522 -0.011043421876129842 0 0.0016625029625385568 -0.011517629006910364 0 0.0015705828513622522 -0.011043421876129842 0 0.0016625029625385568 -0.011517629006910364 0 0.0022053789835157762 -0.01148572442277525 0 0.0012794900747046352 -0.011459728632406116 0 0.0016625029625385568 -0.011517629006910364 0 0.001669782685129218 -0.011956330668696774 0 0.0016625029625385568 -0.011517629006910364 0 0.0022053789835157762 -0.01148572442277525 0 0.001669782685129218 -0.011956330668696774 0 0.0024503338650473756 -0.0051710340816431876 0 0.0022140442133443804 -0.0051445082129265105 0 0.0022315009672009053 -0.0048821481397730293 0 0.0021627876317324257 -0.0055906008045096059 0 0.0024503338650473756 -0.0051710340816431876 0 0.0022181572183085584 -0.0052998154939096764 0 0.0021627876317324257 -0.0055906008045096059 0 0.0022181572183085584 -0.0052998154939096764 0 0.0020781151864699347 -0.0053046968311399037 0 0.0024503338650473756 -0.0051710340816431876 0 0.0022181572183085584 -0.0052998154939096764 0 0.0022140442133443804 -0.0051445082129265105 0 0.0022140442133443804 -0.0051445082129265105 0 0.0020781151864699347 -0.0053046968311399037 0 0.0021069938435814102 -0.005051309116833041 0 0.0022181572183085584 -0.0052998154939096764 0 0.0022140442133443804 -0.0051445082129265105 0 0.0020781151864699347 -0.0053046968311399037 0 0.0022053789835157762 -0.01148572442277525 0 0.001669782685129218 -0.011956330668696774 0 0.0021040258695256045 -0.013250588658379447 0 0.0022854737152032348 -0.0080871687036706014 0 0.0020810648081958155 -0.009608825318557241 0 0.0024503338650473756 -0.0051710340816431876 0 0.0022315009672009053 -0.0048821481397730293 0 0.0023642622581633984 -0.0046186227382289608 0 0.0022140442133443804 -0.0051445082129265105 0 0.0022315009672009053 -0.0048821481397730293 0 0.0021069938435814102 -0.005051309116833041 0 0.0022315009672009053 -0.0048821481397730293 0 0.0021069938435814102 -0.005051309116833041 0 0.0020444219650296849 -0.0048228707290603051 0 0.001669782685129218 -0.011956330668696774 0 0.0021040258695256045 -0.013250588658379447 0 0.0013784913634349875 -0.012457705445171706 0 0.0022315009672009053 -0.0048821481397730293 0 0.0023642622581633984 -0.0046186227382289608 0 0.0020444219650296849 -0.0048228707290603051 0 0.0020810648081958155 -0.009608825318557241 0 0.00088083849242236959 -0.013706175595152354 0 0.0021040258695256045 -0.013250588658379447 0 0.0013784913634349875 -0.012457705445171706 0 0.00054007098278578203 -0.013241082639573867 0 0.00081575783846787409 -0.011777639179631674 0 0.00054007098278578203 -0.013241082639573867 0 2.447141062208339e-05 -0.01189213453085749 0 0.00081575783846787409 -0.011777639179631674 0 0.0013784913634349875 -0.012457705445171706 0 0.00054007098278578203 -0.013241082639573867 0 0.0012794900747046352 -0.011459728632406116 0 0.001669782685129218 -0.011956330668696774 0 0.0013784913634349875 -0.012457705445171706 0 0.0012794900747046352 -0.011459728632406116 0 0.00081575783846787409 -0.011777639179631674 0 0.0013784913634349875 -0.012457705445171706 0 0.00054007098278578203 -0.013241082639573867 0 -0.00033274849924210144 -0.012798874261642288 0 -0.00047329586967314891 -0.013911681322534944 0 0.00054007098278578203 -0.013241082639573867 0 -0.00033274849924210144 -0.012798874261642288 0 2.447141062208339e-05 -0.01189213453085749 0 -0.00033274849924210144 -0.012798874261642288 0 -0.0008697081575747567 -0.012137509544018153 0 2.447141062208339e-05 -0.01189213453085749 0 -0.00033274849924210144 -0.012798874261642288 0 -0.0010550378860825905 -0.01296315952070556 0 -0.0008697081575747567 -0.012137509544018153 0 -0.00033274849924210144 -0.012798874261642288 0 -0.0010550378860825905 -0.01296315952070556 0 -0.00047329586967314891 -0.013911681322534944 0 -0.0020740735896634705 -0.013760217086460604 0 -0.0010550378860825905 -0.01296315952070556 0 -0.0017689071614382908 -0.012432627847082312 0 -0.0020740735896634705 -0.013760217086460604 0 -0.0010550378860825905 -0.01296315952070556 0 -0.00047329586967314891 -0.013911681322534944 0 -0.0010550378860825905 -0.01296315952070556 0 -0.0017689071614382908 -0.012432627847082312 0 -0.0008697081575747567 -0.012137509544018153 0 -0.0008697081575747567 -0.012137509544018153 0 -0.0015521353901447076 -0.011520636034973396 0 -0.00066211389086585221 -0.01144988246886024 0 -0.0017689071614382908 -0.012432627847082312 0 -0.0008697081575747567 -0.012137509544018153 0 -0.0015521353901447076 -0.011520636034973396 0 -0.0023063217075244822 -0.011839234006293109 0 -0.0017689071614382908 -0.012432627847082312 0 -0.0015521353901447076 -0.011520636034973396 0 -0.00087220119911406895 -0.010791420808916711 0 -0.0015521353901447076 -0.011520636034973396 0 -0.00066211389086585221 -0.01144988246886024 0 -0.00066211389086585221 -0.01144988246886024 0 -4.4680205238423769e-05 -0.011135671508498129 0 2.447141062208339e-05 -0.01189213453085749 0 -0.00087220119911406895 -0.010791420808916711 0 -0.00066211389086585221 -0.01144988246886024 0 -4.4680205238423769e-05 -0.011135671508498129 0 0.0005174244023615699 -0.011175624691038005 0 -4.4680205238423769e-05 -0.011135671508498129 0 2.447141062208339e-05 -0.01189213453085749 0 0.00045785998242500172 -0.010682691922618991 0 0.0005174244023615699 -0.011175624691038005 0 -4.4680205238423769e-05 -0.011135671508498129 0 -0.0008697081575747567 -0.012137509544018153 0 -0.00066211389086585221 -0.01144988246886024 0 2.447141062208339e-05 -0.01189213453085749 0 0.0010373211729520905 -0.0024077457283656952 0 0.0011704537873078508 -0.0023627057100935613 0 0.001019571204633433 -0.0024191313452243302 0 0.0018328322912869635 -0.0052986642055599074 0 0.0019491848587722155 -0.005215312418067046 0 0.0018536223592676632 -0.0053427486995071107 0 0.0018328322912869635 -0.0052986642055599074 0 0.0017294951546947851 -0.0053209876899969599 0 0.0018536223592676632 -0.0053427486995071107 0 0.0015844015545665524 -0.0038674807467146601 0 0.0012981679785772711 -0.0036958976543360988 0 0.0010373211729520905 -0.0024077457283656952 0 0.0010175995862663435 -0.0024439826370553342 0 0.0011704537873078508 -0.0023627057100935613 0 0.0010204625743380704 -0.0024864552022579333 0 0.0010175995862663435 -0.0024439826370553342 0 0.00093721055618322356 -0.0027723130580543363 0 0.0010175995862663435 -0.0024439826370553342 0 0.00093721055618322356 -0.0027723130580543363 0 0.0011704537873078508 -0.0023627057100935613 0 0.0018328322912869635 -0.0052986642055599074 0 0.0019491848587722155 -0.005215312418067046 0 0.0018448346693153779 -0.0052569964823744875 0 0.0019491848587722155 -0.005215312418067046 0 0.0018448346693153779 -0.0052569964823744875 0 0.0018477572799156002 -0.0051533987363747147 0 0.0018009029729910222 -0.0052259177910267468 0 0.0018448346693153779 -0.0052569964823744875 0 0.0018477572799156002 -0.0051533987363747147 0 0.0018352539351171333 -0.0049775233277065262 0 0.0019491848587722155 -0.005215312418067046 0 0.0018477572799156002 -0.0051533987363747147 0 0.0018352539351171333 -0.0049775233277065262 0 0.0018477572799156002 -0.0051533987363747147 0 0.0017886912591565582 -0.0050953768166381308 0 0.0018009029729910222 -0.0052259177910267468 0 0.0018477572799156002 -0.0051533987363747147 0 0.0017886912591565582 -0.0050953768166381308 0 0.0018009029729910222 -0.0052259177910267468 0 0.0017886912591565582 -0.0050953768166381308 0 0.001760654650304983 -0.0052497580856780274 0 0.0017886912591565582 -0.0050953768166381308 0 0.001760654650304983 -0.0052497580856780274 0 0.0017369457338376625 -0.0051173801354485139 0 0.0018009029729910222 -0.0052259177910267468 0 0.0017521190942611186 -0.0053307887495780155 0 0.001760654650304983 -0.0052497580856780274 0 0.0017521190942611186 -0.0053307887495780155 0 0.0016983128739537997 -0.0053406566959644458 0 0.0017294951546947851 -0.0053209876899969599 0 0.0018328322912869635 -0.0052986642055599074 0 0.0018448346693153779 -0.0052569964823744875 0 0.0017521190942611186 -0.0053307887495780155 0 0.0018009029729910222 -0.0052259177910267468 0 0.0018448346693153779 -0.0052569964823744875 0 0.0017521190942611186 -0.0053307887495780155 0 0.0018328322912869635 -0.0052986642055599074 0 0.0017521190942611186 -0.0053307887495780155 0 0.0017294951546947851 -0.0053209876899969599 0 0.0017521190942611186 -0.0053307887495780155 0 0.0017518637005803379 -0.0054145102830157853 0 0.0016983128739537997 -0.0053406566959644458 0 0.0017518637005803379 -0.0054145102830157853 0 0.0018068775995868523 -0.0055153062777649753 0 0.0017837990354758959 -0.0054466845062571614 0 0.0017518637005803379 -0.0054145102830157853 0 0.0017837990354758959 -0.0054466845062571614 0 0.0016983128739537997 -0.0053406566959644458 0 0.0017518637005803379 -0.0054145102830157853 0 0.0017538899802164423 -0.0053444492612841335 0 0.0017761444811797069 -0.0054260214139141066 0 0.0017518637005803379 -0.0054145102830157853 0 0.0017761444811797069 -0.0054260214139141066 0 0.0018068775995868523 -0.0055153062777649753 0 0.0017521190942611186 -0.0053307887495780155 0 0.0017538899802164423 -0.0053444492612841335 0 0.001760654650304983 -0.0052497580856780274 0 0.0017521190942611186 -0.0053307887495780155 0 0.0017518637005803379 -0.0054145102830157853 0 0.0017538899802164423 -0.0053444492612841335 0 0.0017538899802164423 -0.0053444492612841335 0 0.001760654650304983 -0.0052497580856780274 0 0.0017443257551499906 -0.0052836137728483222 0 0.001760654650304983 -0.0052497580856780274 0 0.0017369457338376625 -0.0051173801354485139 0 0.0017443257551499906 -0.0052836137728483222 0 0.0017068029910410564 -0.0051559662295934004 0 0.0017369457338376625 -0.0051173801354485139 0 0.0017443257551499906 -0.0052836137728483222 0 0.0017068029910410564 -0.0051559662295934004 0 0.0017443257551499906 -0.0052836137728483222 0 0.0017469273729879247 -0.0053329574418878502 0 0.0017538899802164423 -0.0053444492612841335 0 0.0017443257551499906 -0.0052836137728483222 0 0.0017761444811797069 -0.0054260214139141066 0 0.0017443257551499906 -0.0052836137728483222 0 0.0017469273729879247 -0.0053329574418878502 0 0.0017761444811797069 -0.0054260214139141066 0 0.0017469273729879247 -0.0053329574418878502 0 0.0018383425201652127 -0.0055740744831744666 0 0.0017761444811797069 -0.0054260214139141066 0 0.0017068029910410564 -0.0051559662295934004 0 0.0016570149132569337 -0.0051672664354505673 0 0.0017469273729879247 -0.0053329574418878502 0 0.0016570149132569337 -0.0051672664354505673 0 0.0016218263191045245 -0.0052536657601167519 0 0.0017469273729879247 -0.0053329574418878502 0 0.0016218263191045245 -0.0052536657601167519 0 0.0017469273729879247 -0.0053329574418878502 0 0.0018383425201652127 -0.0055740744831744666 0 0.0019471709586953454 -0.0059076545043397323 0 0.0018383425201652127 -0.0055740744831744666 0 0.0018597934329194843 -0.0056394150147785474 0 0.0018383425201652127 -0.0055740744831744666 0 0.0018068775995868523 -0.0055153062777649753 0 0.0018597934329194843 -0.0056394150147785474 0 0.0018383425201652127 -0.0055740744831744666 0 0.0017761444811797069 -0.0054260214139141066 0 0.0018068775995868523 -0.0055153062777649753 0 0.0018068775995868523 -0.0055153062777649753 0 0.0018597934329194843 -0.0056394150147785474 0 0.0017837990354758959 -0.0054466845062571614 0 0.0019471709586953454 -0.0059076545043397323 0 0.0019846694947108631 -0.0056451187211852541 0 0.0018597934329194843 -0.0056394150147785474 0 0.0019846694947108631 -0.0056451187211852541 0 0.0020781151864699347 -0.0053046968311399037 0 0.0018900025700754365 -0.0054205227299951135 0 0.0019846694947108631 -0.0056451187211852541 0 0.0018597934329194843 -0.0056394150147785474 0 0.0018900025700754365 -0.0054205227299951135 0 0.0018900025700754365 -0.0054205227299951135 0 0.0017837990354758959 -0.0054466845062571614 0 0.0018006720552090059 -0.005250236069458126 0 0.0018597934329194843 -0.0056394150147785474 0 0.0018900025700754365 -0.0054205227299951135 0 0.0017837990354758959 -0.0054466845062571614 0 0.0018006720552090059 -0.005250236069458126 0 0.0018725613000260299 -0.0049815173977069841 0 0.0017472523222713814 -0.0051000923068497466 0 0.0018900025700754365 -0.0054205227299951135 0 0.0018006720552090059 -0.005250236069458126 0 0.0019588428093772351 -0.0051242015994432113 0 0.0018006720552090059 -0.005250236069458126 0 0.0019588428093772351 -0.0051242015994432113 0 0.0018725613000260299 -0.0049815173977069841 0 0.0020781151864699347 -0.0053046968311399037 0 0.0018900025700754365 -0.0054205227299951135 0 0.0019588428093772351 -0.0051242015994432113 0 0.0020781151864699347 -0.0053046968311399037 0 0.0019588428093772351 -0.0051242015994432113 0 0.0021069938435814102 -0.005051309116833041 0 0.0019588428093772351 -0.0051242015994432113 0 0.0021069938435814102 -0.005051309116833041 0 0.0020444219650296849 -0.0048228707290603051 0 0.0023642622581633984 -0.0046186227382289608 0 0.0018508458105000515 -0.00452329619449346 0 0.0017772375657723392 -0.0043473041124102198 0 0.0019588428093772351 -0.0051242015994432113 0 0.0020444219650296849 -0.0048228707290603051 0 0.0018725613000260299 -0.0049815173977069841 0 0.0023642622581633984 -0.0046186227382289608 0 0.0020444219650296849 -0.0048228707290603051 0 0.0018508458105000515 -0.00452329619449346 0 0.0020444219650296849 -0.0048228707290603051 0 0.0018508458105000515 -0.00452329619449346 0 0.0018725613000260299 -0.0049815173977069841 0 0.0018508458105000515 -0.00452329619449346 0 0.0018725613000260299 -0.0049815173977069841 0 0.0017472523222713814 -0.0051000923068497466 0 0.0018867721952030333 -0.004445085748025092 0 0.0018116333748170084 -0.0046596471782628943 0 0.0018508458105000515 -0.00452329619449346 0 0.0018507632247186814 -0.0037597362863576174 0 0.0017772375657723392 -0.0043473041124102198 0 0.0018508458105000515 -0.00452329619449346 0 0.0017472523222713814 -0.0051000923068497466 0 0.0016107808294873347 -0.0052871521781793201 0 0.0018507632247186814 -0.0037597362863576174 0 0.0018450894546513869 -0.0038267818474079117 0 0.0017772375657723392 -0.0043473041124102198 0 0.0017472523222713814 -0.0051000923068497466 0 0.0016983128739537997 -0.0053406566959644458 0 0.0016107808294873347 -0.0052871521781793201 0 0.0018006720552090059 -0.005250236069458126 0 0.0017472523222713814 -0.0051000923068497466 0 0.0016983128739537997 -0.0053406566959644458 0 0.0017837990354758959 -0.0054466845062571614 0 0.0018006720552090059 -0.005250236069458126 0 0.0016983128739537997 -0.0053406566959644458 0 0.0016983128739537997 -0.0053406566959644458 0 0.0017294951546947851 -0.0053209876899969599 0 0.0016107808294873347 -0.0052871521781793201 0 0.0018507632247186814 -0.0037597362863576174 0 0.0018006843043512054 -0.0036973489171129611 0 0.001668280662651114 -0.003740705036142232 0 0.0018450894546513869 -0.0038267818474079117 0 0.0018006843043512054 -0.0036973489171129611 0 0.0018400446605404506 -0.0035973458200894413 0 0.0018507632247186814 -0.0037597362863576174 0 0.0018450894546513869 -0.0038267818474079117 0 0.0018006843043512054 -0.0036973489171129611 0 0.0018006843043512054 -0.0036973489171129611 0 0.0016201042660775155 -0.0035415538931318795 0 0.001668280662651114 -0.003740705036142232 0 0.0018006843043512054 -0.0036973489171129611 0 0.0017178529856065 -0.0035094101201874625 0 0.0018400446605404506 -0.0035973458200894413 0 0.0018006843043512054 -0.0036973489171129611 0 0.0017178529856065 -0.0035094101201874625 0 0.0016201042660775155 -0.0035415538931318795 0 0.0014536361199151242 -0.0032998621502804103 0 0.0016201042660775155 -0.0035415538931318795 0 0.0015413923389853781 -0.0031221517292854325 0 0.0017178529856065 -0.0035094101201874625 0 0.0016201042660775155 -0.0035415538931318795 0 0.0015413923389853781 -0.0031221517292854325 0 0.0013739282289988919 -0.0037111323221537232 0 0.0016201042660775155 -0.0035415538931318795 0 0.001668280662651114 -0.003740705036142232 0 0.0018507632247186814 -0.0037597362863576174 0 0.001668280662651114 -0.003740705036142232 0 0.0015404108922027766 -0.0039453451587174084 0 0.0013739282289988919 -0.0037111323221537232 0 0.001668280662651114 -0.003740705036142232 0 0.0015404108922027766 -0.0039453451587174084 0 0.0017294951546947851 -0.0053209876899969599 0 0.0016107808294873347 -0.0052871521781793201 0 0.0018536223592676632 -0.0053427486995071107 0 0.0018116333748170084 -0.0046596471782628943 0 0.0012981679785772711 -0.0036958976543360988 0 0.001588176784684661 -0.002708495814774605 0 0.0016963701036470688 -0.0027466597341988886 0 0.0016175360491150154 -0.0028482072415627418 0 0.001588176784684661 -0.002708495814774605 0 0.0016963701036470688 -0.0027466597341988886 0 0.0016583397155516986 -0.0026819348655093035 0 0.0016963701036470688 -0.0027466597341988886 0 0.0018082411294351279 -0.0028258406275433858 0 0.0018104232118523987 -0.0027113035078799499 0 0.0016963701036470688 -0.0027466597341988886 0 0.0016175360491150154 -0.0028482072415627418 0 0.0018082411294351279 -0.0028258406275433858 0 0.0016175360491150154 -0.0028482072415627418 0 0.0017767047655620595 -0.0029742231124133592 0 0.0018082411294351279 -0.0028258406275433858 0 0.0016175360491150154 -0.0028482072415627418 0 0.0015413923389853781 -0.0031221517292854325 0 0.0017767047655620595 -0.0029742231124133592 0 0.0014268904480795336 -0.0028789052991592644 0 0.0016175360491150154 -0.0028482072415627418 0 0.0015413923389853781 -0.0031221517292854325 0 0.0015413923389853781 -0.0031221517292854325 0 0.0018979825301563714 -0.0035684951179248037 0 0.0018400446605404506 -0.0035973458200894413 0 0.0013788065282237616 -0.0031555620486432324 0 0.0022175679471758427 -0.005020379367075097 0 0.0015413923389853781 -0.0031221517292854325 0 0.0017767047655620595 -0.0029742231124133592 0 0.0018537046911894946 -0.0031362821821168878 0 0.0017178529856065 -0.0035094101201874625 0 0.0015413923389853781 -0.0031221517292854325 0 0.0018400446605404506 -0.0035973458200894413 0 0.0018450894546513869 -0.0038267818474079117 0 0.0018491195637299464 -0.0036876590820273591 0 0.0017772375657723392 -0.0043473041124102198 0 0.0017767047655620595 -0.0029742231124133592 0 0.0018537046911894946 -0.0031362821821168878 0 0.0020363387626337109 -0.0029269286935612324 0 0.0018450894546513869 -0.0038267818474079117 0 0.0018491195637299464 -0.0036876590820273591 0 0.0018400446605404506 -0.0035973458200894413 0 0.0022175679471758427 -0.005020379367075097 0 0.0023175530595832359 -0.0046746492333858847 0 0.0022175679471758427 -0.005020379367075097 0 0.0025537735559827838 -0.0051015642958964543 0 0.0018082411294351279 -0.0028258406275433858 0 0.001964542465478736 -0.0027597003031022121 0 0.0020363387626337109 -0.0029269286935612324 0 0.0017767047655620595 -0.0029742231124133592 0 0.0018082411294351279 -0.0028258406275433858 0 0.0020363387626337109 -0.0029269286935612324 0 0.0018082411294351279 -0.0028258406275433858 0 0.001964542465478736 -0.0027597003031022121 0 0.0018104232118523987 -0.0027113035078799499 0 0.001964542465478736 -0.0027597003031022121 0 0.0020363387626337109 -0.0029269286935612324 0 0.0022051314332993321 -0.0027809014138864352 0 0.0026709304109264567 -0.007876105256699047 0 0.0023890756525018109 -0.0078502961299893766 0 0.002482982690179966 -0.0080885037711978993 0 0.0025537735559827838 -0.0051015642958964543 0 0.0021826543442503214 -0.0081763131477382081 0 0.002858305248108331 -0.0076491193939934813 0 0.0026709304109264567 -0.007876105256699047 0 0.0024971663868855504 -0.0076636216568367228 0 0.0026709304109264567 -0.007876105256699047 0 0.0024971663868855504 -0.0076636216568367228 0 0.0023890756525018109 -0.0078502961299893766 0 0.0022175679471758427 -0.005020379367075097 0 0.0021660664440650754 -0.0056620350907575249 0 0.0021529140854688496 -0.0076815561764284786 0 0.0024971663868855504 -0.0076636216568367228 0 0.0023890756525018109 -0.0078502961299893766 0 0.0020810648081958155 -0.009608825318557241 0 0.0021660664440650754 -0.0056620350907575249 0 0.0023890756525018109 -0.0078502961299893766 0 0.002482982690179966 -0.0080885037711978993 0 0.0021597773700769859 -0.007879148282788526 0 0.0018932256863180019 -0.012411535090834491 0 0.001802785989650985 -0.012517940425620454 0 0.0015510987244383681 -0.012175706223529384 0 0.0021826543442503214 -0.0081763131477382081 0 0.0019768969293571001 -0.01222485835707271 0 0.001371394370840026 -0.014479104528303092 0 0.0015620717868952783 -0.015754817427405678 0 0.0021826543442503214 -0.0081763131477382081 0 0.001371394370840026 -0.014479104528303092 0 0.0016096344933800488 -0.018480839302885112 0 0.00093153653606109716 -0.018588746993516678 0 0.001319585580398222 -0.01884775023976723 0 0.001371394370840026 -0.014479104528303092 0 0.00093713226706688751 -0.018608494928582818 0 0.0014979318793843508 -0.017915416278534452 0 0.0016096344933800488 -0.018480839302885112 0 0.00093153653606109716 -0.018588746993516678 0 0.0016096344933800488 -0.018480839302885112 0 0.0016851919333778014 -0.018859431347489117 0 0.001319585580398222 -0.01884775023976723 0 0.0016096344933800488 -0.018480839302885112 0 0.0020958457575004437 -0.018704565930731897 0 0.0020915484695867917 -0.017960059529771498 0 0.0016096344933800488 -0.018480839302885112 0 0.0020958457575004437 -0.018704565930731897 0 0.0016851919333778014 -0.018859431347489117 0 0.0014979318793843508 -0.017915416278534452 0 0.0016096344933800488 -0.018480839302885112 0 0.0020915484695867917 -0.017960059529771498 0 0.0019259897006377626 -0.01132377055477159 0 0.0017606325869581406 -0.011509012510954066 0 0.0022251311113081667 -0.011536164376246679 0 0.001964542465478736 -0.0027597003031022121 0 0.0022051314332993321 -0.0027809014138864352 0 0.0020614265741386579 -0.0026567943872574102 0 0.001371394370840026 -0.014479104528303092 0 0.002293822265462511 -0.010594823825244497 0 0.0021826543442503214 -0.0081763131477382081 0 0.002293822265462511 -0.010594823825244497 0 0.0020614265741386579 -0.0026567943872574102 0 0.0018254009367390351 -0.0026140178037602282 0 0.0018062445360836283 -0.0025867429162253989 0 0.0020614265741386579 -0.0026567943872574102 0 0.001882488263822027 -0.0026829261190170978 0 0.0018254009367390351 -0.0026140178037602282 0 0.0027810658299296741 -0.0093910200891269002 0 0.0018846311162795404 -0.0093143958251756323 0 0.001978497078364146 -0.0091188281815672914 0 0.002293822265462511 -0.010594823825244497 0 0.0023763472270426972 -0.0041099531621867384 0 0.001964542465478736 -0.0027597003031022121 0 0.0020614265741386579 -0.0026567943872574102 0 0.001882488263822027 -0.0026829261190170978 0 0.001964542465478736 -0.0027597003031022121 0 0.0018104232118523987 -0.0027113035078799499 0 0.001882488263822027 -0.0026829261190170978 0 0.0018104232118523987 -0.0027113035078799499 0 0.001828090279182898 -0.0026622070582891441 0 0.001882488263822027 -0.0026829261190170978 0 0.001828090279182898 -0.0026622070582891441 0 0.0017936364876458915 -0.0026422320119773184 0 0.0018254009367390351 -0.0026140178037602282 0 0.0018104232118523987 -0.0027113035078799499 0 0.001828090279182898 -0.0026622070582891441 0 0.0017936364876458915 -0.0026422320119773184 0 0.001828090279182898 -0.0026622070582891441 0 0.001882488263822027 -0.0026829261190170978 0 0.0018254009367390351 -0.0026140178037602282 0 0.0017936364876458915 -0.0026422320119773184 0 0.0018254009367390351 -0.0026140178037602282 0 0.0017982492188831263 -0.0025876539756490538 0 0.0022074500365482047 -0.0038339311169668 0 0.0023763472270426972 -0.0041099531621867384 0 0.002293822265462511 -0.010594823825244497 0 0.0020099348568608853 -0.013034696711154545 0 0.0020958457575004437 -0.018704565930731897 0 0.0020915484695867917 -0.017960059529771498 0 0.0026436073643858189 -0.018366894109977463 0 0.0027810658299296741 -0.0093910200891269002 0 0.001978497078364146 -0.0091188281815672914 0 0.0019730499868907026 -0.0088167315502606768 0 0.0019743976990748164 -0.0097556361359916327 0 0.0020099348568608853 -0.013034696711154545 0 0.0018846311162795404 -0.0093143958251756323 0 0.001978497078364146 -0.0091188281815672914 0 0.0013607820472266211 -0.0086194257385202675 0 0.0029226458171940444 -0.0024118798967183116 0 0.0025166195005196499 -0.001809937226026822 0 0.0022547846125038451 -0.002045496228764728 0 0.001978497078364146 -0.0091188281815672914 0 0.0019788201355638631 -0.0087430760369678843 0 0.0013607820472266211 -0.0086194257385202675 0 0.0017192299285754373 -0.0022776464379631297 0 0.0029226458171940444 -0.0024118798967183116 0 0.0022547846125038451 -0.002045496228764728 0 0.0023763472270426972 -0.0041099531621867384 0 0.0019262883674745883 -0.0052029243245719269 0 0.00084380190017546144 -0.00788458328583648 0 0.0019788201355638631 -0.0087430760369678843 0 0.0013607820472266211 -0.0086194257385202675 0 0.0012849504792591259 -0.0064092428685785883 0 0.0020099348568608853 -0.013034696711154545 0 0.0018171943539995504 -0.0016114394905970874 0 0.0020620170152241485 -0.0010562087211052906 0 0.0025166195005196499 -0.001809937226026822 0 0.0018171943539995504 -0.0016114394905970874 0 0.0025166195005196499 -0.001809937226026822 0 0.0022547846125038451 -0.002045496228764728 0 0.0012849504792591259 -0.0064092428685785883 0 0.0019262883674745883 -0.0052029243245719269 0 0.0017982492188831263 -0.0025876539756490538 0 0.001709435087330898 -0.0026393332957092897 0 0.0016193333054697373 -0.0025656269169329355 0 0.0014994019265323376 -0.0024075472844179353 0 0.0017982492188831263 -0.0025876539756490538 0 0.0016193333054697373 -0.0025656269169329355 0 0.0014874609077470474 -0.0019543652749257575 0 0.0023763472270426972 -0.0041099531621867384 0 0.0018104232118523987 -0.0027113035078799499 0 0.0017936364876458915 -0.0026422320119773184 0 0.001709435087330898 -0.0026393332957092897 0 0.0016963701036470688 -0.0027466597341988886 0 0.001709435087330898 -0.0026393332957092897 0 0.0016583397155516986 -0.0026819348655093035 0 0.0016963701036470688 -0.0027466597341988886 0 0.0018104232118523987 -0.0027113035078799499 0 0.001709435087330898 -0.0026393332957092897 0 0.0017936364876458915 -0.0026422320119773184 0 0.0017982492188831263 -0.0025876539756490538 0 0.001709435087330898 -0.0026393332957092897 0 0.001709435087330898 -0.0026393332957092897 0 0.0016583397155516986 -0.0026819348655093035 0 0.0016279787414973949 -0.0026392335513155105 0 0.001709435087330898 -0.0026393332957092897 0 0.0016279787414973949 -0.0026392335513155105 0 0.0016193333054697373 -0.0025656269169329355 0 0.0015642065723517696 -0.002629012711678974 0 0.001588176784684661 -0.002708495814774605 0 0.0016279787414973949 -0.0026392335513155105 0 0.001588176784684661 -0.002708495814774605 0 0.0016583397155516986 -0.0026819348655093035 0 0.0016279787414973949 -0.0026392335513155105 0 0.0015642065723517696 -0.002629012711678974 0 0.0016279787414973949 -0.0026392335513155105 0 0.0016193333054697373 -0.0025656269169329355 0 0.00039672205728499718 -0.015213439277313204 0 -0.0011740387430291251 -0.015177537621758538 0 -0.00041470397924883853 -0.016855721452294879 0 0.00039672205728499718 -0.015213439277313204 0 0.0011495592201849758 -0.016913595640124655 0 -0.00041470397924883853 -0.016855721452294879 0 -0.0024738591451565167 -0.015082607137538406 0 -0.0011740387430291251 -0.015177537621758538 0 -0.0018487934525086365 -0.016365547244120076 0 -0.0011740387430291251 -0.015177537621758538 0 -0.0018487934525086365 -0.016365547244120076 0 -0.00041470397924883853 -0.016855721452294879 0 -0.0024738591451565167 -0.015082607137538406 0 -0.0020740735896634705 -0.013760217086460604 0 -0.0011740387430291251 -0.015177537621758538 0 -0.0020740735896634705 -0.013760217086460604 0 -0.0011740387430291251 -0.015177537621758538 0 -0.00047329586967314891 -0.013911681322534944 0 0.00054007098278578203 -0.013241082639573867 0 0.00039672205728499718 -0.015213439277313204 0 -0.00047329586967314891 -0.013911681322534944 0 0.00039672205728499718 -0.015213439277313204 0 -0.0011740387430291251 -0.015177537621758538 0 -0.00047329586967314891 -0.013911681322534944 0 0.0027369588272673317 -0.013350701460021257 0 0.00054007098278578203 -0.013241082639573867 0 0.0021404717268734825 -0.014428817696787831 0 0.00054007098278578203 -0.013241082639573867 0 0.00039672205728499718 -0.015213439277313204 0 0.0012932320027046081 -0.014857654694496743 0 0.00054007098278578203 -0.013241082639573867 0 0.0012932320027046081 -0.014857654694496743 0 0.0021404717268734825 -0.014428817696787831 0 0.0021529140854688496 -0.0076815561764284786 0 0.0023890756525018109 -0.0078502961299893766 0 0.0021597773700769859 -0.007879148282788526 0 0.0020810648081958155 -0.009608825318557241 0 0.0019768969293571001 -0.01222485835707271 0 0.0027369588272673317 -0.013350701460021257 0 0.0021404717268734825 -0.014428817696787831 0 0.0027728142477911354 -0.014879472922124094 0 0.00280669857736442 -0.013723887780159065 0 0.0019768969293571001 -0.01222485835707271 0 0.001802785989650985 -0.012517940425620454 0 0.0015510987244383681 -0.012175706223529384 0 0.0015559351922651229 -0.012511594476866481 0 0.0019768969293571001 -0.01222485835707271 0 0.0015620717868952783 -0.015754817427405678 0 0.0027383101320457241 -0.014869570654597779 0 0.0017291972567847038 -0.015602028693225247 0 0.0027871071104008656 -0.017047275826807498 0 0.0021404717268734825 -0.014428817696787831 0 0.0027383101320457241 -0.014869570654597779 0 0.0017291972567847038 -0.015602028693225247 0 0.00039672205728499718 -0.015213439277313204 0 0.0017291972567847038 -0.015602028693225247 0 0.0011495592201849758 -0.016913595640124655 0 0.00039672205728499718 -0.015213439277313204 0 0.0012932320027046081 -0.014857654694496743 0 0.0017291972567847038 -0.015602028693225247 0 0.0012932320027046081 -0.014857654694496743 0 0.0021404717268734825 -0.014428817696787831 0 0.0017291972567847038 -0.015602028693225247 0 0.0010061077627740052 -0.01713815416808798 0 0.0015620717868952783 -0.015754817427405678 0 0.0006966586620643768 -0.017373309377903299 0 0.0015617171873976736 -0.017524235086467738 0 0.00082162929439519956 -0.018302699778831717 0 0.0017291972567847038 -0.015602028693225247 0 0.0011495592201849758 -0.016913595640124655 0 0.0027871071104008656 -0.017047275826807498 0 0.0006966586620643768 -0.017373309377903299 0 0.00082162929439519956 -0.018302699778831717 0 0.00012052211744403577 -0.018060583081553248 0 0.0022191095477827436 -0.015854415133536318 0 0.00072385013823826844 -0.015722325123201524 0 0.00076952025332217627 -0.017414527780030425 0 0.0015617171873976736 -0.017524235086467738 0 0.0015003975663802477 -0.018606882136836957 0 0.00082162929439519956 -0.018302699778831717 0 0.0015620717868952783 -0.015754817427405678 0 0.00093713226706688751 -0.018608494928582818 0 0.0015003975663802477 -0.018606882136836957 0 0.00082162929439519956 -0.018302699778831717 0 0.00093267395032587015 -0.019084436457164636 0 0.00093713226706688751 -0.018608494928582818 0 0.00095467144976515679 -0.018948024105119476 0 0.00082162929439519956 -0.018302699778831717 0 0.00029253473909701813 -0.019059876886995321 0 0.00093267395032587015 -0.019084436457164636 0 0.00082162929439519956 -0.018302699778831717 0 0.00012052211744403577 -0.018060583081553248 0 0.00029253473909701813 -0.019059876886995321 0 -0.00037029184992963516 -0.018879599792032926 0 0.00012052211744403577 -0.018060583081553248 0 -0.0011704826759363208 -0.017491033318636939 0 -0.00037029184992963516 -0.018879599792032926 0 0.00012052211744403577 -0.018060583081553248 0 0.00029253473909701813 -0.019059876886995321 0 0.0010061077627740052 -0.01713815416808798 0 -0.00034936530932706469 -0.016915149603104623 0 0.0006966586620643768 -0.017373309377903299 0 0.00012052211744403577 -0.018060583081553248 0 -0.00041470397924883853 -0.016855721452294879 0 0.00012052211744403577 -0.018060583081553248 0 -0.00041470397924883853 -0.016855721452294879 0 -0.0011704826759363208 -0.017491033318636939 0 -0.0018487934525086365 -0.016365547244120076 0 -0.00041470397924883853 -0.016855721452294879 0 -0.0011704826759363208 -0.017491033318636939 0 -0.0023617049537397136 -0.016969946210616312 0 -0.0018487934525086365 -0.016365547244120076 0 -0.0011704826759363208 -0.017491033318636939 0 -0.0023617049537397136 -0.016969946210616312 0 -0.0021575749735983692 -0.017930902162388233 0 -0.0011704826759363208 -0.017491033318636939 0 -0.000566648546654289 -0.019266772090343033 0 -0.00037029184992963516 -0.018879599792032926 0 -0.00043479501943720204 -0.019490397758952404 0 -0.00057102035474184722 -0.019200597774645143 0 -0.000566648546654289 -0.019266772090343033 0 -0.00037029184992963516 -0.018879599792032926 0 -0.0021575749735983692 -0.017930902162388233 0 -0.00037029184992963516 -0.018879599792032926 0 -0.0011704826759363208 -0.017491033318636939 0 -0.0014509269978347826 -0.018463052160649741 0 -0.00039460170616979979 -0.018922674714448195 0 -0.00037029184992963516 -0.018879599792032926 0 -0.00043479501943720204 -0.019490397758952404 0 -2.6832515156967686e-05 -0.019649095006439018 0 -2.6832515156967686e-05 -0.019649095006439018 0 -1.9511501770742401e-05 -0.020183868052478675 0 -0.00031385567341818692 -0.020206893490893944 0 -0.00043479501943720204 -0.019490397758952404 0 -2.6832515156967686e-05 -0.019649095006439018 0 -0.00031385567341818692 -0.020206893490893944 0 -2.6832515156967686e-05 -0.019649095006439018 0 0.0004415351353785479 -0.019724507187394141 0 -1.9511501770742401e-05 -0.020183868052478675 0 -2.6832515156967686e-05 -0.019649095006439018 0 0.00029253473909701813 -0.019059876886995321 0 0.00047246468825633189 -0.019400056084469444 0 -0.00037029184992963516 -0.018879599792032926 0 -2.6832515156967686e-05 -0.019649095006439018 0 0.00029253473909701813 -0.019059876886995321 0 0.00029253473909701813 -0.019059876886995321 0 0.00093267395032587015 -0.019084436457164636 0 0.00047246468825633189 -0.019400056084469444 0 0.00093267395032587015 -0.019084436457164636 0 0.00047246468825633189 -0.019400056084469444 0 0.00075413436214083148 -0.019410377299642664 0 0.00093713226706688751 -0.018608494928582818 0 0.00098898146284201525 -0.019153290157967635 0 0.00093153653606109716 -0.018588746993516678 0 0.0010008390789147345 -0.01916471616738483 0 0.001319585580398222 -0.01884775023976723 0 0.0010105447962659106 -0.018999099334754795 0 0.00093267395032587015 -0.019084436457164636 0 0.0010008390789147345 -0.01916471616738483 0 0.00093267395032587015 -0.019084436457164636 0 0.0010008390789147345 -0.01916471616738483 0 0.00075413436214083148 -0.019410377299642664 0 0.0010008390789147345 -0.01916471616738483 0 0.0010109254003276924 -0.019695493774154343 0 0.0013960293328405232 -0.019275646578174096 0 0.0010008390789147345 -0.01916471616738483 0 0.0010109254003276924 -0.019695493774154343 0 0.00075413436214083148 -0.019410377299642664 0 0.0010109254003276924 -0.019695493774154343 0 0.00075413436214083148 -0.019410377299642664 0 0.0004415351353785479 -0.019724507187394141 0 -2.6832515156967686e-05 -0.019649095006439018 0 0.00047246468825633189 -0.019400056084469444 0 0.0004415351353785479 -0.019724507187394141 0 0.0010109254003276924 -0.019695493774154343 0 0.0004415351353785479 -0.019724507187394141 0 0.00059052660849820773 -0.019971365346053604 0 0.00047246468825633189 -0.019400056084469444 0 0.00075413436214083148 -0.019410377299642664 0 0.0004415351353785479 -0.019724507187394141 0 0.0004415351353785479 -0.019724507187394141 0 0.00059052660849820773 -0.019971365346053604 0 -1.9511501770742401e-05 -0.020183868052478675 0 0.00027890888454479469 -0.020165696345216533 0 6.8618601771084077e-06 -0.020201772176746839 0 0.00059052660849820773 -0.019971365346053604 0 0.00092691591222788584 -0.020302270409043522 0 -1.9511501770742401e-05 -0.020183868052478675 0 0.0010109254003276924 -0.019695493774154343 0 0.00092691591222788584 -0.020302270409043522 0 0.0013286618671843947 -0.020022170094541294 0 0.0010109254003276924 -0.019695493774154343 0 0.00059052660849820773 -0.019971365346053604 0 0.00092691591222788584 -0.020302270409043522 0 -0.00031270357908785162 -0.020158053576638472 0 -0.00025982060320800895 -0.020010515264165116 0 -0.0004623998365742522 -0.019944237391301474 0 -0.00025982060320800895 -0.020010515264165116 0 -1.9511501770742401e-05 -0.020183868052478675 0 -0.00016937663011031931 -0.020023203385800312 0 -0.00031270357908785162 -0.020158053576638472 0 -0.00025982060320800895 -0.020010515264165116 0 -1.9511501770742401e-05 -0.020183868052478675 0 -1.9511501770742401e-05 -0.020183868052478675 0 -0.00011913541395232392 -0.020154440867281045 0 -0.00016937663011031931 -0.020023203385800312 0 -1.9511501770742401e-05 -0.020183868052478675 0 -0.00011913541395232392 -0.020154440867281045 0 -0.00031385567341818692 -0.020206893490893944 0 0.00039907564507767046 -0.01137693885802148 0 0.00054962707161434077 -0.01129545507374924 0 0.00042518081065242208 -0.011186382767631774 0 0.00039907564507767046 -0.01137693885802148 0 0.00058208866685154612 -0.011531765737970103 0 0.00054962707161434077 -0.01129545507374924 0 0.0020099348568608853 -0.013034696711154545 0 0.0015699317374559881 -0.015745029894525253 0 0.0020958457575004437 -0.018704565930731897 0 0.0026436073643858189 -0.018366894109977463 0 0.0026221418961969874 -0.01933761782319034 0 0.0020958457575004437 -0.018704565930731897 0 0.0026221418961969874 -0.01933761782319034 0 0.0019912624150663851 -0.019266831659227743 0 0.0026221418961969874 -0.01933761782319034 0 0.0019912624150663851 -0.019266831659227743 0 0.0021436489906796821 -0.019815781985659656 0 0.0019912624150663851 -0.019266831659227743 0 0.0016117188898415646 -0.019746619282136099 0 0.0021436489906796821 -0.019815781985659656 0 0.0020958457575004437 -0.018704565930731897 0 0.0019912624150663851 -0.019266831659227743 0 0.0016851919333778014 -0.018859431347489117 0 0.0019912624150663851 -0.019266831659227743 0 0.0016851919333778014 -0.018859431347489117 0 0.0013960293328405232 -0.019275646578174096 0 0.0016851919333778014 -0.018859431347489117 0 0.001319585580398222 -0.01884775023976723 0 0.0013960293328405232 -0.019275646578174096 0 0.0010008390789147345 -0.01916471616738483 0 0.001319585580398222 -0.01884775023976723 0 0.0013960293328405232 -0.019275646578174096 0 0.0010109254003276924 -0.019695493774154343 0 0.0013960293328405232 -0.019275646578174096 0 0.0016117188898415646 -0.019746619282136099 0 0.0019912624150663851 -0.019266831659227743 0 0.0013960293328405232 -0.019275646578174096 0 0.0016117188898415646 -0.019746619282136099 0 0.0010109254003276924 -0.019695493774154343 0 0.0016117188898415646 -0.019746619282136099 0 0.0013286618671843947 -0.020022170094541294 0 0.0016117188898415646 -0.019746619282136099 0 0.0013286618671843947 -0.020022170094541294 0 0.0017605057327630526 -0.020340700658486661 0 0.00092691591222788584 -0.020302270409043522 0 0.0013286618671843947 -0.020022170094541294 0 0.0017605057327630526 -0.020340700658486661 0 0.00027890888454479469 -0.020165696345216533 0 0.00057462829551342177 -0.020660368414475556 0 -0.0004623998365742522 -0.019944237391301474 0 -0.00070307659365995113 -0.020080396776381595 0 -0.00084185912380853995 -0.019744031037332938 0 -0.00031270357908785162 -0.020158053576638472 0 -0.0004623998365742522 -0.019944237391301474 0 -0.00070307659365995113 -0.020080396776381595 0 -0.00070307659365995113 -0.020080396776381595 0 -0.00123504116443835 -0.019965690504958146 0 -0.00084185912380853995 -0.019744031037332938 0 0.00057462829551342177 -0.020660368414475556 0 0.00068077274567273803 -0.016771608457753565 0 0.0016117188898415646 -0.019746619282136099 0 0.0017605057327630526 -0.020340700658486661 0 0.0021436489906796821 -0.019815781985659656 0 0.0017605057327630526 -0.020340700658486661 0 0.0021436489906796821 -0.019815781985659656 0 0.0025837664277698871 -0.020214965380812903 0 0.0015699317374559881 -0.015745029894525253 0 0.0012711860637433594 -0.015597829474329897 0 0.0026221418961969874 -0.01933761782319034 0 0.0021436489906796821 -0.019815781985659656 0 0.0025837664277698871 -0.020214965380812903 0 0.0017605057327630526 -0.020340700658486661 0 0.0025803212409889458 -0.020400366828144809 0 0.0025837664277698871 -0.020214965380812903 0 0.00068077274567273803 -0.016771608457753565 0 0.0012711860637433594 -0.015597829474329897 0 0.00034811606301207433 -0.011058548206462324 0 0.00050024951602210539 -0.011111080641323722 0 0.00039333125240042361 -0.010987167399037686 0 0.00048920263869788104 -0.01108007511812395 0 0.00050024951602210539 -0.011111080641323722 0 0.00039333125240042361 -0.010987167399037686 0 0.00034811606301207433 -0.011058548206462324 0 0.00050024951602210539 -0.011111080641323722 0 0.00042518081065242208 -0.011186382767631774 0 0.00054962707161434077 -0.01129545507374924 0 0.00050024951602210539 -0.011111080641323722 0 0.00042518081065242208 -0.011186382767631774 0 0.00038713445303070764 -0.010909693379868636 0 0.00039333125240042361 -0.010987167399037686 0 0.00044719308201486021 -0.010981378202304545 0 0.00038713445303070764 -0.010909693379868636 0 0.00044719308201486021 -0.010981378202304545 0 0.00041813412948170072 -0.01091440016888397 0 0.00048920263869788104 -0.01108007511812395 0 0.00039333125240042361 -0.010987167399037686 0 0.00044719308201486021 -0.010981378202304545 0 -0.0012711061082522055 -0.019513839893802905 0 -0.00084099500675517604 -0.019227974781627175 0 -0.00084185912380853995 -0.019744031037332938 0 0.00068077274567273803 -0.016771608457753565 0 -0.00047875620956088004 -0.015004634448882026 0 -0.00123504116443835 -0.019965690504958146 0 -0.0012711061082522055 -0.019513839893802905 0 -0.00084185912380853995 -0.019744031037332938 0 -0.0012711061082522055 -0.019513839893802905 0 -0.00084099500675517604 -0.019227974781627175 0 -0.0012952425046192397 -0.018837205295251937 0 -0.00047875620956088004 -0.015004634448882026 0 -0.00046567226117058438 -0.014978129292632321 0 -0.00084099500675517604 -0.019227974781627175 0 -0.00084185912380853995 -0.019744031037332938 0 -0.00047766897657588439 -0.019619557200756293 0 -0.0004623998365742522 -0.019944237391301474 0 -0.00084185912380853995 -0.019744031037332938 0 -0.00047766897657588439 -0.019619557200756293 0 -0.00072656157820162929 -0.019784992546228272 0 -0.00050193351421209855 -0.019940514930395826 0 -0.0005430934453479635 -0.019730429713229098 0 -0.00068210588971577828 -0.020069202815211087 0 -0.0005487949534774873 -0.019688508966709366 0 -0.0005430934453479635 -0.019730429713229098 0 -0.00056716607717453111 -0.019519644188670401 0 -0.00075203572902764833 -0.019581298253762786 0 -0.0005430934453479635 -0.019730429713229098 0 -0.00056716607717453111 -0.019519644188670401 0 -0.00041154781659104777 -0.019673842238135879 0 -0.00076261806341891385 -0.019349698922830484 0 -0.00056716607717453111 -0.019519644188670401 0 -0.00075203572902764833 -0.019581298253762786 0 -0.00072656157820162929 -0.019784992546228272 0 -0.0005430934453479635 -0.019730429713229098 0 -0.00075203572902764833 -0.019581298253762786 0 -0.00075203572902764833 -0.019581298253762786 0 -0.00093073422137531685 -0.019586684641878228 0 -0.00092742703546017482 -0.01950189768439696 0 -0.00072656157820162929 -0.019784992546228272 0 -0.00075203572902764833 -0.019581298253762786 0 -0.00093073422137531685 -0.019586684641878228 0 -0.00068210588971577828 -0.020069202815211087 0 -0.00046567226117058438 -0.014978129292632321 0 -0.00046567226117058438 -0.014978129292632321 0 -0.0017859707818932251 -0.012099144493718895 0 -0.0023845924446964559 -0.011831974299651852 0 -0.0015972235140555848 -0.011510009646485289 0 -0.0016032883562693253 -0.010906202984374249 0 -0.0019919986589980961 -0.013796577563745924 0 -0.0017859707818932251 -0.012099144493718895 0 -0.00076261806341891385 -0.019349698922830484 0 -0.00075203572902764833 -0.019581298253762786 0 -0.00092742703546017482 -0.01950189768439696 0 -0.002474730774036038 -0.0074003738920097994 0 -0.0017859707818932251 -0.012099144493718895 0 -0.0016710665310468954 -0.0039942666677278598 0 -0.0016583771015810933 -0.0040648809102342412 0 -0.0016760005428161011 -0.0040011623795229408 0 -0.0017859707818932251 -0.012099144493718895 0 -0.0012844301691478583 -0.0084671769280997237 0 -0.0023897382030094077 -0.0029639853915101148 0 -0.0012844301691478583 -0.0084671769280997237 0 -0.0017036185988006762 -0.0039368324204324861 0 -0.001731085798854181 -0.0038903265031310394 0 -0.0018095026853874813 -0.0039166195221676256 0 -0.0016583771015810933 -0.0040648809102342412 0 -0.0016908212136633196 -0.004011722149719248 0 -0.0016838002341282219 -0.0040908109953359814 0 -0.0017036185988006762 -0.0039368324204324861 0 -0.0016908212136633196 -0.004011722149719248 0 -0.0016838002341282219 -0.0040908109953359814 0 -0.0016583771015810933 -0.0040648809102342412 0 -0.0016908212136633196 -0.004011722149719248 0 -0.0016760005428161011 -0.0040011623795229408 0 -0.0017058186699794903 -0.0039725003207247683 0 -0.0016908212136633196 -0.004011722149719248 0 -0.0016760005428161011 -0.0040011623795229408 0 -0.0017036185988006762 -0.0039368324204324861 0 -0.0017058186699794903 -0.0039725003207247683 0 -0.0016908212136633196 -0.004011722149719248 0 -0.001731085798854181 -0.0038903265031310394 0 -0.0017414602535071801 -0.0037859192708350393 0 -0.0018095026853874813 -0.0039166195221676256 0 0.00038713445303070764 -0.010909693379868636 0 0.00041813412948170072 -0.01091440016888397 0 0.00040845633367185454 -0.010903599889323393 0 -0.0015324947478584665 -0.011397206978623824 0 -0.0015411599807825065 -0.011297867966296914 0 -0.0015870696792769394 -0.011354641431018333 0 -0.00046567226117058438 -0.014978129292632321 0 -0.0012844301691478583 -0.0084671769280997237 0 -0.00051054262265857651 -0.0071232513825580353 0 -0.0012844301691478583 -0.0084671769280997237 0 -0.00021660142646908872 -0.019895976191883609 0 -0.0001265143350490144 -0.019957220255699758 0 -0.00016937663011031931 -0.020023203385800312 0 -0.0001265143350490144 -0.019957220255699758 0 -0.00011913541395232392 -0.020154440867281045 0 -1.6344401750761105e-05 -0.01989855981181949 0 -0.0001265143350490144 -0.019957220255699758 0 -0.00011913541395232392 -0.020154440867281045 0 -0.00016937663011031931 -0.020023203385800312 0 -0.00025982060320800895 -0.020010515264165116 0 -0.00016937663011031931 -0.020023203385800312 0 -0.00032781191998211957 -0.019881022096389835 0 -0.00025982060320800895 -0.020010515264165116 0 -0.0004623998365742522 -0.019944237391301474 0 -0.00047766897657588439 -0.019619557200756293 0 -0.00025982060320800895 -0.020010515264165116 0 -0.00050193351421209855 -0.019940514930395826 0 -0.00032781191998211957 -0.019881022096389835 0 -0.00025518681846776217 -0.020010352836561756 0 -0.0005487949534774873 -0.019688508966709366 0 -0.00050193351421209855 -0.019940514930395826 0 -0.0005430934453479635 -0.019730429713229098 0 -0.00032781191998211957 -0.019881022096389835 0 -0.00021660142646908872 -0.019895976191883609 0 -0.00016937663011031931 -0.020023203385800312 0 -0.00032781191998211957 -0.019881022096389835 0 -0.00021660142646908872 -0.019895976191883609 0 -0.00032781191998211957 -0.019881022096389835 0 -0.0002672250573032714 -0.019725978115631617 0 -0.00032781191998211957 -0.019881022096389835 0 -0.0002672250573032714 -0.019725978115631617 0 -0.00041154781659104777 -0.019673842238135879 0 -0.0005430934453479635 -0.019730429713229098 0 -0.00032781191998211957 -0.019881022096389835 0 -0.00041154781659104777 -0.019673842238135879 0 -0.00039364375937606219 -0.019490864799790279 0 -0.00056716607717453111 -0.019519644188670401 0 -0.00041154781659104777 -0.019673842238135879 0 -0.00022987369704257485 -0.01947572069837326 0 -0.00039364375937606219 -0.019490864799790279 0 -0.0002672250573032714 -0.019725978115631617 0 -0.00039364375937606219 -0.019490864799790279 0 -0.0002672250573032714 -0.019725978115631617 0 -0.00041154781659104777 -0.019673842238135879 0 -0.00022987369704257485 -0.01947572069837326 0 -0.0002672250573032714 -0.019725978115631617 0 -0.00014066782471039752 -0.019738292271769049 0 -0.00021660142646908872 -0.019895976191883609 0 -0.0002672250573032714 -0.019725978115631617 0 -0.00014066782471039752 -0.019738292271769049 0 -0.00021660142646908872 -0.019895976191883609 0 -0.0001265143350490144 -0.019957220255699758 0 -0.00014066782471039752 -0.019738292271769049 0 -0.00013593043659759852 -0.019769102898341866 0 3.1630003219593653e-05 -0.020064507899246978 0 -0.0001265143350490144 -0.019957220255699758 0 -0.00014066782471039752 -0.019738292271769049 0 -1.6344401750761105e-05 -0.01989855981181949 0 1.6683657100940523e-05 -0.019443536261781306 0 -0.00014066782471039752 -0.019738292271769049 0 0.0001785999113340749 -0.019718121471641471 0 -0.00014066782471039752 -0.019738292271769049 0 0.0001785999113340749 -0.019718121471641471 0 6.9114843751491014e-05 -0.020236207091009626 0 0.00065475006934484882 -0.019642188611021072 0 0.00039518564517182806 -0.019616513515601435 0 0.00044359221144466107 -0.019958323407465121 0 0.00039518564517182806 -0.019616513515601435 0 0.0001785999113340749 -0.019718121471641471 0 0.00044359221144466107 -0.019958323407465121 0 0.00044359221144466107 -0.019958323407465121 0 6.9114843751491014e-05 -0.020236207091009626 0 0.00042143087190805252 -0.020339942852679222 0 0.0001785999113340749 -0.019718121471641471 0 0.00044359221144466107 -0.019958323407465121 0 6.9114843751491014e-05 -0.020236207091009626 0 3.1630003219593653e-05 -0.020064507899246978 0 0.00024879427473138124 -0.020388373845283185 0 6.9114843751491014e-05 -0.020236207091009626 0 0.00042143087190805252 -0.020339942852679222 0 0.00038525090817183706 -0.020684658147414395 0 -0.00011913541395232392 -0.020154440867281045 0 -1.6344401750761105e-05 -0.01989855981181949 0 0.00011133220071727347 -0.020092902183823234 0 0.00042143087190805252 -0.020339942852679222 0 0.00038525090817183706 -0.020684658147414395 0 0.00059596169456159682 -0.020840532999399752 0 0.00038525090817183706 -0.020684658147414395 0 0.00059596169456159682 -0.020840532999399752 0 0.00047018473965022601 -0.020672918049640339 0 0.00042143087190805252 -0.020339942852679222 0 0.00059596169456159682 -0.020840532999399752 0 0.00071266595261326 -0.02021056440397985 0 0.00059596169456159682 -0.020840532999399752 0 0.00062945008891069623 -0.021176428733527264 0 0.00052120917537557259 -0.021152523412463823 0 0.00061332464670672501 -0.020825666376685543 0 0.00064920925840062608 -0.020670748903987231 0 0.00062945008891069623 -0.021176428733527264 0 0.00063307729652650388 -0.021143104316600384 0 0.00052120917537557259 -0.021152523412463823 0 0.00064097077738642404 -0.021294911931097029 0 0.00050906277015339365 -0.021137657069400708 0 0.00044359221144466107 -0.019958323407465121 0 0.00042143087190805252 -0.020339942852679222 0 0.00071266595261326 -0.02021056440397985 0 0.00053689564928680294 -0.021040430029002122 0 0.00062945008891069623 -0.021176428733527264 0 0.00063307729652650388 -0.021143104316600384 0 0.00065475006934484882 -0.019642188611021072 0 0.00044359221144466107 -0.019958323407465121 0 0.00071266595261326 -0.02021056440397985 0 0.00065023616758698845 -0.020385383033982594 0 0.00064920925840062608 -0.020670748903987231 0 0.00050753001747670863 -0.021482369543978624 0 0.00057253272200806168 -0.021410653524101413 0 0.00049927493610206377 -0.021445898999375546 0 0.00044866274838262845 -0.021484621081155088 0 0.00049927493610206377 -0.021445898999375546 0 0.00047021924966109976 -0.021399369418053871 0 0.00057253272200806168 -0.021410653524101413 0 0.00049927493610206377 -0.021445898999375546 0 0.00047021924966109976 -0.021399369418053871 0 0.00044866274838262845 -0.021484621081155088 0 0.00047021924966109976 -0.021399369418053871 0 0.00038014810493820637 -0.021487382123371371 0 0.00047021924966109976 -0.021399369418053871 0 0.00041045710239501128 -0.021374873225684952 0 0.00038014810493820637 -0.021487382123371371 0 0.00057253272200806168 -0.021410653524101413 0 0.00047021924966109976 -0.021399369418053871 0 0.00052120917537557259 -0.021152523412463823 0 0.00047021924966109976 -0.021399369418053871 0 0.00041045710239501128 -0.021374873225684952 0 0.00052120917537557259 -0.021152523412463823 0 0.00019067216288965385 -0.0215813599677551 0 0.00033763376580839196 -0.021489648162030379 0 0.00032784176780056428 -0.021522584758879814 0 0.00031869454585244978 -0.02156177648255066 0 0.00019067216288965385 -0.0215813599677551 0 0.00033763376580839196 -0.021489648162030379 0 0.00041045710239501128 -0.021374873225684952 0 0.00038014810493820637 -0.021487382123371371 0 0.00033763376580839196 -0.021489648162030379 0 0.00031869454585244978 -0.02156177648255066 0 0.00038014810493820637 -0.021487382123371371 0 0.00033763376580839196 -0.021489648162030379 0 0.00041045710239501128 -0.021374873225684952 0 0.00033763376580839196 -0.021489648162030379 0 0.00038428298929598612 -0.021387416197761581 0 0.00033763376580839196 -0.021489648162030379 0 0.00032784176780056428 -0.021522584758879814 0 0.00038428298929598612 -0.021387416197761581 0 0.00038895062672555117 -0.021445815443797228 0 0.00038428298929598612 -0.021387416197761581 0 0.00043096255429864405 -0.021271657863970748 0 0.00032784176780056428 -0.021522584758879814 0 0.00038895062672555117 -0.021445815443797228 0 0.00038428298929598612 -0.021387416197761581 0 0.00038428298929598612 -0.021387416197761581 0 0.00043096255429864405 -0.021271657863970748 0 0.00043883736441175395 -0.021242556274222946 0 0.00038895062672555117 -0.021445815443797228 0 0.00043096255429864405 -0.021271657863970748 0 0.00041658843000270696 -0.02136703395319723 0 0.00041045710239501128 -0.021374873225684952 0 0.00038428298929598612 -0.021387416197761581 0 0.00043883736441175395 -0.021242556274222946 0 0.00041045710239501128 -0.021374873225684952 0 0.00052120917537557259 -0.021152523412463823 0 0.00043883736441175395 -0.021242556274222946 0 0.00043096255429864405 -0.021271657863970748 0 0.00043883736441175395 -0.021242556274222946 0 0.00049131238018344174 -0.021043987428264545 0 0.00059596169456159682 -0.020840532999399752 0 0.00052120917537557259 -0.021152523412463823 0 0.00049131238018344174 -0.021043987428264545 0 0.00052120917537557259 -0.021152523412463823 0 0.00043883736441175395 -0.021242556274222946 0 0.00049131238018344174 -0.021043987428264545 0 0.00059596169456159682 -0.020840532999399752 0 0.00049131238018344174 -0.021043987428264545 0 0.00052051094935040077 -0.020860010065265552 0 0.00049131238018344174 -0.021043987428264545 0 0.0005176903681622726 -0.021027628128943432 0 0.00052051094935040077 -0.020860010065265552 0 0.00049131238018344174 -0.021043987428264545 0 0.0005176903681622726 -0.021027628128943432 0 0.00048673569973171351 -0.021174304682417391 0 0.00043096255429864405 -0.021271657863970748 0 0.00049131238018344174 -0.021043987428264545 0 0.00048673569973171351 -0.021174304682417391 0 0.0005176903681622726 -0.021027628128943432 0 0.00048673569973171351 -0.021174304682417391 0 0.0005494459608599313 -0.021116675065218894 0 0.0005176903681622726 -0.021027628128943432 0 0.00052793728480107392 -0.020962499437947941 0 0.0005494459608599313 -0.021116675065218894 0 0.0005176903681622726 -0.021027628128943432 0 0.00052793728480107392 -0.020962499437947941 0 0.00052051094935040077 -0.020860010065265552 0 0.00043096255429864405 -0.021271657863970748 0 0.00043937171234262871 -0.021293634895017965 0 0.00041658843000270696 -0.02136703395319723 0 0.00043937171234262871 -0.021293634895017965 0 0.00041658843000270696 -0.02136703395319723 0 0.00041010641263636066 -0.021365391909096761 0 0.00043096255429864405 -0.021271657863970748 0 0.00043937171234262871 -0.021293634895017965 0 0.00048673569973171351 -0.021174304682417391 0 0.00048673569973171351 -0.021174304682417391 0 0.00048505759608456035 -0.021239225030842149 0 0.0005494459608599313 -0.021116675065218894 0 0.00043937171234262871 -0.021293634895017965 0 0.00048673569973171351 -0.021174304682417391 0 0.00048505759608456035 -0.021239225030842149 0 0.00043937171234262871 -0.021293634895017965 0 0.00048505759608456035 -0.021239225030842149 0 0.00041010641263636066 -0.021365391909096761 0 0.00041010641263636066 -0.021365391909096761 0 0.00045856880275458065 -0.02135866585849145 0 0.00051891711091779571 -0.021232373400548649 0 0.00048505759608456035 -0.021239225030842149 0 0.00041010641263636066 -0.021365391909096761 0 0.00051891711091779571 -0.021232373400548649 0 0.00048505759608456035 -0.021239225030842149 0 0.00051891711091779571 -0.021232373400548649 0 0.0005494459608599313 -0.021116675065218894 0 0.00052698147258981064 -0.021094981002392269 0 0.00051891711091779571 -0.021232373400548649 0 0.00060086935326570355 -0.021107210899351202 0 0.00051891711091779571 -0.021232373400548649 0 0.0005494459608599313 -0.021116675065218894 0 0.00060086935326570355 -0.021107210899351202 0 0.00038969410720832094 -0.021194393862102041 0 0.00052698147258981064 -0.021094981002392269 0 0.00045856880275458065 -0.02135866585849145 0 0.00052698147258981064 -0.021094981002392269 0 0.00045856880275458065 -0.02135866585849145 0 0.00051891711091779571 -0.021232373400548649 0 0.00052793728480107392 -0.020962499437947941 0 0.0005494459608599313 -0.021116675065218894 0 0.00056382244702070459 -0.021047706365465185 0 0.00052793728480107392 -0.020962499437947941 0 0.00056382244702070459 -0.021047706365465185 0 0.0004412270827006703 -0.020843354445430763 0 0.00059916401550819945 -0.021088547658486747 0 0.00060086935326570355 -0.021107210899351202 0 0.00056382244702070459 -0.021047706365465185 0 0.0005494459608599313 -0.021116675065218894 0 0.00060086935326570355 -0.021107210899351202 0 0.00056382244702070459 -0.021047706365465185 0 0.00012805561533985139 -0.020362099752551804 0 -0.00012060562183343843 -0.02028670956828094 0 0.00059916401550819945 -0.021088547658486747 0 0.00056382244702070459 -0.021047706365465185 0 0.00045009139246866646 -0.02105243593472881 0 0.00056382244702070459 -0.021047706365465185 0 0.00045009139246866646 -0.02105243593472881 0 0.0004412270827006703 -0.020843354445430763 0 0.0004412270827006703 -0.020843354445430763 0 0.00016195021341408491 -0.020845508590096429 0 0.00029056708295919419 -0.020677736391920637 0 0.00045009139246866646 -0.02105243593472881 0 0.0004412270827006703 -0.020843354445430763 0 0.00016195021341408491 -0.020845508590096429 0 -0.00080078293978203539 -0.01952843067572993 0 -0.00069715063589251541 -0.019503490111675358 0 -0.00086058282971863411 -0.019685208451016106 0 -0.00012060562183343843 -0.02028670956828094 0 -0.00031831076471816209 -0.020263092853397308 0 -0.00080078293978203539 -0.01952843067572993 0 -0.00072999203360755082 -0.019448529219998983 0 -0.00086058282971863411 -0.019685208451016106 0 -0.000566648546654289 -0.019266772090343033 0 -0.00043479501943720204 -0.019490397758952404 0 -0.00072999203360755082 -0.019448529219998983 0 -0.00043479501943720204 -0.019490397758952404 0 -0.00072999203360755082 -0.019448529219998983 0 -0.00031385567341818692 -0.020206893490893944 0 -0.00029601417411396802 -0.020232293444249635 0 -0.00031831076471816209 -0.020263092853397308 0 -0.00072999203360755082 -0.019448529219998983 0 -0.00031385567341818692 -0.020206893490893944 0 -0.00086058282971863411 -0.019685208451016106 0 -0.00011913541395232392 -0.020154440867281045 0 -0.00031385567341818692 -0.020206893490893944 0 8.6120234786271336e-06 -0.020354233695291189 0 0.00016195021341408491 -0.020845508590096429 0 8.6120234786271336e-06 -0.020354233695291189 0 0.00029056708295919419 -0.020677736391920637 0 -0.00031385567341818692 -0.020206893490893944 0 0.00016195021341408491 -0.020845508590096429 0 8.6120234786271336e-06 -0.020354233695291189 0 -0.00011913541395232392 -0.020154440867281045 0 0.00011133220071727347 -0.020092902183823234 0 8.6120234786271336e-06 -0.020354233695291189 0 0.00011133220071727347 -0.020092902183823234 0 8.6120234786271336e-06 -0.020354233695291189 0 0.00047018473965022601 -0.020672918049640339 0 0.00024879427473138124 -0.020388373845283185 0 0.00045395234652531824 -0.020648671168073937 0 0.00059596169456159682 -0.020840532999399752 0 0.00047018473965022601 -0.020672918049640339 0 0.00052051094935040077 -0.020860010065265552 0 0.00052793728480107392 -0.020962499437947941 0 0.0004412270827006703 -0.020843354445430763 0 0.00052051094935040077 -0.020860010065265552 0 0.0004412270827006703 -0.020843354445430763 0 0.00047018473965022601 -0.020672918049640339 0 0.00052051094935040077 -0.020860010065265552 0 0.0004412270827006703 -0.020843354445430763 0 0.00047018473965022601 -0.020672918049640339 0 0.00029056708295919419 -0.020677736391920637 0 8.6120234786271336e-06 -0.020354233695291189 0 0.00047018473965022601 -0.020672918049640339 0 0.00029056708295919419 -0.020677736391920637 0 
</DataArray>
</PointData>
<CellData Scalars="region_id,cross_section_updated," Vectors="" Tensors="stress,">
<DataArray type="Float64" Name="region_id" format="ascii">
5 5 5 5 5 5 5 5 5 5 5 5 5 5 6 5 5 5 5 5 5 6 5 6 5 5 5 5 5 5 5 5 5 5 5 5 5 5 5 5 5 5 5 5 5 5 6 5 5 5 5 5 5 6 5 6 5 5 5 5 5 5 5 5 5 5 5 5 5 5 6 5 5 5 5 5 5 5 5 5 5 5 6 5 6 5 5 5 6 5 5 5 5 5 6 6 5 5 5 5 5 5 5 5 5 5 6 5 5 5 6 5 5 5 5 5 5 5 5 5 5 6 5 6 5 5 6 5 5 5 5 5 5 5 6 5 5 5 5 5 5 5 5 6 5 5 6 5 5 6 5 5 6 5 5 5 5 5 5 5 5 5 5 5 5 5 6 5 5 6 5 6 6 5 5 5 5 5 5 5 5 5 6 5 5 5 5 5 5 5 5 5 5 5 5 5 5 5 5 5 5 5 5 5 5 5 5 5 5 5 5 5 5 5 6 6 5 5 6 6 5 5 6 5 6 5 5 6 5 6 5 5 5 5 5 5 5 5 6 5 5 5 6 5 5 6 5 6 5 5 6 6 5 5 5 6 5 5 6 6 5 5 5 5 6 6 6 5 5 5 6 5 5 6 5 5 5 5 5 5 5 6 5 5 6 5 5 5 5 6 5 5 5 5 5 5 5 5 6 5 5 6 5 6 5 5 5 6 5 5 5 5 5 5 5 5 5 5 5 5 6 5 5 5 5 6 5 6 6 5 5 5 5 5 5 5 5 5 5 6 6 5 5 5 5 5 5 5 5 5 5 5 5 5 5 5 5 5 5 5 5 5 5 5 5 5 5 5 5 5 5 5 5 5 5 5 5 5 5 5 5 5 5 5 5 5 5 5 5 5 5 5 5 5 5 5 5 5 5 6 5 5 6 5 5 5 5 5 5 5 5 5 5 5 5 6 5 5 5 5 5 5 6 6 5 5 5 5 5 6 6 5 5 5 5 6 5 6 5 5 5 5 5 6 5 6 5 5 6 6 6 5 5 5 6 5 5 5 6 5 5 6 5 5 5 5 5 5 5 5 5 5 5 5 5 5 5 5 5 5 5 5 5 5 5 5 5 5 6 5 5 5 5 5 5 5 5 5 5 5 5 5 5 5 5 5 5 5 5 5 5 5 5 5 5 5 5 5 5 5 5 5 5 5 5 6 5 5 5 5 5 5 5 5 5 5 5 5 5 5 5 5 5 6 5 6 5 5 5 5 6 5 5 6 5 5 5 5 5 5 6 5 5 5 5 5 5 5 5 5 5 5 6 5 5 5 5 5 5 5 5 5 5 5 5 5 5 5 5 5 5 5 5 5 5 5 5 5 5 5 5 5 5 5 5 5 5 5 5 5 5 5 5 5 5 5 6 5 5 5 5 5 5 5 5 5 5 5 5 6 5 5 5 6 5 5 5 6 6 5 5 6 5 5 5 5 5 5 5 5 5 5 5 5 5 5 5 5 5 5 5 5 5 5 5 5 5 5 5 5 5 5 5 5 5 6 5 5 5 5 5 5 5 5 5 6 5 5 6 6 5 5 5 5 5 6 5 5 6 6 5 5 6 5 6 5 5 5 5 5 6 5 5 5 6 5 5 5 5 5 5 5 5 5 5 5 5 6 6 5 5 6 5 5 5 5 5 5 5 5 5 5 5 5 5 5 5 5 5 5 5 5 5 5 6 5 5 5 5 6 5 5 5 5 5 5 5 5 6 5 6 5 5 5 5 5 5 5 5 5 5 5 6 5 5 5 5 6 5 5 5 5 5 5 6 5 5 5 5 6 6 5 6 5 5 6 5 5 5 5 5 5 5 5 5 5 5 5 5 5 5 5 5 6 5 6 5 5 5 5 5 6 5 5 5 5 5 5 5 5 5 5 5 5 5 5 5 5 5 5 5 5 5 5 5 5 5 5 5 5 5 5 5 5 5 5 5 5 5 5 5 5 5 5 5 5 5 5 5 5 5 5 5 5 5 5 5 5 5 5 5 5 5 5 5 5 5 5 5 6 5 6 5 5 5 5 5 5 5 5 5 5 5 5 5 5 5 5 5 5 5 5 5 5 5 5 5 5 5 5 5 5 5 5 5 5 5 5 5 5 5 5 5 6 5 5 5 5 5 5 5 5 5 5 5 5 5 5 5 6 5 5 5 5 5 5 6 5 5 5 5 5 5 5 5 5 5 5 5 5 5 5 5 5 5 5 6 5 5 6 5 5 6 5 5 5 5 6 5 6 5 5 5 5 5 5 5 5 5 5 5 5 5 5 5 5 5 5 5 5 5 5 5 5 5 6 5 6 5 5 5 5 5 5 5 5 5 5 5 6 5 5 5 6 5 5 6 5 6 5 5 5 5 5 5 5 5 5 5 5 5 5 5 6 5 5 5 5 5 5 6 5 5 5 5 5 5 5 5 6 5 5 5 5 5 5 5 5 5 5 5 5 5 5 5 5 5 5 5 6 5 5 5 5 5 5 5 5 5 5 5 5 5 5 5 5 5 5 5 5 5 5 5 5 5 5 6 5 5 5 5 6 5 5 5 6 5 5 5 5 5 5 5 5 5 5 5 5 5 5 6 5 5 5 6 5 5 5 5 5 6 5 5 5 5 5 5 5 5 5 5 5 5 5 5 5 5 6 5 6 5 6 5 5 5 6 5 5 5 5 5 5 5 5 5 5 5 5 5 5 6 5 5 5 5 5 5 5 5 5 5 5 5 5 5 6 6 5 5 5 5 5 5 5 5 5 5 5 5 5 5 5 5 5 5 5 5 5 5 5 5 5 5 5 5 6 5 5 5 5 6 5 5 5 6 5 5 5 5 5 5 5 5 6 5 5 5 6 5 5 6 5 5 6 6 5 5 5 5 5 5 6 5 5 5 5 5 5 5 5 5 5 5 5 5 6 5 5 5 5 6 5 5 5 5 5 5 5 5 5 5 5 5 5 5 5 5 5 5 5 5 5 5 5 5 5 5 5 5 5 5 5 5 5 5 5 5 5 5 5 5 5 5 5 5 5 5 5 5 5 5 5 5 5 5 5 5 5 5 5 5 5 5 5 5 5 5 5 5 5 5 6 5 5 5 5 5 5 5 5 5 5 5 6 5 5 5 5 6 5 5 5 5 5 6 5 5 5 6 5 5 5 6 5 5 5 5 5 5 5 5 6 5 5 5 6 5 6 5 5 6 5 5 5 5 5 6 5 5 5 5 5 5 6 5 5 5 5 5 5 5 5 5 5 5 6 6 5 5 5 5 5 5 5 5 5 5 5 5 5 5 5 5 5 5 5 5 5 5 5 5 5 5 5 5 5 6 5 5 5 5 6 5 5 5 5 5 5 5 5 6 5 5 5 5 6 6 5 5 5 5 5 5 5 5 5 5 6 5 5 5 5 5 5 5 5 5 6 5 5 5 5 5 5 5 5 5 5 5 5 5 5 5 5 5 5 5 5 5 5 5 5 5 5 5 6 5 5 5 5 5 5 5 5 5 5 5 5 5 5 5 5 5 5 5 5 5 5 5 5 5 5 5 5 5 5 5 5 5 5 5 5 5 5 5 5 5 5 5 5 5 5 5 5 5 6 5 5 5 5 6 6 5 5 5 5 5 5 5 5 5 5 5 5 5 5 5 5 5 5 6 5 5 5 5 5 5 5 5 5 5 5 5 5 5 5 6 5 5 5 5 5 5 5 5 5 5 5 5 5 5 5 5 5 5 5 5 5 5 5 5 5 5 5 5 5 5 5 6 5 5 6 5 5 6 5 5 5 5 6 6 5 5 5 5 5 5 5 6 5 5 5 5 5 5 6 5 5 5 5 5 5 5 5 5 5 5 5 5 6 5 6 5 5 5 5 5 5 6 5 5 5 5 5 5 5 5 5 5 5 5 5 5 5 5 5 5 5 5 5 5 6 6 5 6 5 5 5 5 5 6 5 6 5 5 5 6 5 6 5 5 5 5 6 5 5 6 5 5 5 6 5 5 5 6 5 5 5 6 5 5 5 5 5 5 5 5 5 6 5 5 5 5 6 5 6 5 5 6 5 5 5 6 5 6 5 5 5 5 5 5 6 5 5 6 5 6 5 5 5 5 5 5 5 5 5 5 5 5 5 5 6 5 5 5 5 5 6 6 5 5 5 6 5 5 5 5 6 5 5 6 5 5 5 5 5 5 5 6 5 5 5 5 5 5 5 5 5 5 5 5 5 5 5 6 5 5 5 5 5 5 5 5 6 5 6 5 5 5 6 5 6 5 5 5 5 5 5 5 5 5 5 5 5 5 5 5 5 5 5 5 5 5 5 5 5 5 5 5 6 5 5 5 6 5 5 5 5 5 5 6 5 5 5 6 5 6 5 5 5 5 5 5 5 5 6 6 5 5 5 5 5 5 6 5 5 5 6 5 5 5 6 5 5 5 5 5 5 5 5 5 5 5 5 6 5 6 5 5 5 5 5 5 5 5 5 5 6 5 6 6 5 5 5 5 5 5 5 5 5 5 5 5 5 6 5 5 6 5 6 5 5 5 5 5 5 6 5 5 5 6 5 6 5 5 5 6 5 5 6 6 5 6 5 5 6 5 5 5 5 5 5 5 5 5 5 5 5 5 6 6 5 5 5 5 5 5 5 5 5 5 5 5 5 5 5 5 5 5 5 5 6 5 6 6 5 5 5 6 5 6 6 5 5 5 5 6 5 5 5 5 5 5 6 5 5 5 5 5 5 5 5 5 5 5 5 6 5 5 5 5 5 5 5 5 5 5 5 5 5 6 5 6 5 5 5 5 5 5 5 5 6 5 6 5 5 5 6 5 5 5 5 5 6 5 6 6 5 5 6 5 5 5 5 6 5 6 5 5 6 5 5 6 5 5 5 5 5 5 6 6 5 5 6 5 5 6 5 5 6 6 5 5 5 6 5 5 5 6 5 6 5 6 5 5 6 5 5 6 5 5 5 6 5 5 5 6 5 5 5 6 5 6 5 5 5 6 5 5 5 5 5 5 5 5 5 5 5 5 5 5 5 5 5 5 5 5 5 5 5 5 5 5 5 5 5 5 5 5 5 5 5 5 5 5 5 5 5 5 5 6 5 5 5 5 5 5 6 6 5 5 5 5 5 5 5 5 5 5 5 5 5 5 5 5 5 5 5 5 5 5 5 5 5 5 5 5 5 5 5 5 5 5 5 5 5 5 5 5 6 5 5 5 6 5 5 6 6 5 5 6 5 6 5 6 6 5 5 5 5 5 6 5 6 5 5 6 5 5 5 5 5 6 5 5 5 5 5 5 5 5 5 5 5 5 6 5 6 5 6 5 5 5 5 5 6 6 6 5 5 6 6 5 5 5 6 5 6 5 6 6 5 6 5 5 5 6 5 5 5 5 5 5 5 6 6 5 5 6 5 5 6 5 6 5 5 6 5 5 6 5 6 5 5 5 6 5 6 5 5 6 5 6 6 5 6 6 6 5 5 5 5 6 5 5 6 5 5 5 5 6 5 5 5 5 5 5 6 5 6 5 5 5 6 6 5 5 5 5 5 5 6 5 5 6 5 6 5 5 6 5 5 6 5 5 5 5 6 6 5 5 5 5 6 5 5 5 5 5 5 5 5 5 6 5 5 5 5 5 5 5 6 5 6 5 6 5 5 6 5 5 5 5 6 6 5 5 5 6 6 6 5 5 5 5 6 6 6 6 5 5 6 5 5 6 5 5 5 6 5 5 5 6 5 6 5 5 5 5 5 5 5 6 6 5 5 6 5 5 5 5 5 5 5 6 5 5 5 5 5 5 5 6 5 5 5 5 5 5 5 5 5 5 5 5 5 5 6 5 5 5 5 5 5 5 5 5 5 6 5 5 6 5 6 5 5 5 6 5 6 5 5 5 5 5 5 5 6 5 5 5 5 5 5 5 5 5 5 5 5 5 5 5 5 6 5 5 6 5 6 5 6 5 6 5 5 5 6 6 5 5 5 5 5 5 6 5 5 5 5 5 5 5 6 5 5 6 5 5 5 5 5 5 5 5 5 5 5 5 5 5 5 5 5 6 5 5 5 6 5 5 5 5 5 5 5 5 5 5 5 5 5 5 5 5 5 5 5 5 5 5 5 5 6 5 5 5 5 5 5 5 5 5 5 5 6 5 5 5 5 5 5 6 5 5 5 5 5 5 5 5 5 5 6 5 5 6 6 5 6 5 5 5 6 5 5 5 6 5 5 5 5 5 5 5 5 5 5 6 5 5 5 5 5 5 5 5 5 5 5 5 6 5 5 6 5 5 5 5 6 5 5 6 5 5 5 6 5 5 5 6 6 5 5 5 6 5 6 5 5 5 5 5 5 5 5 5 5 5 6 5 5 6 5 5 5 5 6 5 5 6 5 5 5 5 5 6 6 5 5 5 5 6 5 5 5 5 5 5 5 6 5 5 5 5 6 5 5 5 5 5 5 6 5 5 6 5 5 6 5 5 6 6 5 6 5 5 5 6 6 5 5 6 5 5 6 5 6 5 5 5 5 5 5 5 6 5 5 5 5 6 5 5 5 5 5 5 5 5 5 5 5 5 5 5 5 5 5 6 5 5 5 5 5 5 5 5 5 5 5 5 5 5 6 5 5 5 5 5 6 5 5 6 5 5 5 5 6 5 5 5 6 5 5 5 6 5 5 5 5 5 5 5 5 5 5 5 5 5 5 5 5 5 5 5 6 5 5 5 6 5 5 6 5 5 5 5 6 5 5 5 5 5 6 5 5 5 5 5 5 5 5 5 5 5 6 5 5 5 5 5 5 5 5 5 5 5 6 5 5 5 5 6 5 6 5 5 5 5 5 5 5 5 5 5 6 5 6 6 5 6 5 5 5 5 6 6 5 5 6 5 5 6 5 5 5 6 5 5 6 5 5 5 5 6 5 5 5 5 6 6 5 5 5 5 5 5 5 6 5 5 5 5 5 5 5 5 5 5 5 5 5 5 5 5 5 5 5 6 6 5 5 5 5 6 5 5 5 6 5 5 5 5 5 5 5 5 5 5 5 6 5 5 6 5 5 5 5 5 5 6 5 6 5 5 5 5 6 5 6 5 5 6 5 5 6 5 5 5 6 5 5 5 6 5 5 6 5 5 5 5 5 5 6 5 5 6 5 5 5 5 5 6 5 6 5 5 6 5 5 6 5 6 5 5 5 5 5 6 6 5 5 5 5 5 6 5 5 5 5 5 5 5 5 5 5 5 5 5 5 5 5 5 5 5 5 6 5 5 5 5 6 5 5 5 6 6 5 5 5 5 5 6 5 5 5 5 5 5 5 6 5 5 5 5 5 5 5 5 6 5 5 6 5 5 5 5 6 5 5 5 5 6 5 6 5 5 6 5 5 5 5 5 6 5 5 5 5 6 5 5 5 5 5 6 5 5 5 5 5 5 6 5 5 6 5 5 6 5 5 5 6 5 6 5 5 6 5 5 5 5 5 5 5 6 5 5 5 5 5 6 5 5 5 6 5 5 5 5 5 5 5 5 5 5 5 5 5 5 5 5 5 6 5 5 5 5 6 5 5 5 5 5 5 5 5 5 5 5 5 5 5 5 5 5 6 5 5 5 5 5 6 6 5 5 5 6 5 5 5 5 6 5 5 5 5 5 5 6 6 5 5 5 5 5 5 6 6 5 5 5 5 6 5 5 5 5 5 5 6 5 5 5 5 5 5 5 5 5 5 6 5 5 6 5 5 5 5 5 5 5 5 5 5 5 5 5 5 5 5 5 5 5 5 5 5 5 5 5 5 5 5 5 5 5 5 5 5 5 5 5 5 5 5 5 6 5 5 5 6 5 5 5 5 5 5 6 5 5 5 5 5 5 5 5 5 6 5 5 5 5 5 5 5 5 5 5 5 5 5 5 6 5 5 6 6 5 5 5 5 5 5 5 5 5 5 5 5 5 5 5 5 5 5 5 5 5 6 5 5 5 5 6 5 5 5 5 5 5 6 5 5 6 5 5 6 5 5 5 6 5 5 5 5 5 5 5 5 6 5 5 5 5 5 5 5 5 5 5 6 5 6 5 5 5 5 6 5 5 6 5 5 5 5 5 5 5 5 5 5 6 5 5 5 5 5 5 5 5 5 5 5 6 5 6 5 5 5 5 5 5 5 5 5 5 5 5 5 5 5 5 5 5 5 5 6 5 5 5 6 5 6 5 6 5 5 6 5 6 6 5 5 5 6 6 5 5 6 5 5 5 5 5 5 5 5 5 5 5 5 5 5 6 6 5 5 6 5 6 5 5 5 5 6 5 5 5 5 5 5 5 5 6 5 5 5 5 5 5 5 5 5 5 5 5 5 5 5 5 5 5 5 5 5 6 5 6 5 5 5 5 6 6 5 6 5 5 5 5 5 6 5 5 5 6 5 6 5 6 5 5 5 5 5 5 5 5 5 5 6 5 5 6 5 5 5 6 5 5 5 5 5 5 5 5 5 5 5 5 5 5 6 6 5 5 5 5 6 5 6 5 6 5 5 5 5 5 5 6 5 6 6 5 5 5 5 6 6 5 6 5 5 5 5 5 6 5 5 5 5 5 5 5 6 5 5 5 5 5 5 6 6 5 5 5 5 5 6 5 5 5 5 5 6 6 5 5 5 6 5 5 5 6 5 5 5 5 5 5 5 5 5 5 5 5 5 5 5 5 5 5 5 5 5 5 5 5 5 5 5 5 5 6 5 5 5 5 6 6 5 5 5 5 5 5 5 5 5 5 5 5 5 5 5 5 6 5 5 5 5 5 5 5 5 5 5 5 5 5 5 5 6 5 5 5 5 5 5 5 5 5 5 6 5 5 5 5 5 5 6 5 5 5 5 5 5 5 5 5 5 5 5 5 5 5 5 5 5 5 5 5 5 5 5 5 5 5 5 5 5 5 5 5 5 5 5 5 5 5 5 5 5 5 5 5 5 5 5 5 5 5 5 6 5 5 5 5 5 5 5 5 5 5 5 5 5 5 5 5 5 5 5 5 5 5 5 5 5 5 5 5 6 5 5 5 5 5 5 5 5 5 5 5 5 5 5 5 5 5 5 5 5 5 5 5 5 5 5 5 5 5 5 5 5 5 5 5 5 5 5 5 5 5 5 5 5 5 5 5 5 5 5 5 5 5 5 5 5 5 5 5 5 5 5 5 5 5 5 5 5 6 5 5 5 5 5 5 5 5 5 5 5 5 5 5 6 5 5 6 5 5 5 5 5 5 5 5 5 5 5 5 6 6 5 5 5 5 5 5 5 5 5 5 5 5 5 6 5 6 5 5 5 5 6 5 5 5 5 5 5 5 5 5 5 5 6 5 5 5 5 5 5 5 5 5 6 5 6 5 5 6 5 5 6 6 5 5 5 6 6 5 5 5 5 5 5 5 6 5 6 6 5 5 6 5 5 5 5 5 5 5 6 5 5 6 5 5 6 5 6 5 6 5 5 5 5 5 6 6 6 5 5 5 5 5 5 5 6 5 5 5 6 6 5 5 5 5 5 6 5 5 5 5 5 5 5 5 5 5 5 5 5 5 5 5 5 5 5 5 5 5 5 5 5 5 5 5 5 5 5 5 5 5 5 5 5 5 6 5 5 5 6 5 6 5 5 5 6 5 5 6 5 6 6 6 5 5 5 5 5 5 6 5 5 5 5 5 5 6 5 5 5 5 5 5 5 5 5 5 5 5 5 5 5 5 5 5 5 5 6 5 5 5 5 5 5 6 5 5 5 5 5 5 5 6 5 6 5 5 5 5 6 5 5 5 5 5 6 6 5 5 6 5 5 5 6 5 5 5 5 5 5 5 6 5 5 5 5 5 5 5 5 5 5 5 5 5 5 5 5 5 6 6 5 5 5 5 5 5 5 5 5 5 5 5 5 5 5 5 5 5 5 5 5 5 5 5 5 5 5 5 5 5 5 5 5 5 6 6 5 5 5 5 5 6 5 5 5 5 5 5 5 5 5 5 5 5 5 5 5 5 5 5 5 5 5 5 5 5 5 5 5 5 5 5 5 5 5 6 5 5 5 5 5 6 5 5 5 5 5 5 6 5 5 5 5 5 6 5 5 5 5 5 5 6 5 5 5 5 5 5 5 5 6 5 5 6 5 5 5 6 5 5 5 5 5 6 5 5 5 5 5 5 5 5 5 5 5 5 5 5 5 5 5 6 6 5 5 5 5 5 5 5 5 5 5 5 5 5 5 5 5 6 5 5 5 5 5 5 5 5 5 5 5 5 5 5 5 5 5 5 5 5 5 5 5 5 5 5 5 5 5 5 5 5 5 5 5 5 5 5 5 5 5 6 5 5 5 5 6 5 5 5 5 5 6 5 5 5 6 5 5 6 6 6 5 5 5 5 5 5 5 5 5 5 6 5 5 5 5 5 5 5 5 5 5 5 5 5 5 5 5 5 5 5 6 5 6 5 5 5 5 5 5 6 6 5 5 5 5 5 5 5 5 5 5 5 5 5 5 5 5 6 5 5 5 5 5 5 5 5 6 5 5 5 6 5 5 5 5 5 5 5 5 5 5 5 6 5 5 5 5 5 5 5 5 5 5 5 5 5 5 5 5 5 5 5 5 6 5 5 5 5 6 5 5 6 5 5 5 5 5 5 5 6 5 5 5 5 5 5 6 6 5 5 5 5 5 5 5 5 5 5 5 5 5 5 5 5 5 6 5 6 5 5 5 5 6 5 5 5 6 5 5 5 5 5 5 5 5 5 5 5 5 5 5 6 5 5 5 5 5 6 5 5 6 5 5 5 5 6 5 5 5 6 5 6 6 5 5 5 5 6 6 5 5 5 5 5 5 5 5 5 5 5 5 5 5 6 5 6 5 5 5 6 5 5 5 5 5 5 5 5 5 5 5 5 5 5 5 5 5 5 6 5 5 6 5 5 6 6 5 6 6 5 5 5 5 6 5 6 5 5 5 5 6 5 5 5 6 5 5 5 5 5 5 5 5 6 5 5 5 5 5 6 5 5 5 5 5 6 6 5 5 5 5 6 6 5 5 6 6 6 6 5 5 5 6 5 5 5 6 5 6 5 5 5 5 5 5 5 5 5 5 5 5 5 5 5 5 6 5 5 5 5 5 5 5 6 5 5 5 5 5 5 5 5 5 5 5 5 5 5 5 5 5 5 5 5 5 5 5 5 5 6 5 6 5 5 5 6 6 5 5 5 5 5 5 5 5 5 5 5 5 5 5 5 5 5 5 5 5 5 5 5 5 5 5 5 5 6 5 5 5 5 6 5 5 6 5 5 5 5 5 5 5 5 5 6 5 5 5 5 6 5 6 5 5 5 6 5 6 5 5 5 5 5 5 5 5 5 5 5 5 6 5 6 5 6 6 5 6 6 5 6 5 5 6 5 6 5 5 6 5 5 6 6 5 5 6 5 5 6 5 6 6 5 5 5 6 6 5 5 6 5 5 6 6 5 5 5 5 6 5 5 6 5 5 5 5 5 5 5 6 5 5 5 6 5 5 5 5 6 5 5 6 5 6 6 5 6 6 5 5 5 6 6 5 5 6 5 6 5 6 5 5 6 5 5 6 6 5 6 5 6 5 5 5 5 6 5 5 5 5 5 5 5 5 5 5 6 5 5 5 6 5 6 5 5 5 6 5 5 5 5 5 6 5 5 5 5 5 5 6 5 5 5 5 5 5 5 5 5 5 5 5 5 5 5 5 5 5 5 6 5 5 5 5 5 6 5 6 5 5 5 5 5 6 5 5 5 5 5 6 5 5 5 5 5 6 6 5 5 5 5 5 5 5 5 5 5 5 5 5 5 5 5 5 5 5 5 6 5 5 5 5 5 5 6 5 5 5 5 5 5 6 6 5 5 5 5 5 6 5 5 6 6 5 6 5 6 5 5 5 6 5 5 5 5 6 5 5 5 5 5 6 5 5 5 5 5 6 6 5 6 5 5 6 6 5 6 6 5 5 6 5 5 5 5 5 5 5 5 5 5 5 5 5 6 6 5 5 5 5 5 5 6 5 5 6 5 5 5 5 5 6 6 5 5 5 6 5 5 5 5 5 5 6 5 5 5 5 5 5 5 5 5 5 5 5 6 6 5 5 5 5 5 5 5 5 5 5 5 5 5 5 5 5 5 5 6 5 5 5 5 5 5 5 5 5 5 5 5 5 5 5 5 5 5 5 5 5 5 5 5 5 5 5 5 5 5 5 5 5 5 6 5 5 5 5 5 5 5 5 6 5 5 5 6 5 5 5 5 5 6 5 5 6 5 5 5 6 5 5 5 5 5 6 5 5 5 5 5 6 5 5 5 5 6 5 5 5 5 5 5 5 5 5 5 5 5 5 5 5 5 5 5 5 6 5 5 5 5 5 5 5 5 5 6 5 5 5 5 5 5 5 5 5 5 5 5 5 5 5 5 5 5 5 5 5 5 5 5 5 5 5 5 5 5 5 5 5 5 5 5 5 5 5 5 5 5 5 5 5 5 5 5 5 5 5 5 5 5 5 5 5 5 5 5 5 5 5 5 5 6 5 5 5 6 5 5 5 5 5 5 5 5 5 5 5 5 5 5 5 5 5 5 5 5 5 5 5 5 5 5 5 6 5 5 5 5 5 5 5 5 6 5 5 5 5 5 5 5 5 5 5 5 5 5 5 5 5 5 5 5 5 5 5 5 5 5 5 5 5 5 5 5 5 5 5 5 5 5 5 5 6 5 5 5 5 5 5 5 6 5 6 5 5 5 5 5 5 5 5 5 5 5 5 5 5 5 5 5 5 5 5 5 5 5 5 5 5 5 6 5 6 5 6 6 5 5 5 6 6 5 6 5 5 5 5 6 5 5 5 5 5 5 5 5 5 5 5 5 5 5 6 5 5 6 5 6 6 5 5 5 6 5 5 5 5 5 5 5 5 5 5 5 5 5 5 5 5 5 5 5 5 5 5 5 5 5 5 5 5 5 5 5 5 5 5 5 5 5 5 5 5 5 5 5 5 5 5 5 5 5 5 5 5 5 5 5 5 5 5 5 5 5 5 5 6 5 5 5 5 5 5 5 5 5 6 5 6 5 5 6 5 5 5 5 5 5 5 5 5 6 5 5 5 6 5 5 5 5 5 5 5 5 5 6 5 5 5 5 5 5 5 5 5 5 6 5 5 5 5 5 5 5 5 5 5 5 5 5 5 5 5 5 5 5 5 5 5 5 6 5 6 5 5 5 5 5 5 5 5 5 5 6 5 5 5 5 5 5 5 5 5 5 5 5 5 5 5 5 5 5 5 5 5 5 5 5 5 5 5 5 5 5 5 5 5 5 5 6 5 5 5 5 6 5 5 5 5 5 5 5 5 5 5 5 5 6 5 5 5 5 5 5 5 5 5 6 5 5 5 5 6 5 5 5 5 5 5 5 6 5 6 5 5 5 5 5 5 6 5 6 6 5 5 5 6 5 5 6 5 5 5 5 6 5 5 5 5 5 5 5 5 5 6 5 5 5 5 6 5 5 5 5 6 5 5 6 5 5 6 5 6 5 5 5 5 5 5 5 5 6 5 5 5 5 5 5 5 5 5 5 6 5 6 5 5 5 5 5 5 5 5 5 5 5 5 5 5 5 5 5 5 5 5 5 5 5 5 5 5 5 5 5 5 5 5 5 5 5 5 5 5 5 5 5 5 5 5 5 5 5 5 5 5 5 5 5 5 5 5 5 5 5 5 5 5 5 5 6 5 5 5 5 5 5 5 5 5 6 5 5 5 5 5 5 5 5 5 5 6 5 5 5 5 5 5 5 5 5 5 5 5 5 5 5 6 5 5 5 5 6 5 5 6 5 5 5 5 5 5 6 5 6 5 5 5 6 5 6 6 5 5 5 6 5 5 5 5 5 5 5 5 5 5 6 5 5 5 6 5 5 6 5 6 6 6 5 5 6 5 6 6 5 5 5 6 5 6 5 6 5 5 6 5 5 5 6 5 6 5 6 5 5 5 5 5 6 5 5 5 5 6 5 6 5 5 6 6 5 6 5 5 5 5 5 6 5 5 5 5 5 5 6 5 5 5 5 5 5 5 5 5 5 5 5 5 5 5 5 5 5 5 5 5 5 5 5 5 5 5 5 5 5 5 5 5 5 5 5 5 5 6 5 5 5 5 5 5 5 5 5 5 5 5 5 5 5 5 5 5 5 5 5 5 5 5 5 5 5 5 5 5 5 5 5 5 5 5 5 5 5 5 5 5 5 5 6 5 5 6 5 5 6 5 5 5 5 5 5 5 5 5 5 5 5 5 5 5 5 5 5 5 6 5 5 5 5 6 5 6 5 6 5 5 5 5 6 5 5 5 5 5 5 5 5 5 6 5 5 5 5 6 5 6 5 5 5 5 5 6 5 5 5 5 5 5 5 5 5 5 6 5 5 5 5 5 5 5 5 5 5 5 6 5 5 5 6 5 5 5 5 5 5 5 5 5 5 6 5 5 5 5 5 5 5 5 5 6 5 5 5 5 5 5 6 5 5 5 5 5 6 5 5 5 5 5 5 5 5 5 5 5 5 5 5 5 5 5 6 5 5 5 5 5 6 6 6 5 6 5 5 5 5 5 5 5 5 5 5 5 5 5 5 5 5 5 5 5 5 5 5 5 5 5 5 5 5 6 5 5 5 5 5 5 5 6 5 5 5 5 5 5 5 5 5 5 5 6 5 5 5 5 5 5 5 6 5 6 5 5 5 6 5 5 6 5 5 5 5 5 5 5 5 5 5 5 5 5 5 6 6 5 5 5 5 5 6 5 5 5 5 6 5 5 6 5 5 5 6 5 5 5 5 6 5 5 5 5 5 5 5 5 5 5 5 5 5 5 5 5 6 5 5 5 5 5 5 6 5 6 5 6 5 5 5 5 5 5 6 6 5 5 5 5 5 6 5 5 5 5 5 5 5 5 5 5 5 5 5 5 5 6 5 5 5 5 6 5 5 5 5 5 5 5 5 5 5 5 6 5 5 5 5 5 5 5 5 5 5 5 5 5 5 5 5 5 5 5 5 5 5 5 5 6 5 5 5 5 5 6 6 5 5 5 5 5 6 6 5 6 5 5 5 5 5 5 5 6 6 5 6 5 6 5 5 5 5 5 5 5 5 5 5 5 6 5 5 5 5 5 5 5 5 5 5 5 5 5 5 5 5 5 5 5 5 5 5 5 5 5 5 5 5 6 5 5 6 5 5 5 6 5 5 5 6 6 5 5 5 5 5 5 5 5 6 6 5 5 5 5 5 5 5 5 6 5 5 5 5 5 5 5 5 5 5 5 5 5 5 5 5 5 5 5 5 5 5 5 5 5 5 5 5 5 5 5 5 5 5 5 5 6 5 6 5 5 5 5 5 5 5 5 5 5 6 5 5 5 5 6 5 5 5 5 6 5 5 5 5 5 5 5 6 5 6 5 6 5 5 5 5 5 6 5 5 5 5 6 5 5 5 5 5 5 5 5 5 5 5 5 5 5 5 5 5 5 5 5 5 5 5 5 5 5 5 5 5 5 5 5 5 5 5 5 5 5 5 5 5 5 5 5 5 5 5 5 5 5 5 5 5 5 5 5 5 5 5 5 5 5 5 5 6 5 5 5 5 5 5 5 5 5 5 5 5 5 5 5 5 6 5 5 6 5 5 5 5 5 5 5 5 5 5 5 5 5 5 5 5 5 5 5 5 5 5 5 5 5 6 5 5 5 6 5 5 6 5 5 5 5 5 6 5 5 5 5 5 5 5 5 5 5 5 5 5 6 5 5 5 6 5 6 5 6 5 5 5 5 5 5 5 5 5 5 5 5 5 5 6 5 5 5 6 5 6 5 5 5 6 5 5 5 5 5 5 5 5 5 5 5 5 5 5 5 5 5 5 5 5 6 5 5 5 5 5 5 5 5 5 5 5 5 5 5 5 5 5 5 5 5 5 5 5 5 5 5 5 5 5 5 5 5 5 5 5 5 5 5 5 5 6 5 5 5 5 5 5 5 5 6 5 5 5 6 5 5 5 5 5 5 5 5 5 5 5 5 5 5 5 5 6 5 5 5 5 5 5 5 5 5 5 5 5 5 5 5 5 5 5 6 5 5 5 5 5 5 5 5 5 6 5 5 5 5 5 5 5 5 5 6 5 5 5 5 5 5 5 5 5 6 5 5 5 5 5 5 6 5 5 5 5 5 5 5 5 5 6 5 6 5 5 5 5 6 6 5 5 6 5 5 5 5 5 5 5 5 5 5 5 5 5 5 5 5 5 5 5 5 5 5 5 5 5 5 5 5 5 5 6 5 5 5 5 5 5 5 5 5 5 5 6 5 5 5 5 5 5 5 5 5 6 5 5 6 5 5 5 5 5 5 5 5 5 5 5 5 5 5 5 5 5 5 5 5 5 5 5 5 5 5 5 5 5 5 5 5 5 5 5 5 5 5 5 5 5 5 5 5 5 5 5 5 5 5 5 5 5 5 5 5 5 5 5 5 5 5 5 5 5 5 5 5 5 5 5 5 5 5 5 5 5 5 5 5 5 5 5 5 5 5 5 5 5 5 5 5 5 5 5 5 5 5 5 5 5 5 5 5 5 5 5 5 5 5 5 5 5 5 5 5 5 5 5 5 5 5 5 5 5 5 5 5 5 5 5 5 5 5 5 5 5 5 5 5 5 5 5 5 6 6 6 6 5 5 5 5 5 5 5 5 5 6 5 5 6 5 5 5 5 5 5 5 5 5 5 5 5 6 5 5 5 5 6 5 5 5 5 6 5 5 5 5 5 5 6 6 5 5 5 5 5 5 5 6 5 5 5 5 5 6 5 5 5 5 5 5 5 5 5 5 6 5 5 5 5 5 5 5 6 5 5 5 5 5 6 5 5 5 5 5 5 5 5 5 5 5 5 5 5 5 5 5 5 5 5 5 5 5 5 5 5 5 5 5 5 5 5 5 5 5 6 5 5 5 5 5 5 5 5 5 5 5 6 6 5 5 5 6 5 6 5 5 5 5 6 5 5 5 5 5 5 5 5 5 5 5 5 5 5 5 5 5 5 5 5 5 5 5 5 5 5 5 5 5 5 5 6 5 5 5 5 5 5 6 5 5 5 5 5 5 5 5 5 6 5 5 5 5 5 5 6 5 5 5 5 5 5 5 6 5 5 5 5 5 5 6 5 5 6 6 6 5 5 5 6 5 5 6 6 5 5 6 5 5 5 6 5 5 5 6 5 5 5 6 5 5 5 6 5 5 5 5 5 5 6 5 5 5 5 5 5 5 5 5 5 5 5 5 5 5 5 5 6 5 5 5 6 5 5 6 5 5 5 5 5 5 5 5 5 5 5 5 6 5 5 5 5 5 5 5 5 5 5 5 5 5 6 6 5 5 5 5 5 5 6 5 5 6 5 5 5 5 5 5 5 5 5 5 5 5 6 5 5 5 5 5 5 5 5 5 5 5 5 5 5 6 5 5 5 5 5 5 5 6 6 5 5 5 5 5 5 5 5 5 5 5 5 5 5 5 5 5 5 5 5 5 5 5 5 6 5 5 5 5 5 5 6 5 5 5 6 5 5 5 6 5 5 6 5 5 5 5 5 6 5 6 5 5 5 5 6 5 5 5 5 5 6 5 5 6 6 5 5 5 5 6 5 5 5 5 5 5 5 6 5 5 5 5 5 5 5 5 5 6 5 5 5 5 5 5 6 5 5 6 5 6 5 5 5 5 6 5 5 5 5 5 5 5 5 5 6 5 5 5 5 6 6 5 5 5 5 5 5 5 5 5 5 5 5 5 5 5 5 5 5 5 5 5 5 5 6 5 5 5 6 5 5 5 5 5 5 5 5 5 5 6 6 5 6 5 5 5 6 5 5 5 5 5 5 5 5 5 5 5 5 5 5 5 5 5 5 5 5 5 6 5 5 5 5 6 5 5 5 5 6 5 5 6 5 5 5 6 5 5 5 5 5 5 5 5 5 5 5 5 5 6 5 5 5 5 6 5 5 6 5 6 5 5 5 5 5 5 5 5 5 5 5 5 5 5 5 5 5 6 5 5 5 5 5 5 6 5 5 5 5 6 5 5 6 5 5 5 5 5 5 5 5 5 6 5 6 6 5 5 5 5 5 6 5 5 5 5 5 5 5 5 5 5 5 5 6 5 5 5 5 5 5 5 5 5 5 5 5 5 5 6 5 5 5 5 5 5 5 5 5 5 5 5 5 5 5 5 6 5 5 5 5 5 5 5 6 5 5 5 5 5 5 6 5 6 5 5 5 5 5 5 5 5 5 5 5 5 5 5 5 5 5 5 5 5 5 5 5 5 5 5 5 6 5 5 5 5 5 5 6 6 5 5 5 5 5 6 5 5 5 6 5 5 6 5 5 5 5 6 5 5 5 5 5 5 5 6 5 5 6 6 5 5 5 5 5 5 5 5 5 5 5 5 5 5 5 5 6 5 5 5 6 5 5 5 5 5 5 6 5 5 6 5 5 5 5 5 5 5 5 5 6 5 5 5 5 5 5 5 5 6 5 5 5 5 6 5 5 5 5 5 5 6 5 5 5 5 5 5 5 5 6 5 5 5 5 5 5 5 5 6 6 5 5 5 5 5 5 5 5 6 5 6 5 5 5 5 6 5 6 6 5 5 5 5 5 5 5 5 5 5 5 5 6 5 6 6 5 5 5 5 6 5 5 6 5 5 6 5 6 5 5 5 5 5 5 5 5 5 5 5 5 5 5 5 5 5 5 5 5 5 5 5 5 5 6 5 5 5 5 5 5 6 6 5 5 5 5 5 5 5 5 5 5 5 5 5 5 5 5 5 5 5 5 5 6 5 6 5 5 6 5 6 5 5 5 5 5 5 5 5 5 5 5 5 5 5 5 5 5 5 5 5 5 5 5 5 5 6 5 5 5 5 5 5 5 5 5 5 5 5 5 5 5 5 5 5 5 5 5 5 5 5 5 6 5 5 5 5 5 5 5 5 5 6 5 6 5 5 5 6 5 5 5 5 5 5 5 5 5 5 5 6 5 5 5 5 5 5 5 5 5 5 5 5 5 5 5 5 5 5 5 5 5 5 5 5 5 5 5 5 6 6 5 5 6 5 5 5 5 5 6 5 5 5 5 5 6 5 5 5 5 5 5 6 5 5 5 5 6 5 6 5 5 5 5 5 5 5 5 6 5 5 5 5 5 5 5 5 5 5 5 6 5 5 5 6 6 5 5 5 5 6 5 6 5 5 5 5 5 5 5 5 5 5 5 6 5 5 5 5 5 5 6 5 6 5 6 6 6 5 5 5 5 5 6 5 5 6 5 5 5 5 5 5 5 5 5 5 5 5 5 6 6 6 5 5 5 6 5 6 6 5 5 5 5 6 5 5 5 5 5 5 5 5 5 5 6 5 6 5 5 5 5 5 5 5 5 5 6 5 6 5 5 5 6 5 6 5 6 5 5 6 6 5 5 5 5 6 5 5 6 6 6 5 5 6 5 6 5 5 5 5 6 6 6 5 5 6 5 5 6 6 5 5 5 5 6 5 6 6 5 5 5 6 6 6 5 5 5 5 5 5 6 5 5 5 6 5 6 5 5 6 5 5 5 5 5 5 6 6 5 5 5 5 5 5 5 6 5 5 5 5 5 5 5 5 5 5 5 5 5 5 6 5 5 6 5 5 5 5 5 5 5 5 5 5 5 5 5 5 5 5 5 6 5 5 6 5 5 6 6 5 5 5 6 5 5 5 5 5 5 6 5 5 5 5 5 5 5 6 5 5 5 6 5 5 5 6 5 6 5 6 5 5 6 5 5 6 5 5 5 6 5 6 5 5 6 5 6 5 6 6 5 5 5 6 5 6 6 5 5 5 6 6 6 5 5 5 5 5 5 5 5 5 5 6 5 5 5 5 5 5 5 5 6 5 5 5 5 6 5 5 5 5 5 5 5 5 5 5 6 5 6 5 5 5 5 5 5 5 5 5 5 5 5 5 5 5 5 6 5 5 5 6 6 5 5 5 6 6 5 5 5 5 6 5 5 6 5 5 5 6 5 6 6 5 6 5 5 5 5 5 5 5 5 5 5 5 6 5 5 5 6 5 5 5 5 5 5 6 5 5 6 5 5 6 5 5 5 5 5 5 5 5 5 5 5 5 5 5 5 5 5 5 5 5 5 5 5 5 5 5 5 5 5 6 5 5 5 5 5 5 5 5 5 5 5 5 5 5 5 5 5 5 5 5 5 5 5 5 5 5 5 5 5 5 6 5 5 5 6 5 5 5 5 5 5 5 5 5 5 5 5 5 5 5 5 5 5 5 6 6 6 5 5 6 6 5 5 5 5 6 6 5 5 6 5 5 5 5 6 5 5 5 5 5 5 5 5 5 5 5 5 5 5 5 5 5 5 5 5 5 5 5 5 5 5 5 5 5 5 5 5 5 5 6 6 5 5 5 6 5 5 5 5 5 5 5 5 5 5 6 5 5 5 6 5 5 5 5 5 5 5 5 5 5 5 5 5 5 5 5 5 5 5 5 5 5 5 5 5 5 5 5 5 6 5 5 5 5 5 5 6 5 5 5 5 6 5 6 5 5 6 5 5 5 5 6 5 6 5 5 5 5 5 6 5 6 5 5 5 5 5 5 5 5 6 5 5 5 5 5 6 5 5 5 5 5 6 5 5 5 5 5 6 5 6 6 5 6 5 6 6 5 6 5 6 5 5 6 5 5 5 5 5 5 5 5 5 5 5 6 5 5 5 5 5 5 6 5 5 5 5 5 5 5 5 5 5 5 5 5 5 5 5 5 5 5 5 5 5 5 5 5 5 6 5 5 6 6 5 6 5 5 5 5 5 5 5 5 5 5 5 5 5 5 5 5 6 5 6 5 5 5 5 5 5 5 5 6 5 6 5 5 6 6 5 5 6 5 5 5 5 5 5 5 6 5 5 6 5 5 5 5 5 5 5 5 5 5 5 5 5 5 5 5 5 6 5 6 5 5 5 5 5 5 5 5 5 5 5 5 5 6 6 5 5 5 5 5 5 6 5 5 6 5 5 5 5 5 5 5 5 5 5 6 5 5 6 5 5 5 6 5 6 5 6 5 6 6 5 5 5 6 5 5 5 5 5 5 5 5 5 5 5 5 5 5 5 5 5 5 5 6 5 5 5 5 5 5 5 6 5 5 5 5 6 5 5 5 5 5 5 5 5 5 5 5 5 5 5 5 5 5 5 5 5 5 5 5 5 6 5 5 5 5 5 5 6 5 5 5 5 5 5 5 5 5 5 5 5 5 5 6 5 6 5 5 5 5 6 5 5 5 5 6 5 5 6 5 6 5 5 6 5 5 5 5 6 5 5 5 5 5 6 6 5 6 5 5 5 5 5 5 5 5 5 5 5 5 6 5 5 5 6 5 6 5 5 6 5 5 5 5 5 5 5 6 5 5 5 6 5 5 6 5 5 6 5 6 6 5 5 5 6 5 5 5 5 5 5 5 5 5 5 5 6 5 5 5 5 5 5 5 5 5 5 5 5 5 5 5 5 5 5 5 5 6 5 5 5 5 6 5 5 5 5 5 5 5 5 5 5 5 6 5 5 6 5 6 5 5 5 5 5 5 5 5 5 6 5 5 5 5 5 5 5 5 5 5 6 5 5 5 5 5 5 5 6 5 5 5 6 6 5 5 5 5 5 5 5 5 6 5 5 6 5 5 5 5 5 5 5 5 5 5 5 5 5 5 6 5 5 5 5 5 5 5 5 5 5 5 5 5 5 5 5 5 5 5 5 5 6 5 5 6 5 5 5 5 5 5 5 5 5 5 5 5 5 5 5 6 5 5 5 5 5 5 5 6 5 5 6 5 5 5 5 5 5 5 5 5 5 5 6 5 5 5 6 5 5 5 5 5 5 5 5 6 5 5 5 5 5 5 6 5 5 5 5 5 5 5 5 5 5 5 5 5 5 5 5 5 5 5 5 5 6 5 5 5 5 6 5 5 5 5 5 5 5 6 5 5 5 6 5 5 5 5 5 5 5 5 6 5 6 5 5 5 5 5 5 5 6 5 5 5 5 5 5 5 6 6 5 5 5 5 6 6 5 5 5 6 5 5 5 5 5 5 5 5 6 5 5 6 5 5 5 5 6 6 5 5 5 5 5 5 5 5 5 6 5 5 6 5 5 5 5 5 5 5 5 6 5 5 5 5 5 6 5 5 5 5 5 5 5 5 5 5 6 5 5 5 5 5 5 5 5 5 5 5 5 5 5 5 5 6 5 5 5 5 5 5 6 6 5 6 5 5 5 5 5 5 5 5 5 5 5 5 5 5 5 5 5 5 5 6 5 5 6 6 5 5 5 5 5 5 5 5 5 5 5 5 6 5 5 5 5 5 5 5 5 5 5 5 5 5 5 5 5 5 5 5 5 6 5 6 5 5 5 5 5 5 5 5 5 5 5 5 5 5 5 5 5 5 5 5 5 6 5 5 5 5 6 5 5 5 5 5 5 5 5 5 6 6 5 5 5 5 6 5 5 5 5 5 5 6 5 6 5 5 5 5 5 5 5 5 5 5 5 5 5 5 5 5 5 5 5 5 5 6 5 6 5 6 5 5 6 5 6 5 5 5 5 5 6 6 5 5 5 6 5 5 6 5 5 5 5 5 5 5 6 6 5 5 5 6 5 5 5 5 5 5 5 5 6 5 5 5 5 5 5 5 6 5 5 5 5 5 5 5 5 5 5 6 5 6 5 5 5 5 5 5 6 5 5 5 5 6 5 5 5 5 6 5 5 5 5 5 6 5 5 5 5 5 5 5 5 6 5 5 5 5 5 5 5 6 5 5 5 6 5 5 5 5 5 5 5 5 5 5 5 5 5 5 5 5 5 5 5 5 5 5 5 5 5 5 5 5 5 5 5 5 5 5 5 5 5 5 5 6 5 5 5 5 5 5 5 5 6 5 6 5 5 5 5 6 5 5 5 5 5 5 5 5 5 5 5 5 5 5 5 5 5 5 5 5 6 5 5 5 5 5 5 5 6 5 5 5 5 5 5 6 5 5 6 5 6 5 5 6 5 5 5 5 5 5 5 5 6 5 5 6 5 5 5 5 5 5 5 5 5 5 5 5 5 5 6 5 5 5 5 6 5 5 6 5 6 5 5 5 5 6 5 5 5 5 5 5 5 5 5 5 5 5 6 5 5 5 5 5 5 6 5 5 5 5 5 5 5 6 5 5 5 5 5 5 5 5 5 5 5 5 5 5 5 5 5 5 5 5 5 5 5 6 5 5 5 5 6 5 5 5 5 6 5 5 5 5 5 5 5 5 5 5 5 5 5 5 5 5 5 5 5 5 5 5 5 5 5 5 5 5 5 5 5 5 5 5 5 5 5 5 5 5 5 6 5 5 5 5 5 5 5 5 5 5 5 5 6 5 5 5 5 5 5 5 5 5 5 5 5 5 6 5 5 5 5 5 5 5 5 5 5 5 5 5 5 5 6 5 5 5 5 5 6 5 5 5 5 5 5 5 5 5 5 5 5 5 5 5 5 5 5 5 5 5 5 5 5 5 6 5 5 5 5 5 5 5 5 5 5 5 5 5 5 5 5 5 5 5 5 5 5 5 5 5 5 5 5 5 5 5 5 5 5 5 5 5 5 5 5 5 5 5 5 5 5 5 5 5 5 5 5 5 6 5 5 5 5 5 5 5 5 5 5 5 5 5 5 5 5 5 5 5 6 5 5 5 5 5 5 5 5 6 5 5 5 5 5 6 6 5 5 5 5 5 6 5 5 6 5 6 5 5 6 6 6 5 6 5 5 5 5 5 5 5 6 6 5 5 5 6 5 5 5 5 5 5 5 6 6 5 5 6 5 5 5 5 6 5 6 5 5 6 5 5 6 5 5 5 5 5 5 5 5 5 5 5 5 5 5 5 5 5 5 5 5 5 6 5 6 5 6 5 5 5 5 5 6 5 5 5 5 5 6 5 6 5 5 5 5 6 5 5 5 5 5 5 5 5 6 5 5 5 5 5 5 5 5 6 5 5 5 5 5 5 5 5 5 5 6 5 5 5 5 5 5 5 5 5 5 6 5 5 5 5 5 5 5 5 5 5 5 5 5 6 5 5 5 6 5 5 6 5 5 6 5 5 5 5 5 5 5 5 6 5 5 6 5 5 5 6 5 5 5 5 5 5 6 6 5 6 5 6 5 6 6 5 5 5 5 5 5 5 5 5 6 6 5 5 5 5 5 5 6 5 5 5 5 5 5 5 5 5 5 5 6 5 5 5 5 5 5 5 6 5 5 5 5 5 5 6 5 6 5 5 5 6 5 5 5 5 5 5 5 5 5 5 5 5 5 5 5 5 5 5 5 5 5 5 5 5 5 5 5 5 5 5 5 5 5 5 5 5 5 5 5 5 5 5 5 5 5 5 6 5 5 5 5 5 6 5 5 5 6 5 5 5 5 5 5 6 5 5 5 5 5 
</DataArray>
<DataArray type="Float64" Name="stress" NumberOfComponents="9" format="ascii">
-421.76726907189686 -689.58457595780055 0 -689.58457595780055 3498.0521305303555 0 0 0 0 -0.63554888658915121 -168.18047500677642 0 -168.18047500677642 2398.492461521535 0 0 0 0 -122.01020269395269 -602.21856719767675 0 -602.21856719767675 2180.1681218922313 0 0 0 0 300.54554211471577 -659.3068944592269 0 -659.3068944592269 2115.6124437810504 0 0 0 0 126.16803369317424 -781.69224279753689 0 -781.69224279753689 1484.6631435964737 0 0 0 0 1.0379456222939325 -469.77038149425789 0 -469.77038149425789 1464.4259264268294 0 0 0 0 148.32596134576647 -526.50910315341025 0 -526.50910315341025 1430.5523495530688 0 0 0 0 56.453554714928657 -337.29167428547225 0 -337.29167428547225 1763.6055810877042 0 0 0 0 40.252020859692848 -1183.165908430994 0 -1183.165908430994 2162.0557088013884 0 0 0 0 51.291587402171899 -1557.4966193540895 0 -1557.4966193540895 2556.5002607125061 0 0 0 0 683.1262186146206 -2851.6773217673617 0 -2851.6773217673617 3496.0413668589963 0 0 0 0 456.13621990908587 -1390.0037914748827 0 -1390.0037914748827 1719.4418857733763 0 0 0 0 90.611905880808166 -1255.7030983872755 0 -1255.7030983872755 1876.100154412823 0 0 0 0 457.96114842926329 1433.957691419615 0 1433.957691419615 1588.9347394635843 0 0 0 0 7.3507467773441748 -8.456620137530777 0 -8.456620137530777 13.956183492900408 0 0 0 0 2574.9251837153397 -1362.7251468966097 0 -1362.7251468966097 542.28305199844181 0 0 0 0 410.25051758854534 -843.22507425567892 0 -843.22507425567892 517.53794562311668 0 0 0 0 1630.1100347136157 -2205.2741761789657 0 -2205.2741761789657 733.35021066883928 0 0 0 0 1057.7195460110474 -946.01247125801456 0 -946.01247125801456 -980.13919083960354 0 0 0 0 -628.69913842050869 -632.40913233448737 0 -632.40913233448737 -281.46530208889453 0 0 0 0 50.686329216427112 192.87841223322903 0 192.87841223322903 315.63353419658961 0 0 0 0 3.6714245743917679 1.1139872522908831 0 1.1139872522908831 -3.2047369500138814 0 0 0 0 -148.59130045887741 57.187716342290514 0 57.187716342290514 -425.68465975541767 0 0 0 0 -5.2888746330288328 0.084234768763508328 0 0.084234768763508328 9.7851567448185506 0 0 0 0 -144.82174165920287 -59.166946526456741 0 -59.166946526456741 145.50207720037724 0 0 0 0 -212.3036331978351 -197.75586212892813 0 -197.75586212892813 -203.97038060010527 0 0 0 0 -226.98606087665667 -80.623105315709836 0 -80.623105315709836 203.08284918894788 0 0 0 0 -189.26300718502125 -318.54155886102672 0 -318.54155886102672 41.34275218466064 0 0 0 0 267.74524248245234 -273.93897046095663 0 -273.93897046095663 190.28894633932214 0 0 0 0 805.59985707192004 -608.4534263044261 0 -608.4534263044261 -16.403137854082161 0 0 0 0 -53.638608835997275 -110.020863071044 0 -110.020863071044 216.12072988480213 0 0 0 0 162.77720458921368 -415.96683719935027 0 -415.96683719935027 728.66344472387573 0 0 0 0 109.71553937480849 -6.0600931064764154 0 -6.0600931064764154 200.64298997973674 0 0 0 0 36.260778591290091 94.176405785052339 0 94.176405785052339 253.5473379656396 0 0 0 0 -71.418327930953637 -86.414923788208398 0 -86.414923788208398 438.30364719456702 0 0 0 0 -69.944200153434963 -102.02543394187705 0 -102.02543394187705 121.47715603353572 0 0 0 0 -135.5458840646952 49.993108057205973 0 49.993108057205973 197.60017321891792 0 0 0 0 -154.78310738505797 -27.840108058520855 0 -27.840108058520855 32.991001796093769 0 0 0 0 -270.89345750966186 -208.0011957550214 0 -208.0011957550214 12.304995575133944 0 0 0 0 214.83535732962719 -928.66604105773877 0 -928.66604105773877 1511.514109635973 0 0 0 0 99.252519674890436 -716.40012907706841 0 -716.40012907706841 1130.4498700423283 0 0 0 0 526.98921987457788 -904.88296215267474 0 -904.88296215267474 521.93277992136427 0 0 0 0 370.70266431147684 -581.89767870513606 0 -581.89767870513606 751.53513693995774 0 0 0 0 -23.070902871328826 -32.264595452776121 0 -32.264595452776121 636.16708286007088 0 0 0 0 120.07149619971636 -200.97219204742578 0 -200.97219204742578 741.88255674175161 0 0 0 0 6.5467511126375939 31.355015210443526 0 31.355015210443526 1076.5992983166943 0 0 0 0 2.538495265360277 -3.5194455367755211 0 -3.5194455367755211 5.0682615157937221 0 0 0 0 -94.085787654389037 -274.37424780883885 0 -274.37424780883885 1480.7424612316008 0 0 0 0 410.31702174480949 -694.19246075003684 0 -694.19246075003684 371.46899636827584 0 0 0 0 89.321792839539512 56.341345741908299 0 56.341345741908299 -67.25245285154233 0 0 0 0 -16.119223709781295 347.86849227357015 0 347.86849227357015 257.690400140571 0 0 0 0 135.90838290245154 12.619377352535594 0 12.619377352535594 -324.91447673173388 0 0 0 0 -174.72764827534161 -77.038035355220927 0 -77.038035355220927 401.59856216797198 0 0 0 0 3.0016340319367747 -5.3565264221231814 0 -5.3565264221231814 8.5947292194680358 0 0 0 0 -34.846202523722695 -148.30952988854551 0 -148.30952988854551 -173.52178974604612 0 0 0 0 0.82453017427695396 1.633963956473508 0 1.633963956473508 1.8414858699433694 0 0 0 0 -268.13816431441933 372.67436473576709 0 372.67436473576709 278.44689633278176 0 0 0 0 33.929583492269217 74.226814722118434 0 74.226814722118434 388.44479310463066 0 0 0 0 -116.59977761346818 36.291346812722622 0 36.291346812722622 53.541064868063586 0 0 0 0 -45.808528113984721 39.503266712898039 0 39.503266712898039 -19.079819168422546 0 0 0 0 11.66230560294207 126.01461692985322 0 126.01461692985322 63.210255768572097 0 0 0 0 -33.980285089355675 -1.8809581282184809 0 -1.8809581282184809 124.39661960751982 0 0 0 0 6.9945182537126129 81.894740505085792 0 81.894740505085792 192.92212331658993 0 0 0 0 109.98087267557037 129.3267947876484 0 129.3267947876484 -57.449305046757217 0 0 0 0 -31.272964977148376 31.260242508462397 0 31.260242508462397 -15.868272558225726 0 0 0 0 -77.122621957796355 -69.15519802414201 0 -69.15519802414201 -88.00751967535507 0 0 0 0 -96.022535100046298 -3.2953852187638404 0 -3.2953852187638404 17.062476757011609 0 0 0 0 -53.197732679193223 11.501666046910032 0 11.501666046910032 19.595715064817341 0 0 0 0 3.244044302487282 -67.894038903252294 0 -67.894038903252294 55.105987662624102 0 0 0 0 5.150065227903724 -98.619413942549727 0 -98.619413942549727 20.616206311991846 0 0 0 0 1.5821074568413787 -1.9109728084185065 0 -1.9109728084185065 2.8472143741867626 0 0 0 0 -24.980105160500102 4.2561949276459927 0 4.2561949276459927 -44.70757407414203 0 0 0 0 111.55800062867252 234.94737092372452 0 234.94737092372452 324.06128067041573 0 0 0 0 -40.972761897720829 -165.14800701565036 0 -165.14800701565036 296.76516819716198 0 0 0 0 -90.826397751987088 30.063491433520539 0 30.063491433520539 17.408349578472553 0 0 0 0 -36.452763025765108 128.58684633300842 0 128.58684633300842 -32.543046241800766 0 0 0 0 58.801011959924608 88.208947509476275 0 88.208947509476275 33.926745352880971 0 0 0 0 -36.513770889603165 85.409043544474116 0 85.409043544474116 46.019160340365488 0 0 0 0 -44.701384919634847 114.35979477357614 0 114.35979477357614 171.41637870614068 0 0 0 0 -164.11897466170785 -78.025307216019428 0 -78.025307216019428 219.65831434247229 0 0 0 0 -123.06431236125127 -131.83934856631822 0 -131.83934856631822 -55.140207106698654 0 0 0 0 -57.332398692511561 -1.5294102257685154 0 -1.5294102257685154 41.474617236457561 0 0 0 0 -0.96497365069624763 0.18212594157992612 0 0.18212594157992612 2.216977736595652 0 0 0 0 -55.500644145846493 11.132990168659035 0 11.132990168659035 7.5356578081991756 0 0 0 0 2.6672218319360446 3.3519417963824196 0 3.3519417963824196 3.6760858997083972 0 0 0 0 59.751540111629538 114.96116959908977 0 114.96116959908977 56.63954585812462 0 0 0 0 57.407575575032837 -134.0997786938533 0 -134.0997786938533 59.120994970508036 0 0 0 0 -8.7520477409856881 31.979419931376469 0 31.979419931376469 269.27617758748238 0 0 0 0 0.89446838898687375 1.1474582407461753 0 1.1474582407461753 1.9906955657204435 0 0 0 0 -19.451639706945699 -46.176911474001827 0 -46.176911474001827 21.635191054073402 0 0 0 0 68.243047975054537 67.212318727804814 0 67.212318727804814 29.431454686279721 0 0 0 0 11.52253947639797 164.17161434621084 0 164.17161434621084 270.7921778774471 0 0 0 0 59.870875232547355 9.2839948363980511 0 9.2839948363980511 -43.405081568082096 0 0 0 0 0.08911804859921918 13.180307874503342 0 13.180307874503342 109.30080073417048 0 0 0 0 0.36142571744764179 -0.92940682184880075 0 -0.92940682184880075 1.2799737647365532 0 0 0 0 0.91202638889562071 -0.50428590221773106 0 -0.50428590221773106 2.1980025999484667 0 0 0 0 0.10716262895034301 -248.26954002654929 0 -248.26954002654929 1314.6823062510812 0 0 0 0 121.19505182426478 -339.14537562135456 0 -339.14537562135456 722.04611886049679 0 0 0 0 35.253469590809502 24.503667028838208 0 24.503667028838208 244.91973441973096 0 0 0 0 -52.744942688537371 -218.25425630181053 0 -218.25425630181053 850.56073390725942 0 0 0 0 99.111689320147093 -168.26021662924086 0 -168.26021662924086 912.68280294652504 0 0 0 0 146.6634866817688 -333.17856699759795 0 -333.17856699759795 755.31827430239355 0 0 0 0 428.10281214504704 -451.20398803659191 0 -451.20398803659191 620.81387653439015 0 0 0 0 -36.965175844124914 -151.27987391801707 0 -151.27987391801707 236.65303018174018 0 0 0 0 119.91014983965499 17.444180394166324 0 17.444180394166324 362.11591598595624 0 0 0 0 191.07205027599662 -343.7915505199926 0 -343.7915505199926 591.59998169371829 0 0 0 0 1.4840564536365628 -0.34619496709547093 0 -0.34619496709547093 1.2150454345250239 0 0 0 0 -4.8154016123839938 118.14323989529476 0 118.14323989529476 210.14102340524551 0 0 0 0 82.617464382396747 7.141942091358942 0 7.141942091358942 228.12153858935926 0 0 0 0 102.54391063199455 65.58218277724518 0 65.58218277724518 98.04399124855081 0 0 0 0 1.0648332765954152 0.012981203499364824 0 0.012981203499364824 -0.082015428761820885 0 0 0 0 37.539537786061715 -45.005377607008995 0 -45.005377607008995 36.466333908829256 0 0 0 0 24.201109649494583 -5.7943008740003279 0 -5.7943008740003279 2.3779198279371485 0 0 0 0 56.389368307068366 -152.08822031098316 0 -152.08822031098316 105.37187764265946 0 0 0 0 -35.803791897269548 46.544573725725058 0 46.544573725725058 236.18510283959404 0 0 0 0 9.5067564861619758 60.538802709779702 0 60.538802709779702 38.054327373945853 0 0 0 0 -71.82386135340289 -11.923337310887291 0 -11.923337310887291 88.397848183158203 0 0 0 0 -150.56625474823841 14.001798423465516 0 14.001798423465516 91.693393882844248 0 0 0 0 -75.512133902907408 71.145352794672363 0 71.145352794672363 40.591971209338226 0 0 0 0 70.668498872632256 312.56512988302529 0 312.56512988302529 407.55879781840486 0 0 0 0 209.24828049433276 128.7148284267314 0 128.7148284267314 195.71781060396461 0 0 0 0 0.98755098639657612 -1.7936474693015327 0 -1.7936474693015327 2.6857525372633688 0 0 0 0 64.487864317953267 -117.31302781100385 0 -117.31302781100385 -144.27555201289942 0 0 0 0 0.34199937764278132 -16.942764160529919 0 -16.942764160529919 22.537170994684587 0 0 0 0 -67.586690995359618 -186.14427400335262 0 -186.14427400335262 461.23003204520501 0 0 0 0 80.069163135544443 -163.54935372222462 0 -163.54935372222462 -97.106225788113079 0 0 0 0 1.5762731909443146 -7.1823138022392641 0 -7.1823138022392641 -4.8046448321207151 0 0 0 0 68.525174890718745 223.5603651556944 0 223.5603651556944 73.735997497882636 0 0 0 0 59.1196262071972 -145.03840461357322 0 -145.03840461357322 123.51818087683205 0 0 0 0 172.50428612032368 -1261.9858670694193 0 -1261.9858670694193 3557.0116239713352 0 0 0 0 27.84862070131777 -711.47423711182546 0 -711.47423711182546 1468.6473999267619 0 0 0 0 -457.47439196352911 -14.451078361995314 0 -14.451078361995314 3500.8766310087885 0 0 0 0 -56.058236223000279 -49.467828656965139 0 -49.467828656965139 345.36146394947718 0 0 0 0 172.77410672542362 220.1282665329054 0 220.1282665329054 1250.5219080482084 0 0 0 0 0.14448310722126745 -0.51718136301073514 0 -0.51718136301073514 0.40011480706368729 0 0 0 0 154.29826740723485 116.04155809999793 0 116.04155809999793 75.116189766427851 0 0 0 0 -25.730302895129441 43.015928284664369 0 43.015928284664369 337.18345844303258 0 0 0 0 -54.926486889469089 -58.817357010400883 0 -58.817357010400883 258.90648642979795 0 0 0 0 -27.003439535440691 22.670722369599389 0 22.670722369599389 191.55479944116814 0 0 0 0 -0.50051060024965466 -41.227946567854815 0 -41.227946567854815 149.64016342877585 0 0 0 0 30.074325769318875 -4.4338513924849394 0 -4.4338513924849394 24.986949851161626 0 0 0 0 18.258284993850907 -50.960961127217161 0 -50.960961127217161 -21.157763904950116 0 0 0 0 -9.5822190740868791 16.524517217745597 0 16.524517217745597 96.441891501895952 0 0 0 0 3.7317205766966097 -11.100901069164252 0 -11.100901069164252 21.940112376802034 0 0 0 0 11.275472317277263 -20.385739385297711 0 -20.385739385297711 35.078927507434855 0 0 0 0 -71.91157641174317 -178.16459843477787 0 -178.16459843477787 29.688138513163722 0 0 0 0 6.071917878774495 -17.401544193250714 0 -17.401544193250714 32.493660585072831 0 0 0 0 -18.135810831408207 -18.313241197176467 0 -18.313241197176467 48.592573010828346 0 0 0 0 0.039223701869559591 -2.5263906188702094 0 -2.5263906188702094 43.293152873709914 0 0 0 0 9.3724609844923332 -13.68536551495751 0 -13.68536551495751 11.857085307256511 0 0 0 0 -132.25736461959514 -12.45778050348963 0 -12.45778050348963 67.044957204387174 0 0 0 0 28.477761780033234 13.403926712948305 0 13.403926712948305 11.736030366490013 0 0 0 0 2.4288952485936033 -10.705110487471401 0 -10.705110487471401 32.194896291410032 0 0 0 0 -1.8049403406223519 6.9690221837954596 0 6.9690221837954596 11.424526557024365 0 0 0 0 -0.89642810381440086 32.80472306491356 0 32.80472306491356 30.682208569938666 0 0 0 0 -2.1492571056914471 156.15401942917379 0 156.15401942917379 183.95651042747704 0 0 0 0 211.53008562118328 -123.76095108710433 0 -123.76095108710433 -88.036457786736719 0 0 0 0 39.412070598730239 -175.13170090809399 0 -175.13170090809399 1104.6011949008243 0 0 0 0 -162.0896728913749 436.1999746188194 0 436.1999746188194 1857.4026718802415 0 0 0 0 303.07392112898327 1561.354108563628 0 1561.354108563628 3493.5386554404977 0 0 0 0 -157.88653382387858 325.9113558735595 0 325.9113558735595 1033.6894286660536 0 0 0 0 -97.074170729901496 49.743131359413383 0 49.743131359413383 1105.980293400964 0 0 0 0 -54.013531023726046 75.708165094038122 0 75.708165094038122 86.60311278491281 0 0 0 0 -600.80076585161737 -123.03012557050533 0 -123.03012557050533 3488.7087839849587 0 0 0 0 80.250094736580422 195.65292086810223 0 195.65292086810223 171.83390096724906 0 0 0 0 432.56439520266213 -745.67414260729493 0 -745.67414260729493 665.45903191007528 0 0 0 0 1.7706140950988953 -3.3794273889613464 0 -3.3794273889613464 14.678851423227798 0 0 0 0 367.81845418456447 96.779051352481474 0 96.779051352481474 -78.154320110261324 0 0 0 0 -88.100248261168247 -472.72336525586434 0 -472.72336525586434 1179.0105885832272 0 0 0 0 15.540584384992009 -24.089136549176374 0 -24.089136549176374 30.101526551312645 0 0 0 0 -388.10030952441775 -158.76945143551711 0 -158.76945143551711 10.138537779945182 0 0 0 0 4.8945953491772798 -12.718018140751269 0 -12.718018140751269 18.519862938453258 0 0 0 0 8.5921288667651652 -15.548077914206331 0 -15.548077914206331 23.199853191930416 0 0 0 0 -407.41653049843353 -319.23289570931229 0 -319.23289570931229 -79.858553634665441 0 0 0 0 106.63300885530111 -54.71903528933035 0 -54.71903528933035 -134.72018758561535 0 0 0 0 8.9811667415724514 -14.906682038825238 0 -14.906682038825238 12.425552366912598 0 0 0 0 50.058698876161998 90.655770947014389 0 90.655770947014389 35.956978197733406 0 0 0 0 -33.10366289879272 26.767952381647774 0 26.767952381647774 30.986914448876632 0 0 0 0 17.244610577625281 -13.553605771725415 0 -13.553605771725415 22.371266347616256 0 0 0 0 -302.32680078879002 -231.43440248267871 0 -231.43440248267871 -117.1104861846834 0 0 0 0 7.8033228310796403 -14.878356055938639 0 -14.878356055938639 22.479064788974938 0 0 0 0 -280.13795591092367 -93.177853650391626 0 -93.177853650391626 -30.84087230845762 0 0 0 0 3.7770904973737167 -14.977586880154462 0 -14.977586880154462 23.675518831975779 0 0 0 0 -306.64464198994847 -142.98843236494577 0 -142.98843236494577 10.523749565138132 0 0 0 0 -193.41248626447305 -38.143490769667551 0 -38.143490769667551 4.1557050751434872 0 0 0 0 -262.5657503062057 -54.306996376806637 0 -54.306996376806637 113.99854751949897 0 0 0 0 -248.15249249202316 -151.5345075623336 0 -151.5345075623336 -140.71135485626291 0 0 0 0 -208.61296858195783 -33.180360292149999 0 -33.180360292149999 60.556497855883208 0 0 0 0 -187.21178703261694 -45.967854862443346 0 -45.967854862443346 32.608355301985284 0 0 0 0 -174.42723375036803 -40.156803893652977 0 -40.156803893652977 0.92113554557181487 0 0 0 0 -259.40538739265912 -114.2705890475554 0 -114.2705890475554 -9.3995770162146073 0 0 0 0 -285.92541105637792 -170.52193923504819 0 -170.52193923504819 -30.649844876170391 0 0 0 0 -146.39753256768336 -146.2551023146334 0 -146.2551023146334 -49.871457239903975 0 0 0 0 -225.55800762691251 -90.07907172528212 0 -90.07907172528212 39.12143785515218 0 0 0 0 -136.47456696088284 -78.554852452620253 0 -78.554852452620253 36.049598362646066 0 0 0 0 -152.34075501902907 -96.002539213288401 0 -96.002539213288401 74.171272613602923 0 0 0 0 -145.791766031924 -85.003477529153315 0 -85.003477529153315 83.291165351256495 0 0 0 0 -83.172009052949761 -24.848034731236112 0 -24.848034731236112 36.657963903433483 0 0 0 0 -83.404625633377691 -44.167348905881227 0 -44.167348905881227 105.09520233520743 0 0 0 0 -83.689017841328692 -100.36819577516324 0 -100.36819577516324 141.54057135875337 0 0 0 0 -132.81617514877144 -13.003611422522226 0 -13.003611422522226 222.21450038575858 0 0 0 0 -137.20391895786088 -33.675550214113173 0 -33.675550214113173 130.54060273339564 0 0 0 0 -131.64760881886104 -56.711054196654004 0 -56.711054196654004 104.54037457224331 0 0 0 0 -114.59261473011998 -86.572124329393773 0 -86.572124329393773 74.991352889483096 0 0 0 0 -113.55553856619372 -80.580270478327293 0 -80.580270478327293 97.731038618792809 0 0 0 0 -135.91227317811172 -32.934160125223571 0 -32.934160125223571 123.72947888771523 0 0 0 0 -101.58893975003275 -3.553777640532644 0 -3.553777640532644 55.695848855415534 0 0 0 0 -54.121394065639606 -38.000212851001834 0 -38.000212851001834 54.094909179868409 0 0 0 0 -93.449462975728238 -90.890553948840534 0 -90.890553948840534 4.5508436754171271 0 0 0 0 -61.882047289551792 -78.270143599334915 0 -78.270143599334915 45.773620719613973 0 0 0 0 -93.43867992748801 -89.66250843447051 0 -89.66250843447051 41.66199127418804 0 0 0 0 17.122339075755008 -37.048324716786738 0 -37.048324716786738 -8.2622930137004005 0 0 0 0 -26.470075657292909 -81.049326472129906 0 -81.049326472129906 -2.6433624180790503 0 0 0 0 45.089234389624835 -34.381347890230245 0 -34.381347890230245 -16.911130123706243 0 0 0 0 9.2008907587982449 -17.114219852937424 0 -17.114219852937424 10.059553211573871 0 0 0 0 5.1246565112226001 -2.8652029982890497 0 -2.8652029982890497 -6.8720417552681283 0 0 0 0 -33.437743431903073 -29.660489169546054 0 -29.660489169546054 60.82892853138037 0 0 0 0 12.100454991883453 -14.85415772756096 0 -14.85415772756096 36.687024971550272 0 0 0 0 12.654115419166647 -17.217282695039671 0 -17.217282695039671 17.11418545163022 0 0 0 0 16.927614121083728 -20.780070054175781 0 -20.780070054175781 -2.3615426882107045 0 0 0 0 -29.250853829203834 -49.229634247038575 0 -49.229634247038575 46.566713039501337 0 0 0 0 10.320874958255445 -19.347223725519143 0 -19.347223725519143 32.284927232463815 0 0 0 0 1.8566694670788078 -10.857541409263661 0 -10.857541409263661 37.831806696154771 0 0 0 0 5.0117435961656156 -28.379123841499677 0 -28.379123841499677 -1.2585937702388037 0 0 0 0 11.185217895960601 -20.912618785816235 0 -20.912618785816235 24.476020016981124 0 0 0 0 7.8511021868771422 -2.2471291547699366 0 -2.2471291547699366 39.013349051478144 0 0 0 0 33.928211839780943 -38.217297355462506 0 -38.217297355462506 -29.855948217365949 0 0 0 0 6.7408152348421453 -11.288743298187654 0 -11.288743298187654 15.641495916818414 0 0 0 0 -0.87451714492698329 3.0609491715531476 0 3.0609491715531476 21.587913480121642 0 0 0 0 5.3878229898554473 -15.214184107049249 0 -15.214184107049249 12.459957607490423 0 0 0 0 5.4922952184060705 -11.75570720473479 0 -11.75570720473479 39.264831472668448 0 0 0 0 4.7081545599697279 -3.4145787368215679 0 -3.4145787368215679 47.547721417839057 0 0 0 0 2.0348062266921261 -11.84793427734985 0 -11.84793427734985 41.766449490329251 0 0 0 0 2.9953223345037259 -12.286448543738516 0 -12.286448543738516 39.154005899152253 0 0 0 0 7.1184943742950963 -6.8710653433045081 0 -6.8710653433045081 27.868211680746754 0 0 0 0 1.3341259623693986 -13.728076611485449 0 -13.728076611485449 42.949798691057367 0 0 0 0 0.7831396957681136 -12.917491088155657 0 -12.917491088155657 47.170496303529944 0 0 0 0 1.9485614700115548 -18.575980351277394 0 -18.575980351277394 38.510098865808686 0 0 0 0 6.1190746249123844 -21.162235481567023 0 -21.162235481567023 44.291173581008678 0 0 0 0 6.8859548972545781 -28.946237581090827 0 -28.946237581090827 37.100623075129988 0 0 0 0 -13.658785530531532 3.078548462879553 0 3.078548462879553 52.424340856450726 0 0 0 0 -44.012538112424409 -28.989301321242237 0 -28.989301321242237 59.429898565711483 0 0 0 0 -4.2117469227283379 -2.7022691318769176 0 -2.7022691318769176 38.678785575795303 0 0 0 0 9.449913072918207 -11.387285709031858 0 -11.387285709031858 26.626306315592956 0 0 0 0 -8.7347168506194208 -5.563601016350276 0 -5.563601016350276 46.608964935789118 0 0 0 0 -8.5694448587184358 0.13128494313288286 0 0.13128494313288286 31.398480354123478 0 0 0 0 -8.9034662447742434 -7.0406380075660309 0 -7.0406380075660309 50.08720281382557 0 0 0 0 -1.1254188284951345 -5.0306374732928276 0 -5.0306374732928276 33.958917963065005 0 0 0 0 -5.5597113644468479 -5.9388777163475197 0 -5.9388777163475197 46.928009342373116 0 0 0 0 -5.2887654390342504 -12.585102794670092 0 -12.585102794670092 47.860059546073899 0 0 0 0 -4.2023828869975342 -0.045622956431685679 0 -0.045622956431685679 33.708752225449956 0 0 0 0 -3.6756867172597634 4.6708704578698672 0 4.6708704578698672 34.203568671135656 0 0 0 0 -4.5841001036569651 7.6426189616358897 0 7.6426189616358897 84.656022512397612 0 0 0 0 -3.5508970164546554 5.2018584605248179 0 5.2018584605248179 55.0377865885348 0 0 0 0 -1.2273729434929237 -9.2788691744062817 0 -9.2788691744062817 49.871009792532277 0 0 0 0 -5.8575651780956601 8.8433230234692246 0 8.8433230234692246 25.568262193844248 0 0 0 0 2.1146642886633913 -3.3905426049568632 0 -3.3905426049568632 44.5017294051504 0 0 0 0 4.190488915691617 -17.139287989015429 0 -17.139287989015429 62.827480259496951 0 0 0 0 -0.93523133074630893 0.83360319409369765 0 0.83360319409369765 6.3904778582667063 0 0 0 0 -2.3328002223958322 -11.763782103906706 0 -11.763782103906706 6.5575563695102161 0 0 0 0 -3.1340072506916385 -9.7566481775575085 0 -9.7566481775575085 15.385559159811237 0 0 0 0 3.8551460165674598 -19.590380957326488 0 -19.590380957326488 28.915470030813594 0 0 0 0 1.1253752317051067 5.6317662827059394 0 5.6317662827059394 39.772843604178433 0 0 0 0 -0.68347319686313313 -6.0934174877256737 0 -6.0934174877256737 36.966440783231519 0 0 0 0 0.50396615334141615 -14.529876890962939 0 -14.529876890962939 24.052397147083155 0 0 0 0 -1.831696030079152 -5.5522432007367826 0 -5.5522432007367826 18.897900186922726 0 0 0 0 2.1274473523877817 -9.5705302253771691 0 -9.5705302253771691 8.6724292408706845 0 0 0 0 15.993289944245362 -5.7313825855962932 0 -5.7313825855962932 -20.680613133616134 0 0 0 0 -3.274121159862375 3.5296740604171646 0 3.5296740604171646 39.675812168126868 0 0 0 0 -4.6650755403154562 7.129804589865671 0 7.129804589865671 8.7056855067203287 0 0 0 0 -0.10878177127959132 2.0128866934601177 0 2.0128866934601177 10.304507328833978 0 0 0 0 -76.075149327843349 11.649024139049288 0 11.649024139049288 63.968847643322079 0 0 0 0 -88.083771507381698 7.5286194812251779 0 7.5286194812251779 118.35913135878218 0 0 0 0 -0.46383405506603648 0.49573081619712411 0 0.49573081619712411 11.580316750412301 0 0 0 0 31.483473233328311 127.30179681258596 0 127.30179681258596 191.63499880717427 0 0 0 0 -62.71194888221855 10.556865722588554 0 10.556865722588554 53.729724275299304 0 0 0 0 131.39723714263715 -223.57678108002801 0 -223.57678108002801 127.62967676494736 0 0 0 0 -105.36352376812437 -53.380901307700697 0 -53.380901307700697 319.5780786225223 0 0 0 0 -92.5104225540355 -20.142914184070833 0 -20.142914184070833 57.887051140744006 0 0 0 0 -187.1637574256448 -78.44189463280054 0 -78.44189463280054 85.45629582030233 0 0 0 0 10.922782823962507 -10.754249871151842 0 -10.754249871151842 65.003327457423438 0 0 0 0 0.54072147485348143 -18.420621624543941 0 -18.420621624543941 60.563860105932349 0 0 0 0 13.466687288370849 -14.330540758814095 0 -14.330540758814095 63.785839298245264 0 0 0 0 14.290118018695694 -11.475359258758544 0 -11.475359258758544 61.361598215611593 0 0 0 0 2.4898320160102081 -19.667406933929712 0 -19.667406933929712 60.146421637049286 0 0 0 0 -222.83896951740985 -185.13858611751493 0 -185.13858611751493 100.08347492512075 0 0 0 0 12.569826667943772 -21.74901752657297 0 -21.74901752657297 81.89682348875067 0 0 0 0 13.613158550159937 -19.914168614675873 0 -19.914168614675873 66.700823602433957 0 0 0 0 11.063821871340338 -11.923349131830037 0 -11.923349131830037 69.348110094964795 0 0 0 0 1.2486599958955065 -19.651438873580886 0 -19.651438873580886 61.467735788245022 0 0 0 0 13.746075057855023 -11.382037635790766 0 -11.382037635790766 75.511420563922002 0 0 0 0 -27.865426385211691 -136.02377286422961 0 -136.02377286422961 -10.631092544077546 0 0 0 0 -28.150231004858298 -69.020258946038666 0 -69.020258946038666 -15.985833521001041 0 0 0 0 292.21202324820979 -29.700595528018312 0 -29.700595528018312 -34.01651862192557 0 0 0 0 63.289635431828501 104.69190862132837 0 104.69190862132837 -118.64830000788788 0 0 0 0 21.625485712850264 -47.881833882791398 0 -47.881833882791398 -32.190958189257799 0 0 0 0 15.380104144467509 -30.967394088907895 0 -30.967394088907895 -61.202550491507282 0 0 0 0 -10.143648782476305 -1.6720283179683975 0 -1.6720283179683975 50.94558187185612 0 0 0 0 -2.5030624695052897 -6.2788545842534234 0 -6.2788545842534234 15.229218212767776 0 0 0 0 -9.7727595675980865 -0.28508853187668137 0 -0.28508853187668137 43.654143078838388 0 0 0 0 -1.7993966026390353 -6.8142851185184554 0 -6.8142851185184554 44.807564518989238 0 0 0 0 -5.2733804077688955 2.513267104265104 0 2.513267104265104 34.438315824794188 0 0 0 0 3.5215582343934813 -35.009746610845923 0 -35.009746610845923 19.20582983904751 0 0 0 0 -4.0694789086320338 -1.1509004935724931 0 -1.1509004935724931 35.855823485449321 0 0 0 0 8.4402984544894935 6.5470331835749676 0 6.5470331835749676 14.819961386267096 0 0 0 0 -17.512857264839681 10.02586333983345 0 10.02586333983345 15.095105935478387 0 0 0 0 -47.137380931123161 -42.427585548477509 0 -42.427585548477509 24.187250911156298 0 0 0 0 0.13433264857156502 -0.92488588959002982 0 -0.92488588959002982 -0.84897223034033686 0 0 0 0 -30.243200071690467 -32.457400861181668 0 -32.457400861181668 -10.369246396890958 0 0 0 0 59.561784589519789 31.104279071674682 0 31.104279071674682 31.509507120455964 0 0 0 0 -101.3820320914819 74.923451616672537 0 74.923451616672537 85.660662485723151 0 0 0 0 -66.623255127245102 75.436482820681704 0 75.436482820681704 -20.836761876475066 0 0 0 0 -39.322205669410209 15.185883420446771 0 15.185883420446771 188.59953133597446 0 0 0 0 -27.443308168274939 55.085059840173926 0 55.085059840173926 71.061256493499968 0 0 0 0 -23.492905978848086 -25.624783028892125 0 -25.624783028892125 111.33018196120975 0 0 0 0 -5.7083967474789006 -72.286042375373654 0 -72.286042375373654 231.44016586765792 0 0 0 0 -34.107596495341909 93.420055817710818 0 93.420055817710818 205.24718976413715 0 0 0 0 112.68458365996787 147.35671884104886 0 147.35671884104886 284.4287814033305 0 0 0 0 -22.165654367746924 -83.480183365718403 0 -83.480183365718403 353.82723865740809 0 0 0 0 154.28735382725625 77.589569535892224 0 77.589569535892224 42.306517235949286 0 0 0 0 0.42903693051141878 1.1584634807534471 0 1.1584634807534471 4.568284107272234 0 0 0 0 134.39863880319751 -154.41959993001001 0 -154.41959993001001 183.28350359739852 0 0 0 0 61.221457114790041 -49.464773975254502 0 -49.464773975254502 32.943321681348607 0 0 0 0 -13.759599196907288 -68.378593197638111 0 -68.378593197638111 230.69482463788518 0 0 0 0 23.498337132038728 -129.88898817807785 0 -129.88898817807785 216.77943093508657 0 0 0 0 1.5405699977092842 -8.159762620652586 0 -8.159762620652586 9.3321715576632869 0 0 0 0 -131.55587551775955 -76.263841763142409 0 -76.263841763142409 272.29317541622004 0 0 0 0 -0.90105054576046406 2.7187400401229667 0 2.7187400401229667 4.8818918895395882 0 0 0 0 -9.9340899100802851 -5.0633551283558731 0 -5.0633551283558731 69.865794102017844 0 0 0 0 -297.88601907273096 253.89040031837067 0 253.89040031837067 -23.572257354739122 0 0 0 0 -208.44591379792109 -350.12756264870404 0 -350.12756264870404 205.81738116510678 0 0 0 0 105.26152524134432 29.509473353766225 0 29.509473353766225 57.658388897067198 0 0 0 0 94.750393015500777 -120.88287636194582 0 -120.88287636194582 158.52340687785181 0 0 0 0 -183.31099761237783 43.14885171604692 0 43.14885171604692 -60.070855537182069 0 0 0 0 -157.9347131486802 173.66421049617929 0 173.66421049617929 -168.97406017843605 0 0 0 0 -96.473234218371928 118.45310840333696 0 118.45310840333696 70.058305363127147 0 0 0 0 33.204517123684127 -78.729023051342665 0 -78.729023051342665 120.64618220677585 0 0 0 0 110.17165826884775 -47.218136635114206 0 -47.218136635114206 -58.652895230043214 0 0 0 0 10.619133507417018 109.59988693473861 0 109.59988693473861 -34.734437034610892 0 0 0 0 -12.050647088884922 -2.0585848541310199 0 -2.0585848541310199 55.476486072052893 0 0 0 0 4.4965827393474598 1.5470389462674206 0 1.5470389462674206 20.126128978033989 0 0 0 0 -195.11410471874478 82.524993806968268 0 82.524993806968268 37.825685744304792 0 0 0 0 -116.79914881590935 17.416510660137646 0 17.416510660137646 77.188889246928738 0 0 0 0 -149.0406689112807 23.708428519833433 0 23.708428519833433 62.86008990398841 0 0 0 0 -156.92262650564862 73.436284808427445 0 73.436284808427445 25.494278562458931 0 0 0 0 -175.13879728765824 87.968869958160212 0 87.968869958160212 51.754904968198389 0 0 0 0 -112.4858953822295 18.634060827142093 0 18.634060827142093 82.097854008348008 0 0 0 0 -121.31101849157767 81.048281063354807 0 81.048281063354807 81.306617116587745 0 0 0 0 -151.58358269868131 41.9031191384056 0 41.9031191384056 139.28407435171539 0 0 0 0 -73.529206339354005 71.151426388256368 0 71.151426388256368 382.53777492411064 0 0 0 0 -86.88475847037671 -8.1283338794746669 0 -8.1283338794746669 157.41202974620683 0 0 0 0 -101.35698387470052 54.201398006993259 0 54.201398006993259 195.08283754422155 0 0 0 0 -4.9752519547691918 45.664170397525595 0 45.664170397525595 76.36620562740427 0 0 0 0 -61.200669692634619 65.94508655264508 0 65.94508655264508 92.041177001439792 0 0 0 0 10.794176953192164 70.960435200257052 0 70.960435200257052 30.910412921744864 0 0 0 0 -39.329973318537668 72.924588663321629 0 72.924588663321629 45.845004585804418 0 0 0 0 -82.055573108538738 100.47634402959375 0 100.47634402959375 29.082647250761511 0 0 0 0 -41.738840996104045 64.058925452205585 0 64.058925452205585 14.286446850528591 0 0 0 0 -67.122932967924953 43.279603205111925 0 43.279603205111925 21.214882847416447 0 0 0 0 -144.9851207699578 35.783621701106313 0 35.783621701106313 -0.65973952671629377 0 0 0 0 -182.52944875176217 126.04672362392012 0 126.04672362392012 1.3038925579166971 0 0 0 0 -155.85585843198169 133.90666691258957 0 133.90666691258957 -20.444413428354892 0 0 0 0 -111.22969573214323 70.560750160322641 0 70.560750160322641 4.8198492561059538 0 0 0 0 -128.95989945350175 133.35858789017948 0 133.35858789017948 6.4018105132172423 0 0 0 0 -200.46703697605082 89.616624245974435 0 89.616624245974435 31.977752621955005 0 0 0 0 -203.6049367051055 189.96411312484997 0 189.96411312484997 -56.156260619594832 0 0 0 0 -363.62050884653945 161.03486630111001 0 161.03486630111001 93.558467187307542 0 0 0 0 -357.73585485241529 47.420012156333541 0 47.420012156333541 138.54866539529758 0 0 0 0 -103.16743413420591 65.301919664765592 0 65.301919664765592 39.23776666529011 0 0 0 0 -235.20359085007294 123.49564730521524 0 123.49564730521524 52.310160235982039 0 0 0 0 -54.850744382461016 103.77279975674173 0 103.77279975674173 34.614093876088191 0 0 0 0 -22.501369872759142 96.721467696264881 0 96.721467696264881 37.699491988867521 0 0 0 0 -29.366372236198558 100.67165777374771 0 100.67165777374771 34.651241001643939 0 0 0 0 -86.639803401172685 74.003001222135936 0 74.003001222135936 36.300786502106348 0 0 0 0 -29.478614231396023 97.261250355222728 0 97.261250355222728 8.5514285930821643 0 0 0 0 -34.58220617031111 49.792208139981085 0 49.792208139981085 73.009856299395324 0 0 0 0 -6.0709362413422241 55.364905516631552 0 55.364905516631552 59.811985756357899 0 0 0 0 -26.38037781860703 66.760128803318366 0 66.760128803318366 57.743068546551513 0 0 0 0 -41.867185051333763 80.502266699684697 0 80.502266699684697 76.317559405200882 0 0 0 0 -24.215022371251962 59.499468048958079 0 59.499468048958079 82.076057778846007 0 0 0 0 -108.05830273476022 72.040112567818142 0 72.040112567818142 124.43231726548402 0 0 0 0 -217.76972017439857 -38.228128991788253 0 -38.228128991788253 132.95308173482772 0 0 0 0 -24.530328452243339 32.268975685583428 0 32.268975685583428 148.53600555559387 0 0 0 0 -25.386387755901524 45.744954332243651 0 45.744954332243651 92.38958460772119 0 0 0 0 -704.14865801328597 91.600997473869938 0 91.600997473869938 869.26179561958998 0 0 0 0 304.49221527402005 -76.524940813571448 0 -76.524940813571448 125.1440128494869 0 0 0 0 216.27091619147313 351.77326382138926 0 351.77326382138926 340.87226775480667 0 0 0 0 -336.33561522534001 71.851805816171691 0 71.851805816171691 201.99638677755138 0 0 0 0 16.226850163911877 120.79162085726057 0 120.79162085726057 139.89206806433504 0 0 0 0 61.009771018480023 -0.51543805566325318 0 -0.51543805566325318 107.93399025470717 0 0 0 0 -29.39143446347498 27.601843377400655 0 27.601843377400655 116.84444426212576 0 0 0 0 -5.5860275240311239 40.703505792640499 0 40.703505792640499 82.640598240555846 0 0 0 0 -8.2035021906694965 30.018492393093766 0 30.018492393093766 73.279392782278592 0 0 0 0 -16.351486663062815 32.854302249283137 0 32.854302249283137 72.659969236992765 0 0 0 0 -41.369458545485941 5.7183492296826444 0 5.7183492296826444 43.746263479000845 0 0 0 0 -12.300933124016865 22.941502099078207 0 22.941502099078207 57.252554283477366 0 0 0 0 -3.8530408831420573 34.13209418761835 0 34.13209418761835 69.872356539970042 0 0 0 0 -21.453495715115423 46.481740889852517 0 46.481740889852517 70.325920208561001 0 0 0 0 6.8340396796318146 33.231665972352857 0 33.231665972352857 49.459079767199 0 0 0 0 -10.629918706559859 8.351797676765301 0 8.351797676765301 9.0386686251223409 0 0 0 0 -9.3357608289038012 14.878968780147261 0 14.878968780147261 59.574254709979868 0 0 0 0 -3.247245426057134 11.469078601599904 0 11.469078601599904 50.084389921787078 0 0 0 0 -4.5113461155833372 10.146076202525038 0 10.146076202525038 54.684017770751893 0 0 0 0 -17.876530430489311 28.224654718746024 0 28.224654718746024 59.299482229900605 0 0 0 0 -25.787621594271513 43.368477872514632 0 43.368477872514632 48.320616375480313 0 0 0 0 6.2268091776512051 4.6172452799291932 0 4.6172452799291932 51.755991606405587 0 0 0 0 3.209009789544325 14.226142921834253 0 14.226142921834253 71.58612719415396 0 0 0 0 6.6168845287868407 2.3383252650419308 0 2.3383252650419308 63.219871719382354 0 0 0 0 2.7412259659445226 11.620177948912897 0 11.620177948912897 57.651932859691442 0 0 0 0 -0.53689286778556067 10.555737609441167 0 10.555737609441167 53.978267690588837 0 0 0 0 -0.7369300392022069 10.488369280552433 0 10.488369280552433 60.049296134195174 0 0 0 0 2.5725098572056879 1.5515961674582286 0 1.5515961674582286 44.660304482938955 0 0 0 0 1.7501887487840122 4.870063798778574 0 4.870063798778574 53.086263901692291 0 0 0 0 3.4210626077088762 -4.8125479641603306 0 -4.8125479641603306 34.834939277920057 0 0 0 0 2.0322720626911632 0.1313547462632414 0 0.1313547462632414 45.810269016496022 0 0 0 0 -2.3906293834699914 0.7398694269938062 0 0.7398694269938062 51.189523188802127 0 0 0 0 1.5352116856265638 -3.7881732446840033 0 -3.7881732446840033 46.978471235121106 0 0 0 0 -48.022125071026721 15.138158523253878 0 15.138158523253878 90.417340924526798 0 0 0 0 -62.024776848809779 48.778848632719018 0 48.778848632719018 115.96991831483319 0 0 0 0 -46.602072847303134 -10.132636639886186 0 -10.132636639886186 78.392161960771773 0 0 0 0 -84.561958570795696 -0.80848519668870722 0 -0.80848519668870722 88.228115051286295 0 0 0 0 15.411265182701754 -66.767834408128692 0 -66.767834408128692 83.919958662620047 0 0 0 0 -3.8629754593602277 -11.78748513557489 0 -11.78748513557489 9.0132062139578579 0 0 0 0 13.851602197260782 -35.812465359080392 0 -35.812465359080392 55.323770929589898 0 0 0 0 -175.95454792470628 38.755683189461706 0 38.755683189461706 118.30336653338236 0 0 0 0 -152.75649174049613 55.09183010601555 0 55.09183010601555 85.82251605969941 0 0 0 0 -112.10897529919202 -31.090664573246613 0 -31.090664573246613 95.165210253355326 0 0 0 0 -440.46008967221951 -343.66297092555396 0 -343.66297092555396 71.550773050927091 0 0 0 0 -140.59243633271399 -66.348514715740748 0 -66.348514715740748 -5.5742157359200064 0 0 0 0 -6.5948837087335406 1.897466333484914 0 1.897466333484914 16.446127305104369 0 0 0 0 1.5858019814215738 -11.316244080983779 0 -11.316244080983779 21.731254174606448 0 0 0 0 86.766404997366408 -81.041246860004321 0 -81.041246860004321 22.883603170892457 0 0 0 0 -36.613237487488647 -4.2525347682676511 0 -4.2525347682676511 68.514444514439674 0 0 0 0 7.2593551065409088 -36.764551088424923 0 -36.764551088424923 29.943575104392949 0 0 0 0 9.5657907890070533 2.9147381413640687 0 2.9147381413640687 30.742052614233899 0 0 0 0 -0.028576884121558455 0.21634863541192928 0 0.21634863541192928 13.812483592521346 0 0 0 0 8.474362518389313 7.0463258177051102 0 7.0463258177051102 26.192481955928088 0 0 0 0 -0.86541983261638422 -7.6697676582286078 0 -7.6697676582286078 17.830933482863514 0 0 0 0 6.6535672170605338 -8.0159396041590298 0 -8.0159396041590298 14.56716592842713 0 0 0 0 1.9137890415173047 0.71485325101821218 0 0.71485325101821218 44.768861350166844 0 0 0 0 2.4744445264182389 0.91602500245789997 0 0.91602500245789997 43.058163658308331 0 0 0 0 1.259909052799685 0.60309126483480213 0 0.60309126483480213 44.770892174885375 0 0 0 0 2.6653806149089974 14.901512846161495 0 14.901512846161495 45.629880334636255 0 0 0 0 -0.72327535315755709 12.649602748708425 0 12.649602748708425 30.841383207666752 0 0 0 0 -14.306280375505594 14.080242352130881 0 14.080242352130881 21.111157290637493 0 0 0 0 -3.587996448637492 9.0065860646856493 0 9.0065860646856493 18.396281402200913 0 0 0 0 -6.6208308437305732 9.5959668751056597 0 9.5959668751056597 31.719062982650939 0 0 0 0 -5.632991164607958 5.5225072144621663 0 5.5225072144621663 28.032975669470034 0 0 0 0 0.88200970703043424 10.316394133707959 0 10.316394133707959 13.521319082779399 0 0 0 0 -1.4001484965840318 1.5638384969980166 0 1.5638384969980166 33.035718671980078 0 0 0 0 -4.3370786470817464 -0.5087707173455982 0 -0.5087707173455982 12.422942808238417 0 0 0 0 -5.3628574472168111 8.4598064794299717 0 8.4598064794299717 34.550106322596548 0 0 0 0 -8.31806255848403 12.287500644957618 0 12.287500644957618 29.958812646378647 0 0 0 0 2.5444634221223623 2.3268396521016257 0 2.3268396521016257 33.606144917126585 0 0 0 0 0.189544085837698 12.053976086636212 0 12.053976086636212 16.808762871968213 0 0 0 0 3.6686091460820762 3.1235913161945064 0 3.1235913161945064 32.44198166494607 0 0 0 0 3.4632616954346531 23.723879462988407 0 23.723879462988407 5.1850084746765788 0 0 0 0 -8.4833311036178429 23.166815478249191 0 23.166815478249191 14.739049222502217 0 0 0 0 -0.73391971869426653 1.3862921731861491 0 1.3862921731861491 5.6288859152688246 0 0 0 0 6.6760332035750167 4.7538957496772127 0 4.7538957496772127 15.44397645774734 0 0 0 0 -0.9038378238515179 3.2185758364576031 0 3.2185758364576031 26.318766597592912 0 0 0 0 -0.61946714535287328 9.630206503567365 0 9.630206503567365 12.410061505041412 0 0 0 0 0.25196191383839306 14.419473655041656 0 14.419473655041656 33.733049409380328 0 0 0 0 -10.782750739973153 11.333168459699664 0 11.333168459699664 45.211674661200959 0 0 0 0 1.0939914045414056 6.3422186140014674 0 6.3422186140014674 27.558623039476515 0 0 0 0 28.218070567790392 13.226218437222997 0 13.226218437222997 9.9726583751871658 0 0 0 0 0.89763121452305228 64.012266504549189 0 64.012266504549189 63.576271279222965 0 0 0 0 -26.461301973976788 -16.338895182421766 0 -16.338895182421766 46.980694629441132 0 0 0 0 -46.120280994757081 14.678474916679988 0 14.678474916679988 51.619393220491474 0 0 0 0 -55.999644468748954 60.82967404752344 0 60.82967404752344 187.46104694690439 0 0 0 0 -8.0312863606752671 51.553269489464583 0 51.553269489464583 172.37904065009207 0 0 0 0 -34.94313574502371 82.846764982947207 0 82.846764982947207 159.23517346517474 0 0 0 0 -2.0059339242806971 87.031897800330626 0 87.031897800330626 60.601765155312023 0 0 0 0 -42.71928389825564 64.31991137683508 0 64.31991137683508 54.782920951400229 0 0 0 0 4.7977734111843233 78.895910443843604 0 78.895910443843604 49.894209268459235 0 0 0 0 -15.085154067039412 1.5345644940607599 0 1.5345644940607599 66.879054512588482 0 0 0 0 0.024669099457938947 73.875531172918272 0 73.875531172918272 170.05890649324283 0 0 0 0 -11.743564480234092 85.195216479139162 0 85.195216479139162 310.16248406248633 0 0 0 0 7.0609696202851389 -7.6715065864959797 0 -7.6715065864959797 246.42760298655776 0 0 0 0 -0.071624442872231076 18.592649533020989 0 18.592649533020989 400.46344680336188 0 0 0 0 99.311704326909819 32.637615948959137 0 32.637615948959137 261.47766162650078 0 0 0 0 -11.548778937963789 2.1658290800041868 0 2.1658290800041868 449.6721846143264 0 0 0 0 40.527355797960126 115.1804470617335 0 115.1804470617335 324.6623406890285 0 0 0 0 7.1535189915052797 60.565306387383316 0 60.565306387383316 187.40129623684425 0 0 0 0 -9.8461065051776586 92.891741336898122 0 92.891741336898122 226.29001642440562 0 0 0 0 -32.471164740011659 63.485089387078915 0 63.485089387078915 322.61391182152147 0 0 0 0 -17.669550340101523 65.23666056725051 0 65.23666056725051 322.29886505421018 0 0 0 0 11.470744918241422 164.75753301917484 0 164.75753301917484 443.98818869134993 0 0 0 0 -0.48438542497419945 -0.13857988557660406 0 -0.13857988557660406 0.43047283306418649 0 0 0 0 -23.491108887626297 -3.5863272475071426 0 -3.5863272475071426 224.84471237565594 0 0 0 0 23.727110051408033 13.711753955787572 0 13.711753955787572 141.8020291809662 0 0 0 0 -41.687915858018414 3.9021347047455492 0 3.9021347047455492 221.8255757617444 0 0 0 0 -49.213054201920954 23.455483669615205 0 23.455483669615205 252.31099538833951 0 0 0 0 -70.136438598098948 59.381474251051259 0 59.381474251051259 395.95863747073236 0 0 0 0 142.39688354889404 88.856498707129504 0 88.856498707129504 152.99573909369064 0 0 0 0 -12.553193776697981 -50.369565648419666 0 -50.369565648419666 380.01911693578222 0 0 0 0 137.85051163497928 -58.531046665382746 0 -58.531046665382746 175.72288822151313 0 0 0 0 19.618479308404858 27.480409534669889 0 27.480409534669889 148.3587842807683 0 0 0 0 58.385880223189957 16.382872654494349 0 16.382872654494349 93.622143103159033 0 0 0 0 -12.469031247225075 42.354178814744955 0 42.354178814744955 145.1317083031754 0 0 0 0 61.133992452404982 71.187121712544467 0 71.187121712544467 72.069088635136723 0 0 0 0 3.7028105243900882 62.909846351598389 0 62.909846351598389 78.398510552156949 0 0 0 0 42.74246667017951 65.319840871801716 0 65.319840871801716 36.9415767146711 0 0 0 0 28.815409651464961 66.136287109293335 0 66.136287109293335 59.132750782984658 0 0 0 0 20.46434580104642 58.230298375507118 0 58.230298375507118 94.543350666103834 0 0 0 0 28.403617819702276 78.219942770665511 0 78.219942770665511 30.646872432829696 0 0 0 0 18.657481334738804 72.762673395685852 0 72.762673395685852 60.182967160508269 0 0 0 0 7.456970574900879 82.318849024610245 0 82.318849024610245 47.547479579538049 0 0 0 0 8.1677753616231712 80.907198539636738 0 80.907198539636738 28.377246402858873 0 0 0 0 -17.383067107355828 64.553506306750933 0 64.553506306750933 151.52826737026771 0 0 0 0 -16.14591095358935 93.936058859063451 0 93.936058859063451 172.74028625350911 0 0 0 0 3.4049025804479243 58.940902864727832 0 58.940902864727832 136.71031334906093 0 0 0 0 3.4000843902585984 79.383225913174101 0 79.383225913174101 77.18375124038721 0 0 0 0 3.5009173753622918 74.666705579424161 0 74.666705579424161 76.034694380345172 0 0 0 0 25.09233862075348 81.987877001301968 0 81.987877001301968 21.635866089971387 0 0 0 0 -3.6390723392682958 92.215935475072911 0 92.215935475072911 71.640399752708618 0 0 0 0 -30.864177414586038 76.459937851075665 0 76.459937851075665 67.65567063794515 0 0 0 0 5.1224237318210726 98.814442897128174 0 98.814442897128174 7.1940077853651019 0 0 0 0 -3.8433856722850805 98.851960598636651 0 98.851960598636651 -73.967752189477324 0 0 0 0 0.74780560764338588 64.991781335687847 0 64.991781335687847 -1.1734852105510072 0 0 0 0 21.355676690890959 70.114281674657832 0 70.114281674657832 21.184854654183709 0 0 0 0 22.628149031513431 80.312579104182078 0 80.312579104182078 -24.273842629394494 0 0 0 0 12.259233703542122 19.91691346578591 0 19.91691346578591 -30.892521475390822 0 0 0 0 17.133404490231442 37.053578120438033 0 37.053578120438033 25.861969614983536 0 0 0 0 25.515901498429628 22.521934885069641 0 22.521934885069641 -110.19086719499319 0 0 0 0 -0.78825133280400506 0.86238908976113748 0 0.86238908976113748 -0.74009605254718736 0 0 0 0 2.6789892841557048 -15.428798807537532 0 -15.428798807537532 3.8018693385420192 0 0 0 0 13.954687990873936 75.242015055395314 0 75.242015055395314 30.067093160381773 0 0 0 0 1.1937753121137575 78.329361800293555 0 78.329361800293555 51.247092009682092 0 0 0 0 6.017616509314621 71.26433121050286 0 71.26433121050286 35.543014595023124 0 0 0 0 12.744430109651148 59.108856554848899 0 59.108856554848899 43.236106850636133 0 0 0 0 13.220718923729237 58.175128074399254 0 58.175128074399254 19.719135134990211 0 0 0 0 26.546898703278657 70.433357847548905 0 70.433357847548905 30.199297492668848 0 0 0 0 27.403964422670015 64.433163404850347 0 64.433163404850347 0.64799095972557552 0 0 0 0 15.855853023715554 37.873566136702721 0 37.873566136702721 33.015312230684458 0 0 0 0 14.938970148456065 40.020554448157782 0 40.020554448157782 28.055527179007186 0 0 0 0 18.660768088524492 43.975860915525118 0 43.975860915525118 6.4246938953874633 0 0 0 0 18.436431697446778 47.881201019736181 0 47.881201019736181 33.23081459349487 0 0 0 0 8.9899673560503288 32.548465172294527 0 32.548465172294527 54.573879251161998 0 0 0 0 -3.549898304783369 41.803941142656413 0 41.803941142656413 47.79840370794409 0 0 0 0 -1.7586396520221115 53.39577886880943 0 53.39577886880943 52.429581579839578 0 0 0 0 4.0640291700243552 41.337349283856383 0 41.337349283856383 61.720102375809802 0 0 0 0 7.5237283503211074 3.2076499542599777 0 3.2076499542599777 27.791347601349116 0 0 0 0 -6.6493936782687042 3.6223105176630384 0 3.6223105176630384 -3.3442863452355596 0 0 0 0 17.22345015412202 -7.4930520995258121 0 -7.4930520995258121 13.147338226684951 0 0 0 0 -3.6058290821576424 2.1724720127105854 0 2.1724720127105854 -1.0516163482296292 0 0 0 0 34.021508631987217 50.815440347287222 0 50.815440347287222 27.146856449719053 0 0 0 0 15.775262772361895 33.779443951225403 0 33.779443951225403 71.326620573003311 0 0 0 0 13.77330326638813 38.374053912295494 0 38.374053912295494 63.723377578840882 0 0 0 0 -14.345289482794101 10.399017010280659 0 10.399017010280659 73.759662223077612 0 0 0 0 -3.5346711802270714 1.5499935074090558 0 1.5499935074090558 -1.1426038430132337 0 0 0 0 -1.4404860150355034 48.515386541745102 0 48.515386541745102 84.522409019733459 0 0 0 0 18.986791077082671 40.377669554945896 0 40.377669554945896 38.372657559484651 0 0 0 0 -3.118935454694721 1.8928518189108843 0 1.8928518189108843 -0.8937744413880182 0 0 0 0 -10.556604014411732 80.373414610854525 0 80.373414610854525 111.1851380643493 0 0 0 0 3.3554648244682994 31.244655022783263 0 31.244655022783263 54.506469590647612 0 0 0 0 49.329070093690916 53.748384244048793 0 53.748384244048793 16.968991497091338 0 0 0 0 2.6822110198718292 60.833624364255229 0 60.833624364255229 98.58729704284633 0 0 0 0 -16.365972411985354 0.94606431666397839 0 0.94606431666397839 84.70651466891286 0 0 0 0 13.063409543158032 33.534543556903373 0 33.534543556903373 59.665476231821231 0 0 0 0 -3.7610618189039449 1.9676411604648365 0 1.9676411604648365 -0.67841711799755444 0 0 0 0 13.94797072099546 32.985527515615104 0 32.985527515615104 59.233771153812995 0 0 0 0 10.397749953705873 30.369916998228291 0 30.369916998228291 60.041625221567301 0 0 0 0 2.6888998700741666 28.126693287413218 0 28.126693287413218 59.309085372729896 0 0 0 0 10.5269424134668 27.171777032104728 0 27.171777032104728 52.729289369817707 0 0 0 0 2.4183850550831707 22.185628399180132 0 22.185628399180132 41.218500199713162 0 0 0 0 -40.658239895215502 10.160499606681697 0 10.160499606681697 59.148721628764179 0 0 0 0 -5.8388993789018109 13.39984312586239 0 13.39984312586239 29.127177255002607 0 0 0 0 3.8099039323259944 31.361914939523558 0 31.361914939523558 51.128553720634955 0 0 0 0 45.614738246398588 56.60268831931171 0 56.60268831931171 -164.06878894913825 0 0 0 0 38.653656996698146 89.199955105796107 0 89.199955105796107 -142.94953272614657 0 0 0 0 -61.623687279705337 9.0144037213758565 0 9.0144037213758565 98.635777315001178 0 0 0 0 -1.208056273303598 0.90430260407779883 0 0.90430260407779883 -0.58984694156725936 0 0 0 0 -89.787652897490062 10.045778292442265 0 10.045778292442265 53.237397248558409 0 0 0 0 -44.652930352539073 128.50773608781674 0 128.50773608781674 -83.899395726781222 0 0 0 0 -9.9309975301473514 97.135247612714011 0 97.135247612714011 -16.99668977507099 0 0 0 0 -63.407320901837238 39.920667805527046 0 39.920667805527046 -54.726816523208981 0 0 0 0 0.027063892528199081 63.292706689942861 0 63.292706689942861 -18.231599291510065 0 0 0 0 -102.06604387576176 25.707420161263144 0 25.707420161263144 23.680900607956573 0 0 0 0 -99.904150002911663 104.23234599337411 0 104.23234599337411 -15.741535092092818 0 0 0 0 -6.2324443796145914 57.616367658032686 0 57.616367658032686 -151.29224286245881 0 0 0 0 -7.7053498123840178 49.233123801501279 0 49.233123801501279 -36.762425279914169 0 0 0 0 -35.418514091412142 66.595332749103477 0 66.595332749103477 -0.4637984657601919 0 0 0 0 0.00072925733597335035 57.365057824747055 0 57.365057824747055 -51.579799726481724 0 0 0 0 -35.76440077788191 41.089612708608911 0 41.089612708608911 37.621680505930271 0 0 0 0 -45.413394814872419 39.849352533579804 0 39.849352533579804 44.235582051667734 0 0 0 0 -0.038308701170628123 28.722451103738422 0 28.722451103738422 33.820830941287568 0 0 0 0 -28.020599725875762 25.871679106421652 0 25.871679106421652 57.333912953079562 0 0 0 0 -22.855208798424638 17.951409809678808 0 17.951409809678808 56.05611208837945 0 0 0 0 -21.531317450481751 7.3702652159990976 0 7.3702652159990976 76.967602970697044 0 0 0 0 -19.781703472815842 18.920901268276793 0 18.920901268276793 57.895491384810612 0 0 0 0 -0.024788489515937026 4.9233417544424674 0 4.9233417544424674 66.767162511489005 0 0 0 0 -13.904054618854772 13.39038194801833 0 13.39038194801833 58.706892410235014 0 0 0 0 -7.2683136669550805 22.781556929807266 0 22.781556929807266 69.249330577236833 0 0 0 0 -28.371300298731217 20.477617214790371 0 20.477617214790371 64.785394048296439 0 0 0 0 -25.015039355388904 11.331923644800554 0 11.331923644800554 70.937236214085715 0 0 0 0 -18.757964947466693 21.992879581750458 0 21.992879581750458 57.109151147742523 0 0 0 0 -17.177612069906797 16.391765587493865 0 16.391765587493865 82.251196352066472 0 0 0 0 -17.391268857105395 17.923864735370444 0 17.923864735370444 76.605993468911038 0 0 0 0 -22.919852987327161 15.991656600621354 0 15.991656600621354 95.273967636065208 0 0 0 0 -29.394651827638192 7.5898646681287545 0 7.5898646681287545 79.082146125947475 0 0 0 0 -29.384859097723826 9.5802766635169974 0 9.5802766635169974 88.915781456373225 0 0 0 0 -34.969387997316851 -0.90617019095589058 0 -0.90617019095589058 94.596163216046989 0 0 0 0 -38.446179892011443 -9.1062685300348676 0 -9.1062685300348676 80.645944825133483 0 0 0 0 -42.378082640655357 2.4538622358304565 0 2.4538622358304565 100.28777427944624 0 0 0 0 -22.624987461019099 1.3966507431978243 0 1.3966507431978243 67.427167010762787 0 0 0 0 -23.520955229515366 0.57287628085032338 0 0.57287628085032338 85.852444487885805 0 0 0 0 -0.01156606611878562 -8.1145803993713344 0 -8.1145803993713344 68.743428872556251 0 0 0 0 -21.682281296426439 -19.392420448140911 0 -19.392420448140911 65.330718695593532 0 0 0 0 -0.010182743788647315 -22.859233038747334 0 -22.859233038747334 63.32541492594828 0 0 0 0 -26.477560194461134 -12.202947030198629 0 -12.202947030198629 80.211299163813237 0 0 0 0 -64.39332078342531 -13.915919166363892 0 -13.915919166363892 95.663730253055292 0 0 0 0 -37.761496690274591 -24.49034488219695 0 -24.49034488219695 69.916065882876865 0 0 0 0 -73.372160955375989 48.154211181055871 0 48.154211181055871 16.417890136595815 0 0 0 0 -31.873103434029176 1.2484348791076627 0 1.2484348791076627 37.788587488772464 0 0 0 0 -82.406507251485934 -6.0517209494428243 0 -6.0517209494428243 71.88747894453445 0 0 0 0 0.080772211652444525 0.378996753091144 0 0.378996753091144 -1.8476036442173154 0 0 0 0 7.4812785027819757 -93.24666580079429 0 -93.24666580079429 165.15402422430634 0 0 0 0 -45.403525236945633 -24.71000888739195 0 -24.71000888739195 94.923589159676339 0 0 0 0 -51.374632350951941 -39.7338617572168 0 -39.7338617572168 87.99544776075345 0 0 0 0 -45.646277945362158 -40.722326695511072 0 -40.722326695511072 88.064896997500909 0 0 0 0 -30.755045597251623 -28.6706132361453 0 -28.6706132361453 68.643245883795316 0 0 0 0 -31.411952702187111 -37.313152049671771 0 -37.313152049671771 86.465338655594678 0 0 0 0 -0.045159127224457474 -43.338542511581181 0 -43.338542511581181 74.288166882259247 0 0 0 0 16.872407709669545 -28.282095401234983 0 -28.282095401234983 90.240885163099847 0 0 0 0 6.0163298358397412 -38.57710367130494 0 -38.57710367130494 89.253344612076035 0 0 0 0 4.3574322340947607 -24.994233141636869 0 -24.994233141636869 104.92374500073493 0 0 0 0 11.504040607090094 -15.811146403074417 0 -15.811146403074417 105.92115535461926 0 0 0 0 -1.0474616708891062 -11.31229585584515 0 -11.31229585584515 56.581758016342064 0 0 0 0 -2.4760178414570175 2.7206070824812514 0 2.7206070824812514 3.0140003568780571 0 0 0 0 -1.3210557416393272 -34.517805667059292 0 -34.517805667059292 73.91866795867827 0 0 0 0 -1.4649099820911431 -18.416182217584719 0 -18.416182217584719 93.125781385726441 0 0 0 0 4.4686662481769588 -48.359020978481567 0 -48.359020978481567 121.54993359921355 0 0 0 0 -0.88846119879628183 -4.322072471466015 0 -4.322072471466015 14.046544721123013 0 0 0 0 -28.176906249432019 -21.036593399410776 0 -21.036593399410776 102.91409895921242 0 0 0 0 -6.314672342723739 2.4020973216101993 0 2.4020973216101993 63.944157511607045 0 0 0 0 1.5594598595065072 22.622379472988541 0 22.622379472988541 146.19718579728942 0 0 0 0 -2.4296679425351981 3.0358827166895992 0 3.0358827166895992 20.995425914169232 0 0 0 0 -3.0955091209475811 44.312258879523228 0 44.312258879523228 68.972133988478944 0 0 0 0 10.404093765513892 -0.75793034028902184 0 -0.75793034028902184 172.80595804544646 0 0 0 0 -2.7900334399165629 -31.605450173317877 0 -31.605450173317877 100.00206127052661 0 0 0 0 2.1275614446531339 -47.73821072890793 0 -47.73821072890793 60.423365019695595 0 0 0 0 4.3856810392129546 -18.359555153365363 0 -18.359555153365363 142.35792402953575 0 0 0 0 10.676873226815648 -5.8382504170797347 0 -5.8382504170797347 162.02785101659538 0 0 0 0 8.265486042972972 18.470030592070543 0 18.470030592070543 114.5226760123187 0 0 0 0 1.1369068421365718 17.702637957016123 0 17.702637957016123 114.74350532099925 0 0 0 0 18.161740756604221 16.278124762458901 0 16.278124762458901 101.92539382485847 0 0 0 0 15.169484583972459 10.856627584034868 0 10.856627584034868 120.12303178095317 0 0 0 0 -24.367281058848533 26.911284141151555 0 26.911284141151555 108.79251987332827 0 0 0 0 6.4420264182082008 13.678503754352278 0 13.678503754352278 98.32717309203872 0 0 0 0 3.0083061679458076 17.920052793328068 0 17.920052793328068 105.64850454275438 0 0 0 0 4.5022618259131715 2.8038299439822367 0 2.8038299439822367 116.32210395156289 0 0 0 0 8.3094945679839203 13.736991867051984 0 13.736991867051984 98.857264506921638 0 0 0 0 1.3931676538947322 23.418572715912887 0 23.418572715912887 89.10768334223394 0 0 0 0 2.4000669829916212 17.631310695949651 0 17.631310695949651 100.8512375652972 0 0 0 0 -21.629748210829291 14.286735956498887 0 14.286735956498887 93.10791745314782 0 0 0 0 0.86741027827570605 12.723135190979519 0 12.723135190979519 97.366501871030778 0 0 0 0 -9.5873287943472292 24.784443522905349 0 24.784443522905349 98.621097051751349 0 0 0 0 -5.5001767678729747 17.449431501794606 0 17.449431501794606 84.105769675792544 0 0 0 0 -3.05525128395076 24.403186742361868 0 24.403186742361868 82.400677765825094 0 0 0 0 -8.6513040909379733 22.346644244578783 0 22.346644244578783 86.28755137733242 0 0 0 0 5.1615475049679853 26.184052966556919 0 26.184052966556919 87.539157240418717 0 0 0 0 5.0441391786625616 23.969793347308951 0 23.969793347308951 70.163507145567564 0 0 0 0 10.464562654834261 31.514059016225474 0 31.514059016225474 73.920285198866623 0 0 0 0 -5.2484550917104187 18.683855639515969 0 18.683855639515969 68.289624149576412 0 0 0 0 4.4113248465254351 27.89810357625538 0 27.89810357625538 71.400538033514749 0 0 0 0 2.6576708500793629 21.815714177908376 0 21.815714177908376 56.016446753659693 0 0 0 0 15.236100333408942 23.788597355574893 0 23.788597355574893 101.48092369736696 0 0 0 0 12.169303020384753 30.885412850715511 0 30.885412850715511 91.810620200325502 0 0 0 0 9.4179949624244408 24.429077737971966 0 24.429077737971966 86.047579473539372 0 0 0 0 9.1297478101425824 19.274920052674133 0 19.274920052674133 106.28029430624156 0 0 0 0 11.025705936494935 30.143240935671201 0 30.143240935671201 91.424020383041352 0 0 0 0 12.175468171989383 31.225604185172415 0 31.225604185172415 73.806155539554311 0 0 0 0 15.661798187168316 39.834083656889561 0 39.834083656889561 73.037395080420538 0 0 0 0 11.608827927668834 43.672656367380114 0 43.672656367380114 101.21680292866949 0 0 0 0 -2.3613743526817954 3.1742806904816234 0 3.1742806904816234 4.6779257375255554 0 0 0 0 -4.175483658902408 21.800072741993063 0 21.800072741993063 61.626366457068798 0 0 0 0 17.672088191849383 37.684512977182749 0 37.684512977182749 104.74444264055637 0 0 0 0 14.624361047331945 23.038095071868156 0 23.038095071868156 122.71363895265677 0 0 0 0 21.920018035104782 15.914401755137078 0 15.914401755137078 116.8823814784264 0 0 0 0 13.421912610239531 26.152088316055597 0 26.152088316055597 114.67545184242772 0 0 0 0 23.937672639162884 42.946422928711399 0 42.946422928711399 104.55934058348066 0 0 0 0 10.046720055249807 22.464554972946644 0 22.464554972946644 138.22476714965887 0 0 0 0 14.875846660178922 101.03918281878578 0 101.03918281878578 162.92441450159822 0 0 0 0 20.838593541085764 14.837673803056532 0 14.837673803056532 142.21484201344356 0 0 0 0 -7.828194054231437 -13.509302909941624 0 -13.509302909941624 45.20960933750672 0 0 0 0 -3.4595598095359037 12.142367230364471 0 12.142367230364471 59.640205848681944 0 0 0 0 7.7525962512929212 11.718448029609135 0 11.718448029609135 146.92833487015741 0 0 0 0 -3.8663610124212058 -3.6161581669876028 0 -3.6161581669876028 4.1970377586270047 0 0 0 0 0.2962529887072276 10.624447417344584 0 10.624447417344584 42.336091584530436 0 0 0 0 -6.3449959210918223 13.334911271125748 0 13.334911271125748 60.846289522509323 0 0 0 0 1.6020118803307923 18.25004306138726 0 18.25004306138726 52.389821245436906 0 0 0 0 0.40038243830633746 17.860774068190949 0 17.860774068190949 63.9186340334345 0 0 0 0 -5.2600915067374103 11.576890401549463 0 11.576890401549463 61.76393940464186 0 0 0 0 -2.1461338513450983 10.637450768961571 0 10.637450768961571 60.177593985390558 0 0 0 0 -4.4867134410382246 -4.5803890250571726 0 -4.5803890250571726 21.870467080665208 0 0 0 0 -1.6918462821929552 15.690183923230506 0 15.690183923230506 53.794953753437994 0 0 0 0 -1.2857293600541198 12.915006749382883 0 12.915006749382883 59.784313312811719 0 0 0 0 -6.1163195741391387 -2.5822331923225761 0 -2.5822331923225761 20.761091131446932 0 0 0 0 -4.1399654142282261 -1.6498460102526025 0 -1.6498460102526025 9.5082021288776843 0 0 0 0 6.046884258674055 12.239432946309535 0 12.239432946309535 88.986573678939749 0 0 0 0 -47.24860233163929 4.7859546577019501 0 4.7859546577019501 97.769694825376064 0 0 0 0 -1.6282955606689709 27.134075695165407 0 27.134075695165407 40.034832637627431 0 0 0 0 17.494540157335678 17.186564855881443 0 17.186564855881443 118.13774065799225 0 0 0 0 -1.8164372415151342 4.092538514733107 0 4.092538514733107 20.016821370096352 0 0 0 0 18.125014678490288 56.209393792010815 0 56.209393792010815 144.5350405993122 0 0 0 0 3.5244222087845856 5.1895985884111724 0 5.1895985884111724 201.02543524416615 0 0 0 0 -2.4833449526867639 12.156921694706398 0 12.156921694706398 197.75491262687137 0 0 0 0 31.715175917088544 20.714656501235368 0 20.714656501235368 103.05047780834138 0 0 0 0 1.658183884928917 -4.7588270276610274 0 -4.7588270276610274 168.10016721368856 0 0 0 0 -1.6920587568207459 46.98243171211152 0 46.98243171211152 60.585487193851918 0 0 0 0 -8.1899751722012297 47.272852372025227 0 47.272852372025227 143.68368432605075 0 0 0 0 20.662050887030588 19.213265681129997 0 19.213265681129997 108.57927851970453 0 0 0 0 -4.1663148026740373 63.556927489405098 0 63.556927489405098 98.844029412444797 0 0 0 0 -2.0356533548884861 45.950583965970353 0 45.950583965970353 65.997721118831123 0 0 0 0 -8.5963233997144926 39.495128212405689 0 39.495128212405689 119.86064545044792 0 0 0 0 0.27937364980401469 18.136265608948179 0 18.136265608948179 76.010907500865869 0 0 0 0 -1.7173152964885503 35.274478138609993 0 35.274478138609993 33.010860419715755 0 0 0 0 -8.620440708487962 10.582046819041352 0 10.582046819041352 76.79815619783767 0 0 0 0 -12.187574069137725 19.998197105290274 0 19.998197105290274 86.987562311551301 0 0 0 0 -19.920859380801971 14.902543246938876 0 14.902543246938876 126.69862245115655 0 0 0 0 -1.848625969571458 27.644549716404072 0 27.644549716404072 85.348550830618478 0 0 0 0 -16.370236332577406 33.669032062727638 0 33.669032062727638 145.16528951610962 0 0 0 0 -3.4571254299556813 24.331967205325782 0 24.331967205325782 28.983064759446279 0 0 0 0 -2.6275281723638955 -23.14775272067709 0 -23.14775272067709 90.737751521941391 0 0 0 0 -24.225925598330832 46.279089071089402 0 46.279089071089402 15.460516876948532 0 0 0 0 50.286896786715715 95.515294402175641 0 95.515294402175641 47.473073118868342 0 0 0 0 -2.5290755460789196 19.512633975798238 0 19.512633975798238 36.668966506826337 0 0 0 0 -0.080334109660046948 6.634031272268377 0 6.634031272268377 -0.51075692044599919 0 0 0 0 -46.184841238188241 -9.0761691696118305 0 -9.0761691696118305 159.65140962286387 0 0 0 0 5.4856741550234176 61.904020665238932 0 61.904020665238932 274.18409127238556 0 0 0 0 0.5240120296149533 -0.23275094000945273 0 -0.23275094000945273 -2.2149156528747369 0 0 0 0 35.06146017554687 -47.758535317010683 0 -47.758535317010683 -1.0595109006753773 0 0 0 0 -20.040928657234758 0.32646987794578308 0 0.32646987794578308 238.13566715740671 0 0 0 0 -19.794897808806695 17.624197584667854 0 17.624197584667854 178.14806898724783 0 0 0 0 -18.729543984357747 30.886380134688807 0 30.886380134688807 161.99200259722784 0 0 0 0 -2.8782682326418865 30.270330742963779 0 30.270330742963779 143.55072461116652 0 0 0 0 -15.429417458756689 40.906763823644724 0 40.906763823644724 145.17746933293165 0 0 0 0 -18.527769554485936 27.952171693722448 0 27.952171693722448 171.93099338607863 0 0 0 0 -27.024695188656324 31.894280594104202 0 31.894280594104202 178.29908112699923 0 0 0 0 -1.152562277660877 39.959125864301313 0 39.959125864301313 165.45065178796358 0 0 0 0 -26.125304832410961 36.671082622975518 0 36.671082622975518 194.06954865097941 0 0 0 0 4.3510263859261613 36.562939915402239 0 36.562939915402239 120.0525282283852 0 0 0 0 -18.063040221094283 31.494880582173664 0 31.494880582173664 162.6385417524798 0 0 0 0 -1.7801499111883459 17.442068757995003 0 17.442068757995003 212.51354924996849 0 0 0 0 -1.3273158379887491 46.46578754420625 0 46.46578754420625 196.04738173236547 0 0 0 0 -57.555475361768231 13.553088419266714 0 13.553088419266714 199.39307944061147 0 0 0 0 -24.526855606036293 43.991573342778793 0 43.991573342778793 191.72134648188512 0 0 0 0 -14.386647726449041 23.926077528718452 0 23.926077528718452 146.23302633454296 0 0 0 0 -28.466781775381605 23.678488000507059 0 23.678488000507059 199.54058908494335 0 0 0 0 5.1685519406713638 5.0951354488388461 0 5.0951354488388461 195.84344023493759 0 0 0 0 -1.9276103139947054 31.45099435190059 0 31.45099435190059 188.91938311152899 0 0 0 0 -12.478070537677709 11.030376535618416 0 11.030376535618416 159.30762256909657 0 0 0 0 -57.488380365964758 36.978957429335424 0 36.978957429335424 317.99561720828933 0 0 0 0 -1.1092566201744396 -0.71551712066963091 0 -0.71551712066963091 1.0135167236910831 0 0 0 0 -66.396322724979655 -74.523621161446499 0 -74.523621161446499 247.38620116753373 0 0 0 0 -9.9761543011833282 -129.34152480155535 0 -129.34152480155535 -86.250987714698567 0 0 0 0 38.525498055232902 9.6225211343771662 0 9.6225211343771662 147.3650087296628 0 0 0 0 -28.485899214401343 51.285203572999308 0 51.285203572999308 390.60708996725589 0 0 0 0 -0.54617302876816654 -0.18814622571571249 0 -0.18814622571571249 0.50731691426737768 0 0 0 0 -92.374208391240643 -16.284459360320398 0 -16.284459360320398 230.68535789432644 0 0 0 0 -45.307466006224786 -58.069475057360251 0 -58.069475057360251 64.99220923671237 0 0 0 0 -59.374399654474473 -9.9876229451328982 0 -9.9876229451328982 282.92225113552558 0 0 0 0 -12.45497778551271 -5.9954255935554102 0 -5.9954255935554102 300.09645425307826 0 0 0 0 -56.295354428443858 -18.382280346595508 0 -18.382280346595508 305.79025203253696 0 0 0 0 -7.6454144913443542 37.9674306173074 0 37.9674306173074 265.41924029472648 0 0 0 0 50.085587876880879 -71.331132774266734 0 -71.331132774266734 -32.232455109580769 0 0 0 0 -19.829445007267054 42.653726345473842 0 42.653726345473842 371.6736550788919 0 0 0 0 -0.010214774450726161 -0.46972691117041165 0 -0.46972691117041165 0.53144398201398246 0 0 0 0 1.7005851430444636 -43.873858652397757 0 -43.873858652397757 139.7789695657284 0 0 0 0 1.6971844671259446 -50.944972670483622 0 -50.944972670483622 50.08917017064482 0 0 0 0 -23.758435318449301 -49.864738249445509 0 -49.864738249445509 155.73791200992127 0 0 0 0 1.6523341607605744 -44.38849211759225 0 -44.38849211759225 142.58985826626304 0 0 0 0 -9.0185924125008796 -18.33877854804814 0 -18.33877854804814 206.09448220006743 0 0 0 0 9.9582444686935787 -1.3859756548481528 0 -1.3859756548481528 153.17372320372306 0 0 0 0 18.456309129093356 11.916818463328809 0 11.916818463328809 171.59294724374195 0 0 0 0 31.648081765745928 16.155037242599064 0 16.155037242599064 170.69374289363623 0 0 0 0 21.751745757216241 -39.034624945015366 0 -39.034624945015366 266.12366842178744 0 0 0 0 0.5568373926618051 -6.7312825875924318 0 -6.7312825875924318 261.90421126420551 0 0 0 0 12.835677376971489 0.07586168494890444 0 0.07586168494890444 205.92099864002375 0 0 0 0 23.390561794863743 48.059119331424881 0 48.059119331424881 245.28673961463937 0 0 0 0 -1.1162828800038369 25.632682725117775 0 25.632682725117775 224.30895791244438 0 0 0 0 -0.60170422646276922 -1.0415140340134883 0 -1.0415140340134883 1.0575042340863376 0 0 0 0 10.525859892398557 24.878831413865555 0 24.878831413865555 212.59120294972672 0 0 0 0 -5.0855133734554556 -66.926509217759303 0 -66.926509217759303 172.09730567079532 0 0 0 0 -32.028742263340632 64.974246067387867 0 64.974246067387867 157.13588061695191 0 0 0 0 -12.878877842757788 48.576613437748165 0 48.576613437748165 113.76126981918787 0 0 0 0 -2.0507945864289736 -13.388252763606829 0 -13.388252763606829 10.248604407572714 0 0 0 0 17.908403289599676 -94.408461446964793 0 -94.408461446964793 191.74122824938968 0 0 0 0 -1.4387977164807353 17.176295206489158 0 17.176295206489158 140.21368393357261 0 0 0 0 -59.046188397584274 -25.970212636631913 0 -25.970212636631913 207.85857690092962 0 0 0 0 -77.091827760111755 21.958284045285836 0 21.958284045285836 145.92564393705106 0 0 0 0 -50.965773340543763 -61.73042619736043 0 -61.73042619736043 59.11768206776469 0 0 0 0 149.33598235877844 -1147.9066714766159 0 -1147.9066714766159 -315.17330676899292 0 0 0 0 -1.4618590040264585 3.1392628005805108 0 3.1392628005805108 14.05356972067743 0 0 0 0 215.7159880357101 -1862.7586425402042 0 -1862.7586425402042 2239.0598970008723 0 0 0 0 -62.596646628236385 -11.747143241285812 0 -11.747143241285812 146.32705787326267 0 0 0 0 412.75128915068956 -612.65197043879925 0 -612.65197043879925 2908.4236721869966 0 0 0 0 -7.9838725836375488 -21.094810902373865 0 -21.094810902373865 126.89121033282572 0 0 0 0 -2.7737560841553579 9.0213480792608536 0 9.0213480792608536 96.293812901370131 0 0 0 0 -0.53679172195255642 -41.203863668482853 0 -41.203863668482853 60.288820490608742 0 0 0 0 9.0737857183083861 -62.554385533439927 0 -62.554385533439927 118.03387910083984 0 0 0 0 -8.5786490648667311 -8.4673273036407721 0 -8.4673273036407721 38.199033093830337 0 0 0 0 -26.819714135127469 21.590273076806625 0 21.590273076806625 107.99606458967901 0 0 0 0 -14.090006965675684 -22.626163594322861 0 -22.626163594322861 216.79618640766421 0 0 0 0 -3.6074815459426617 -3.4808346318555721 0 -3.4808346318555721 21.977336446672552 0 0 0 0 9.8296357618532966 -78.807250859619671 0 -78.807250859619671 140.19579045126738 0 0 0 0 -13.639623079994863 -94.788883127373992 0 -94.788883127373992 189.55569030987681 0 0 0 0 -68.869282774523299 -52.927808206208283 0 -52.927808206208283 171.23520164196088 0 0 0 0 -1.7596202014335631 -53.045027268926788 0 -53.045027268926788 110.12429101036105 0 0 0 0 -73.152108034973367 -21.708165488806117 0 -21.708165488806117 79.136169408302521 0 0 0 0 -100.94971450957337 -76.02208531688666 0 -76.02208531688666 125.7757259865175 0 0 0 0 -102.73230158019737 -32.742162924041622 0 -32.742162924041622 104.31807327750721 0 0 0 0 -179.4054617607876 3.5345497031739797 0 3.5345497031739797 99.230999373277882 0 0 0 0 -207.76526760029333 -20.174098357223556 0 -20.174098357223556 101.58547535215621 0 0 0 0 -121.15262369004199 -55.026890901397564 0 -55.026890901397564 83.453176056093071 0 0 0 0 -199.58449166660284 -42.901239438564517 0 -42.901239438564517 90.676964853577374 0 0 0 0 -271.74950088287574 -64.805718251307553 0 -64.805718251307553 0.077910167572554201 0 0 0 0 -183.5705653823386 -6.0992510231517372 0 -6.0992510231517372 77.388351495552342 0 0 0 0 -265.19182125809675 -42.385183815291384 0 -42.385183815291384 76.730696931597777 0 0 0 0 -111.6747391090521 -58.880245867654594 0 -58.880245867654594 110.47156112029916 0 0 0 0 -104.98359012733954 -57.396860758992261 0 -57.396860758992261 28.210960455675377 0 0 0 0 -243.83977073961688 61.90576069227609 0 61.90576069227609 76.01234894656227 0 0 0 0 -0.96278525810466475 6.8466218207031915 0 6.8466218207031915 65.076048230026515 0 0 0 0 -283.69014557799596 30.650002554160892 0 30.650002554160892 96.734507137152832 0 0 0 0 -0.1191755124827989 3.8695917601743162 0 3.8695917601743162 46.055774013670003 0 0 0 0 1810.0575518145088 -575.01327527470858 0 -575.01327527470858 1712.0235743170197 0 0 0 0 -257.46754798321308 -0.58195644494844601 0 -0.58195644494844601 67.192337463755393 0 0 0 0 -197.3033582037051 40.0114265637676 0 40.0114265637676 78.291125018236926 0 0 0 0 -189.3045835562184 86.038811745791463 0 86.038811745791463 76.236697185959201 0 0 0 0 -209.98716564376014 -47.901736404601252 0 -47.901736404601252 15.075511839560932 0 0 0 0 0.064314014729312419 0.30000990433669728 0 0.30000990433669728 15.025629552164816 0 0 0 0 1844.8076688450146 -607.39216640518862 0 -607.39216640518862 -2196.8911898813676 0 0 0 0 -51.938109500272049 -14.883371041512873 0 -14.883371041512873 122.18288056206075 0 0 0 0 -70.240521267841814 28.426916868891567 0 28.426916868891567 30.856764532247325 0 0 0 0 -109.66978347456711 -16.051663273436134 0 -16.051663273436134 135.81684414253687 0 0 0 0 -42.478434384816637 -32.885637870283972 0 -32.885637870283972 112.89768923210795 0 0 0 0 49.125960616700922 484.38591229174199 0 484.38591229174199 601.94358009038115 0 0 0 0 145.61240062160346 243.7459622327151 0 243.7459622327151 114.37695141296717 0 0 0 0 -73.079042820913401 271.06914376309214 0 271.06914376309214 232.62312403380929 0 0 0 0 -135.07235919723075 257.92945845460781 0 257.92945845460781 229.95210111419146 0 0 0 0 31.581577485447724 107.38807003432885 0 107.38807003432885 -41.237596016784664 0 0 0 0 49.367614352331032 222.3144911045074 0 222.3144911045074 75.150908382376656 0 0 0 0 -358.8254314493858 22.79613192179022 0 22.79613192179022 502.44722460859339 0 0 0 0 -448.56080872220156 230.66738034412629 0 230.66738034412629 354.48220092512202 0 0 0 0 -251.02800900587818 364.97206850000657 0 364.97206850000657 282.77149497492428 0 0 0 0 -211.54527923801606 187.84469021134282 0 187.84469021134282 342.98582779651042 0 0 0 0 -176.14189184133295 10.782887506884435 0 10.782887506884435 212.76418121533061 0 0 0 0 -140.36698680514974 57.899145295225026 0 57.899145295225026 233.94465254519309 0 0 0 0 -83.783436920091503 -25.154592539216537 0 -25.154592539216537 195.25959807063919 0 0 0 0 -52.579624386600301 115.00320579448248 0 115.00320579448248 95.914133335754741 0 0 0 0 -46.542582181692978 -3.257939895891468 0 -3.257939895891468 -70.287804096325999 0 0 0 0 -97.517444857967348 56.415256901862449 0 56.415256901862449 40.242115473243757 0 0 0 0 -96.206746543232384 1.5829065414145589 0 1.5829065414145589 109.26684753157679 0 0 0 0 -94.377491950651347 74.306161773412896 0 74.306161773412896 141.74586381659901 0 0 0 0 -137.80044910163861 -19.254255669366103 0 -19.254255669366103 22.325636712877895 0 0 0 0 -105.96527483290538 39.71647942589334 0 39.71647942589334 90.853478356701089 0 0 0 0 -110.36341659463187 -6.6416637798029114 0 -6.6416637798029114 62.178390045104607 0 0 0 0 -142.67167964465943 7.2911710324406158 0 7.2911710324406158 81.971994404244469 0 0 0 0 -103.94356560288702 9.5576597808467341 0 9.5576597808467341 102.11215896184149 0 0 0 0 -95.853923018182286 -21.382940747404064 0 -21.382940747404064 84.573971823807369 0 0 0 0 -109.93962703539478 -16.685748575902835 0 -16.685748575902835 102.48861432657577 0 0 0 0 -106.81533122964402 -14.555562174820807 0 -14.555562174820807 79.30445171847532 0 0 0 0 -123.95552811485595 -15.661041361759999 0 -15.661041361759999 86.181897919479525 0 0 0 0 -94.826121903259263 5.9780612459435361 0 5.9780612459435361 121.09154558794398 0 0 0 0 -81.545782951867295 -25.592454162280774 0 -25.592454162280774 117.36373549051677 0 0 0 0 -94.027450162730929 -14.590868543316901 0 -14.590868543316901 109.79613087157486 0 0 0 0 -65.380512555369023 -19.381196133315825 0 -19.381196133315825 127.72160377514956 0 0 0 0 -64.520207034632904 -16.549941542667511 0 -16.549941542667511 105.25917755787668 0 0 0 0 -59.812148954249324 -17.275330710443086 0 -17.275330710443086 101.54253027404047 0 0 0 0 -80.102828166373001 -18.682940283979406 0 -18.682940283979406 108.04511301300226 0 0 0 0 -79.891923689599949 -22.656876698350288 0 -22.656876698350288 99.442180039361119 0 0 0 0 -84.622929343468741 -22.5758046375704 0 -22.5758046375704 106.33880666363984 0 0 0 0 -87.757472258752387 -12.746938114345539 0 -12.746938114345539 104.72030799216009 0 0 0 0 -98.59173846878366 -26.293126965712872 0 -26.293126965712872 97.98317799018696 0 0 0 0 -106.53651236568567 -26.607455807185033 0 -26.607455807185033 104.30222141493869 0 0 0 0 -101.49523949228501 -15.80866747867185 0 -15.80866747867185 99.255826769920532 0 0 0 0 -95.863130664963137 -26.609706543502398 0 -26.609706543502398 107.06098860903148 0 0 0 0 -96.053811522457409 -23.625263216548774 0 -23.625263216548774 100.76522138861765 0 0 0 0 -101.77391379280061 -23.017769635167497 0 -23.017769635167497 106.82404701135238 0 0 0 0 -94.792105163886845 -27.073285435653816 0 -27.073285435653816 108.40478100518158 0 0 0 0 -94.469640875914592 -14.853714157070499 0 -14.853714157070499 106.70809644843393 0 0 0 0 -78.647750378206638 6.3077741833258187 0 6.3077741833258187 74.864521954790689 0 0 0 0 -103.02222377239832 -18.317170964932302 0 -18.317170964932302 105.9514010650928 0 0 0 0 -92.572071118090207 -12.545358981893514 0 -12.545358981893514 97.387508266750956 0 0 0 0 -113.95308069896146 -4.3902307211683365 0 -4.3902307211683365 94.464281996828504 0 0 0 0 -102.31919073528934 -3.0802369160373928 0 -3.0802369160373928 81.430026092304615 0 0 0 0 -106.14183343240347 -18.139997476027929 0 -18.139997476027929 98.135883629089221 0 0 0 0 -117.93717434625864 -5.3329954855435062 0 -5.3329954855435062 90.147411988175008 0 0 0 0 -85.413690046174452 4.6625503487302922 0 4.6625503487302922 94.072944296349306 0 0 0 0 -104.69421605220577 3.5131572462123586 0 3.5131572462123586 86.619013927997003 0 0 0 0 -86.121778544862536 9.1317067091003992 0 9.1317067091003992 66.735900422092527 0 0 0 0 -84.649923851651693 -3.1568302132363897 0 -3.1568302132363897 87.792251284456142 0 0 0 0 -96.769817161604124 -1.9711198836303083 0 -1.9711198836303083 98.757596144831041 0 0 0 0 -76.947922102120828 15.675050601753355 0 15.675050601753355 109.99910990076023 0 0 0 0 -85.865517344076864 7.3683143840225966 0 7.3683143840225966 102.31774776283419 0 0 0 0 -79.883610658605903 -9.3977490723336814 0 -9.3977490723336814 101.69161197413632 0 0 0 0 -81.984216571773686 -1.7452924077952048 0 -1.7452924077952048 110.76380513270851 0 0 0 0 1212.8693802293947 -2532.2479244619753 0 -2532.2479244619753 -42.602455972111784 0 0 0 0 -0.36308403604593398 9.5152925076864321 0 9.5152925076864321 80.578145555868844 0 0 0 0 -356.9476213035432 199.96677070235182 0 199.96677070235182 274.79510162898805 0 0 0 0 -0.87337437496377168 -0.15190365783668369 0 -0.15190365783668369 25.119420933883532 0 0 0 0 -317.37710911417321 86.680630669434322 0 86.680630669434322 519.72092485637404 0 0 0 0 -354.52601270552668 156.48147002909536 0 156.48147002909536 388.58255154005019 0 0 0 0 -241.5808857866873 160.20642619946739 0 160.20642619946739 173.16385983437067 0 0 0 0 -230.9761991768886 113.09020467231676 0 113.09020467231676 333.03334277076647 0 0 0 0 -337.64975677775169 232.14699190013198 0 232.14699190013198 112.87472620443441 0 0 0 0 -223.38689213551561 185.97415912759607 0 185.97415912759607 -39.739968306967057 0 0 0 0 2468.9837277183192 -1082.6758233251894 0 -1082.6758233251894 585.05826393066673 0 0 0 0 -207.34510885444115 107.3685880900448 0 107.3685880900448 203.47089541467722 0 0 0 0 -149.87666760979982 103.47419594837265 0 103.47419594837265 59.410228906548582 0 0 0 0 -142.57769660653503 39.474477875432058 0 39.474477875432058 -41.883030637225602 0 0 0 0 -112.82709149344441 -25.312609304586658 0 -25.312609304586658 98.163288281793939 0 0 0 0 -190.24440613933871 112.30665303316346 0 112.30665303316346 -248.52684452873655 0 0 0 0 -178.01643550756398 53.926296112884302 0 53.926296112884302 30.192625711395522 0 0 0 0 -185.63464834392335 -49.186860940390034 0 -49.186860940390034 44.60943360067904 0 0 0 0 -186.21785887954678 -28.335254718786928 0 -28.335254718786928 -47.487734518945217 0 0 0 0 -214.99558629270996 -76.558082685180125 0 -76.558082685180125 -118.00530029265792 0 0 0 0 -183.55157928390673 88.694262140452338 0 88.694262140452338 37.271396712836577 0 0 0 0 2255.9678597546908 -634.83319200501137 0 -634.83319200501137 -296.51919237547554 0 0 0 0 -164.44472320330624 19.233819609566126 0 19.233819609566126 79.047365044873914 0 0 0 0 -153.05244465232772 21.338811663008528 0 21.338811663008528 67.492541144893039 0 0 0 0 -136.94454579950093 19.003415734317969 0 19.003415734317969 59.31227065413259 0 0 0 0 -193.58511149782589 43.743091829121113 0 43.743091829121113 68.353167597815627 0 0 0 0 -137.11933549637524 31.459602332120994 0 31.459602332120994 41.772818800644018 0 0 0 0 -144.41522823092282 25.701478539893287 0 25.701478539893287 57.644797272339929 0 0 0 0 -136.84601416560849 27.099162968341261 0 27.099162968341261 54.312273021612782 0 0 0 0 -125.04151317266223 4.3170685287623201 0 4.3170685287623201 63.752918881305959 0 0 0 0 -130.66625347350316 5.8141046962118708 0 5.8141046962118708 73.138236545317341 0 0 0 0 -115.16230384249775 -10.836590571314446 0 -10.836590571314446 78.750606739980867 0 0 0 0 -109.03420769010791 4.556693137565162 0 4.556693137565162 61.015756082633743 0 0 0 0 -118.54280709607627 9.0704736297393538 0 9.0704736297393538 74.53915736702038 0 0 0 0 -112.07576662687734 13.211448656249559 0 13.211448656249559 70.793487230010214 0 0 0 0 -115.51620883880059 59.897213371907128 0 59.897213371907128 0.66685458220308647 0 0 0 0 -80.005694620155651 22.203103422579261 0 22.203103422579261 33.377402491460089 0 0 0 0 -28.413273158659536 -8.4888859513248462 0 -8.4888859513248462 110.05706546698639 0 0 0 0 -53.649631188324804 -70.013808458366839 0 -70.013808458366839 345.36600552820892 0 0 0 0 -46.087163180813093 -52.851218981519196 0 -52.851218981519196 195.57174935608055 0 0 0 0 -56.780442849313886 -31.067762990711344 0 -31.067762990711344 291.44519684039915 0 0 0 0 -54.673837227752301 -20.964861587097403 0 -20.964861587097403 187.01675323839299 0 0 0 0 -53.821494791748592 -57.045854079107812 0 -57.045854079107812 188.84771154948248 0 0 0 0 -34.333766467914927 -33.414047225072864 0 -33.414047225072864 203.71747554487229 0 0 0 0 -40.950651826102558 -33.375473938309369 0 -33.375473938309369 288.93688388752344 0 0 0 0 1.2201277858836033 -0.85597790566174581 0 -0.85597790566174581 -1.0690352027422421 0 0 0 0 -93.965391456783664 -111.97517592187069 0 -111.97517592187069 395.26685758504027 0 0 0 0 9.7671095851324026 -60.562764786387561 0 -60.562764786387561 183.9062655713351 0 0 0 0 -55.42992507871827 -24.139365097253176 0 -24.139365097253176 182.51265149473056 0 0 0 0 -23.778954114598719 -39.724477072697482 0 -39.724477072697482 119.216003004105 0 0 0 0 -52.063999652133361 -25.101979339360696 0 -25.101979339360696 129.2776861757593 0 0 0 0 -47.976959295923507 -9.0612566754134605 0 -9.0612566754134605 104.23619992466411 0 0 0 0 -39.18543675693877 -18.798874714935664 0 -18.798874714935664 97.876307007434662 0 0 0 0 -64.681827545558576 -5.5026368836861366 0 -5.5026368836861366 91.965733582794201 0 0 0 0 -38.74400275827611 6.0228513057663804 0 6.0228513057663804 95.035522305857739 0 0 0 0 -41.434179813301398 17.955344256224635 0 17.955344256224635 46.148222194438858 0 0 0 0 -30.811254996853222 -19.232157756996457 0 -19.232157756996457 66.784421545937221 0 0 0 0 -25.102321769400607 -5.6630421428683348 0 -5.6630421428683348 99.769494826643495 0 0 0 0 -52.494841630150745 -10.37205292028375 0 -10.37205292028375 99.17972465386265 0 0 0 0 -42.548489863665054 -18.478191913785849 0 -18.478191913785849 29.702078161782993 0 0 0 0 -18.400622342650536 -10.069271747779567 0 -10.069271747779567 152.76414193971959 0 0 0 0 -0.011828699349594629 1.8405284771334891 0 1.8405284771334891 4.9282152038931315 0 0 0 0 -10.443078029897379 -57.427697513139719 0 -57.427697513139719 71.667872614496446 0 0 0 0 -85.09742453629076 50.004771887077368 0 50.004771887077368 34.088716540449241 0 0 0 0 70.561500517506374 -121.97767701166595 0 -121.97767701166595 58.879090583417565 0 0 0 0 -35.86923227094357 -13.159009606817563 0 -13.159009606817563 33.023919381928863 0 0 0 0 5.0218550508607223 -190.97185001675825 0 -190.97185001675825 376.43134709801234 0 0 0 0 128.24806868105975 -175.12739441016311 0 -175.12739441016311 128.56230741645231 0 0 0 0 -0.12939935925202928 0.62529558870571122 0 0.62529558870571122 2.2984630124614398 0 0 0 0 135.35771205266138 -214.34739862344031 0 -214.34739862344031 287.15397198818391 0 0 0 0 -71.172591732930414 113.39587746724283 0 113.39587746724283 -35.96645921209165 0 0 0 0 -20.498152322798205 -58.910325513810676 0 -58.910325513810676 372.48788999526005 0 0 0 0 48.766474000588914 86.481815178038232 0 86.481815178038232 31.74961070669724 0 0 0 0 145.64576021069524 15.139034610176168 0 15.139034610176168 118.89224181015743 0 0 0 0 -44.070684165700186 -82.086323144845665 0 -82.086323144845665 214.96997366940195 0 0 0 0 -63.39629429143011 68.98304253036622 0 68.98304253036622 112.0126027494116 0 0 0 0 -86.751694609496099 22.218430769491533 0 22.218430769491533 207.79603361280169 0 0 0 0 -86.167901631218456 23.734955882420763 0 23.734955882420763 119.0650569918289 0 0 0 0 -81.446115086181862 11.586126749731193 0 11.586126749731193 99.138666675316927 0 0 0 0 -72.017745174890479 -60.083007826120593 0 -60.083007826120593 119.14090488652437 0 0 0 0 -72.477233025197165 -23.94766822965903 0 -23.94766822965903 107.35472596381442 0 0 0 0 -107.70596931902378 -11.30851950043143 0 -11.30851950043143 162.23987117123761 0 0 0 0 -182.12003291748238 -65.718086233995564 0 -65.718086233995564 64.763576195418864 0 0 0 0 -79.140281371893934 -33.141926440272073 0 -33.141926440272073 43.801488103832526 0 0 0 0 -63.085175699440271 19.182828846615394 0 19.182828846615394 125.17867032899812 0 0 0 0 -97.507912594498066 -111.10537438315805 0 -111.10537438315805 249.94714702997589 0 0 0 0 -61.312476624569101 24.276287266908184 0 24.276287266908184 -17.945389744134445 0 0 0 0 137.45327012101336 -273.78634845055421 0 -273.78634845055421 368.22589497063018 0 0 0 0 -0.15587372512345521 0.86820598352051093 0 0.86820598352051093 1.9765826725171962 0 0 0 0 16.893761447658221 -36.355672342273465 0 -36.355672342273465 -6.3713149906689068 0 0 0 0 -34.137594277375911 -48.915639994411322 0 -48.915639994411322 103.2014367539341 0 0 0 0 -0.12547419552063266 2.6144131599505585 0 2.6144131599505585 4.6109056256460974 0 0 0 0 117.69016607375409 -146.32649074453366 0 -146.32649074453366 278.8560476793391 0 0 0 0 61.811394478883187 -63.982034077082062 0 -63.982034077082062 24.271700154371501 0 0 0 0 1.0139142220309352 -0.094028742577435764 0 -0.094028742577435764 0.104733052345793 0 0 0 0 55.740481428996873 -72.479082541671232 0 -72.479082541671232 53.364592857513344 0 0 0 0 114.21605098966776 -206.60276357835028 0 -206.60276357835028 315.04693291128933 0 0 0 0 -25.488985881198914 13.299093950761744 0 13.299093950761744 90.318182354341843 0 0 0 0 -39.304280604123846 -21.763033843322773 0 -21.763033843322773 46.376393021258991 0 0 0 0 -5.794873630235176 6.6971651159245198 0 6.6971651159245198 25.191077060035752 0 0 0 0 -23.708315441652303 4.9023290147524676 0 4.9023290147524676 120.03873191795719 0 0 0 0 0.22889095830190254 15.601005095733868 0 15.601005095733868 97.622015938402569 0 0 0 0 -56.809690352176972 -259.3965922322659 0 -259.3965922322659 493.59124809422065 0 0 0 0 7.9458983022619805 -3.4286302835716924 0 -3.4286302835716924 85.539116689382354 0 0 0 0 708.56911835334154 1929.1534188455698 0 1929.1534188455698 1174.1041319204232 0 0 0 0 -7.3687850991811956 26.899847465865605 0 26.899847465865605 92.245008693309501 0 0 0 0 -71.669944835608476 -1.5796175836585462 0 -1.5796175836585462 111.33532063293387 0 0 0 0 -41.349718700693302 26.95378873962909 0 26.95378873962909 111.80164902396427 0 0 0 0 -66.923415248250421 -7.6139186561340466 0 -7.6139186561340466 108.81048720187391 0 0 0 0 -33.564401179703395 -14.097801216763401 0 -14.097801216763401 95.665676543736481 0 0 0 0 -65.841002791218671 -11.542236208446411 0 -11.542236208446411 104.83993503890815 0 0 0 0 -88.445407612464237 -18.620581241455511 0 -18.620581241455511 107.43745493362076 0 0 0 0 -97.590810927359598 -27.266049676814873 0 -27.266049676814873 109.30233784159645 0 0 0 0 -94.238228339017496 -24.074393811984919 0 -24.074393811984919 108.0825574882474 0 0 0 0 -99.64364322948677 -30.66145733126541 0 -30.66145733126541 100.15859644615557 0 0 0 0 -84.015392456435166 -27.796888002802007 0 -27.796888002802007 100.50044174655341 0 0 0 0 -75.742993550145968 -7.409615061700606 0 -7.409615061700606 106.38522861128149 0 0 0 0 -99.218518594738953 -23.454044395013625 0 -23.454044395013625 111.52639238149277 0 0 0 0 -108.2661133611798 -27.708092423461494 0 -27.708092423461494 109.58028622199345 0 0 0 0 -104.8431400919435 -6.6698747978589381 0 -6.6698747978589381 116.78151083389093 0 0 0 0 -139.23146656742801 -20.489087856600236 0 -20.489087856600236 114.14028421759576 0 0 0 0 -121.96273841174002 -62.570249920350761 0 -62.570249920350761 58.891009282480809 0 0 0 0 -102.72395858174934 -18.283578609554752 0 -18.283578609554752 102.89741024991963 0 0 0 0 -93.220448465721347 -27.01747733821685 0 -27.01747733821685 100.53445630893884 0 0 0 0 -93.207710353922039 -24.863116845910554 0 -24.863116845910554 96.395711063025374 0 0 0 0 -69.895966819450905 -38.956152463993931 0 -38.956152463993931 38.325782205090945 0 0 0 0 -70.956729812891325 -30.81682190212041 0 -30.81682190212041 1.4411715533497045 0 0 0 0 -1.8410583991674736 0.6427548221756183 0 0.6427548221756183 -1.8581263365978202 0 0 0 0 -133.72993510649007 -163.01892073363342 0 -163.01892073363342 -95.799404760364268 0 0 0 0 -1.2713097284825174 -0.085107496415929518 0 -0.085107496415929518 0.69530828270195855 0 0 0 0 -88.642574378977315 8.6880174275211175 0 8.6880174275211175 266.76863270851391 0 0 0 0 11.875421802065375 95.948061589362624 0 95.948061589362624 305.36701140509831 0 0 0 0 -161.64963328484691 -49.434989357916493 0 -49.434989357916493 249.13741338640102 0 0 0 0 25.959810238687623 9.0726619999768445 0 9.0726619999768445 193.50622927202039 0 0 0 0 4.6712129766993655 43.376928667765696 0 43.376928667765696 187.57477906084387 0 0 0 0 24.050568379872175 32.007003966831689 0 32.007003966831689 162.2416288925051 0 0 0 0 26.913400047839673 58.653190594479838 0 58.653190594479838 83.846676794215455 0 0 0 0 -45.34230115561104 65.242842057290545 0 65.242842057290545 114.32173463858271 0 0 0 0 -59.475282977823099 -1.147389630539692 0 -1.147389630539692 134.31847608278622 0 0 0 0 -66.50593846034036 -4.0270414311416971 0 -4.0270414311416971 106.74169141825405 0 0 0 0 -20.392506131720239 -5.2562387619291258 0 -5.2562387619291258 109.62337975236733 0 0 0 0 -3.8288466137122374 11.642461718867999 0 11.642461718867999 101.96328331508565 0 0 0 0 -113.50860945543172 79.104567031601619 0 79.104567031601619 125.44994609159767 0 0 0 0 -59.898768839569925 -0.11735358944861218 0 -0.11735358944861218 109.02857067180594 0 0 0 0 -21.52829086759759 -3.723474235732283 0 -3.723474235732283 107.56464071173104 0 0 0 0 -3.6269430149740036 12.240744935202386 0 12.240744935202386 102.65956005095083 0 0 0 0 -32.524141887118105 -17.142718206487189 0 -17.142718206487189 100.66481728209328 0 0 0 0 -28.860115644809348 10.262966720232271 0 10.262966720232271 107.65610188269056 0 0 0 0 2.2189978755878932 -1.5504263483787497 0 -1.5504263483787497 -1.5903382334899732 0 0 0 0 -71.489889628565379 -174.75181636375055 0 -174.75181636375055 107.2457554328721 0 0 0 0 3.1009917417128783 1.2085197270756964 0 1.2085197270756964 22.864208896933548 0 0 0 0 62.762568243717396 -160.75762917724933 0 -160.75762917724933 345.41455845836026 0 0 0 0 67.99641732956502 -75.347754930997326 0 -75.347754930997326 6.5166680554029881 0 0 0 0 18.325018218645255 7.5647856888608658 0 7.5647856888608658 102.40547777434404 0 0 0 0 73.438669589649066 -19.071297182323178 0 -19.071297182323178 131.62441584851331 0 0 0 0 28.62528087264235 -53.356845979735226 0 -53.356845979735226 88.899252258139313 0 0 0 0 38.449184296419006 -63.322192651956357 0 -63.322192651956357 94.956502185777936 0 0 0 0 -3.7441198769390667 -63.492427235301875 0 -63.492427235301875 92.524815966869937 0 0 0 0 50.629593302889589 -147.99239526640304 0 -147.99239526640304 88.415637926445925 0 0 0 0 58.835047700110067 -95.8878095750988 0 -95.8878095750988 36.931816354663169 0 0 0 0 62.102900530187412 -101.12007636920316 0 -101.12007636920316 -0.97537299140071809 0 0 0 0 -43.332853304844321 -34.22447509315316 0 -34.22447509315316 1.7043136096617673 0 0 0 0 45.680545205219914 -105.72648331663004 0 -105.72648331663004 31.854182783572469 0 0 0 0 -65.099518218066805 50.976616444488172 0 50.976616444488172 14.148859767468821 0 0 0 0 -185.7432408798586 -110.79107495980861 0 -110.79107495980861 57.536705365782836 0 0 0 0 -0.027194879083279548 -1.2705828339647525 0 -1.2705828339647525 4.8808048559773169 0 0 0 0 -86.351755347908195 -43.580423597923073 0 -43.580423597923073 -10.261857583580422 0 0 0 0 -0.08587560968364101 -69.191696704252536 0 -69.191696704252536 -54.963056640659488 0 0 0 0 -15.387893501788994 -122.58378174441168 0 -122.58378174441168 -22.484762694461097 0 0 0 0 -86.691120674640899 144.04606853018413 0 144.04606853018413 131.27177354562446 0 0 0 0 -193.86489781989798 99.446329817306832 0 99.446329817306832 335.82588429197494 0 0 0 0 0.12978009776829535 -11.356276030215668 0 -11.356276030215668 0.92077890667860629 0 0 0 0 -0.12959801672088839 -0.33472906456094265 0 -0.33472906456094265 2.5846961030658804 0 0 0 0 -2.3687430856944882 -140.51802267521271 0 -140.51802267521271 362.68342493580712 0 0 0 0 55.657164226453901 -75.884397760362845 0 -75.884397760362845 175.93768062698655 0 0 0 0 65.805040370514234 -8.2775265476157074 0 -8.2775265476157074 40.727341579155109 0 0 0 0 -62.257523185285208 42.792188222592813 0 42.792188222592813 251.73733219948917 0 0 0 0 -64.419057413465595 -10.585134652996203 0 -10.585134652996203 567.02819766777975 0 0 0 0 25.744832930271173 54.436158293909102 0 54.436158293909102 325.74049097459647 0 0 0 0 65.86162572504179 -169.89876967671444 0 -169.89876967671444 468.42407912949784 0 0 0 0 -5.1092866007859357 -248.05812281745602 0 -248.05812281745602 720.54671814705944 0 0 0 0 -0.52518170210308512 0.71516731066688521 0 0.71516731066688521 1.8692211631395423 0 0 0 0 -144.29148887599854 166.10377267612785 0 166.10377267612785 -107.76521868982672 0 0 0 0 -0.15915795893128865 -8.7039183670312923 0 -8.7039183670312923 437.89885110970499 0 0 0 0 -66.850365919911169 -109.2390711304979 0 -109.2390711304979 489.14208339015477 0 0 0 0 -166.11483803585699 -0.41840692717596539 0 -0.41840692717596539 501.95687994750915 0 0 0 0 -186.68730657007927 67.503267248688644 0 67.503267248688644 228.82346701271308 0 0 0 0 61.728669469984936 6.4491701149527216 0 6.4491701149527216 163.59301389001484 0 0 0 0 -12.192786044567399 -10.654272897489136 0 -10.654272897489136 178.653085570455 0 0 0 0 0.10915857970488402 -51.091138932955801 0 -51.091138932955801 94.109558845302672 0 0 0 0 -70.24349680864384 -52.027049132040702 0 -52.027049132040702 96.37715539252531 0 0 0 0 5.1713934238196657 -41.965589704906961 0 -41.965589704906961 59.588611625309568 0 0 0 0 -24.844348036941042 -62.449285958455221 0 -62.449285958455221 82.331020738201914 0 0 0 0 -11.280313528288843 -39.011918913609406 0 -39.011918913609406 81.803038428290165 0 0 0 0 -86.970508797843934 54.983859014164636 0 54.983859014164636 -3.5337733743508579 0 0 0 0 -83.428626567216895 -4.9117975605768152 0 -4.9117975605768152 84.460274590215704 0 0 0 0 -79.577162721340187 -13.536870557097245 0 -13.536870557097245 67.170780322048813 0 0 0 0 -51.162557388219511 -42.645613870532543 0 -42.645613870532543 80.67915179458214 0 0 0 0 -63.142682494347866 -31.782760146990768 0 -31.782760146990768 93.157091930883325 0 0 0 0 -13.072683614274553 -18.096059034687642 0 -18.096059034687642 40.55193642021186 0 0 0 0 113.04482713079221 -101.50434294142906 0 -101.50434294142906 159.73658092176629 0 0 0 0 -2.3201368461545124 2.1986194419686456 0 2.1986194419686456 5.3889516649053917 0 0 0 0 -24.240542285738783 10.192197477928858 0 10.192197477928858 35.101113799988525 0 0 0 0 60.2646847358385 -166.66502460399352 0 -166.66502460399352 173.5960248237825 0 0 0 0 -25.368151241225519 -122.97568012228476 0 -122.97568012228476 140.703333711499 0 0 0 0 102.27110864762255 -83.440442500985228 0 -83.440442500985228 118.89162313368433 0 0 0 0 -0.45044554458468156 -54.303389675733342 0 -54.303389675733342 121.10919985255168 0 0 0 0 -38.417215311000405 -98.280727745157492 0 -98.280727745157492 79.033074674240197 0 0 0 0 113.07817297451652 -100.94770267586864 0 -100.94770267586864 133.39390406768871 0 0 0 0 54.535435581830939 -133.92599386524853 0 -133.92599386524853 136.71516317711212 0 0 0 0 9.8600758471604877 -46.629510323735303 0 -46.629510323735303 177.66400659520514 0 0 0 0 54.351454035570441 -71.095011851844902 0 -71.095011851844902 191.11725103993376 0 0 0 0 -14.711449905797963 -77.615339421776298 0 -77.615339421776298 149.05169107276015 0 0 0 0 -54.939957745799802 -8.6269347689230926 0 -8.6269347689230926 56.125541430388694 0 0 0 0 -86.573239549186837 17.089631546477904 0 17.089631546477904 217.01268311147578 0 0 0 0 -106.68933456788591 27.136597439050092 0 27.136597439050092 193.73064959855401 0 0 0 0 -100.0767814802839 36.183308408028097 0 36.183308408028097 198.98363955348759 0 0 0 0 -112.91881963465164 51.784807576063031 0 51.784807576063031 367.99398202661541 0 0 0 0 -128.17039674626085 16.434156107025046 0 16.434156107025046 331.69209182300256 0 0 0 0 -168.7672559103903 94.655182488175342 0 94.655182488175342 184.47734975094136 0 0 0 0 -216.88591475960584 102.17853301124705 0 102.17853301124705 383.97584353978164 0 0 0 0 -216.66844769627596 103.44294583343435 0 103.44294583343435 338.58679953548562 0 0 0 0 -66.697052988185305 109.69496522231202 0 109.69496522231202 388.48582715076918 0 0 0 0 80.118034635396668 -151.25978297377878 0 -151.25978297377878 439.34975424749427 0 0 0 0 -69.558766229218179 81.573528166183678 0 81.573528166183678 626.59394772512314 0 0 0 0 -59.752523437243212 -60.381017890202202 0 -60.381017890202202 417.7502959202975 0 0 0 0 56.067473278663783 -46.772372112551238 0 -46.772372112551238 420.49255564915075 0 0 0 0 31.09062105289712 -95.59888382225472 0 -95.59888382225472 327.20082026861201 0 0 0 0 -1.3767953030960236 1.9473652222525573 0 1.9473652222525573 4.0685935851799968 0 0 0 0 97.929710375553441 -72.538070146751124 0 -72.538070146751124 316.79030900051293 0 0 0 0 179.75807864279335 -64.810009620461642 0 -64.810009620461642 259.94664419158653 0 0 0 0 83.797429920058789 -147.73565455198695 0 -147.73565455198695 201.93755704273644 0 0 0 0 -22.08957594494143 52.844944933593069 0 52.844944933593069 142.6850664997678 0 0 0 0 9.4723125642932491 53.31054190951707 0 53.31054190951707 129.2178437621036 0 0 0 0 50.648253693584138 194.0845705322472 0 194.0845705322472 19.786846073335255 0 0 0 0 36.570570417331169 -2.5493180801961444 0 -2.5493180801961444 45.437182641184336 0 0 0 0 249.39689981883203 263.25917818816379 0 263.25917818816379 374.05932265303818 0 0 0 0 11.058724442753853 61.58802614451325 0 61.58802614451325 120.38834383327568 0 0 0 0 -42.094866822664017 113.96902289866557 0 113.96902289866557 147.00951280278969 0 0 0 0 -77.449541139469716 293.96091310445672 0 293.96091310445672 181.54520012983085 0 0 0 0 -27.935265664736562 54.551624665491545 0 54.551624665491545 126.66599988464441 0 0 0 0 64.952258918341727 110.44367898251221 0 110.44367898251221 224.51129458714422 0 0 0 0 25.751265552257543 56.601075559762421 0 56.601075559762421 150.56410324244644 0 0 0 0 22.491812737233317 90.035900946484617 0 90.035900946484617 149.06510532430548 0 0 0 0 -34.612610492749184 66.562521986172214 0 66.562521986172214 238.06141625389864 0 0 0 0 -11.65368835987789 13.504967607515937 0 13.504967607515937 206.08054458823608 0 0 0 0 -1.9986188278899135 1.2986220882849011 0 1.2986220882849011 304.5392782799172 0 0 0 0 3.8869949892600744 -84.525258366989874 0 -84.525258366989874 394.58570691592104 0 0 0 0 -17.39904509543382 27.234773373766984 0 27.234773373766984 272.18568703265919 0 0 0 0 27.352298424398214 -49.714336345245101 0 -49.714336345245101 222.10228863738666 0 0 0 0 -24.472575200504082 33.945082086514958 0 33.945082086514958 176.88371120891679 0 0 0 0 -19.98348271644025 42.658233811192986 0 42.658233811192986 183.18195230448327 0 0 0 0 3.7977528485918066 -2.4860762653221937 0 -2.4860762653221937 118.81462970868441 0 0 0 0 -35.567741449554404 29.816691978441668 0 29.816691978441668 185.40733490396269 0 0 0 0 15.386882287800745 2.7738818701764103 0 2.7738818701764103 93.491815208622938 0 0 0 0 716.56573700870013 13.347733143798905 0 13.347733143798905 -103.29147256296801 0 0 0 0 7.8128845527017514 27.09838095999476 0 27.09838095999476 48.643676027398335 0 0 0 0 -75.487333426664918 272.62167495989934 0 272.62167495989934 -63.324165404451605 0 0 0 0 -349.30297864148179 -27.762534811146907 0 -27.762534811146907 738.67246503094429 0 0 0 0 54.441477514646976 -434.58226302391085 0 -434.58226302391085 550.5419310612192 0 0 0 0 -336.74376670575293 244.60178970414654 0 244.60178970414654 296.17062665678714 0 0 0 0 -13.281581367594299 -133.55236409124154 0 -133.55236409124154 100.41079979086089 0 0 0 0 6.884071796256892 20.524813923184297 0 20.524813923184297 69.058167953720698 0 0 0 0 38.391310458970565 5.8344466155303962 0 5.8344466155303962 71.374087584809786 0 0 0 0 -37.408780532765377 63.131975097050599 0 63.131975097050599 308.17180119419936 0 0 0 0 -13.806059150006149 -54.75463988801198 0 -54.75463988801198 102.49910869970699 0 0 0 0 -10.526768542496029 -34.493844388323851 0 -34.493844388323851 217.08659724732024 0 0 0 0 -19.383432997336058 -171.62001446726299 0 -171.62001446726299 235.45596700248871 0 0 0 0 11.371475758759516 -108.7927983914542 0 -108.7927983914542 209.73750524524621 0 0 0 0 61.704501271451136 -348.52109678903935 0 -348.52109678903935 617.69253573120841 0 0 0 0 -204.15722788724497 -22.44803434059304 0 -22.44803434059304 549.82536280721979 0 0 0 0 -177.81444278277195 -86.837350727058038 0 -86.837350727058038 707.18152309938614 0 0 0 0 -211.73744255650627 127.64418843938483 0 127.64418843938483 458.33251709101387 0 0 0 0 -153.04986091735395 56.550311768510255 0 56.550311768510255 327.86961763355248 0 0 0 0 -100.97447052058169 61.582150217287563 0 61.582150217287563 315.77937186440704 0 0 0 0 -165.57227488902163 45.428896029641464 0 45.428896029641464 330.47360832254071 0 0 0 0 -105.72424661147647 92.473556668401557 0 92.473556668401557 -33.407161131353405 0 0 0 0 -401.80674561926617 -128.84976137564763 0 -128.84976137564763 115.83433643937133 0 0 0 0 -442.76624680918712 -252.69974656869226 0 -252.69974656869226 199.88262926459174 0 0 0 0 1.4430608147923034 -7.6254341615473269 0 -7.6254341615473269 23.67579498685129 0 0 0 0 91.240778692005051 -169.80546136433964 0 -169.80546136433964 108.16790227978527 0 0 0 0 4.2184143045152585 16.232243797779276 0 16.232243797779276 23.937356957197267 0 0 0 0 312.03948523781628 -151.9357895044559 0 -151.9357895044559 4.1804240515866695 0 0 0 0 1.1509837537895602 -3.621293819524892 0 -3.621293819524892 9.4242912566662795 0 0 0 0 322.94516064202048 -433.17989760393334 0 -433.17989760393334 61.549339531658916 0 0 0 0 319.14970226368905 -296.20475758037537 0 -296.20475758037537 -123.91605018912924 0 0 0 0 -51.61414964643518 60.991660167137525 0 60.991660167137525 69.326562558197111 0 0 0 0 1.9593125911278726 -6.0615615539595131 0 -6.0615615539595131 4.7558046301819914 0 0 0 0 197.58277861451052 -334.42513112146844 0 -334.42513112146844 562.78669040406749 0 0 0 0 819.82005655174453 -243.83692777286069 0 -243.83692777286069 -30.858656926400727 0 0 0 0 383.84731649438618 313.59137865334651 0 313.59137865334651 299.68561959158524 0 0 0 0 685.74323879280792 -65.104334120710973 0 -65.104334120710973 80.921044625552895 0 0 0 0 108.13480456135744 58.597982397333908 0 58.597982397333908 89.30712257866071 0 0 0 0 245.22169385356437 244.97303249718789 0 244.97303249718789 17.363413762031996 0 0 0 0 28.737925007407284 148.70124751106596 0 148.70124751106596 51.494946646704193 0 0 0 0 385.94899938802928 121.24847334269225 0 121.24847334269225 -26.660575759087806 0 0 0 0 262.40254955880141 50.991807791479914 0 50.991807791479914 83.04694896106048 0 0 0 0 -81.21011687575492 -109.35610580996126 0 -109.35610580996126 -49.84283290864937 0 0 0 0 -142.79784387569293 13.25644306236336 0 13.25644306236336 4.3422853150987066 0 0 0 0 94.975494470044623 123.85442363071979 0 123.85442363071979 -184.399994251311 0 0 0 0 -130.629122982029 202.52400067384769 0 202.52400067384769 54.907141926789336 0 0 0 0 27.069615374786736 53.412933781515676 0 53.412933781515676 24.590769603615627 0 0 0 0 1.2951701127083748 -8.2232032998807032 0 -8.2232032998807032 28.620614077034563 0 0 0 0 -374.64137682813453 -473.52147793451286 0 -473.52147793451286 -442.25681871981942 0 0 0 0 -404.16060157759625 -95.230720061798365 0 -95.230720061798365 22.353493967323629 0 0 0 0 -17.164378174898957 -14.205961993804522 0 -14.205961993804522 -137.69682692440074 0 0 0 0 20.557064831776188 -274.85867047498232 0 -274.85867047498232 -99.819846466214585 0 0 0 0 87.217447851396173 -180.29516204268657 0 -180.29516204268657 -196.29993537036171 0 0 0 0 22.906396245103906 289.78953883274608 0 289.78953883274608 220.558615059359 0 0 0 0 75.359898385962651 583.5675707187288 0 583.5675707187288 1816.3122153087461 0 0 0 0 898.04106888361275 680.96551916449243 0 680.96551916449243 -835.32325371911202 0 0 0 0 -91.896400961453082 -402.22277968271601 0 -402.22277968271601 259.37421596165223 0 0 0 0 40.195414020524822 -407.33665402263387 0 -407.33665402263387 347.67390707681261 0 0 0 0 9.2274388090063439 -325.01035594775385 0 -325.01035594775385 309.55337005572437 0 0 0 0 -100.91632614797982 -433.20169647959938 0 -433.20169647959938 644.52809134640665 0 0 0 0 -448.70456238828228 338.58233524732259 0 338.58233524732259 1869.0213140636106 0 0 0 0 -131.73502677190663 306.60365634327172 0 306.60365634327172 1350.1859772731477 0 0 0 0 0.47831576459795322 -3.4511693023581298 0 -3.4511693023581298 14.163868899488889 0 0 0 0 0.0015794176613259658 -2.7567134285901567 0 -2.7567134285901567 15.231512119378081 0 0 0 0 -57.336326942553114 -373.71010582948475 0 -373.71010582948475 303.37798869098151 0 0 0 0 -83.690730981049001 -415.24509547764274 0 -415.24509547764274 830.90662603939018 0 0 0 0 27.216068112218863 -354.29192370824086 0 -354.29192370824086 293.95309535526394 0 0 0 0 270.41089643629812 145.02582134251224 0 145.02582134251224 -19.541528663732606 0 0 0 0 241.07178994725655 72.672916944084136 0 72.672916944084136 14.106335579088409 0 0 0 0 279.67992063926988 126.95214873905115 0 126.95214873905115 -43.218659383612248 0 0 0 0 284.17570129117576 104.17051041043305 0 104.17051041043305 34.343665862108537 0 0 0 0 242.5721562156582 152.8100146359975 0 152.8100146359975 87.147741986602341 0 0 0 0 218.59729764229633 196.6856891828611 0 196.6856891828611 10.835708280128529 0 0 0 0 139.44596872175225 100.45268285807833 0 100.45268285807833 -22.328620418844366 0 0 0 0 240.64952704785264 66.247968744783066 0 66.247968744783066 127.46522958333117 0 0 0 0 66.444114336344796 64.40206416293131 0 64.40206416293131 210.12069030955172 0 0 0 0 54.120963706682232 45.094181719554399 0 45.094181719554399 697.87336344225696 0 0 0 0 38.231749685197428 -314.00727635549629 0 -314.00727635549629 610.23909166878866 0 0 0 0 89.120441900776314 -296.36391109298165 0 -296.36391109298165 296.37148451416215 0 0 0 0 207.18895725243692 -188.39388325701293 0 -188.39388325701293 370.83036392894792 0 0 0 0 238.14922181201564 -176.83153584823958 0 -176.83153584823958 138.17457474591629 0 0 0 0 286.82858892050444 30.592932044328336 0 30.592932044328336 51.49914844198247 0 0 0 0 357.33376494936147 -92.228458619153571 0 -92.228458619153571 -21.964376082345552 0 0 0 0 449.08898137498363 -151.8085829310694 0 -151.8085829310694 16.474683432721577 0 0 0 0 511.55425261279925 47.894199597669285 0 47.894199597669285 -164.92299597950364 0 0 0 0 -52.379519375005657 476.60488242615065 0 476.60488242615065 -429.40512141051295 0 0 0 0 -21.964909453729888 85.882415212798151 0 85.882415212798151 16.213247879295523 0 0 0 0 165.43735642654519 222.68741456795942 0 222.68741456795942 -146.12174356331548 0 0 0 0 329.37894358967878 53.678729745804048 0 53.678729745804048 -39.243533703152934 0 0 0 0 -161.94389031461287 -33.375174395232534 0 -33.375174395232534 -61.905811451316367 0 0 0 0 5.0372171809030988 71.42569157201433 0 71.42569157201433 -53.722845238155742 0 0 0 0 -75.706123095454132 55.340286409188593 0 55.340286409188593 42.002223923593192 0 0 0 0 -0.87102641200630293 3.615608762032517 0 3.615608762032517 25.91144202861669 0 0 0 0 -3.496264568787268 30.79590782663945 0 30.79590782663945 10.533083849200921 0 0 0 0 -67.177345880319649 -4.0921636939247037 0 -4.0921636939247037 69.899092434410704 0 0 0 0 -25.923151845645407 -14.069274568064429 0 -14.069274568064429 67.962211367268537 0 0 0 0 33.040468749868523 -6.3214389186650806 0 -6.3214389186650806 67.502370362668444 0 0 0 0 -2.2070676213155362 7.4673525850089746 0 7.4673525850089746 16.188199134215722 0 0 0 0 151.98866394743982 78.771399802073574 0 78.771399802073574 31.045301285943424 0 0 0 0 99.011185315552211 122.12375906581838 0 122.12375906581838 20.888046568117034 0 0 0 0 217.4380481689268 100.6704472241845 0 100.6704472241845 32.291484382678846 0 0 0 0 -1.7807065066666681 -0.98044613261408742 0 -0.98044613261408742 12.542804291838593 0 0 0 0 125.88118904924499 -5.6901858642845582 0 -5.6901858642845582 63.802784613271797 0 0 0 0 35.590084980129177 -43.270594874978997 0 -43.270594874978997 194.96495258638606 0 0 0 0 -21.31720324774642 -83.842921044878494 0 -83.842921044878494 328.22616157931134 0 0 0 0 -16.953558888746556 -58.67831417693742 0 -58.67831417693742 271.43042660278775 0 0 0 0 -30.100637600387472 -53.855951901027765 0 -53.855951901027765 199.8635525831391 0 0 0 0 -107.4625463526163 41.427574643978005 0 41.427574643978005 254.97675322427676 0 0 0 0 75.814229467985797 40.54858937511608 0 40.54858937511608 273.76153855266784 0 0 0 0 185.38669157563345 -231.3165429558876 0 -231.3165429558876 480.24954419342407 0 0 0 0 -9.337774919573981 18.497805467601808 0 18.497805467601808 8.0686680241169313 0 0 0 0 -118.3987120179786 15.841478359201574 0 15.841478359201574 63.305239702866857 0 0 0 0 15.390164722781911 120.43874111486082 0 120.43874111486082 158.20661903700966 0 0 0 0 15.569520048046002 122.80109281013938 0 122.80109281013938 79.221766854525413 0 0 0 0 6.9325870046393847 57.415364749359405 0 57.415364749359405 131.97124221089746 0 0 0 0 -89.602444272946741 84.536061710281047 0 84.536061710281047 201.82539040789197 0 0 0 0 32.997142326092899 -31.21046835067682 0 -31.21046835067682 166.76845635016798 0 0 0 0 -3.2100961468379756 -23.321305554421226 0 -23.321305554421226 112.31926631167443 0 0 0 0 -27.048781753717776 2.7552151795516693 0 2.7552151795516693 173.08445990213568 0 0 0 0 -6.5657830706277309 -10.891303007956594 0 -10.891303007956594 182.02543806323229 0 0 0 0 0.22791435145651429 -15.790978001977747 0 -15.790978001977747 -4.5401812786098219 0 0 0 0 7.3757309228621661 11.895382007277476 0 11.895382007277476 28.082234989537199 0 0 0 0 -116.38503315187154 30.546484349077218 0 30.546484349077218 66.690732658273191 0 0 0 0 -4.1990513188139857 -116.74684508716837 0 -116.74684508716837 287.65468784506083 0 0 0 0 -170.41218316086224 1.8020815246381972 0 1.8020815246381972 336.14424536863226 0 0 0 0 17.117347106903253 36.073999479027407 0 36.073999479027407 -9.3691893950772283 0 0 0 0 -46.262244845265741 67.117258141268394 0 67.117258141268394 169.42337164061075 0 0 0 0 19.573393496616518 46.01640711035725 0 46.01640711035725 -10.327959646459931 0 0 0 0 -9.0613137313021213 43.151912706287519 0 43.151912706287519 68.448279978734774 0 0 0 0 12.261916914854737 47.005647252008202 0 47.005647252008202 -8.5589453249267535 0 0 0 0 4.889633744600161 44.69363946098747 0 44.69363946098747 -4.1205307996933698 0 0 0 0 7.1490684540950724 40.516016401306842 0 40.516016401306842 0.18009011528920382 0 0 0 0 9.7660812304593492 20.12225551184747 0 20.12225551184747 17.642718635390338 0 0 0 0 20.001304231634094 44.946731343943611 0 44.946731343943611 6.2768440570653183 0 0 0 0 28.642037289290784 32.915064146636723 0 32.915064146636723 10.970870296412613 0 0 0 0 28.03699447355325 37.95533024269389 0 37.95533024269389 -1.4687776979553746 0 0 0 0 32.139721084026405 45.5584008221158 0 45.5584008221158 28.658319850139378 0 0 0 0 45.268843594627356 12.508620297987363 0 12.508620297987363 19.184239037337647 0 0 0 0 -36.752097720085317 90.245886247539374 0 90.245886247539374 54.886511785218318 0 0 0 0 -31.166584306930417 35.762508405376138 0 35.762508405376138 21.905332014892338 0 0 0 0 15.870828584471383 66.117331989316881 0 66.117331989316881 42.326304943722789 0 0 0 0 9.9721904418079248 65.527937054092945 0 65.527937054092945 42.507358348884736 0 0 0 0 -15.771592337682094 42.31106926988619 0 42.31106926988619 48.853680468675535 0 0 0 0 403.36667200486772 657.71860107993416 0 657.71860107993416 705.87309677407029 0 0 0 0 0.78851851164290565 96.581890415218368 0 96.581890415218368 54.396520070098632 0 0 0 0 -6.1342492182366186 99.716133806250582 0 99.716133806250582 9.9987325386646262 0 0 0 0 184.20547381068718 183.75480704099027 0 183.75480704099027 13.350047934545728 0 0 0 0 5.6865326835494221 5.148279409332801 0 5.148279409332801 4.0586412179428919 0 0 0 0 287.44364111565301 -385.16919709805188 0 -385.16919709805188 54.365015035749821 0 0 0 0 28.366960929217385 8.7357966977360775 0 8.7357966977360775 -71.031490775141719 0 0 0 0 100.48474966355661 145.41844152777776 0 145.41844152777776 43.670485051326978 0 0 0 0 -33.566155748161236 178.7362039550062 0 178.7362039550062 119.52555306613067 0 0 0 0 119.74215587898749 312.91896642798383 0 312.91896642798383 227.7676986031729 0 0 0 0 83.562329167627468 168.04663914822595 0 168.04663914822595 21.994764825692982 0 0 0 0 250.25141265289585 360.78280692593398 0 360.78280692593398 201.7690618814886 0 0 0 0 -230.32560617150693 169.05811563829775 0 169.05811563829775 306.95310186558345 0 0 0 0 -180.3728020622184 -331.22236603359124 0 -331.22236603359124 -124.58661943560583 0 0 0 0 25.988200741479886 495.14778922131518 0 495.14778922131518 708.58620544492442 0 0 0 0 -875.73725940086297 -518.77396053758275 0 -518.77396053758275 1077.0418193370897 0 0 0 0 -25.981438811454098 -23.295796396123478 0 -23.295796396123478 -230.02722711034858 0 0 0 0 -42.935611866282841 13.993409157294082 0 13.993409157294082 2.6683165616741462 0 0 0 0 -101.07127930688148 -58.115036372313625 0 -58.115036372313625 31.729663280300883 0 0 0 0 -125.97159997422273 -43.994111440282722 0 -43.994111440282722 234.23450368105114 0 0 0 0 -40.190315801294219 6.9157077910167573 0 6.9157077910167573 36.977423812487359 0 0 0 0 -47.292376369820204 -0.90707915060556843 0 -0.90707915060556843 38.649376413770369 0 0 0 0 -56.838921469408547 11.651335902264691 0 11.651335902264691 101.40151903305377 0 0 0 0 -58.400157926764791 3.1219150627421186 0 3.1219150627421186 55.854376671486534 0 0 0 0 -45.277673689103835 46.72108471802494 0 46.72108471802494 70.974647394978092 0 0 0 0 -29.326970555487151 30.418210213458224 0 30.418210213458224 53.728411778923601 0 0 0 0 -175.4571385859191 47.515649130646125 0 47.515649130646125 172.28236004758219 0 0 0 0 -68.931136783641364 36.938798713090364 0 36.938798713090364 75.411120913515333 0 0 0 0 -76.313026180144448 93.977305766780773 0 93.977305766780773 193.8588489551621 0 0 0 0 -39.309563963660821 138.83996117352217 0 138.83996117352217 92.463091063429601 0 0 0 0 3.591776210975695 147.38382047952473 0 147.38382047952473 93.637488872976974 0 0 0 0 17.536703059949453 93.322105420169464 0 93.322105420169464 31.203994175622938 0 0 0 0 67.682220211940518 110.06147592104389 0 110.06147592104389 36.704635776244686 0 0 0 0 9.158944413927145 136.5001059695951 0 136.5001059695951 51.691857917190646 0 0 0 0 64.132628260859974 154.36492582056962 0 154.36492582056962 50.646281461813487 0 0 0 0 -8.7137914469801672 29.523351237476163 0 29.523351237476163 25.634345956263132 0 0 0 0 -46.827834837099772 16.882501895041059 0 16.882501895041059 48.475199065040215 0 0 0 0 12.964281653433034 79.868403497071995 0 79.868403497071995 64.044267115801631 0 0 0 0 -17.448007859465633 41.279229581421532 0 41.279229581421532 22.925374038051814 0 0 0 0 54.255099771636139 63.464712205604883 0 63.464712205604883 -3.3645252312417142 0 0 0 0 35.704354044653428 60.066483468763181 0 60.066483468763181 22.983235507184702 0 0 0 0 12.637972664834706 13.01758370636162 0 13.01758370636162 -14.895269981934689 0 0 0 0 -28.801472046368417 25.067199581979366 0 25.067199581979366 24.897690248166327 0 0 0 0 263.4558649213767 88.539923094467667 0 88.539923094467667 28.980484567320673 0 0 0 0 78.11033902298368 23.967628715417959 0 23.967628715417959 -43.635687789705116 0 0 0 0 6.5033498927914479 -26.261617787629802 0 -26.261617787629802 -43.217916535359109 0 0 0 0 61.486790930751113 36.232906318298774 0 36.232906318298774 -30.362372577714268 0 0 0 0 41.989426404097685 37.093023606110364 0 37.093023606110364 -4.2246465532734874 0 0 0 0 122.20155957250381 85.235470977422665 0 85.235470977422665 -8.1407296071120072 0 0 0 0 95.031072290396651 89.886485914605146 0 89.886485914605146 9.1323431264027022 0 0 0 0 119.8852775884329 89.647055590612581 0 89.647055590612581 -2.0690652961056912 0 0 0 0 203.07306497705707 117.8838962023583 0 117.8838962023583 14.205232308835548 0 0 0 0 105.32476378783667 101.55881119809055 0 101.55881119809055 30.566691883868771 0 0 0 0 -138.47292558967092 -23.330382873187773 0 -23.330382873187773 -1.0514455022057518 0 0 0 0 20.834313679307343 170.34964781471353 0 170.34964781471353 65.655464671202935 0 0 0 0 56.154867857595264 123.257911581808 0 123.257911581808 22.76960713310109 0 0 0 0 117.46101890600291 152.8277991928303 0 152.8277991928303 36.861673615581822 0 0 0 0 98.232628909075174 146.30233197488997 0 146.30233197488997 51.211396811428131 0 0 0 0 179.68419327604141 223.18023986258049 0 223.18023986258049 109.21038420136028 0 0 0 0 91.507246505517088 197.70635134124132 0 197.70635134124132 74.787415135549963 0 0 0 0 65.094630983105162 137.20093696955882 0 137.20093696955882 123.65172886455184 0 0 0 0 -95.789261959464511 183.83564511600707 0 183.83564511600707 120.09546517440322 0 0 0 0 21.260869976134927 174.70881994078354 0 174.70881994078354 67.848465886825579 0 0 0 0 -133.06363463161097 82.335356056661112 0 82.335356056661112 83.040217316073495 0 0 0 0 -108.20593246272597 57.593879030431708 0 57.593879030431708 98.880289799999446 0 0 0 0 -124.94199643553884 35.840906561661541 0 35.840906561661541 79.616591864949442 0 0 0 0 -39.764484283298771 47.077922403383127 0 47.077922403383127 61.168018875418056 0 0 0 0 -53.838623044115593 75.115255830933165 0 75.115255830933165 38.872722844113014 0 0 0 0 -115.24919241721955 4.2390619902578237 0 4.2390619902578237 43.610489595550462 0 0 0 0 78.826050755749293 124.02605714072706 0 124.02605714072706 23.215231925263652 0 0 0 0 -4.7006656923438186 164.14989726768181 0 164.14989726768181 63.099952856631717 0 0 0 0 28.724205826451907 198.08869856935053 0 198.08869856935053 96.840757340840355 0 0 0 0 -22.028259964029985 159.46590353273496 0 159.46590353273496 69.230816763774783 0 0 0 0 -9.0687200194188335 119.93205478786695 0 119.93205478786695 82.365401508839341 0 0 0 0 111.01932207303084 -175.37524607290652 0 -175.37524607290652 287.99461219723889 0 0 0 0 1.7791643913140767 -0.23831258278357836 0 -0.23831258278357836 -0.26809239114142258 0 0 0 0 13.838513815074748 -76.610557101219456 0 -76.610557101219456 96.786006129817906 0 0 0 0 5.0185196921486295 -34.742667478225485 0 -34.742667478225485 77.048513693276618 0 0 0 0 -19.717348343414869 -51.180787668592529 0 -51.180787668592529 68.20549036252487 0 0 0 0 -24.812329889218745 -29.569623388102627 0 -29.569623388102627 67.519477899637423 0 0 0 0 -24.224897980309379 -4.6309179800955462 0 -4.6309179800955462 36.911846826187684 0 0 0 0 -63.289871819360997 -10.583119432645617 0 -10.583119432645617 22.202298833493842 0 0 0 0 -20.406422994945899 5.7925323713952821 0 5.7925323713952821 24.797753204096807 0 0 0 0 37.786082287050931 -28.615770448137482 0 -28.615770448137482 47.18507381688687 0 0 0 0 -2.3266023424612285 -36.229419420978957 0 -36.229419420978957 83.946261359076743 0 0 0 0 -26.721145000578872 -15.150155294846627 0 -15.150155294846627 66.511652445216896 0 0 0 0 -4.8353561458839067 -2.492582515515096 0 -2.492582515515096 68.273618202772923 0 0 0 0 -0.72402055115163666 11.132882864784037 0 11.132882864784037 36.89979662500707 0 0 0 0 -30.338375335739954 20.110655809762875 0 20.110655809762875 51.641528108360944 0 0 0 0 20.904940174791136 -16.946741757907148 0 -16.946741757907148 29.203207023143477 0 0 0 0 -32.721744425785346 8.3984000866330462 0 8.3984000866330462 47.462518786212911 0 0 0 0 -23.66220077047501 19.791597844154239 0 19.791597844154239 38.407302277089912 0 0 0 0 -7.3714559107791526 5.830242052922685 0 5.830242052922685 10.826386112167825 0 0 0 0 -16.329958903000261 22.558817312328756 0 22.558817312328756 47.217400120887532 0 0 0 0 -32.132276362564426 2.7590918033092748 0 2.7590918033092748 36.330314409202401 0 0 0 0 -40.845170183120899 8.7313444446081121 0 8.7313444446081121 49.466546052288322 0 0 0 0 -37.841389671295701 7.8575670961090509 0 7.8575670961090509 34.276748414937174 0 0 0 0 -52.37324503171385 33.762875979795353 0 33.762875979795353 22.859548401967913 0 0 0 0 -0.5710729144649207 4.7998385681264963 0 4.7998385681264963 22.810933821112997 0 0 0 0 -94.045208972568616 30.999507494743739 0 30.999507494743739 44.645583653684298 0 0 0 0 2.6413950522478444 -4.5675442363426555 0 -4.5675442363426555 40.387160934071289 0 0 0 0 -76.188958212108901 -20.252250806221127 0 -20.252250806221127 15.430988175052335 0 0 0 0 6.5517653867805139 -0.075049366613541224 0 -0.075049366613541224 0.30686683587802577 0 0 0 0 117.51272534926488 -249.44189784207265 0 -249.44189784207265 360.92678053663326 0 0 0 0 95.452282142053491 -165.64920317565702 0 -165.64920317565702 364.10507549728936 0 0 0 0 17.479202477033141 -17.056981048244779 0 -17.056981048244779 25.579517433681758 0 0 0 0 -0.55849985896296328 1.4658397043696425 0 1.4658397043696425 13.410351724371054 0 0 0 0 313.56778625723655 -196.55134376848582 0 -196.55134376848582 330.27536870118638 0 0 0 0 513.75395237004113 -339.50751455396676 0 -339.50751455396676 266.8667517194117 0 0 0 0 9.9491537729429638 -139.80048925054871 0 -139.80048925054871 297.26175272156979 0 0 0 0 65.627605560929965 -217.31597334093385 0 -217.31597334093385 281.21603474712902 0 0 0 0 176.04551639440297 -183.5002356122277 0 -183.5002356122277 262.5378968774894 0 0 0 0 100.58119784297128 -136.78276809429735 0 -136.78276809429735 315.77939351891109 0 0 0 0 128.10090301030243 -200.17785657676171 0 -200.17785657676171 277.89894053035823 0 0 0 0 93.687149497407745 -215.96791358452174 0 -215.96791358452174 342.74723601911683 0 0 0 0 3.2509595689672453 -0.01785007156921381 0 -0.01785007156921381 -0.85352182790421693 0 0 0 0 74.315423479556557 -191.49213117412 0 -191.49213117412 283.11708882157109 0 0 0 0 113.64283931499381 -173.63087019696832 0 -173.63087019696832 204.79185621453507 0 0 0 0 74.551285626393678 -64.18826766820348 0 -64.18826766820348 188.81933774608842 0 0 0 0 -0.80797272540521936 3.6276197621879192 0 3.6276197621879192 6.9612412522251361 0 0 0 0 6.8730605529736977 -3.6532611769598589 0 -3.6532611769598589 35.732905459110043 0 0 0 0 0.89761595124553639 0.080886404094087538 0 0.080886404094087538 0.11192856289214603 0 0 0 0 -19.580954276626358 -21.02146492585598 0 -21.02146492585598 33.614900875531021 0 0 0 0 24.370674822612642 -13.630578913725913 0 -13.630578913725913 9.6261300419719191 0 0 0 0 -0.48753726773542955 3.7868192695352292 0 3.7868192695352292 6.3293387180503942 0 0 0 0 111.49358739334866 -149.1583007475565 0 -149.1583007475565 266.46520514538861 0 0 0 0 89.324575559452228 -141.26133585500065 0 -141.26133585500065 270.97249359011767 0 0 0 0 -18.228530777760511 -2.504345047273091 0 -2.504345047273091 16.48265761116636 0 0 0 0 69.557493876433767 -161.01203246420664 0 -161.01203246420664 279.83285704578157 0 0 0 0 128.53686115738032 -167.36152267871807 0 -167.36152267871807 272.6796738152334 0 0 0 0 0.22071038512988839 2.0883100187344468 0 2.0883100187344468 5.1087428199824103 0 0 0 0 64.066225692027729 -95.402947686161497 0 -95.402947686161497 64.946705829182974 0 0 0 0 -86.770233147265003 58.23399555058495 0 58.23399555058495 27.167059660517225 0 0 0 0 26.896268085158226 -36.886758796295908 0 -36.886758796295908 267.5704685966848 0 0 0 0 -6.6964174749446386 -114.71295501748 0 -114.71295501748 191.51894778240239 0 0 0 0 130.45459389244343 -109.67799657373325 0 -109.67799657373325 183.72538948777947 0 0 0 0 -6.60396817434696 -103.87302793248455 0 -103.87302793248455 184.43603292517946 0 0 0 0 3.8752925656268067 0.31093596499172804 0 0.31093596499172804 1.9661176964824563 0 0 0 0 67.910347894806023 -146.7226030911479 0 -146.7226030911479 146.54755425344047 0 0 0 0 47.370091096948215 -162.60437205681956 0 -162.60437205681956 240.18916734507366 0 0 0 0 41.386805886983552 -108.72633608895921 0 -108.72633608895921 228.07652833918837 0 0 0 0 -33.740139673622934 -94.173683343844459 0 -94.173683343844459 127.0414136901818 0 0 0 0 48.078708819839676 -66.959765760373557 0 -66.959765760373557 124.98717794544064 0 0 0 0 88.691484817727769 -95.499664169619791 0 -95.499664169619791 161.77944243770617 0 0 0 0 108.69972173638598 -90.632327430434088 0 -90.632327430434088 130.75015585304936 0 0 0 0 59.344323270067008 -109.36118132072079 0 -109.36118132072079 182.32039706826617 0 0 0 0 85.727321431000291 -98.509181857509247 0 -98.509181857509247 276.86592334169836 0 0 0 0 59.986951524865219 -107.96178938293656 0 -107.96178938293656 303.87287224479951 0 0 0 0 90.771459684160732 -105.89679232059279 0 -105.89679232059279 182.35121985291335 0 0 0 0 6.3849298408731263 5.0773445297381983 0 5.0773445297381983 5.6294548626676715 0 0 0 0 -0.75232953906870836 -0.93445171611510602 0 -0.93445171611510602 2.2734547718099236 0 0 0 0 86.017192548712956 -138.62055358442012 0 -138.62055358442012 154.25071370259684 0 0 0 0 -29.921225776728534 41.530678906565299 0 41.530678906565299 51.597031882978627 0 0 0 0 -1.6212893835063369 84.758354314166354 0 84.758354314166354 111.80746734784952 0 0 0 0 -10.765830849697522 -114.52619799481181 0 -114.52619799481181 363.95736814241536 0 0 0 0 279.96052151568028 -373.61913880282373 0 -373.61913880282373 382.10396374430275 0 0 0 0 188.05351852563263 -380.25951296140556 0 -380.25951296140556 391.93182629795047 0 0 0 0 -370.61019313328029 -341.50158706008006 0 -341.50158706008006 615.20818179115304 0 0 0 0 141.73323926155899 -145.67131120640261 0 -145.67131120640261 124.45050891825667 0 0 0 0 103.7368388716327 -234.07440969558957 0 -234.07440969558957 270.70698868086038 0 0 0 0 60.740939898096258 -84.853884754964383 0 -84.853884754964383 427.95874998976069 0 0 0 0 95.948467668062278 -236.9506273293573 0 -236.9506273293573 488.55262374025187 0 0 0 0 106.82827948367321 29.578584931034129 0 29.578584931034129 532.48144430962566 0 0 0 0 54.297506897838289 -21.281198629824758 0 -21.281198629824758 631.56438588394667 0 0 0 0 48.63855402059994 26.675655940423894 0 26.675655940423894 475.39502191108477 0 0 0 0 52.158648373155557 -48.051238516855847 0 -48.051238516855847 380.90160663242568 0 0 0 0 84.661795747688728 98.08512694545152 0 98.08512694545152 358.27632132035797 0 0 0 0 132.7393340111646 171.41848767675037 0 171.41848767675037 378.84958301747974 0 0 0 0 86.881652872278636 122.40336811301677 0 122.40336811301677 620.10143951309146 0 0 0 0 152.42039347662171 232.13869954369147 0 232.13869954369147 408.14422268950148 0 0 0 0 169.94464226232435 136.67184556473512 0 136.67184556473512 263.09065557565918 0 0 0 0 88.50888256750352 121.96847909536882 0 121.96847909536882 325.68594264399144 0 0 0 0 149.50381610222655 168.14951050324817 0 168.14951050324817 300.00288569909753 0 0 0 0 203.94691367576934 176.15230896498542 0 176.15230896498542 292.13977655478448 0 0 0 0 84.572386203410929 137.81865187093354 0 137.81865187093354 262.34261250664713 0 0 0 0 25.704444288789432 134.30873501036331 0 134.30873501036331 405.66127623956709 0 0 0 0 78.045841036926333 19.064104541068446 0 19.064104541068446 224.93938262267329 0 0 0 0 57.922251669158413 8.4787687929565436 0 8.4787687929565436 278.93138932560942 0 0 0 0 64.045196694000424 26.637839375631302 0 26.637839375631302 329.2514617422712 0 0 0 0 68.693810235301569 -30.032840459841282 0 -30.032840459841282 -12.371555995516246 0 0 0 0 0.23425079343903832 0.90454242623661685 0 0.90454242623661685 2.3589663445519591 0 0 0 0 12.31302073982323 226.51747481666825 0 226.51747481666825 84.876377324711939 0 0 0 0 74.40761344768805 -200.17548994751996 0 -200.17548994751996 435.04255272751288 0 0 0 0 39.927495589048362 -93.747579851038608 0 -93.747579851038608 131.35331783071888 0 0 0 0 60.492547486410672 143.4802376223779 0 143.4802376223779 363.54547369576176 0 0 0 0 -4.6086730931772868 1.6569062816651154 0 1.6569062816651154 -4.2226990032195886 0 0 0 0 -392.71156684241714 65.386032708335279 0 65.386032708335279 307.37409074504103 0 0 0 0 -338.82425638705718 -204.72684328936521 0 -204.72684328936521 -36.856695431975822 0 0 0 0 27.17870665244277 205.65911852444333 0 205.65911852444333 96.581338524709281 0 0 0 0 147.18521890253464 -82.326295001315884 0 -82.326295001315884 450.16401010040863 0 0 0 0 148.32622941253499 277.11615903204074 0 277.11615903204074 313.48766046244418 0 0 0 0 63.304213399188306 159.51748815709652 0 159.51748815709652 223.4602004809858 0 0 0 0 571.15796738630274 -197.24354138923809 0 -197.24354138923809 132.6629123599123 0 0 0 0 522.65986889672934 -633.17257398596314 0 -633.17257398596314 342.25361304347462 0 0 0 0 3.2116093748689352 0.54928551949276283 0 0.54928551949276283 5.3821845516433768 0 0 0 0 280.2402002330648 206.04060954570741 0 206.04060954570741 113.95289149376913 0 0 0 0 33.9613698951689 -684.40410497339326 0 -684.40410497339326 533.51959520595847 0 0 0 0 882.84044475598125 210.16009246767499 0 210.16009246767499 590.05188737557182 0 0 0 0 106.58657085074924 -149.49892631233524 0 -149.49892631233524 761.93957923262496 0 0 0 0 2.8861804874139851 1.9577665906266049 0 1.9577665906266049 1.986648066013629 0 0 0 0 1.6020995479313545 -1.0304817233060817 0 -1.0304817233060817 -0.84490989252269344 0 0 0 0 625.09708658015882 165.27573102598399 0 165.27573102598399 46.7788871294415 0 0 0 0 1.8998860697408517 -76.466506223148826 0 -76.466506223148826 33.656854327899055 0 0 0 0 673.94971132733053 -55.673024855321273 0 -55.673024855321273 299.68073608506529 0 0 0 0 275.29072522588012 220.18575176896411 0 220.18575176896411 147.9752025505295 0 0 0 0 -90.088252779827371 316.37910192578784 0 316.37910192578784 340.39191779428802 0 0 0 0 135.47681826321059 -16.12828823763266 0 -16.12828823763266 309.79114990925518 0 0 0 0 606.51649513369489 211.80004054516758 0 211.80004054516758 392.5029436016921 0 0 0 0 88.649378001593504 -305.14051337455749 0 -305.14051337455749 859.04908835782771 0 0 0 0 549.8343169786416 -12.640880645481957 0 -12.640880645481957 984.50617306899221 0 0 0 0 88.898162357558022 -365.40914405558215 0 -365.40914405558215 295.38995800095472 0 0 0 0 0.48789125187336824 0.99089933320432522 0 0.99089933320432522 1.4070087286188482 0 0 0 0 162.81798105924281 115.81180902348569 0 115.81180902348569 881.37202887384046 0 0 0 0 106.29045703487304 35.739360095773009 0 35.739360095773009 772.92939659664989 0 0 0 0 260.76098885275451 127.00637260916847 0 127.00637260916847 595.84862259172951 0 0 0 0 316.70712633202174 229.4994511102559 0 229.4994511102559 783.22065465965716 0 0 0 0 152.61489603910991 211.17783171467454 0 211.17783171467454 635.71364246836674 0 0 0 0 316.04158854521779 288.65603038799236 0 288.65603038799236 232.50040836534754 0 0 0 0 266.80170471432416 90.267294805147685 0 90.267294805147685 3.807347728201421 0 0 0 0 241.47241707169485 98.697176400506578 0 98.697176400506578 -239.88504603797628 0 0 0 0 -5.0092787982582649 -132.77201425452586 0 -132.77201425452586 -14.965104059439909 0 0 0 0 0.19963954546654605 3.8987944986844525 0 3.8987944986844525 3.8842944666794779 0 0 0 0 14.928443041860191 -156.38480590600375 0 -156.38480590600375 596.15146881594774 0 0 0 0 -259.53455899641352 88.110821498339646 0 88.110821498339646 438.46485735601163 0 0 0 0 -38.277409142323904 -3.704517135869537 0 -3.704517135869537 329.52261710279708 0 0 0 0 157.17244055372646 190.68222968036753 0 190.68222968036753 -674.88112631710101 0 0 0 0 -87.680364705067518 29.337512700963998 0 29.337512700963998 -86.886557387013454 0 0 0 0 147.59297696856584 -147.62884076077898 0 -147.62884076077898 -214.3957103130524 0 0 0 0 131.03713684702734 -318.16966152192617 0 -318.16966152192617 164.56404949303396 0 0 0 0 57.688882490680953 -181.69714582887536 0 -181.69714582887536 -63.052523309313983 0 0 0 0 74.861429939438949 -266.80421071276942 0 -266.80421071276942 185.14709687510162 0 0 0 0 -12.131472800881966 -139.6438912077283 0 -139.6438912077283 188.81745797059011 0 0 0 0 -58.292451875827965 26.415741294862528 0 26.415741294862528 -6.8261674406094244 0 0 0 0 38.103635688486975 18.463630864196602 0 18.463630864196602 -357.14435131784194 0 0 0 0 122.52620694502991 -36.291426330102695 0 -36.291426330102695 33.266400836662797 0 0 0 0 126.05341442879697 -52.875758682793276 0 -52.875758682793276 111.06511797777785 0 0 0 0 74.817897843505989 -107.17550016609312 0 -107.17550016609312 178.36153574047057 0 0 0 0 77.328877531102364 -97.323640872945361 0 -97.323640872945361 211.94395438217907 0 0 0 0 17.762478556532869 -115.29769764890807 0 -115.29769764890807 189.63197780706105 0 0 0 0 35.369036623014608 -158.99740779268177 0 -158.99740779268177 126.14504072623458 0 0 0 0 -1.6883666105622979 -159.07475783109112 0 -159.07475783109112 188.18342835304611 0 0 0 0 2.3434137549531897 -124.24412430986922 0 -124.24412430986922 301.46478359616594 0 0 0 0 23.933689557875141 -51.322025328878226 0 -51.322025328878226 320.49110973879942 0 0 0 0 85.096384199883005 -73.635358179548348 0 -73.635358179548348 238.38225789742864 0 0 0 0 72.511740934226509 -74.886676194559186 0 -74.886676194559186 239.8766516806063 0 0 0 0 41.12309633045038 -43.532091287654112 0 -43.532091287654112 304.70769007016497 0 0 0 0 110.35483149723768 10.721356731970445 0 10.721356731970445 316.68406088654046 0 0 0 0 -41.705880170853106 174.05535710535332 0 174.05535710535332 448.55232579934454 0 0 0 0 -36.700236025367531 16.475150567477613 0 16.475150567477613 485.56721555833064 0 0 0 0 1.565471816244743 -3.1442960630233827 0 -3.1442960630233827 6.6679261980156923 0 0 0 0 -115.29942387075346 226.07459511725187 0 226.07459511725187 784.08210868088645 0 0 0 0 -112.6237871939154 312.67947857295803 0 312.67947857295803 593.84270978771747 0 0 0 0 90.75302788688623 -197.6338367398057 0 -197.6338367398057 348.66100389652274 0 0 0 0 -113.37509693372886 -76.109875462760101 0 -76.109875462760101 665.12497204525971 0 0 0 0 471.75251754571445 -512.11903366276965 0 -512.11903366276965 606.31718671640556 0 0 0 0 -140.31721562960814 -115.5940141833853 0 -115.5940141833853 1167.9615457887267 0 0 0 0 52.921740860741807 -167.78503505656226 0 -167.78503505656226 367.16326676997414 0 0 0 0 -53.819625741839218 -186.3119207152231 0 -186.3119207152231 494.63570244245057 0 0 0 0 -116.76987008537276 -28.370653204900009 0 -28.370653204900009 493.9813367694951 0 0 0 0 40.991815083523136 0.42304249793050985 0 0.42304249793050985 239.38077325346239 0 0 0 0 -11.638714642505533 17.759011121754156 0 17.759011121754156 497.21945948504981 0 0 0 0 160.43156307929348 78.584268098878965 0 78.584268098878965 301.05958737111359 0 0 0 0 168.65692981300015 -40.860973345705133 0 -40.860973345705133 368.15796353678252 0 0 0 0 127.62435138277664 -39.046940561378506 0 -39.046940561378506 254.24149802833563 0 0 0 0 84.287847720058721 51.343927431902557 0 51.343927431902557 298.02219886229341 0 0 0 0 120.3610437798668 -16.127783548243315 0 -16.127783548243315 227.32729426406149 0 0 0 0 104.94206673119606 -39.245387185041182 0 -39.245387185041182 235.471096160858 0 0 0 0 129.67573567020247 10.125336180990416 0 10.125336180990416 221.98402026706026 0 0 0 0 121.85224059863742 27.739666306020808 0 27.739666306020808 285.25919983712083 0 0 0 0 135.94919750372253 16.298817223563674 0 16.298817223563674 226.81606327099144 0 0 0 0 167.89503539958037 -8.1798176933443756 0 -8.1798176933443756 156.85417819744634 0 0 0 0 129.004153320564 -53.936063675042533 0 -53.936063675042533 202.4216553587321 0 0 0 0 112.83123643033196 -84.707767050880648 0 -84.707767050880648 143.88430288686959 0 0 0 0 77.238493162892496 -56.577094058196963 0 -56.577094058196963 236.50277422664658 0 0 0 0 84.937001615257088 -71.840400945412966 0 -71.840400945412966 218.49904819659423 0 0 0 0 60.261369276734513 -25.160700007909327 0 -25.160700007909327 260.08594352960063 0 0 0 0 72.224583727474965 -65.986530626487365 0 -65.986530626487365 262.32114178132178 0 0 0 0 35.604615819459696 -15.290831580168742 0 -15.290831580168742 234.12770821710365 0 0 0 0 85.118781784527812 -30.82804051983203 0 -30.82804051983203 221.38603442192834 0 0 0 0 64.011805945153128 -23.440983605829388 0 -23.440983605829388 226.64167012425969 0 0 0 0 89.709668934368437 8.9611632500036649 0 8.9611632500036649 208.15569541011064 0 0 0 0 55.105205845048886 5.2230431172356475 0 5.2230431172356475 199.27655440413946 0 0 0 0 16.592529361623974 20.732456284946238 0 20.732456284946238 212.3088055982098 0 0 0 0 23.202609746516771 20.783822305967988 0 20.783822305967988 190.29827036725328 0 0 0 0 16.005400278530033 38.449410031404113 0 38.449410031404113 235.70378803210042 0 0 0 0 -3.6089740286558936 34.534665488994506 0 34.534665488994506 163.26614854236959 0 0 0 0 -5.886533834341094 36.900058489542062 0 36.900058489542062 191.25257747838623 0 0 0 0 20.297369606306574 31.255768960378191 0 31.255768960378191 162.42992406980193 0 0 0 0 8.1603711789415456 28.567038287008472 0 28.567038287008472 205.10024636985327 0 0 0 0 21.2192992284469 43.431297103825727 0 43.431297103825727 112.47177779175399 0 0 0 0 20.306531297099127 27.457378751736542 0 27.457378751736542 130.84851640065608 0 0 0 0 15.108858997042489 51.709247383445472 0 51.709247383445472 181.97525947644317 0 0 0 0 33.954667495791 57.357043772575707 0 57.357043772575707 123.39248345473607 0 0 0 0 26.073941542404782 49.790034502228082 0 49.790034502228082 228.47236144015187 0 0 0 0 38.775643838654332 14.830498858413193 0 14.830498858413193 184.19008428217148 0 0 0 0 65.266944525387999 -28.046366948670766 0 -28.046366948670766 234.37916092036903 0 0 0 0 17.059847166200598 13.000228962910114 0 13.000228962910114 251.18749239524186 0 0 0 0 66.577439944851221 102.04481382775339 0 102.04481382775339 230.46106299159874 0 0 0 0 41.052150071829146 31.274326618971827 0 31.274326618971827 209.71152748727764 0 0 0 0 0.33473717352385535 -0.4265924365462368 0 -0.4265924365462368 1.391316678107728 0 0 0 0 48.821220276208749 -1.5164569529515575 0 -1.5164569529515575 306.5523715808522 0 0 0 0 37.84554104734886 -68.419168195572183 0 -68.419168195572183 31.778368529470754 0 0 0 0 67.755057590365027 94.829943504235416 0 94.829943504235416 90.662255721734255 0 0 0 0 18.603429767832552 41.437994362632708 0 41.437994362632708 -11.338325470569544 0 0 0 0 4.9282438138804636 -5.9122447715106574 0 -5.9122447715106574 6.8633142196987649 0 0 0 0 1.1360398211005198 -1.8719230176028319 0 -1.8719230176028319 3.6349887142798707 0 0 0 0 21.8867754496099 2.8094334004708799 0 2.8094334004708799 31.024181180488085 0 0 0 0 38.891327896902794 28.945519817185414 0 28.945519817185414 18.035733270487981 0 0 0 0 37.801620899652335 10.037691849473049 0 10.037691849473049 1.6815543802949833 0 0 0 0 71.951605345465396 37.378045543395274 0 37.378045543395274 11.663709297245077 0 0 0 0 28.849122355183454 45.582864150850583 0 45.582864150850583 117.92236036475515 0 0 0 0 36.109500747077504 56.511780230453951 0 56.511780230453951 99.744054938506451 0 0 0 0 22.835797384557281 22.620394155259419 0 22.620394155259419 62.340703400470375 0 0 0 0 16.520764857172651 43.369389679071901 0 43.369389679071901 112.47689674569119 0 0 0 0 27.135181027329509 14.699839324559434 0 14.699839324559434 28.995664524467429 0 0 0 0 26.683679980616716 32.55513757216977 0 32.55513757216977 56.513944747930509 0 0 0 0 29.082645116452568 24.29553152340668 0 24.29553152340668 36.874374321771029 0 0 0 0 37.692690997628688 18.563466547508142 0 18.563466547508142 14.063872655067826 0 0 0 0 -4.2600658723424658 6.0370206211991899 0 6.0370206211991899 48.402246140060015 0 0 0 0 1.1079022850790352 21.106123385048704 0 21.106123385048704 70.877783035593438 0 0 0 0 14.480108225240656 24.687153229868272 0 24.687153229868272 70.988548415329888 0 0 0 0 -326.14034780840211 -283.51800860392177 0 -283.51800860392177 157.56031309797254 0 0 0 0 -119.79103195985056 30.937455060735374 0 30.937455060735374 -63.761049538326915 0 0 0 0 -26.044788498190428 0.33446080859084759 0 0.33446080859084759 -24.128828350425465 0 0 0 0 3.7016405619098007 -8.0195189316470774 0 -8.0195189316470774 15.308191141414312 0 0 0 0 30.895018826364662 -8.4118663844601542 0 -8.4118663844601542 -57.680487048754003 0 0 0 0 1.0606574188100808 50.797258279415473 0 50.797258279415473 -144.14105454078526 0 0 0 0 83.785754943191932 82.40967946685123 0 82.40967946685123 -132.54948668573707 0 0 0 0 -47.800744010810376 248.15579571247508 0 248.15579571247508 146.82799301964405 0 0 0 0 -56.968487783614364 -135.20315595504508 0 -135.20315595504508 -70.4571550986293 0 0 0 0 -65.033914382897819 12.850315576838511 0 12.850315576838511 518.92494761028502 0 0 0 0 178.37536325536334 -9.9606426645743795 0 -9.9606426645743795 304.16267428471474 0 0 0 0 163.3524033609383 202.883402589865 0 202.883402589865 286.04291622112942 0 0 0 0 69.55488978517883 -45.990947087026143 0 -45.990947087026143 296.1257585047133 0 0 0 0 113.8700054194951 7.8598495435726363 0 7.8598495435726363 280.09377019355634 0 0 0 0 104.73731413413293 4.7839698177704122 0 4.7839698177704122 335.63181651564082 0 0 0 0 72.709851361594247 123.50262793163711 0 123.50262793163711 -89.318513691541739 0 0 0 0 25.442407675426693 -34.368592909631843 0 -34.368592909631843 373.66926912115377 0 0 0 0 183.02320799640188 -218.40274996885273 0 -218.40274996885273 101.94989851890568 0 0 0 0 213.96152263704965 99.878480732037588 0 99.878480732037588 -14.124385775743576 0 0 0 0 2.1043538433159945 -2.0769544136629747 0 -2.0769544136629747 2.355554642930656 0 0 0 0 36.504406199047935 -122.12146137650029 0 -122.12146137650029 -168.35532721495838 0 0 0 0 5.6115893854407659 -24.675074022921763 0 -24.675074022921763 54.605856182213756 0 0 0 0 41.617012368100859 -0.933161515633401 0 -0.933161515633401 -61.034063683910063 0 0 0 0 -26.442086737563841 -81.882496714708395 0 -81.882496714708395 -35.103607740460575 0 0 0 0 77.343828303997725 -50.37913063079759 0 -50.37913063079759 -50.764403611494345 0 0 0 0 67.790993980435815 -2.7687174637176213 0 -2.7687174637176213 -51.812998954643263 0 0 0 0 27.798508950450014 -27.627436786424369 0 -27.627436786424369 -56.191017134027788 0 0 0 0 22.541187793874997 -46.45518260767858 0 -46.45518260767858 -57.456969559497338 0 0 0 0 20.533583431389616 -41.095688401263033 0 -41.095688401263033 -70.306401097041089 0 0 0 0 18.865666921731645 -44.510141868890059 0 -44.510141868890059 -57.189621163182892 0 0 0 0 15.82044178112028 -40.699572916648322 0 -40.699572916648322 -46.586997138714651 0 0 0 0 29.865107192549658 -13.602934599781292 0 -13.602934599781292 -25.319157958292635 0 0 0 0 42.481395549317313 -35.988692871753301 0 -35.988692871753301 -63.574635920580477 0 0 0 0 -34.578400497763369 -69.010183708822296 0 -69.010183708822296 -55.234596082475036 0 0 0 0 -74.056556187361821 -100.44909246121824 0 -100.44909246121824 -63.711483741655684 0 0 0 0 38.638911508743831 -53.40491336994819 0 -53.40491336994819 -69.918690207530744 0 0 0 0 -19.865787982944312 -60.417746347389766 0 -60.417746347389766 -63.774891931039747 0 0 0 0 -29.166855166619825 -48.070798428663693 0 -48.070798428663693 -73.692355776875047 0 0 0 0 -48.587582866755838 -76.105935886327643 0 -76.105935886327643 -75.543057437025709 0 0 0 0 -12.437002181390199 -57.282438436493976 0 -57.282438436493976 -60.509349567342724 0 0 0 0 -13.046376034591958 -54.96985048991337 0 -54.96985048991337 -69.033939028624445 0 0 0 0 -47.094235652641146 -66.726961720065447 0 -66.726961720065447 -47.040911013056757 0 0 0 0 -49.022057252800096 -59.926703726690903 0 -59.926703726690903 -66.270249075721949 0 0 0 0 -56.810993821778538 -74.269790891441517 0 -74.269790891441517 -48.745974174235016 0 0 0 0 -167.6075889203006 -51.237574503942596 0 -51.237574503942596 -92.308177778148092 0 0 0 0 -166.15882172257898 -64.532621625934553 0 -64.532621625934553 -42.718486690107966 0 0 0 0 -135.21364999817888 -65.571744134649634 0 -65.571744134649634 10.863005168037489 0 0 0 0 -74.192453229072271 -50.454913733658032 0 -50.454913733658032 -11.415519292582758 0 0 0 0 -112.22311923998404 -98.279485402090359 0 -98.279485402090359 -71.388719739305088 0 0 0 0 -73.903965891955295 -51.54995903066083 0 -51.54995903066083 -94.214072814153042 0 0 0 0 -76.998601980187232 -59.291153873928124 0 -59.291153873928124 -54.774215686134994 0 0 0 0 -1.0199875913413257 -2.768368740006558 0 -2.768368740006558 3.8108424600137596 0 0 0 0 -168.89944663665756 -90.875096627976745 0 -90.875096627976745 15.345896164013539 0 0 0 0 -5.4131304499624093 1.2184377041994594 0 1.2184377041994594 13.393787878827425 0 0 0 0 4.9768478049677611 -10.450128578037372 0 -10.450128578037372 17.273128733526988 0 0 0 0 -18.170161048616364 -20.890349511058957 0 -20.890349511058957 32.612557350716088 0 0 0 0 -189.00061325206062 -161.45416589390334 0 -161.45416589390334 -43.347122701554326 0 0 0 0 1.8139501824521957 -7.9928821795247984 0 -7.9928821795247984 15.5515405999938 0 0 0 0 -101.87570118193275 -184.38948174783945 0 -184.38948174783945 -105.81733821334637 0 0 0 0 -4.0432581478912653 4.8156144981439866 0 4.8156144981439866 60.375840993281599 0 0 0 0 -8.3378653665572529 -47.341161572319834 0 -47.341161572319834 28.291963349762227 0 0 0 0 -4.4245418381724448 -10.984582469773159 0 -10.984582469773159 20.397611816799326 0 0 0 0 4.2805593518201688 -8.9659228145551211 0 -8.9659228145551211 17.818502979055125 0 0 0 0 4.6829498347132237 -10.833913398035975 0 -10.833913398035975 19.986779475881349 0 0 0 0 -57.33443003494358 -18.459213607407946 0 -18.459213607407946 75.860189835610072 0 0 0 0 10.68345957834299 7.3167350172989245 0 7.3167350172989245 87.798536054950091 0 0 0 0 101.04731774217771 -58.253299725981378 0 -58.253299725981378 90.053867135451583 0 0 0 0 74.716569476510358 -12.058400363701367 0 -12.058400363701367 52.309669520742318 0 0 0 0 111.8237223307915 -119.37778561344749 0 -119.37778561344749 26.549050098117732 0 0 0 0 21.317893119905875 -62.04365669582694 0 -62.04365669582694 128.30666802544511 0 0 0 0 21.2613561497501 -59.001453242450225 0 -59.001453242450225 -34.455449462169781 0 0 0 0 -0.26118995678774759 1.8469441407171203 0 1.8469441407171203 3.7232618078145236 0 0 0 0 137.31582518382493 -212.32142825466872 0 -212.32142825466872 245.282149800365 0 0 0 0 221.31280990061578 -20.215487210343781 0 -20.215487210343781 61.285146726215316 0 0 0 0 136.50806629431827 13.482559831663821 0 13.482559831663821 225.91809924745758 0 0 0 0 106.33696980156583 -155.5666175020815 0 -155.5666175020815 220.00959075428545 0 0 0 0 235.16611355480563 -117.20587073737624 0 -117.20587073737624 186.20910836554685 0 0 0 0 130.38608028860926 -163.79999145289185 0 -163.79999145289185 207.84873890742892 0 0 0 0 5.5934545726216705 -3.2934638631430886 0 -3.2934638631430886 -3.9541709732502568 0 0 0 0 98.271553612044954 204.98771476754337 0 204.98771476754337 400.19992937364441 0 0 0 0 -26.714115226724971 9.8030552739401173 0 9.8030552739401173 487.6341521145896 0 0 0 0 175.68336443646604 -755.21386920761506 0 -755.21386920761506 32.044415165088139 0 0 0 0 -259.42309071075397 464.91070391704488 0 464.91070391704488 293.54580752813399 0 0 0 0 -226.1615573897252 -189.46785018489754 0 -189.46785018489754 270.22061014780047 0 0 0 0 58.401496572373617 -110.21696247725777 0 -110.21696247725777 278.78773758598254 0 0 0 0 42.777367873512731 -247.00142676962923 0 -247.00142676962923 124.82569686174975 0 0 0 0 148.48400447640552 -301.4782823278365 0 -301.4782823278365 152.4975090754815 0 0 0 0 -359.71797592704979 -356.86720532806976 0 -356.86720532806976 261.11002048515365 0 0 0 0 -53.809141224189034 -410.69363589189743 0 -410.69363589189743 227.94425988092553 0 0 0 0 -122.32415532457253 -290.08377287114126 0 -290.08377287114126 225.07823957758376 0 0 0 0 -156.97217042295551 -387.76618097222126 0 -387.76618097222126 -3.2599417085002642 0 0 0 0 343.96466382023118 240.00848754425533 0 240.00848754425533 -55.656410931675055 0 0 0 0 1.0678916338246909 -4.2976899276200911 0 -4.2976899276200911 6.8990527037700815 0 0 0 0 51.37255689961421 -68.155128221551422 0 -68.155128221551422 82.624359045905294 0 0 0 0 4.2780781266310264 -12.701435937344769 0 -12.701435937344769 25.814417032725174 0 0 0 0 62.300310000379795 -10.999876635689361 0 -10.999876635689361 36.34815151640214 0 0 0 0 33.532024677159825 -44.355162959593144 0 -44.355162959593144 71.853012845676858 0 0 0 0 226.36666220012262 -211.62522437123698 0 -211.62522437123698 84.744479360866535 0 0 0 0 141.05273945676777 -262.91879766188868 0 -262.91879766188868 59.518144278219552 0 0 0 0 260.6613683908248 -302.34073461485241 0 -302.34073461485241 240.6253210026116 0 0 0 0 466.78993167710155 -409.80693580252409 0 -409.80693580252409 108.44835476736625 0 0 0 0 2.9003685959239434 -5.8559256774722996 0 -5.8559256774722996 8.5041256367405822 0 0 0 0 1002.3466787379898 -270.69305615773555 0 -270.69305615773555 30.213663063652348 0 0 0 0 -30.126332725198495 -133.18302638661044 0 -133.18302638661044 454.83646269382734 0 0 0 0 477.6622474250762 -39.357556149525749 0 -39.357556149525749 16.520837218122324 0 0 0 0 52.479776208587054 -496.12517057976947 0 -496.12517057976947 1229.2545333119197 0 0 0 0 570.67120457743158 34.944285115168896 0 34.944285115168896 476.85798845632235 0 0 0 0 558.40193264683967 -384.80936737787124 0 -384.80936737787124 1251.065339429937 0 0 0 0 788.13286662950691 99.808083886333407 0 99.808083886333407 351.25539452848898 0 0 0 0 459.74312151456513 -247.45094830051676 0 -247.45094830051676 167.57105668822624 0 0 0 0 171.94289083545891 345.88467014081107 0 345.88467014081107 351.16062517864316 0 0 0 0 652.33917533113151 -697.04132191455938 0 -697.04132191455938 498.17345929435396 0 0 0 0 70.454452495989926 26.373129098634308 0 26.373129098634308 232.65053225138399 0 0 0 0 142.00839546938073 -499.32231472917192 0 -499.32231472917192 283.21297865091765 0 0 0 0 47.743069908753 -22.629746798422275 0 -22.629746798422275 1320.8539423973853 0 0 0 0 -306.26535514409443 116.97431645863253 0 116.97431645863253 -116.83801189056248 0 0 0 0 -476.32983232795777 43.261509224139445 0 43.261509224139445 314.68340529898705 0 0 0 0 -566.3253396235441 205.67561145593936 0 205.67561145593936 122.73641259346914 0 0 0 0 -167.77621682375411 -46.633319819837197 0 -46.633319819837197 49.870504871796584 0 0 0 0 -193.37347113141095 -57.619166840864636 0 -57.619166840864636 551.7461284517849 0 0 0 0 4.3885989457880896 88.39279172147144 0 88.39279172147144 15.476845134515315 0 0 0 0 -111.45839928241367 -48.898673635070736 0 -48.898673635070736 166.70892527879914 0 0 0 0 -1.118691981905954 -35.581265733459077 0 -35.581265733459077 99.311053499986883 0 0 0 0 -672.9109994759001 90.384835403623583 0 90.384835403623583 214.89651422947645 0 0 0 0 -9.1189521490934098 -3.828604972637315 0 -3.828604972637315 61.416634531737742 0 0 0 0 -3.0933833671529367 4.4247784468862932 0 4.4247784468862932 21.914279910481412 0 0 0 0 -239.20519808636527 16.945247873023618 0 16.945247873023618 -112.28078080626437 0 0 0 0 -26.373011730628292 8.1124559268767378 0 8.1124559268767378 96.088527198772468 0 0 0 0 -422.33805421144825 101.29055653097384 0 101.29055653097384 31.728481094476592 0 0 0 0 -260.7588479826718 57.693978318908194 0 57.693978318908194 424.28936092022195 0 0 0 0 -305.18721385361641 224.34444005179103 0 224.34444005179103 159.36909800281865 0 0 0 0 -259.55191662872539 375.01173655536968 0 375.01173655536968 -132.03831976820948 0 0 0 0 -31.109561557554912 -30.58165282261325 0 -30.58165282261325 151.53013433797605 0 0 0 0 -15.702510363402739 -1.3693987841350292 0 -1.3693987841350292 33.117833789089744 0 0 0 0 -287.46068821148629 371.12364548776532 0 371.12364548776532 214.2255947507474 0 0 0 0 -2.6809121242787008 -14.188325559343205 0 -14.188325559343205 124.83905818535519 0 0 0 0 -48.69490202741531 -42.892200149659402 0 -42.892200149659402 161.3185976526438 0 0 0 0 -17.745829423226837 -47.298565942255664 0 -47.298565942255664 149.4180625380468 0 0 0 0 13.802020894811008 -34.188619403863413 0 -34.188619403863413 143.79060632994515 0 0 0 0 -6.2466816403445424 7.621821654000982 0 7.621821654000982 4.5320249393290624 0 0 0 0 8.3785232310306696 -51.831314458551788 0 -51.831314458551788 230.98366227075894 0 0 0 0 -1.3580150752747335 6.3901782809835197 0 6.3901782809835197 6.1531200949353746 0 0 0 0 -71.684754072875876 -107.3575816886987 0 -107.3575816886987 -207.13139213520481 0 0 0 0 320.77413074229855 75.962494985880767 0 75.962494985880767 -125.46195194739266 0 0 0 0 69.336630735898837 541.84239721237464 0 541.84239721237464 -559.99993310841819 0 0 0 0 119.00569734806305 81.636688431422954 0 81.636688431422954 -217.3852875851735 0 0 0 0 2.762065963464245 23.215235530052965 0 23.215235530052965 41.86688584858603 0 0 0 0 67.709810115987921 -56.810526100702191 0 -56.810526100702191 78.483369247815517 0 0 0 0 -60.49686116517023 23.931218158369575 0 23.931218158369575 -14.385675214435651 0 0 0 0 -6.5969058595328995 28.342710082849258 0 28.342710082849258 4.4521024761557442 0 0 0 0 192.03570310055602 -167.55477947159306 0 -167.55477947159306 90.244757150572696 0 0 0 0 -27.617022804956378 -113.48493808941748 0 -113.48493808941748 264.58993687503607 0 0 0 0 119.6723209833508 -222.18169221061908 0 -222.18169221061908 232.5919561991177 0 0 0 0 -12.731196233129893 19.908267248948579 0 19.908267248948579 37.22051653723188 0 0 0 0 -46.093350027189445 29.8352379602984 0 29.8352379602984 -22.756582038435226 0 0 0 0 127.05908604543527 -142.19391719846749 0 -142.19391719846749 443.28389526639876 0 0 0 0 10.812326055603876 36.59903665340687 0 36.59903665340687 6.3456871696507733 0 0 0 0 7.2997716043948371 -8.6386407842809199 0 -8.6386407842809199 15.821261802205779 0 0 0 0 24.797998901968867 -25.598729490474398 0 -25.598729490474398 75.552508556063003 0 0 0 0 86.913182439199772 -53.392018327630467 0 -53.392018327630467 98.820857809104382 0 0 0 0 13.214731984553055 133.58059536969449 0 133.58059536969449 -68.405871771521561 0 0 0 0 2.9967979100509927 -0.73002054088014567 0 -0.73002054088014567 -2.1454997802867428 0 0 0 0 71.186464743357419 28.171844992356114 0 28.171844992356114 -147.72709007715093 0 0 0 0 149.22413452263118 -128.09370847744958 0 -128.09370847744958 7.7095315937758642 0 0 0 0 33.397684509338944 -24.173546830673331 0 -24.173546830673331 112.38203784411598 0 0 0 0 33.320066508359616 -20.174439424968114 0 -20.174439424968114 114.13321500453458 0 0 0 0 6.8926859881703422 -26.442046693231532 0 -26.442046693231532 164.30574301629531 0 0 0 0 5.1138915039506401 -12.69274457524125 0 -12.69274457524125 151.79334489519169 0 0 0 0 9.2468460090617555 -30.631411183961973 0 -30.631411183961973 164.03548468117151 0 0 0 0 66.344532517002335 -57.555334350143994 0 -57.555334350143994 143.91914166220522 0 0 0 0 -2.7890858917950254 -41.508246176923421 0 -41.508246176923421 163.11249701767883 0 0 0 0 -6.1069687339147984 22.814817551352839 0 22.814817551352839 30.460655326409071 0 0 0 0 1.2036321035013771 15.81326700437603 0 15.81326700437603 234.24752141960926 0 0 0 0 -3.283818693491412 -5.7619415569388366 0 -5.7619415569388366 146.95866224066776 0 0 0 0 -29.925206931330194 -41.265964427446306 0 -41.265964427446306 179.42242659071781 0 0 0 0 8.8420104860024367 -36.492889952187397 0 -36.492889952187397 103.3820427337414 0 0 0 0 -0.89467555083070271 5.755751625621464 0 5.755751625621464 7.8999622626779455 0 0 0 0 -28.13691490561655 -2.4956204939808231 0 -2.4956204939808231 111.61513630837544 0 0 0 0 -9.463435129122006 16.580641157693123 0 16.580641157693123 50.144489565072718 0 0 0 0 14.459116380702426 -24.992212557608582 0 -24.992212557608582 65.196298546550679 0 0 0 0 18.118666447312535 -4.9302740048296982 0 -4.9302740048296982 49.400912368520949 0 0 0 0 -11.532689065333976 -5.6139333544730441 0 -5.6139333544730441 60.210112433740917 0 0 0 0 -33.535926732735106 2.8367946765902161 0 2.8367946765902161 59.4465226966513 0 0 0 0 -0.63678445264065431 -66.74812675015437 0 -66.74812675015437 43.975107287591527 0 0 0 0 2.1159846603391088 -6.6900089588889387 0 -6.6900089588889387 89.333833014112315 0 0 0 0 10.066933879156355 -22.371353619411533 0 -22.371353619411533 52.984075316019513 0 0 0 0 28.353951563871988 -34.108659275463651 0 -34.108659275463651 -50.340323318976516 0 0 0 0 8.8541323991913607 -0.44792437021505194 0 -0.44792437021505194 7.4420203030788556 0 0 0 0 99.577705550078917 70.955008037143671 0 70.955008037143671 122.05007823737924 0 0 0 0 23.368878390922191 -7.3026033117553197 0 -7.3026033117553197 41.829057749475396 0 0 0 0 206.8363944310795 -24.973098564842076 0 -24.973098564842076 302.39879367079084 0 0 0 0 109.11575457958088 -223.77306471941847 0 -223.77306471941847 321.4329406812758 0 0 0 0 91.143404094243579 -88.888121679956384 0 -88.888121679956384 528.45884382827717 0 0 0 0 10.38016752254498 -35.280422432553678 0 -35.280422432553678 54.445896698343859 0 0 0 0 -0.56218671287703081 1.9054344245338797 0 1.9054344245338797 3.4459022739150811 0 0 0 0 15.618487839768022 97.351368570119121 0 97.351368570119121 -88.167177809998975 0 0 0 0 374.50293540901475 -255.98599619941524 0 -255.98599619941524 448.40007072351546 0 0 0 0 1.8992017919389177 6.520011519935963 0 6.520011519935963 3.2600207608632985 0 0 0 0 27.221875629852548 -21.165011905550273 0 -21.165011905550273 33.42534186528701 0 0 0 0 9.8819238890914534 2.6466510430940069 0 2.6466510430940069 -0.77164743387184487 0 0 0 0 -4.3944109040939452 15.342118456996104 0 15.342118456996104 63.770022572833113 0 0 0 0 153.14127946846975 120.04710275625803 0 120.04710275625803 -110.13925260807446 0 0 0 0 423.99024496802821 -118.9057452966299 0 -118.9057452966299 64.564336380794657 0 0 0 0 70.345160167193285 -131.20595715619675 0 -131.20595715619675 27.111167992248738 0 0 0 0 -13.016331676602729 -74.140047060814879 0 -74.140047060814879 154.80992862720814 0 0 0 0 -67.760055386425165 -74.178477457315239 0 -74.178477457315239 265.41154165746229 0 0 0 0 42.393078622161738 -80.782472882972797 0 -80.782472882972797 152.45631668044916 0 0 0 0 63.317602567217591 147.86487055125872 0 147.86487055125872 434.24673743304993 0 0 0 0 28.709304266440654 -364.97218988890654 0 -364.97218988890654 361.04948171948854 0 0 0 0 171.33362714829428 287.5360326277314 0 287.5360326277314 382.69207370875665 0 0 0 0 56.619615443338105 -153.38538291020495 0 -153.38538291020495 506.99666028186402 0 0 0 0 -155.39714891713356 67.511184244146534 0 67.511184244146534 127.5623980309756 0 0 0 0 -376.25835861813471 -104.69381847617205 0 -104.69381847617205 102.0393241620186 0 0 0 0 -14.776007066961029 52.761914119320863 0 52.761914119320863 32.955022545836982 0 0 0 0 -3.2755118319826542 -16.130150442936753 0 -16.130150442936753 68.050787053620411 0 0 0 0 -45.251205643343837 -51.001148805386038 0 -51.001148805386038 134.56137684944042 0 0 0 0 -38.730975674042838 -51.779670763135073 0 -51.779670763135073 58.874101139203049 0 0 0 0 -14.471902260698812 -98.785038163422882 0 -98.785038163422882 120.2254783902099 0 0 0 0 -93.978108813885456 -34.329764920518755 0 -34.329764920518755 205.21418136099419 0 0 0 0 -97.803657127582255 -12.47895079789032 0 -12.47895079789032 137.65374123956531 0 0 0 0 -8.2468085391608739 7.2079139740466971 0 7.2079139740466971 15.942529305045781 0 0 0 0 -20.833747321397095 -4.0137351371533043 0 -4.0137351371533043 108.35291622697082 0 0 0 0 -86.141636502848996 106.80210934497882 0 106.80210934497882 98.792458199081011 0 0 0 0 79.97342807349446 124.75700101783013 0 124.75700101783013 90.386625252598606 0 0 0 0 -73.554683853610186 -99.781081726290722 0 -99.781081726290722 241.88235614176483 0 0 0 0 -15.995768230095804 -13.748592104192083 0 -13.748592104192083 97.990163408602484 0 0 0 0 -42.101923510427298 54.633327426388405 0 54.633327426388405 86.481048702018597 0 0 0 0 -157.33803845881539 -25.344493506282561 0 -25.344493506282561 199.03337702133285 0 0 0 0 -19.909522986525872 -35.305257002864892 0 -35.305257002864892 -2.6291250603318304 0 0 0 0 209.61340551900196 -93.195587638863799 0 -93.195587638863799 4.5432297807965369 0 0 0 0 5.2059445273531715 -3.8871012520635038 0 -3.8871012520635038 0.52206399068004572 0 0 0 0 59.736127038025529 91.044516310269501 0 91.044516310269501 98.968535778325531 0 0 0 0 -50.309248384844068 -12.857285259925447 0 -12.857285259925447 48.089996761318616 0 0 0 0 0.042448110603444889 -3.7317273083445466 0 -3.7317273083445466 19.409413704707049 0 0 0 0 -37.401298980274021 -54.865236762567292 0 -54.865236762567292 8.1782247078044747 0 0 0 0 -76.842198495055527 -74.159182705976491 0 -74.159182705976491 15.721817122886023 0 0 0 0 28.866366262420797 -73.935029638505057 0 -73.935029638505057 -26.442219906319224 0 0 0 0 -12.72614602043928 -43.43753129833334 0 -43.43753129833334 -7.3576479482999275 0 0 0 0 -13.76295825405407 -57.221340737756464 0 -57.221340737756464 -144.42372555874681 0 0 0 0 -10.890837870707401 870.83689487710217 0 870.83689487710217 -784.66614068913623 0 0 0 0 -61.722184790874962 -108.86462065230626 0 -108.86462065230626 22.605612892039062 0 0 0 0 4.3211488136440419 -21.095159664686875 0 -21.095159664686875 11.536821638852281 0 0 0 0 -55.112493191723388 -66.068056859536227 0 -66.068056859536227 -155.35132395088294 0 0 0 0 -189.65040237783523 3.8920153772883168 0 3.8920153772883168 21.329819097616564 0 0 0 0 -793.80035595792015 -435.25665207002976 0 -435.25665207002976 1139.1109452470082 0 0 0 0 -334.2862075570265 224.12450784675639 0 224.12450784675639 -243.76532412964912 0 0 0 0 6.8296519564933078 -135.85620183951642 0 -135.85620183951642 105.7276074900351 0 0 0 0 129.12978343797886 -539.78382693196227 0 -539.78382693196227 231.4940643630307 0 0 0 0 262.89978772419636 -156.32952832521664 0 -156.32952832521664 -106.74631789253439 0 0 0 0 -63.361514228577107 -264.06981547487112 0 -264.06981547487112 -119.39738280560505 0 0 0 0 -37.269226160677931 -58.406108506707369 0 -58.406108506707369 -8.9808033123244968 0 0 0 0 12.244447283370619 -21.645974093457198 0 -21.645974093457198 -26.523859788648224 0 0 0 0 32.235100265445226 -21.834433154133194 0 -21.834433154133194 -9.2923240439686197 0 0 0 0 58.021760048452848 -66.919867121103835 0 -66.919867121103835 -8.5267677713163152 0 0 0 0 100.75392002223543 -43.487058575981109 0 -43.487058575981109 -63.683126196764078 0 0 0 0 -113.85767187627152 97.282232809481059 0 97.282232809481059 900.18247012022584 0 0 0 0 374.23668162173999 171.09163909762896 0 171.09163909762896 14.06634235013621 0 0 0 0 8.0961252306814586 -5.002934363044881 0 -5.002934363044881 3.9596535384829563 0 0 0 0 -106.59035328948278 70.34880313092151 0 70.34880313092151 437.59241797803293 0 0 0 0 -555.4445305213967 -632.99600328905808 0 -632.99600328905808 508.73413692620193 0 0 0 0 -303.6615676013007 73.638694162197226 0 73.638694162197226 -259.13881141759668 0 0 0 0 603.37364587952334 -504.76168861456125 0 -504.76168861456125 94.170776067865063 0 0 0 0 -396.46261506899327 -23.393636099816234 0 -23.393636099816234 888.3428585505128 0 0 0 0 -370.12508310949761 -14.563019128451742 0 -14.563019128451742 -117.47915042513341 0 0 0 0 227.72685098788406 -259.09078300999073 0 -259.09078300999073 -364.089690166531 0 0 0 0 -23.521323107935302 -43.316268670693717 0 -43.316268670693717 68.064658630895792 0 0 0 0 5.1878690971449712 -13.692312520296685 0 -13.692312520296685 32.419637929484871 0 0 0 0 -16.765422758489422 -138.4801590244233 0 -138.4801590244233 37.849291386351979 0 0 0 0 27.225128388730241 -43.786315870988616 0 -43.786315870988616 69.812264668044946 0 0 0 0 -67.219884137141889 -71.414805621864161 0 -71.414805621864161 75.625322424847013 0 0 0 0 179.02011068739512 -439.23687105841418 0 -439.23687105841418 -161.74847349177981 0 0 0 0 -8.8051425067657192 149.48311340907981 0 149.48311340907981 -80.131002734386129 0 0 0 0 2.3350996032682581 -5.4990034879423035 0 -5.4990034879423035 11.467896991243773 0 0 0 0 64.457570672811016 -518.74206307241366 0 -518.74206307241366 476.75340093390878 0 0 0 0 29.139931190885967 -57.221821466987677 0 -57.221821466987677 92.630645561740209 0 0 0 0 -65.434079223161461 -144.02747452662516 0 -144.02747452662516 129.89311233885655 0 0 0 0 -0.82354023583229718 -65.724944119665452 0 -65.724944119665452 89.846632964792661 0 0 0 0 138.81150311302918 -58.586051264572234 0 -58.586051264572234 53.221234576445568 0 0 0 0 36.694399765756771 -21.27516119763095 0 -21.27516119763095 41.021736504360888 0 0 0 0 61.182211671834466 -11.005386284055021 0 -11.005386284055021 19.087690173066221 0 0 0 0 59.267867217488174 -45.361270599930322 0 -45.361270599930322 7.4683849831162661 0 0 0 0 21.726560257573965 17.787873004054745 0 17.787873004054745 31.099350203861832 0 0 0 0 8.2489467138983628 -20.863732649398571 0 -20.863732649398571 27.218333781129331 0 0 0 0 62.064420492917293 7.4862100482241658 0 7.4862100482241658 35.068979797677457 0 0 0 0 62.856050933527058 16.654977583719301 0 16.654977583719301 93.847641082214523 0 0 0 0 26.579623973492744 4.5357315766577813 0 4.5357315766577813 47.442450715232553 0 0 0 0 44.149172451780302 10.600933956462541 0 10.600933956462541 41.426559404322688 0 0 0 0 32.897462015354904 -14.256306634175417 0 -14.256306634175417 55.777834198612254 0 0 0 0 27.225423709127426 -13.760679937899113 0 -13.760679937899113 64.652375368095818 0 0 0 0 21.705298594268243 -10.762559772359054 0 -10.762559772359054 57.984199300699402 0 0 0 0 19.642891134828574 -2.676011789813856 0 -2.676011789813856 51.326026956288842 0 0 0 0 29.784460838312953 -13.924418984046497 0 -13.924418984046497 48.629257751901605 0 0 0 0 28.360517901648564 -20.915422126134217 0 -20.915422126134217 58.846646855694416 0 0 0 0 34.219883314204708 -30.047204234578658 0 -30.047204234578658 13.553780351263413 0 0 0 0 25.511304927891153 -0.0030199415232345928 0 -0.0030199415232345928 35.422250098599761 0 0 0 0 39.32116195611502 -9.8415791485185764 0 -9.8415791485185764 42.368865250660747 0 0 0 0 29.790574415110314 -20.552111016953859 0 -20.552111016953859 31.363417282398586 0 0 0 0 34.831834767039254 -44.532024404123149 0 -44.532024404123149 23.801651854202646 0 0 0 0 31.45460460398931 -33.697643917475034 0 -33.697643917475034 8.4071649237666861 0 0 0 0 23.758312362398101 -47.969808076508343 0 -47.969808076508343 15.424878749594427 0 0 0 0 31.744674605699061 -37.473689723696225 0 -37.473689723696225 38.128638621063146 0 0 0 0 -0.86299098181757472 -18.191982624755838 0 -18.191982624755838 39.997894971864298 0 0 0 0 -14.006080904759193 -2.8462589966030691 0 -2.8462589966030691 28.340942242631698 0 0 0 0 34.916819974377887 -41.533922021534863 0 -41.533922021534863 47.435309683554806 0 0 0 0 55.378309370869829 -30.658763708473998 0 -30.658763708473998 52.349951533076819 0 0 0 0 25.330983245712559 -21.968431850964407 0 -21.968431850964407 69.077251769835129 0 0 0 0 15.868048406607004 -28.80876133425005 0 -28.80876133425005 49.381444840603848 0 0 0 0 -27.753198490373507 -78.577436127701731 0 -78.577436127701731 9.1424009804001116 0 0 0 0 15.932592171122906 -30.002924523362708 0 -30.002924523362708 0.68799513131671119 0 0 0 0 15.079545245193003 -31.350832052734404 0 -31.350832052734404 26.764493166479951 0 0 0 0 -6.3960740754719723 -8.8614250330419964 0 -8.8614250330419964 38.690670539073835 0 0 0 0 -6.3069039885478446 -38.353385368014642 0 -38.353385368014642 33.044155457616398 0 0 0 0 7.4047758228614953 -15.145966518622117 0 -15.145966518622117 33.795797293239957 0 0 0 0 5.2068135561449909 -13.49273122943201 0 -13.49273122943201 28.658934891414141 0 0 0 0 -4.7258784812720478 -56.064544036262305 0 -56.064544036262305 10.467293610990964 0 0 0 0 -6.1407389562736086 -23.292972197188647 0 -23.292972197188647 14.465991466888227 0 0 0 0 74.020992143721742 -0.80240706416225294 0 -0.80240706416225294 -73.316718372785544 0 0 0 0 0.17509946887573857 1.4700828360367844 0 1.4700828360367844 2.4969393901808132 0 0 0 0 176.93376865038408 -69.626468636706704 0 -69.626468636706704 51.074634573833464 0 0 0 0 -1.6351567153418962 2.5372735867150595 0 2.5372735867150595 4.6695492163387726 0 0 0 0 88.39466748255586 -141.12121029853733 0 -141.12121029853733 201.18644349538954 0 0 0 0 65.439186373967459 -45.917921737889628 0 -45.917921737889628 -11.053392059662656 0 0 0 0 -16.134902617141051 -46.456633064414746 0 -46.456633064414746 115.54552579425581 0 0 0 0 106.98143334949248 25.446194918822584 0 25.446194918822584 179.48968328945921 0 0 0 0 -18.3826354530147 6.7210014759293699 0 6.7210014759293699 268.34305143538222 0 0 0 0 45.219273762072589 -102.25176254810867 0 -102.25176254810867 115.02937538171318 0 0 0 0 -0.20042479640324018 -27.507293522465261 0 -27.507293522465261 47.987935722256225 0 0 0 0 -29.86726026211727 -38.501183360347568 0 -38.501183360347568 112.63047984997684 0 0 0 0 -10.545638248025911 2.5336796926634904 0 2.5336796926634904 20.612292138372851 0 0 0 0 3.7543403037649252 -26.129070109532464 0 -26.129070109532464 54.5246657195922 0 0 0 0 0.56911272127027246 -33.615478548360358 0 -33.615478548360358 64.63102312295814 0 0 0 0 35.86019077516994 -54.592429227595858 0 -54.592429227595858 32.735422497845207 0 0 0 0 36.052470019141765 -50.21453006475349 0 -50.21453006475349 32.519832290534396 0 0 0 0 38.732318622760431 -44.303594970508129 0 -44.303594970508129 8.8288300709245959 0 0 0 0 36.383018240966294 -50.811521849263954 0 -50.811521849263954 52.790028223622357 0 0 0 0 50.637791800495478 -67.458793208797942 0 -67.458793208797942 26.649802067724522 0 0 0 0 -11.576727153667264 -2.500207519710397 0 -2.500207519710397 34.371442043992069 0 0 0 0 -3.5517703476556335 1.7796734987405216 0 1.7796734987405216 111.56138908105822 0 0 0 0 -2.6909897320936125 -77.883728124781555 0 -77.883728124781555 83.099565012380481 0 0 0 0 7.2920474581758299 -22.459133211104927 0 -22.459133211104927 70.10528348985099 0 0 0 0 4.979194932764937 -4.8998286854703963 0 -4.8998286854703963 8.6118864934718342 0 0 0 0 8.4632168768615657 -15.960554895056703 0 -15.960554895056703 42.742315640971356 0 0 0 0 -33.172522918560503 -25.196133434740659 0 -25.196133434740659 193.9053217294022 0 0 0 0 27.024693639915313 65.116425751679344 0 65.116425751679344 80.330561560557499 0 0 0 0 -0.96391523996410466 1.2946900640684902 0 1.2946900640684902 -0.24503188739106907 0 0 0 0 -34.793199044103858 -45.389700299529068 0 -45.389700299529068 27.319852566731697 0 0 0 0 -38.91017457792438 -65.8427702779301 0 -65.8427702779301 142.01782069580804 0 0 0 0 -39.117866474404252 -58.285494034638361 0 -58.285494034638361 46.419725042731443 0 0 0 0 -67.68446914142578 -59.809065996952995 0 -59.809065996952995 78.120945234179089 0 0 0 0 0.015433006923558423 -2.7023161509496276 0 -2.7023161509496276 40.273843766073696 0 0 0 0 -80.758516566624621 -23.415827548444213 0 -23.415827548444213 58.398818280780688 0 0 0 0 -31.90989377326332 -32.468174277237267 0 -32.468174277237267 42.354751049533661 0 0 0 0 -61.609972695662236 -4.3535751779309066 0 -4.3535751779309066 40.238845091429539 0 0 0 0 -72.995140394439659 -14.682829934215988 0 -14.682829934215988 36.101129634411336 0 0 0 0 -48.364581727347741 -16.897956806129514 0 -16.897956806129514 39.143538968419307 0 0 0 0 -11.836756779438474 17.951955464035564 0 17.951955464035564 35.294252203006181 0 0 0 0 -4.0776509914926464 5.5071735644305591 0 5.5071735644305591 35.476682863169117 0 0 0 0 -2.0006675039386721 4.4539226573983335 0 4.4539226573983335 22.730863302344048 0 0 0 0 -9.5742294873662672 3.255304795624852 0 3.255304795624852 41.464453339256579 0 0 0 0 -2.4218238120134457 1.0236571242063164 0 1.0236571242063164 4.1787487708638764 0 0 0 0 -1.5764109488310964 18.399684755120916 0 18.399684755120916 47.935405472671846 0 0 0 0 107.9078159528168 159.89939591004213 0 159.89939591004213 197.9741922232397 0 0 0 0 81.666722737124587 60.727109026988956 0 60.727109026988956 113.7915317776833 0 0 0 0 28.705223656791304 78.35768077926059 0 78.35768077926059 216.75961037130833 0 0 0 0 -45.351580000632111 0.54960766058866284 0 0.54960766058866284 196.31734938441696 0 0 0 0 -1.4420451542795263 27.822869558440516 0 27.822869558440516 134.34768199887912 0 0 0 0 21.919098061284274 31.916745871540229 0 31.916745871540229 134.19102286671205 0 0 0 0 49.988447517240161 7.0954132796700833 0 7.0954132796700833 38.710387288462698 0 0 0 0 107.62027005083212 -142.77597645115156 0 -142.77597645115156 -31.776838758913073 0 0 0 0 23.671579243749193 -8.3809528007345762 0 -8.3809528007345762 -23.38332044700212 0 0 0 0 -4.2436880611259866 11.50690783015575 0 11.50690783015575 59.422637205204836 0 0 0 0 -567.32832037449953 60.12082388935778 0 60.12082388935778 1262.3907510572317 0 0 0 0 7.2705936167534748 -19.360187902050903 0 -19.360187902050903 12.057269440493544 0 0 0 0 6.2344716953906687 -5.8826736124984844 0 -5.8826736124984844 1.2618213803760732 0 0 0 0 -44.699658285468104 -1246.0995293724736 0 -1246.0995293724736 1828.174800446428 0 0 0 0 72.969152152404604 17.207817496195275 0 17.207817496195275 70.346454296224692 0 0 0 0 -14.57291929569945 28.732350404076442 0 28.732350404076442 8.8719817381152097 0 0 0 0 94.526450118421621 -142.93816116495145 0 -142.93816116495145 51.518353939565714 0 0 0 0 -33.256868692822309 23.147587500939153 0 23.147587500939153 238.4724637581869 0 0 0 0 -26.935634549583483 10.224653849119932 0 10.224653849119932 111.72833348790346 0 0 0 0 -29.822993361908516 -13.109871729206247 0 -13.109871729206247 129.6599219500763 0 0 0 0 -3.2503669685386285 -0.69062207201591264 0 -0.69062207201591264 97.287812199086943 0 0 0 0 -13.770932699295827 -12.029515541704768 0 -12.029515541704768 128.45490351650943 0 0 0 0 -12.424580451451675 -25.902734525630535 0 -25.902734525630535 161.70552247178182 0 0 0 0 -2.8037628259553458 -19.625887942102963 0 -19.625887942102963 134.41465520988186 0 0 0 0 -9.8784784769522958 -29.507140597044895 0 -29.507140597044895 148.10924012955354 0 0 0 0 -24.400791235581664 -8.6283683031679175 0 -8.6283683031679175 141.56756453469256 0 0 0 0 -11.088011025713698 -9.7545993239479163 0 -9.7545993239479163 13.901429408470245 0 0 0 0 -37.845813356553208 -12.843597036464871 0 -12.843597036464871 30.466511321664257 0 0 0 0 -109.86414268042154 199.36383099334432 0 199.36383099334432 107.80420607587655 0 0 0 0 -12.969945000833452 -8.57490314058942 0 -8.57490314058942 14.146802439424199 0 0 0 0 -4.8828677334004169 -15.787926159590938 0 -15.787926159590938 149.74725395786822 0 0 0 0 -3.6053623733461215 -0.36412309204625837 0 -0.36412309204625837 -2.0582913486669909 0 0 0 0 224.6927239528809 326.47735720514373 0 326.47735720514373 -476.61539001010181 0 0 0 0 90.941445819520595 -49.967263666695885 0 -49.967263666695885 -113.1370685203085 0 0 0 0 -148.49973933937372 -100.9704613576953 0 -100.9704613576953 135.14510090765071 0 0 0 0 58.655115341950477 -68.526679939449991 0 -68.526679939449991 139.1611985950874 0 0 0 0 171.45512917276756 -421.94315358989303 0 -421.94315358989303 682.93985882205959 0 0 0 0 482.48013679461621 267.77655356545426 0 267.77655356545426 6.061774190381243 0 0 0 0 2.5872212535633539 -18.637186494482616 0 -18.637186494482616 48.274127409447352 0 0 0 0 -418.24829693518632 -1.9094661853255275 0 -1.9094661853255275 152.48901669610677 0 0 0 0 -165.04982495982949 148.33059244012884 0 148.33059244012884 -82.547569446595844 0 0 0 0 -1.2374831240614981 -10.867403113550548 0 -10.867403113550548 104.19414241873392 0 0 0 0 -11.032364083928691 -5.9083604543213992 0 -5.9083604543213992 13.74157511523023 0 0 0 0 -176.85220093342014 151.50859710618522 0 151.50859710618522 -11.823681775764314 0 0 0 0 -1.2898542569534612 -3.5846293308962203 0 -3.5846293308962203 15.898429219577622 0 0 0 0 -2.1809819412883371 -6.6216413387155626 0 -6.6216413387155626 15.779291947605088 0 0 0 0 -3.0794465982680777 -5.8178086388688826 0 -5.8178086388688826 16.241132913521142 0 0 0 0 1.2942487948446342 0.98629581254499499 0 0.98629581254499499 41.844087538425811 0 0 0 0 -1.3642051418635015 -7.4737786196085239 0 -7.4737786196085239 28.165680204939633 0 0 0 0 -4.2148457348757802 -3.8069533749676339 0 -3.8069533749676339 29.938043034104339 0 0 0 0 -2.6216132060642394 -0.75109630395945715 0 -0.75109630395945715 28.737179146766721 0 0 0 0 6.4802231668283996 -10.282558881747313 0 -10.282558881747313 16.411065622992396 0 0 0 0 3.7190053665982017 -2.8785098695203715 0 -2.8785098695203715 10.025953803352877 0 0 0 0 19.905131079860666 3.547199365675624 0 3.547199365675624 23.02427265093138 0 0 0 0 4.8231927204682012 -12.687209157124514 0 -12.687209157124514 41.64217609146732 0 0 0 0 -4.3984845115095936 -6.4492198461703083 0 -6.4492198461703083 48.437722949987801 0 0 0 0 12.940381230599087 7.2978904618648812 0 7.2978904618648812 21.182554731982236 0 0 0 0 3.1997737233886392 8.6513955151232125 0 8.6513955151232125 17.520279772941635 0 0 0 0 -3.7762969165836466 12.142627664848987 0 12.142627664848987 19.780116166986772 0 0 0 0 10.023193885004616 20.992550485894753 0 20.992550485894753 10.630014647089411 0 0 0 0 18.206793581593502 3.5849500167096267 0 3.5849500167096267 13.192181520513259 0 0 0 0 23.030545851346915 17.25103031816252 0 17.25103031816252 5.4912964235663821 0 0 0 0 27.262308479527974 9.7465170636132825 0 9.7465170636132825 14.973010683737812 0 0 0 0 27.435655717106442 7.833145147531468 0 7.833145147531468 9.1376048572128639 0 0 0 0 26.553807934094039 9.2164827737287851 0 9.2164827737287851 8.2993768112864927 0 0 0 0 14.652288831622627 11.647498561474094 0 11.647498561474094 14.528628077707253 0 0 0 0 4.5874689230522563 23.985911251038488 0 23.985911251038488 15.750849845586345 0 0 0 0 17.063532470375094 10.768348541281739 0 10.768348541281739 14.849036543891998 0 0 0 0 -53.808412578222487 -4.8152008409888367 0 -4.8152008409888367 24.584218926480389 0 0 0 0 -32.551861338104118 -15.802649533963631 0 -15.802649533963631 -32.295233374883537 0 0 0 0 -19.592738388539146 -67.967626717581879 0 -67.967626717581879 -30.685712007573329 0 0 0 0 1.9972205001136931 -3.6604341805695952 0 -3.6604341805695952 5.6228783425463291 0 0 0 0 7.1816930647091102 -8.9381087853516732 0 -8.9381087853516732 10.497889841802305 0 0 0 0 33.665779059030683 -20.377118737633282 0 -20.377118737633282 18.965483169245999 0 0 0 0 24.934217424287226 3.6416763813904254 0 3.6416763813904254 8.5401574530114885 0 0 0 0 28.553824915707082 -9.5367105144141533 0 -9.5367105144141533 10.689463081469512 0 0 0 0 31.985082115698333 2.9741223593300674 0 2.9741223593300674 4.8445686513732653 0 0 0 0 -40.45513291219504 -86.267887690330099 0 -86.267887690330099 -3.3311771916341968 0 0 0 0 -52.160022729793582 -63.135210062231636 0 -63.135210062231636 15.55269038642291 0 0 0 0 -7.9366920719812697 -30.05711916492146 0 -30.05711916492146 -29.872514141403371 0 0 0 0 -9.0747202326137995 -63.058124224575295 0 -63.058124224575295 -0.048696885663957801 0 0 0 0 -14.551397897791958 -67.423852207433811 0 -67.423852207433811 47.379095040785614 0 0 0 0 4.9536672034782896 -40.709094040936179 0 -40.709094040936179 23.117076321977947 0 0 0 0 -21.522321729912619 -77.839203046751209 0 -77.839203046751209 9.668341159762349 0 0 0 0 -25.999970750983266 -18.630950531252893 0 -18.630950531252893 24.308898872834106 0 0 0 0 -32.715868375334594 -22.146073960519061 0 -22.146073960519061 33.714395269256784 0 0 0 0 -27.141242830050032 -21.228849268711201 0 -21.228849268711201 112.68684785315418 0 0 0 0 7.9957494003137981 15.668898730291403 0 15.668898730291403 49.105175857206632 0 0 0 0 -20.038654498033793 9.3450177151571552 0 9.3450177151571552 48.71923472888011 0 0 0 0 -49.307159660595971 -19.391493114926561 0 -19.391493114926561 52.313980919730966 0 0 0 0 -55.428894926469184 -20.686956898771314 0 -20.686956898771314 38.292682983490522 0 0 0 0 -44.896833233455254 -16.607422256849532 0 -16.607422256849532 31.507247562083649 0 0 0 0 -21.277060572885603 8.3829975184125942 0 8.3829975184125942 54.69806704682378 0 0 0 0 -9.0894466147509263 1.8097282218891593 0 1.8097282218891593 13.299072723192907 0 0 0 0 -11.9280592118821 -2.7856393679176108 0 -2.7856393679176108 32.759324410567388 0 0 0 0 -4.0130344159185647 -9.4272457634284308 0 -9.4272457634284308 4.9087091827553664 0 0 0 0 -3.2652422419182017 1.2179592813897244 0 1.2179592813897244 4.4517784983417243 0 0 0 0 -15.456273078784363 8.581844421779806 0 8.581844421779806 20.369316419339157 0 0 0 0 -3.3643601982112159 30.024932817468653 0 30.024932817468653 36.734903232172655 0 0 0 0 -5.3736181774447687 15.525243653581128 0 15.525243653581128 50.362022574034199 0 0 0 0 -7.9893068677972252 0.45064217216616953 0 0.45064217216616953 2.152793646749636 0 0 0 0 42.682064720511335 -17.611608478611743 0 -17.611608478611743 3.4042682091730967 0 0 0 0 -1.8307746038172734 -0.39291338160934686 0 -0.39291338160934686 3.9104813555398472 0 0 0 0 -0.74552972753958802 -11.064385724566243 0 -11.064385724566243 31.295682849914812 0 0 0 0 -26.118232807416007 -50.689357221726823 0 -50.689357221726823 -16.860743519122479 0 0 0 0 -9.3525387515601324 -4.8100329647495528 0 -4.8100329647495528 39.888871343413484 0 0 0 0 11.928334288401857 -52.864655670837237 0 -52.864655670837237 131.37179845829814 0 0 0 0 -23.609946363433437 20.325720641863882 0 20.325720641863882 97.769594242410676 0 0 0 0 1.9038813119110087 -3.8260998754070243 0 -3.8260998754070243 -3.3702188095505221 0 0 0 0 16.026840426650438 40.203634012073962 0 40.203634012073962 84.22382254547847 0 0 0 0 20.714793096792846 -68.875578505503654 0 -68.875578505503654 160.11345443465689 0 0 0 0 75.314469845050098 -11.071796321604779 0 -11.071796321604779 54.094331748384775 0 0 0 0 -18.753876424698774 1.466458560222236 0 1.466458560222236 54.80157962886733 0 0 0 0 13.863698436634877 -101.93775702401035 0 -101.93775702401035 225.68503608582978 0 0 0 0 57.946927447568669 -61.914134379214374 0 -61.914134379214374 -23.501792393275537 0 0 0 0 1.7369818854902377 -0.091351877970225814 0 -0.091351877970225814 -0.037748453581400554 0 0 0 0 30.24379603026091 -32.174856189558341 0 -32.174856189558341 -27.269640983024146 0 0 0 0 42.993394509559948 -72.374019582071924 0 -72.374019582071924 -23.133945989859058 0 0 0 0 37.397872490469126 -44.207733917581209 0 -44.207733917581209 -38.85903122878517 0 0 0 0 18.136576100741877 -42.377083650731947 0 -42.377083650731947 -26.689806763823071 0 0 0 0 16.75140760048464 -28.173178911549257 0 -28.173178911549257 -38.620515695016365 0 0 0 0 17.064500948314162 -40.838084505674487 0 -40.838084505674487 -42.812228964816313 0 0 0 0 -0.99019582622759117 -49.570331280410755 0 -49.570331280410755 -35.025643960572779 0 0 0 0 -10.097168386144403 -55.904452090762788 0 -55.904452090762788 -50.047886932828987 0 0 0 0 25.164839972392656 -47.038594743833528 0 -47.038594743833528 -48.703816127395839 0 0 0 0 21.582008635416969 -49.385896297419094 0 -49.385896297419094 -30.880662188515998 0 0 0 0 -58.796005440958652 -36.78837556115468 0 -36.78837556115468 -10.787818823097041 0 0 0 0 -8.3002197942805651 -4.5262349485783488 0 -4.5262349485783488 13.125845745322295 0 0 0 0 -1.5395313830417305 -2.7857070501290835 0 -2.7857070501290835 11.630077306548458 0 0 0 0 -66.6082618462342 -33.691981073396164 0 -33.691981073396164 -5.7330323464702815 0 0 0 0 -43.672212359830155 -66.923581201786874 0 -66.923581201786874 -47.333573836622236 0 0 0 0 -69.055531302450731 -54.845791017029114 0 -54.845791017029114 -20.258176760165952 0 0 0 0 -45.932919943461457 -58.0666723158065 0 -58.0666723158065 -33.956532155541936 0 0 0 0 -21.886544042664809 -47.097500782212592 0 -47.097500782212592 -34.752300232910784 0 0 0 0 -9.8585566334177201 -34.292189264448098 0 -34.292189264448098 -28.070548717601923 0 0 0 0 -38.050472725863074 -52.55630723197828 0 -52.55630723197828 -33.100710173912375 0 0 0 0 -47.236307743213729 -39.080295858642785 0 -39.080295858642785 -12.683678517321823 0 0 0 0 -58.801666669927727 -37.342130326156621 0 -37.342130326156621 -11.814090698491782 0 0 0 0 -19.71498047021305 -35.96972017880762 0 -35.96972017880762 -27.246826132701244 0 0 0 0 -48.241562993186562 -20.023716302945104 0 -20.023716302945104 -18.971559352590702 0 0 0 0 -14.443679130064083 -17.022610110216192 0 -17.022610110216192 -29.97314873652067 0 0 0 0 -54.963548367823705 -34.495394736517483 0 -34.495394736517483 -9.7027301220223308 0 0 0 0 3.1394041877098511 0.092792769635892114 0 0.092792769635892114 1.5269836769033702 0 0 0 0 -11.525529523226851 8.4660032414467423 0 8.4660032414467423 23.80134840260871 0 0 0 0 -4.9484160643939106 5.5910495739756811 0 5.5910495739756811 5.7773214031539055 0 0 0 0 0.67320298243703292 26.593296873361396 0 26.593296873361396 39.399498593716999 0 0 0 0 -1.7655342183234097 -1.535715654703381 0 -1.535715654703381 73.123316924145911 0 0 0 0 12.498341682748105 3.2998817071857047 0 3.2998817071857047 35.327423052905942 0 0 0 0 9.7110848797196923 14.823242542421212 0 14.823242542421212 62.355391858756775 0 0 0 0 8.907696484355256 16.699732476750796 0 16.699732476750796 203.50452938675153 0 0 0 0 -4.2512854578608312 15.091229231991747 0 15.091229231991747 91.550896924498375 0 0 0 0 20.405418115100474 -53.455045283029904 0 -53.455045283029904 126.65535851587993 0 0 0 0 -56.695196276416141 19.665846841726307 0 19.665846841726307 80.017286595437326 0 0 0 0 -5.9616752888703681 -4.607952590338698 0 -4.607952590338698 39.706052275086023 0 0 0 0 11.687706922497455 8.1919413888681447 0 8.1919413888681447 12.065645152018988 0 0 0 0 -6.3406618520973854 4.2850394197780375 0 4.2850394197780375 30.464433818701536 0 0 0 0 -20.917866224286172 39.017170412669657 0 39.017170412669657 22.919408632404156 0 0 0 0 4.8920899647162059 -12.449816401853241 0 -12.449816401853241 35.064819850609638 0 0 0 0 2.564570261544759 -4.6969444551978086 0 -4.6969444551978086 35.732991736469558 0 0 0 0 -0.34476165445376949 -9.8039835737399272 0 -9.8039835737399272 14.758397813917071 0 0 0 0 2.1377796555516397 -3.0191659006904956 0 -3.0191659006904956 29.193847597081913 0 0 0 0 4.4652993587230867 -10.772037847353204 0 -10.772037847353204 28.525675711207441 0 0 0 0 -13.259417603262136 -9.0280945837330364 0 -9.0280945837330364 38.53359525930864 0 0 0 0 -17.874793713538565 2.7232813664795685 0 2.7232813664795685 59.535003220367798 0 0 0 0 18.24882483055444 -11.095629777799331 0 -11.095629777799331 64.516606050656264 0 0 0 0 0.010261031878245674 -9.2000900752491575 0 -9.2000900752491575 41.174134358975323 0 0 0 0 -13.891553688034946 -10.292770633464897 0 -10.292770633464897 36.370472528891696 0 0 0 0 -11.17437399137599 -5.6393169904348142 0 -5.6393169904348142 42.856826593936233 0 0 0 0 -4.1089547109798037 -11.168287884004911 0 -11.168287884004911 50.933834541316202 0 0 0 0 6.9971631622702262 -12.632908047380624 0 -12.632908047380624 65.580756920404383 0 0 0 0 19.966735351890748 -41.973119316136945 0 -41.973119316136945 75.881380417049513 0 0 0 0 -1.9779883061671022 -5.5097801778250854 0 -5.5097801778250854 7.6134518714319945 0 0 0 0 7.3180855811274341 23.779834800756362 0 23.779834800756362 75.580931195443554 0 0 0 0 50.809677888136548 -53.928506069332798 0 -53.928506069332798 10.302011835861776 0 0 0 0 -64.247018518602317 -37.794879604120069 0 -37.794879604120069 133.48798941346467 0 0 0 0 -9.5176644446430601 -19.604637344004004 0 -19.604637344004004 27.829562717921362 0 0 0 0 4.3026690612563332 -15.166884642227298 0 -15.166884642227298 31.090004929807435 0 0 0 0 -2.531700312326052 -15.686173587394478 0 -15.686173587394478 14.134741652029334 0 0 0 0 -2.8428815210091196 -15.60829895445076 0 -15.60829895445076 20.64174874332209 0 0 0 0 -2.4552954221694563 -23.205692319463196 0 -23.205692319463196 37.892332489194814 0 0 0 0 -0.17447391026098558 -19.853984601886623 0 -19.853984601886623 42.815875548273652 0 0 0 0 -5.4194458322420553 -6.9588974707916549 0 -6.9588974707916549 29.288843981826872 0 0 0 0 2.9682292168922686 -14.571445394980401 0 -14.571445394980401 42.400923881852577 0 0 0 0 3.4520168124897452 -19.348807468842097 0 -19.348807468842097 33.612644551300036 0 0 0 0 3.7439905463198606 -14.517641986239951 0 -14.517641986239951 38.940020018690717 0 0 0 0 15.254359699313227 -36.831919172615017 0 -36.831919172615017 77.52715159462241 0 0 0 0 -6.9692913037197286 -11.212420432826548 0 -11.212420432826548 48.450817094788363 0 0 0 0 11.213192106089082 -5.7559991165144311 0 -5.7559991165144311 20.284982972261787 0 0 0 0 40.152806660755914 -1.0933295717040892 0 -1.0933295717040892 18.005997047992423 0 0 0 0 20.668744076508119 -56.075121557392777 0 -56.075121557392777 79.453725513070822 0 0 0 0 84.41856907797137 -9.6089572589989984 0 -9.6089572589989984 63.174466346488771 0 0 0 0 -6.3485010711380152 0.95664139414341332 0 0.95664139414341332 61.434773177396721 0 0 0 0 0.23727851763783736 -1.1687630862540175 0 -1.1687630862540175 4.1076686736198198 0 0 0 0 18.633115222227843 -28.142670613908649 0 -28.142670613908649 80.320404245652753 0 0 0 0 -2.4807980857642633 -20.24650747467058 0 -20.24650747467058 57.832528194205224 0 0 0 0 -3.5837926151643709 -4.6982054045507766 0 -4.6982054045507766 7.0216288381320879 0 0 0 0 -20.866098049109496 -3.1959004587261006 0 -3.1959004587261006 128.03335928722845 0 0 0 0 1.3029810273401381 -10.293569104054768 0 -10.293569104054768 54.32426535394552 0 0 0 0 -3.091659248520386 0.93149010213510763 0 0.93149010213510763 9.2465419419844004 0 0 0 0 -8.2732558581949434 9.5498968339197745 0 9.5498968339197745 70.68552288927458 0 0 0 0 24.308738881430713 30.115625412450754 0 30.115625412450754 90.349247614576598 0 0 0 0 -3.3730316819402857 -5.588438689601972 0 -5.588438689601972 14.363606996193937 0 0 0 0 -0.062198653112795821 14.728231713845112 0 14.728231713845112 26.218377408433028 0 0 0 0 0.76942834634345658 7.4742126888613711 0 7.4742126888613711 44.097410937425593 0 0 0 0 6.514936849554033 1.2542654369026423 0 1.2542654369026423 53.009489345320617 0 0 0 0 -6.6662320863981677 5.9326981878548395 0 5.9326981878548395 34.782992928579915 0 0 0 0 -2.8296035568291296 -0.180128124304062 0 -0.180128124304062 7.0455713178369876 0 0 0 0 0.57332443263078403 0.39948994446240249 0 0.39948994446240249 25.560894504949829 0 0 0 0 -0.52081451500897913 2.2917513102902376 0 2.2917513102902376 35.730936143045255 0 0 0 0 2.488420711053724 6.2750034954715375 0 6.2750034954715375 40.113595647982777 0 0 0 0 -3.1493633846664766 0.8027851628024294 0 0.8027851628024294 22.239114642946493 0 0 0 0 -3.8999688821074869 0.031737642224470619 0 0.031737642224470619 38.576724037142412 0 0 0 0 -5.1592170268773048 7.5512911633837945 0 7.5512911633837945 36.348241073895991 0 0 0 0 -3.2379804992979189 12.372130391067913 0 12.372130391067913 107.42019505282587 0 0 0 0 -1.224089017088112 1.2001680501316407 0 1.2001680501316407 30.470779444203316 0 0 0 0 7.1659093473924713 9.693415323354202 0 9.693415323354202 40.747934852988692 0 0 0 0 -3.8357792055212485 10.687505697507731 0 10.687505697507731 61.649426091782516 0 0 0 0 -0.52514837674138093 3.9008743804407402 0 3.9008743804407402 9.2974329282146631 0 0 0 0 2.800749525170886 17.548818568902789 0 17.548818568902789 41.122235679606092 0 0 0 0 -9.3380708755512387 5.4031212047266308 0 5.4031212047266308 41.831604104176222 0 0 0 0 -2.6318045284479554 -1.7027716476926731 0 -1.7027716476926731 32.309142066419383 0 0 0 0 -3.5137042013191149 -0.9732464271291974 0 -0.9732464271291974 45.631857660182789 0 0 0 0 0.31288134068574891 3.6173918370541287 0 3.6173918370541287 40.660852251967299 0 0 0 0 -25.625902533563021 28.355043158779154 0 28.355043158779154 28.996085511520505 0 0 0 0 -1.4902366983937823 8.5309324178735224 0 8.5309324178735224 33.995697131630578 0 0 0 0 1.8354535287505769 -0.30128841474470391 0 -0.30128841474470391 50.723778851628595 0 0 0 0 11.339860954642063 18.398483223230869 0 18.398483223230869 23.115700824084342 0 0 0 0 -23.403992311367347 31.587585435372603 0 31.587585435372603 33.520905942117679 0 0 0 0 3.4161069977916245 1.8861764991483483 0 1.8861764991483483 12.406569786088875 0 0 0 0 -23.89638739486918 -33.71134177170461 0 -33.71134177170461 39.852113507382455 0 0 0 0 -21.186937937290395 6.7789738163173752 0 6.7789738163173752 51.563273579144152 0 0 0 0 -9.6406575383173276 -7.7584211767762099 0 -7.7584211767762099 65.168800160608953 0 0 0 0 0.18412989239624311 -9.1922976527777003 0 -9.1922976527777003 38.70810756947705 0 0 0 0 -17.717124618126491 -23.953869410892366 0 -23.953869410892366 6.6959986431115794 0 0 0 0 -0.42239293357710439 -9.0494401351425822 0 -9.0494401351425822 38.283894565035865 0 0 0 0 -19.620674263768933 -11.167431450045115 0 -11.167431450045115 36.39417417794175 0 0 0 0 0.78329673707776237 11.653803653520299 0 11.653803653520299 8.5508034322265303 0 0 0 0 -9.7999143695510611 -4.5039285887542064 0 -4.5039285887542064 28.879408715045429 0 0 0 0 0.68478151768742457 -1.4487040603468628 0 -1.4487040603468628 10.422237135249247 0 0 0 0 66.967631638954856 -103.3048260123212 0 -103.3048260123212 99.828173074725782 0 0 0 0 3.1014630913095971 15.164641557152208 0 15.164641557152208 36.186436690288247 0 0 0 0 -71.882302016337235 -64.31787370263919 0 -64.31787370263919 245.49309230441577 0 0 0 0 -296.80450157428822 531.76485422291444 0 531.76485422291444 355.29692706964124 0 0 0 0 1.3472859621645057 -16.357227011445502 0 -16.357227011445502 103.99606316092468 0 0 0 0 12.704797103812552 17.827956887787877 0 17.827956887787877 -99.763696101756068 0 0 0 0 -28.870077202363518 -20.037607229067362 0 -20.037607229067362 44.227203707734589 0 0 0 0 -19.61799115989561 -140.44065684045199 0 -140.44065684045199 439.47512398252729 0 0 0 0 -9.3542901292159968 -7.1166682599432534 0 -7.1166682599432534 35.060730808923836 0 0 0 0 -13.437310710505244 2.5705933708304656 0 2.5705933708304656 65.460659555072198 0 0 0 0 -11.002923307099081 3.7659710047919361 0 3.7659710047919361 57.094545121784904 0 0 0 0 -9.9465920366419596 -8.4855064544972265 0 -8.4855064544972265 48.735017928083835 0 0 0 0 -11.390058507809954 -0.17949519387912005 0 -0.17949519387912005 57.365453964601329 0 0 0 0 -8.7553337438621384 -5.0889596761408029 0 -5.0889596761408029 42.525357328388054 0 0 0 0 -3.755419234906185 -0.87152061983942986 0 -0.87152061983942986 55.778575438038388 0 0 0 0 -6.0478390216073876 7.3461023081963504 0 7.3461023081963504 72.700527129403781 0 0 0 0 -7.6213847235794674 -5.3450281675541191 0 -5.3450281675541191 65.256885260612762 0 0 0 0 -7.8709927123272792 -7.0844778627506457 0 -7.0844778627506457 91.416621914584539 0 0 0 0 -5.9447668305515435 -1.6566840645755292 0 -1.6566840645755292 67.297864920888969 0 0 0 0 -2.9960885133459669 1.330741802972625 0 1.330741802972625 56.926181433635065 0 0 0 0 -8.7796964970711997 -1.3806468453112757 0 -1.3806468453112757 57.677456309505942 0 0 0 0 -6.9693273852381026 -1.8176662958721863 0 -1.8176662958721863 51.504223832525895 0 0 0 0 -6.2005975885467706 -6.4895602805654562 0 -6.4895602805654562 45.664262118312763 0 0 0 0 -3.452810106078573 -2.5498611396869819 0 -2.5498611396869819 59.388985433339258 0 0 0 0 -2.4683918244345477 -3.6409981491888175 0 -3.6409981491888175 51.633466381332255 0 0 0 0 -7.9522961782508901 -6.6276460561275599 0 -6.6276460561275599 44.670761927874992 0 0 0 0 -7.4375742140855436 -8.9615763445981429 0 -8.9615763445981429 51.775436485768296 0 0 0 0 -16.20344711296724 -15.021748483619376 0 -15.021748483619376 38.811820339091355 0 0 0 0 -14.92904958946292 -5.9070695278132916 0 -5.9070695278132916 48.982277791583329 0 0 0 0 -7.1023461673657948 -0.6932097239914583 0 -0.6932097239914583 51.984617482754402 0 0 0 0 -19.838324065235611 -13.432636114746856 0 -13.432636114746856 46.402607583091594 0 0 0 0 -13.792525169648343 -5.2262558996881125 0 -5.2262558996881125 46.739685325825121 0 0 0 0 -25.393892588696872 -27.675422637250449 0 -27.675422637250449 30.471002058167869 0 0 0 0 -28.100519005418846 -15.46011665691185 0 -15.46011665691185 46.869778797743493 0 0 0 0 -21.001728297691216 -7.0420997891114894 0 -7.0420997891114894 43.319802850659471 0 0 0 0 -21.783369565177964 -13.923917070103926 0 -13.923917070103926 41.026113375846762 0 0 0 0 -28.611625882380395 -17.841168756800471 0 -17.841168756800471 39.845196881447919 0 0 0 0 -28.563249443963233 -9.5676923276198522 0 -9.5676923276198522 44.816895911615575 0 0 0 0 -13.410861858812495 -10.914517625045846 0 -10.914517625045846 38.214368877088418 0 0 0 0 -38.575212742789262 -6.5772564041333226 0 -6.5772564041333226 44.794538605405251 0 0 0 0 -25.398314371188462 -7.7044722059217747 0 -7.7044722059217747 38.728490521694766 0 0 0 0 -25.144428870775187 -13.068407481213853 0 -13.068407481213853 44.722402416169643 0 0 0 0 -67.635970064274261 13.655327716551255 0 13.655327716551255 35.595633686345536 0 0 0 0 -4.2845413754541823 -7.1674368939765003 0 -7.1674368939765003 10.419780242099478 0 0 0 0 -58.838559326932227 -15.150497456328594 0 -15.150497456328594 46.691444571566535 0 0 0 0 -72.182142485797613 7.9699386969659827 0 7.9699386969659827 49.755902862147195 0 0 0 0 -38.29088754458644 6.2125165114121046 0 6.2125165114121046 37.358788574056234 0 0 0 0 -46.727343752692832 5.6567185121093644 0 5.6567185121093644 48.492826948233414 0 0 0 0 -68.15517870479016 21.637337866763119 0 21.637337866763119 41.150019676366355 0 0 0 0 -71.957917579929926 16.478029051271733 0 16.478029051271733 56.75795458387438 0 0 0 0 -0.28444151974355769 -0.74310996051441691 0 -0.74310996051441691 4.3350910296770451 0 0 0 0 -5.3773586805026188 6.4911245706211815 0 6.4911245706211815 7.7945159337959637 0 0 0 0 -21.571538877817602 1.8449781898016226 0 1.8449781898016226 43.641195099844481 0 0 0 0 -16.729094796130084 -5.3408677750849165 0 -5.3408677750849165 45.024901388454055 0 0 0 0 -30.254602717832313 -2.3391601470648311 0 -2.3391601470648311 44.853880099835806 0 0 0 0 -29.051220551675215 -1.878907219015673 0 -1.878907219015673 41.864408367662691 0 0 0 0 -31.950651978659153 11.71594331500819 0 11.71594331500819 35.34256811162777 0 0 0 0 -23.657711002821088 -12.009584828396328 0 -12.009584828396328 44.381308762542176 0 0 0 0 -13.693470123665975 -10.874163659871556 0 -10.874163659871556 42.602320669764595 0 0 0 0 -9.6051160855245143 -19.542893647419987 0 -19.542893647419987 47.365208222705405 0 0 0 0 -17.764475586591743 -8.2101240283518564 0 -8.2101240283518564 45.143397382547846 0 0 0 0 -19.603956992939857 -10.264663956782897 0 -10.264663956782897 48.861031373875448 0 0 0 0 2.6000830282546303 -19.578380302613368 0 -19.578380302613368 47.060592706136958 0 0 0 0 -9.3478252511617939 -21.818527885356161 0 -21.818527885356161 67.208514894460677 0 0 0 0 14.513361040833729 -23.020700630637293 0 -23.020700630637293 57.390411919768667 0 0 0 0 -21.82850531632721 2.0934798867456266 0 2.0934798867456266 46.64226337778382 0 0 0 0 -7.4427558020661309 -3.2822822251328034 0 -3.2822822251328034 39.856059919809923 0 0 0 0 -2.8629633317027583 -26.451192398591957 0 -26.451192398591957 60.809217734482445 0 0 0 0 -1.5630422197873486 -21.131262600159971 0 -21.131262600159971 55.379466843545742 0 0 0 0 -3.8955798695610611 -16.553077053926245 0 -16.553077053926245 48.051446402911097 0 0 0 0 -11.535571639343743 -17.911549111646309 0 -17.911549111646309 56.117829062772216 0 0 0 0 -4.1010495541809178 -18.023193140548756 0 -18.023193140548756 60.435999007691862 0 0 0 0 1.1342212075464886 -14.550520991982921 0 -14.550520991982921 49.07230452587828 0 0 0 0 -8.6354529663040012 -18.967350659368094 0 -18.967350659368094 47.313843680574792 0 0 0 0 -13.407553242644099 -10.62119922383863 0 -10.62119922383863 46.73549294073382 0 0 0 0 -5.1140754096919636 -10.792046663782457 0 -10.792046663782457 40.919308118667686 0 0 0 0 -16.893472817546353 -11.595467559440294 0 -11.595467559440294 47.588359852285066 0 0 0 0 -1.1591617305512045 -6.7018338651396334 0 -6.7018338651396334 46.241879774170229 0 0 0 0 -4.900581939566905 -12.533731007196366 0 -12.533731007196366 54.881570825309609 0 0 0 0 4.3491040242188319 -10.311261932416528 0 -10.311261932416528 50.700386353411886 0 0 0 0 -0.20855492644579954 -9.9011928215786611 0 -9.9011928215786611 56.997626304306323 0 0 0 0 1.5800780760250746 -16.939735861677036 0 -16.939735861677036 61.017037830628396 0 0 0 0 5.2158733360924998 -13.614863134855113 0 -13.614863134855113 61.118017270040582 0 0 0 0 3.4192779075422095 -13.672661327746027 0 -13.672661327746027 65.963018381931761 0 0 0 0 0.040083261712425156 -22.321568968967767 0 -22.321568968967767 67.81382035866045 0 0 0 0 9.4870735249899099 -15.553225907104206 0 -15.553225907104206 61.016807091131341 0 0 0 0 8.3442344350355597 -12.44714269664837 0 -12.44714269664837 59.18175319225702 0 0 0 0 11.117929048601468 -10.423513571911826 0 -10.423513571911826 60.526623181554896 0 0 0 0 6.2731898465401628 -9.5837556256883545 0 -9.5837556256883545 63.333736962751573 0 0 0 0 6.2346607404258023 -8.5196973977491552 0 -8.5196973977491552 54.813356309925439 0 0 0 0 0.44549297592766379 -3.9351648177907919 0 -3.9351648177907919 51.326786138706666 0 0 0 0 1.8655957872547333 -7.8002027445181739 0 -7.8002027445181739 61.370573897838767 0 0 0 0 -2.7395145864959236 -7.5373057780918487 0 -7.5373057780918487 14.704577208192376 0 0 0 0 -1.0559341059706639 -2.4986389707955823 0 -2.4986389707955823 59.324510686667054 0 0 0 0 -1.1905690831540596 -3.1367503163164656 0 -3.1367503163164656 59.46898000985675 0 0 0 0 -23.19959457313962 -22.291128269251203 0 -22.291128269251203 -1.5131180465687066 0 0 0 0 -0.36761949976757613 -10.534642962761865 0 -10.534642962761865 30.280876164469845 0 0 0 0 3.2667625712540485 -6.7357763384716236 0 -6.7357763384716236 60.722499494548401 0 0 0 0 2.3478130883404447 -7.2634129771759035 0 -7.2634129771759035 65.851050642268092 0 0 0 0 1.5894344869607362 -11.197368050075916 0 -11.197368050075916 23.908899303091573 0 0 0 0 -7.070737028924845 -6.8722740253850532 0 -6.8722740253850532 81.550972047891022 0 0 0 0 9.4487633775906943 47.454343765057274 0 47.454343765057274 64.309101004037075 0 0 0 0 1.3562115965693238 2.9611489669441653 0 2.9611489669441653 20.928185451979516 0 0 0 0 -2.9051345049635824 3.0051153949083869 0 3.0051153949083869 3.6192133566270854 0 0 0 0 7.4194874877919119 -3.228748364475905 0 -3.228748364475905 51.65514353405888 0 0 0 0 0.077832166449914697 -1.1583168161977397 0 -1.1583168161977397 5.673748107746448 0 0 0 0 -13.170928910199336 55.528769958007615 0 55.528769958007615 73.732950948178768 0 0 0 0 1.7784608070231025 1.0096674968200574 0 1.0096674968200574 15.963797651249678 0 0 0 0 -3.9157884759858232 8.2992243516435451 0 8.2992243516435451 17.446427982863781 0 0 0 0 -8.6950536204283821 -9.0397663063849905 0 -9.0397663063849905 43.625954420189373 0 0 0 0 12.900054678802462 8.0043755861188401 0 8.0043755861188401 49.358931255126663 0 0 0 0 12.10386810662704 33.803986109247944 0 33.803986109247944 57.786943741637515 0 0 0 0 -22.550714963013888 -0.52319161978084594 0 -0.52319161978084594 54.549765387680964 0 0 0 0 -17.595934511638006 -19.290609757677885 0 -19.290609757677885 39.518569396081148 0 0 0 0 -1.2586226740913173 -12.683437409105451 0 -12.683437409105451 22.291367291462279 0 0 0 0 1.7496885171556187 -18.186506560004091 0 -18.186506560004091 63.348309109554975 0 0 0 0 3.5414664112923036 -13.451435506683822 0 -13.451435506683822 10.399223910118977 0 0 0 0 -1.0133440125130164 -4.5338021945644869 0 -4.5338021945644869 59.984654267242149 0 0 0 0 -4.5756190786206048 -7.0437188284086005 0 -7.0437188284086005 62.406243293487933 0 0 0 0 -6.8893968140523736 11.818345335575998 0 11.818345335575998 15.461844103553403 0 0 0 0 6.935422776607659 -1.9867714296583472 0 -1.9867714296583472 59.448036935536948 0 0 0 0 6.6359147259156543 -21.161737493332112 0 -21.161737493332112 77.441744550982548 0 0 0 0 7.8571342960011634 -19.682516042122188 0 -19.682516042122188 67.493074673126102 0 0 0 0 -1.0176661051501128 -19.052829718106295 0 -19.052829718106295 71.768655309540918 0 0 0 0 -0.13407502730638043 -15.31846231203599 0 -15.31846231203599 72.167856915613811 0 0 0 0 -7.502368540264289 9.810928099780412 0 9.810928099780412 20.475838067226263 0 0 0 0 -3.8072260451808688 -8.7559154153786949 0 -8.7559154153786949 69.755642170382998 0 0 0 0 -3.6745450628809522 -9.3328503966004064 0 -9.3328503966004064 67.707129621689091 0 0 0 0 8.1797419081462976 -7.5472734703216702 0 -7.5472734703216702 48.864034448255552 0 0 0 0 -9.961729270376054 -8.8093984901352087 0 -8.8093984901352087 83.129431800589373 0 0 0 0 -4.4843336852136417 -3.8922003637126181 0 -3.8922003637126181 85.003894195280736 0 0 0 0 -8.7194670429078087 -19.161780714406632 0 -19.161780714406632 72.560731080004189 0 0 0 0 -9.4584184197125296 -18.415701146406718 0 -18.415701146406718 94.230290018895175 0 0 0 0 3.2866188454172516 -30.185889082895301 0 -30.185889082895301 69.508865635085385 0 0 0 0 -2.1599731475439512 -18.58819221478916 0 -18.58819221478916 68.082501025652164 0 0 0 0 22.531100687955586 -52.513350958906813 0 -52.513350958906813 106.12343530386715 0 0 0 0 -9.9487613541664359 -6.3554303794589941 0 -6.3554303794589941 146.59641411254415 0 0 0 0 37.248596895199171 27.773040198873787 0 27.773040198873787 75.217713021549571 0 0 0 0 -0.1001634064640895 -11.644256446230159 0 -11.644256446230159 4.7503804528972182 0 0 0 0 10.879423718007274 6.8713807516396628 0 6.8713807516396628 62.329092622967437 0 0 0 0 -3.789963252781698 -4.8873089634871008 0 -4.8873089634871008 32.937139072238367 0 0 0 0 4.4039946970527808 -12.307062406014666 0 -12.307062406014666 49.326319067346049 0 0 0 0 2.0828382753543906 -17.189399625848978 0 -17.189399625848978 18.597914045918728 0 0 0 0 -2.6330386200097564 -14.054550875312998 0 -14.054550875312998 24.251996102015255 0 0 0 0 2.1621993448155763 -3.8622826242171868 0 -3.8622826242171868 60.835973597873817 0 0 0 0 -2.9296345609263881 -6.3128688270880957 0 -6.3128688270880957 60.755885682558301 0 0 0 0 -2.7122160964613613 -9.750603203116043 0 -9.750603203116043 56.43131417845143 0 0 0 0 -1.8911258234729758 -8.3449146536931949 0 -8.3449146536931949 59.646531021615374 0 0 0 0 -3.4576547021457777 -1.7162274620939399 0 -1.7162274620939399 37.840683742440788 0 0 0 0 0.26887790628091413 4.1231942441184515 0 4.1231942441184515 27.861459781387438 0 0 0 0 -2.9927410029345536 -14.775844681990037 0 -14.775844681990037 23.629500065016671 0 0 0 0 4.7473354095791365 -2.203537070468883 0 -2.203537070468883 49.170839454542147 0 0 0 0 0.73245130823829641 2.9369669493462425 0 2.9369669493462425 50.254057089492562 0 0 0 0 -1.353744170968163 -5.1169959264618541 0 -5.1169959264618541 19.820614586768436 0 0 0 0 2.7009013438860245 -2.8129213401894191 0 -2.8129213401894191 39.745137089767496 0 0 0 0 4.0776448448322071 -0.76760924993322988 0 -0.76760924993322988 45.290771020947432 0 0 0 0 4.8849496099608132 -4.2724608771750354 0 -4.2724608771750354 44.790411644702544 0 0 0 0 7.7459425904930868 -18.093160083386465 0 -18.093160083386465 58.760393227086752 0 0 0 0 5.2273286337293055 -0.24758203745574292 0 -0.24758203745574292 51.403001716563978 0 0 0 0 2.9405149414399148 4.7650974322023103 0 4.7650974322023103 48.072809304365364 0 0 0 0 0.76018512244756575 -9.0132512995160852 0 -9.0132512995160852 27.528790354715298 0 0 0 0 2.845720083444121 -2.1860786883116816 0 -2.1860786883116816 57.843636530789809 0 0 0 0 -3.3109339858324982 2.3810252770942668 0 2.3810252770942668 31.604643840689363 0 0 0 0 -3.480164430834503 0.61349900530880674 0 0.61349900530880674 42.208822349287857 0 0 0 0 -376.83699876130777 -368.2620497711705 0 -368.2620497711705 98.830974022660939 0 0 0 0 -1.4186498489522847 11.43944372883211 0 11.43944372883211 29.472001944851669 0 0 0 0 -8.5882419847162055 0.96307727208477445 0 0.96307727208477445 39.505954603719147 0 0 0 0 714.13647761899983 441.71962258742133 0 441.71962258742133 69.645872078685898 0 0 0 0 1193.8702504225676 -202.68657872940821 0 -202.68657872940821 15.121435022057995 0 0 0 0 -0.099553277991595079 -0.1052811460933194 0 -0.1052811460933194 0.4519858843884208 0 0 0 0 -283.91607313720738 -259.28792522809817 0 -259.28792522809817 65.356389599686281 0 0 0 0 -5.1953973765555475 221.67065067816293 0 221.67065067816293 334.15235699353434 0 0 0 0 505.44842882999637 566.58539385467884 0 566.58539385467884 654.99548328646051 0 0 0 0 -221.35234923664029 43.920971863655723 0 43.920971863655723 422.60630829617003 0 0 0 0 -78.416667256831261 21.398803233700164 0 21.398803233700164 242.87408825845341 0 0 0 0 -257.03724207555206 127.97895797454294 0 127.97895797454294 405.51714520355745 0 0 0 0 -1.3780044243507064 -10.583567600404422 0 -10.583567600404422 4.2056255458592204 0 0 0 0 3.0297729315518707 -3.9307595504988946 0 -3.9307595504988946 2.7285282607776367 0 0 0 0 2.5374785445204746 -6.8279785652125753 0 -6.8279785652125753 -3.9902412872125268 0 0 0 0 123.26468952800781 -38.033256636579608 0 -38.033256636579608 -12.386098052797024 0 0 0 0 91.34446177023392 112.55160020639414 0 112.55160020639414 211.8210963090678 0 0 0 0 -2.4410075441309611 3.3164336463830821 0 3.3164336463830821 12.829777356595763 0 0 0 0 90.729741201140655 -151.05462436043172 0 -151.05462436043172 -80.344438282925694 0 0 0 0 -36.84545833429911 42.203709802382946 0 42.203709802382946 122.05663008164265 0 0 0 0 -4.478651041966847 -8.7220756011623486 0 -8.7220756011623486 61.316400639983328 0 0 0 0 -6.112052400138964 -8.3269629721544334 0 -8.3269629721544334 59.648846879651273 0 0 0 0 -1.1868905572720343 -19.07266629345159 0 -19.07266629345159 33.107531168615665 0 0 0 0 44.850776277827663 -54.397173011293489 0 -54.397173011293489 57.179016521458834 0 0 0 0 8.2326606179258874 -53.775392366605047 0 -53.775392366605047 82.92951619203086 0 0 0 0 0.87754657512715539 -17.61984710976467 0 -17.61984710976467 23.896766067539939 0 0 0 0 -2.6601464990897057 -13.679021608313633 0 -13.679021608313633 47.856294426645036 0 0 0 0 1.1035938258996794 -7.7101582011946448 0 -7.7101582011946448 47.411055339602171 0 0 0 0 4.1658870375644632 -34.825725175649893 0 -34.825725175649893 31.666004703769119 0 0 0 0 40.704804243536273 -9.5128002681085491 0 -9.5128002681085491 41.607134904275881 0 0 0 0 -4.4015605381608012 7.2720616927488138 0 7.2720616927488138 42.699174010460581 0 0 0 0 -18.1857760120065 22.383962792206148 0 22.383962792206148 84.787579639953037 0 0 0 0 -7.554388046461554 -1.5735673231065448 0 -1.5735673231065448 37.269515934109222 0 0 0 0 -20.891304870008128 -11.875495813910675 0 -11.875495813910675 33.25134528928902 0 0 0 0 -5.6543920945825423 7.5472671056001204 0 7.5472671056001204 38.010879734984798 0 0 0 0 -5.8554324562155671 -11.944782468253834 0 -11.944782468253834 58.443282811465906 0 0 0 0 -4.24162759824031 -7.8512127117751618 0 -7.8512127117751618 32.539329396525218 0 0 0 0 3.9290619919138408 7.450116342981346 0 7.450116342981346 37.491355971345911 0 0 0 0 -4.0719141389004108 -12.818184065843525 0 -12.818184065843525 4.9577711696620099 0 0 0 0 -3.8943535972241339 -10.655715305084314 0 -10.655715305084314 25.618281879216596 0 0 0 0 -0.75848831674102257 -11.313168620414217 0 -11.313168620414217 44.575322124233935 0 0 0 0 -4.2664350238146671 -15.582371175624601 0 -15.582371175624601 31.668174058542832 0 0 0 0 -3.2540152701870984 -14.935225500336053 0 -14.935225500336053 24.55581948616323 0 0 0 0 0.61156489558061367 -9.096304690992838 0 -9.096304690992838 4.9970979168674603 0 0 0 0 -1.6902763140760046 -8.8165259448565969 0 -8.8165259448565969 3.8839461908859505 0 0 0 0 2.030090626047278 -2.7351365147312308 0 -2.7351365147312308 4.7671456082583852 0 0 0 0 -1.0312569048417979 -8.9554159077432516 0 -8.9554159077432516 17.691156268378379 0 0 0 0 -13.412077262878256 -13.370158331523271 0 -13.370158331523271 1.5709298064411996 0 0 0 0 2.7687647597267642 -37.180064402265998 0 -37.180064402265998 22.985049532104313 0 0 0 0 -2.7984839586611656 -24.989202656417547 0 -24.989202656417547 60.173553033946519 0 0 0 0 15.830829516606713 -4.372938201688612 0 -4.372938201688612 3.8952264539475436 0 0 0 0 -0.057235403010129193 -0.044620291052417826 0 -0.044620291052417826 4.0025261328343582 0 0 0 0 -4.3801291074057644 -4.0132338289804466 0 -4.0132338289804466 75.810215215271455 0 0 0 0 19.723716022654571 -23.994140043934749 0 -23.994140043934749 56.038503408944962 0 0 0 0 -1.2330747684106105 -4.4304197442270592 0 -4.4304197442270592 19.03380089232401 0 0 0 0 4.5139337812604481 3.5974000216301647 0 3.5974000216301647 41.996290552029677 0 0 0 0 8.3125570149660462 -7.2384982920957555 0 -7.2384982920957555 39.833015000222076 0 0 0 0 5.5564752356754639 1.9319914893148962 0 1.9319914893148962 31.196278212235484 0 0 0 0 3.7896563107246948 -36.626473522961533 0 -36.626473522961533 15.614911080599995 0 0 0 0 -1.4011269687371763 -7.1478191873743953 0 -7.1478191873743953 18.71801148988736 0 0 0 0 -10.182842423303555 -5.8494519846826734 0 -5.8494519846826734 29.485696154015386 0 0 0 0 -14.940183754273903 9.0266504620049091 0 9.0266504620049091 30.798835599500308 0 0 0 0 -15.022115909861611 29.647250941820175 0 29.647250941820175 48.766435171270132 0 0 0 0 -29.676062861089804 49.112759652690329 0 49.112759652690329 182.94619241790497 0 0 0 0 -10.226246926432395 -19.765778588694957 0 -19.765778588694957 103.23225740629641 0 0 0 0 55.054185668126138 59.392643479990511 0 59.392643479990511 21.069724073489851 0 0 0 0 -1.4080553644454987 -3.0285235355675511 0 -3.0285235355675511 6.1332588602198399 0 0 0 0 78.340352373431415 -1.823562105637393 0 -1.823562105637393 551.18243807842373 0 0 0 0 -1.9449431989270076 2.7827714718469778 0 2.7827714718469778 21.559643669385743 0 0 0 0 101.13571638719441 142.87530484081799 0 142.87530484081799 -62.746142272197176 0 0 0 0 -153.26735863226622 -3.8115271044807741 0 -3.8115271044807741 32.534961339719302 0 0 0 0 -0.94869369531687653 278.09569199694715 0 278.09569199694715 159.37674837009399 0 0 0 0 -9.5006461437374661 -9.7020208945198156 0 -9.7020208945198156 11.109603638021525 0 0 0 0 -17.097178881796726 -24.146141891888945 0 -24.146141891888945 37.694398949572147 0 0 0 0 7.8301505576973796 23.474658295900895 0 23.474658295900895 87.96690278125925 0 0 0 0 -74.007085411311209 -136.59793414867897 0 -136.59793414867897 229.64651499005049 0 0 0 0 -3.0329228875409626 0.24315719699143301 0 0.24315719699143301 103.1440199283752 0 0 0 0 -1.9907643237447701 1.8892938415076515 0 1.8892938415076515 69.96605567500319 0 0 0 0 -1.1844663971110094 30.843353256839464 0 30.843353256839464 58.311798599686426 0 0 0 0 -10.80462943342809 21.300924009932714 0 21.300924009932714 29.21360117576387 0 0 0 0 5.7930494288138412 18.27456544221419 0 18.27456544221419 30.809294225563697 0 0 0 0 -6.7810321198311385 16.269715903535143 0 16.269715903535143 48.11107311107844 0 0 0 0 -9.2664585005450135 23.182032191398321 0 23.182032191398321 40.881015983672114 0 0 0 0 -1.8391947034261822 13.405662337240138 0 13.405662337240138 51.857311061937452 0 0 0 0 -0.32952693991780535 7.8783372961751184 0 7.8783372961751184 47.74347759027296 0 0 0 0 -0.10692664162583299 17.940034587610327 0 17.940034587610327 24.764559274201577 0 0 0 0 22.038558484277317 5.2330584559094859 0 5.2330584559094859 38.926342490700335 0 0 0 0 0.2870204195187398 16.02983013114499 0 16.02983013114499 31.633084197448625 0 0 0 0 -1.8174999476864357 15.538459161773456 0 15.538459161773456 31.282910079950867 0 0 0 0 -3.7955192180693302 12.144357020810276 0 12.144357020810276 63.364107399396744 0 0 0 0 122.91015391971035 186.06040063445562 0 186.06040063445562 -183.51353901470429 0 0 0 0 7.7994214776891981 18.207363696585233 0 18.207363696585233 21.31696404978144 0 0 0 0 -39.29399665739632 -128.28993142735453 0 -128.28993142735453 122.87871458542213 0 0 0 0 13.701706507507879 20.697166212027469 0 20.697166212027469 46.175064580767867 0 0 0 0 12.392065504289349 5.0130992780686938 0 5.0130992780686938 60.717513386296559 0 0 0 0 5.4629372131494165 16.934849273972759 0 16.934849273972759 11.583675874589971 0 0 0 0 12.222352783176017 23.968701714200311 0 23.968701714200311 -1.0774234263139775 0 0 0 0 0.29794047115842304 10.043512218126638 0 10.043512218126638 39.540754933540271 0 0 0 0 -264.04957490392553 211.24812555822791 0 211.24812555822791 -18.404651495911821 0 0 0 0 469.50085604684489 112.60816219599246 0 112.60816219599246 -75.888047007094428 0 0 0 0 655.15201344732293 -530.56172881609427 0 -530.56172881609427 329.03625697482494 0 0 0 0 12.028447230738529 -4.4124865376697926 0 -4.4124865376697926 3485.4818470178943 0 0 0 0 6.6437873911572805 -4.7095844237943183 0 -4.7095844237943183 13.021219487187878 0 0 0 0 769.17589956835366 -1348.421231639792 0 -1348.421231639792 1393.9188406287431 0 0 0 0 -68.186183234930013 44.643077159367749 0 44.643077159367749 384.34553703679194 0 0 0 0 32.767700370715488 -197.26417894192855 0 -197.26417894192855 139.73410900607996 0 0 0 0 479.33370317665367 43.750801784717623 0 43.750801784717623 -163.0234502466601 0 0 0 0 110.94085591330877 -511.75721833201987 0 -511.75721833201987 1224.5577399456306 0 0 0 0 -47.079813816156957 -19.234252222173382 0 -19.234252222173382 206.54278157962108 0 0 0 0 -94.496148490496466 -58.278717788856738 0 -58.278717788856738 178.04652346052899 0 0 0 0 -438.19331879429865 -717.48844550544891 0 -717.48844550544891 3493.9834249347541 0 0 0 0 -206.28607435394875 -794.65192865371682 0 -794.65192865371682 3302.2728260951553 0 0 0 0 -3.1304175425138845 2.9518509783818345 0 2.9518509783818345 4.3869892090137554 0 0 0 0 -31.666704616141967 -587.70025852624804 0 -587.70025852624804 3501.0009918776705 0 0 0 0 3.0475177464890066 -63.156036740080708 0 -63.156036740080708 195.49999075752203 0 0 0 0 12.941754579301687 -31.501236033931491 0 -31.501236033931491 128.95807868853808 0 0 0 0 30.069839115866671 -24.097286067644745 0 -24.097286067644745 131.23715656472632 0 0 0 0 14.808213884209749 -54.942449099529313 0 -54.942449099529313 99.468016587255988 0 0 0 0 -8.9949971694411488 -29.071403762665796 0 -29.071403762665796 84.054620792201604 0 0 0 0 13.432101821746528 -13.323896153673559 0 -13.323896153673559 25.382923379875137 0 0 0 0 -0.2936831685442689 -11.894030711408689 0 -11.894030711408689 15.272033729161294 0 0 0 0 -4.152330033334465 0.78369731596467318 0 0.78369731596467318 33.836544104138738 0 0 0 0 -1.3203728821592966 -3.3254706549396857 0 -3.3254706549396857 18.626709052572068 0 0 0 0 16.580136150611722 -20.360598163323402 0 -20.360598163323402 100.39485331828473 0 0 0 0 0.59343674220427611 -3.7126702816992232 0 -3.7126702816992232 1.3660459010038721 0 0 0 0 6.6935881235031047 -64.285121004701068 0 -64.285121004701068 88.644864038898959 0 0 0 0 16.839532270982318 -44.133739727311877 0 -44.133739727311877 125.86546642654139 0 0 0 0 -0.12035767597306934 -1.6392018745089629 0 -1.6392018745089629 4.0121514912722276 0 0 0 0 9.5077735018753629 0.12608309007555363 0 0.12608309007555363 -27.254035938301968 0 0 0 0 -55.807628530920283 -71.099801207376004 0 -71.099801207376004 -7.7296893170887415 0 0 0 0 1.1737753131496333 -44.448543349439205 0 -44.448543349439205 126.97676134857466 0 0 0 0 1.7613805851590314 -0.39066955843372853 0 -0.39066955843372853 67.513740181151661 0 0 0 0 1.8042543361664454 16.106816649707298 0 16.106816649707298 17.832122780011964 0 0 0 0 2.513974837265927 3.116767054307644 0 3.116767054307644 29.909648404952314 0 0 0 0 -0.58923156492971884 9.869072688936285 0 9.869072688936285 38.596788235594431 0 0 0 0 8.7217199538040404 -5.1703248785306641 0 -5.1703248785306641 72.072971519010025 0 0 0 0 2.2319789717874698 3.7904767594473014 0 3.7904767594473014 50.055104915503762 0 0 0 0 -0.29492531412788975 7.1377925202129102 0 7.1377925202129102 31.29147004496761 0 0 0 0 1.5986402163512134 9.6213340187478877 0 9.6213340187478877 19.589848511862868 0 0 0 0 4.9681895074848361 1.7470961902758404 0 1.7470961902758404 33.417394218045487 0 0 0 0 11.60681426848771 2.0155608800996561 0 2.0155608800996561 57.550633244100027 0 0 0 0 9.6602866922353314 -5.8555305996742391 0 -5.8555305996742391 17.542167586798314 0 0 0 0 3.4611278440706883 15.682058856793446 0 15.682058856793446 33.194324603653513 0 0 0 0 -6.4989623598048638 1.1704854018462356 0 1.1704854018462356 18.665783899778035 0 0 0 0 0.74628674774868697 1.0056094904510644 0 1.0056094904510644 39.852678972152923 0 0 0 0 0.65248703900345673 8.3151440140609267 0 8.3151440140609267 41.532754621493595 0 0 0 0 -4.6503523317424591 6.4876475925859634 0 6.4876475925859634 33.852485599936429 0 0 0 0 4.3438824699020362 10.627491960202704 0 10.627491960202704 18.043816197402606 0 0 0 0 21.90576072309932 -13.662191256662481 0 -13.662191256662481 70.971034798945766 0 0 0 0 6.2564468814252905 -7.2619231584758381 0 -7.2619231584758381 71.198921938048443 0 0 0 0 5.7685930206645057 18.728376361375851 0 18.728376361375851 33.571792916670844 0 0 0 0 11.423426638094952 -17.65698709544813 0 -17.65698709544813 73.128448454106547 0 0 0 0 10.020703618954485 22.499222062415356 0 22.499222062415356 58.442785120074404 0 0 0 0 2.0784351210181242 11.408287835883598 0 11.408287835883598 22.169765790258481 0 0 0 0 15.182990923301531 -3.795667803780816 0 -3.795667803780816 61.464694618549402 0 0 0 0 20.06729073097631 32.437167884549126 0 32.437167884549126 57.034313633965212 0 0 0 0 7.5568774251391915 -0.70127405022867606 0 -0.70127405022867606 117.9581205666982 0 0 0 0 -0.46464255560656298 -39.205187501132464 0 -39.205187501132464 47.004923773274712 0 0 0 0 3.4779293448120825 -5.060582064303162 0 -5.060582064303162 113.85622061788308 0 0 0 0 12.322452796306607 -56.070104907485074 0 -56.070104907485074 60.878043722077564 0 0 0 0 8.3860253722186826 16.474028406679281 0 16.474028406679281 105.52195106332147 0 0 0 0 -3.9957638835801053 -32.81492300120015 0 -32.81492300120015 42.316629580733888 0 0 0 0 -8.8728012165252039 -14.26308371675259 0 -14.26308371675259 162.70308929693056 0 0 0 0 -7.4106972656556716 7.9370160929948952 0 7.9370160929948952 6.2716672241725782 0 0 0 0 19.845238907731527 -1.6584773967151705 0 -1.6584773967151705 84.806701161409364 0 0 0 0 -172.53116880459652 -291.9255149511846 0 -291.9255149511846 2976.7176860812278 0 0 0 0 -164.32581323212821 -320.67036122495665 0 -320.67036122495665 2673.3031657294778 0 0 0 0 -441.48492698909229 130.55461760724211 0 130.55461760724211 3498.9716906559506 0 0 0 0 -400.82014440623493 237.61782507949829 0 237.61782507949829 2621.8522989993289 0 0 0 0 93.219457055281509 299.12141703027009 0 299.12141703027009 1753.5771071973613 0 0 0 0 -4.5477374860041664 -41.806299343555111 0 -41.806299343555111 157.2495723709726 0 0 0 0 -10.704729842586923 9.2757963139878825 0 9.2757963139878825 26.685741823485991 0 0 0 0 -4.5542350718533076 -23.342435220844749 0 -23.342435220844749 33.575519963401746 0 0 0 0 -38.164370753450527 414.16286390697496 0 414.16286390697496 2531.2198333170018 0 0 0 0 122.21636136921273 322.16611198958162 0 322.16611198958162 2117.0648367035465 0 0 0 0 -0.42701440870200535 -2.6925708391618883 0 -2.6925708391618883 18.716743780040375 0 0 0 0 -307.79371978844756 667.44159636787481 0 667.44159636787481 3499.453273527517 0 0 0 0 370.46242431831035 1148.9998126316459 0 1148.9998126316459 2399.6199149472304 0 0 0 0 432.32580981185163 1478.787077847941 0 1478.787077847941 3580.3742338385136 0 0 0 0 -3.4180619525630256 142.37403065241233 0 142.37403065241233 260.38011258367624 0 0 0 0 -93.799850352938506 46.431906437283033 0 46.431906437283033 300.65468440570112 0 0 0 0 -87.49988599534754 -17.14129992913513 0 -17.14129992913513 95.705741401769046 0 0 0 0 95.336891740467763 -28.525123171573796 0 -28.525123171573796 193.21743071118544 0 0 0 0 3.5884541713204685 -5.677968431192113 0 -5.677968431192113 5.9696641889090785 0 0 0 0 -50.604158299354367 116.09181147943309 0 116.09181147943309 249.8612659883438 0 0 0 0 -54.366277906208268 -151.53464954215815 0 -151.53464954215815 -18.681279920012457 0 0 0 0 4.5713877916907109 -12.070262691757307 0 -12.070262691757307 158.60251152720593 0 0 0 0 3.0222675527443243 9.9901270170230418 0 9.9901270170230418 222.72785315549118 0 0 0 0 44.332508481756349 28.762411336654623 0 28.762411336654623 86.542117459728615 0 0 0 0 47.38920678436557 55.22031848844199 0 55.22031848844199 177.49816695971822 0 0 0 0 -39.776076711592623 -27.930122349542216 0 -27.930122349542216 41.186771007298375 0 0 0 0 5.8946383337133632 -6.2606170271524348 0 -6.2606170271524348 15.869959185250579 0 0 0 0 14.44734285181903 2.70460369858165 0 2.70460369858165 79.97405997007445 0 0 0 0 -73.532934564573452 0.1050020248585497 0 0.1050020248585497 63.112316911603557 0 0 0 0 -21.326153534876539 -3.764573697000742 0 -3.764573697000742 51.269872107390256 0 0 0 0 -47.823403733091482 27.00247881814721 0 27.00247881814721 76.3579505761154 0 0 0 0 -40.260697989946038 24.7674595873832 0 24.7674595873832 93.465482754276309 0 0 0 0 -34.011327330038284 29.183829401350522 0 29.183829401350522 54.011284394262475 0 0 0 0 -22.701485430400226 62.223393101448892 0 62.223393101448892 157.47641600779025 0 0 0 0 117.10178449006889 90.174038352561183 0 90.174038352561183 59.389929150138414 0 0 0 0 16.673556762662315 -94.619967712820653 0 -94.619967712820653 103.81001923671283 0 0 0 0 18.616238414980671 -15.017512082180474 0 -15.017512082180474 -49.380821287206345 0 0 0 0 -65.718929191381903 39.290743441450104 0 39.290743441450104 52.582912082551047 0 0 0 0 -2.2803303033890643 -10.303600038931222 0 -10.303600038931222 10.832204111434438 0 0 0 0 3.6385836864119199 20.620230750980795 0 20.620230750980795 10.214707859989595 0 0 0 0 106.78587122576471 -98.520716934726465 0 -98.520716934726465 112.73452321274522 0 0 0 0 1.6111277481335911 1.4960898260445687 0 1.4960898260445687 -2.3049472181618946 0 0 0 0 -3.4133986286784506 25.787482632913679 0 25.787482632913679 52.271992650297193 0 0 0 0 -13.323326839328061 9.1963289981458107 0 9.1963289981458107 41.015496022081869 0 0 0 0 -13.436309149999872 10.633004633456396 0 10.633004633456396 32.539656181807857 0 0 0 0 -9.2069131120978227 4.4180653325335015 0 4.4180653325335015 34.172401646855008 0 0 0 0 -12.451249428042502 3.2221468686357753 0 3.2221468686357753 38.616438110150057 0 0 0 0 -26.038504218527123 2.3399525796904186 0 2.3399525796904186 38.636151323370996 0 0 0 0 -11.961255651631518 -1.9298649230260025 0 -1.9298649230260025 34.375115978861004 0 0 0 0 -8.2599854427004402 -5.6900713874531448 0 -5.6900713874531448 34.156952169560327 0 0 0 0 -11.879685502914615 -0.28848955187204339 0 -0.28848955187204339 42.324217134406354 0 0 0 0 -4.5052100708034288 -3.2808733705849136 0 -3.2808733705849136 32.605669667130087 0 0 0 0 0.23163547413442931 -4.802821760927352 0 -4.802821760927352 6.4766191083060143 0 0 0 0 -10.646520897421624 -11.393217645633115 0 -11.393217645633115 41.173638388132986 0 0 0 0 -5.4645295935852687 4.6159014920245482 0 4.6159014920245482 49.810737403555777 0 0 0 0 -10.458468186806783 -10.362922892542942 0 -10.362922892542942 21.705985038812042 0 0 0 0 16.158428281808767 -31.262706881613894 0 -31.262706881613894 28.122442640728877 0 0 0 0 -6.0123330545013971 7.6809526993390591 0 7.6809526993390591 56.545288561444124 0 0 0 0 118.30130623933792 -35.355519561015171 0 -35.355519561015171 78.492022828904737 0 0 0 0 -6.2596145626534963 -45.586071160589427 0 -45.586071160589427 66.247241107491504 0 0 0 0 75.757233275518502 73.597735107490735 0 73.597735107490735 131.6406381524248 0 0 0 0 -2.2575174639055007 -33.709762810731505 0 -33.709762810731505 43.513083763441365 0 0 0 0 2.5966020223006581 -5.8495776839790778 0 -5.8495776839790778 -12.052719718816661 0 0 0 0 -1.9491756561324634 -2.3804737498987265 0 -2.3804737498987265 3.926372507729603 0 0 0 0 -115.1024945087629 54.084946583026976 0 54.084946583026976 2.2406372415935039 0 0 0 0 -55.169408461455077 -80.523667475237744 0 -80.523667475237744 33.811330256608926 0 0 0 0 -146.94304191960464 1.5590321675554151 0 1.5590321675554151 80.513652407580139 0 0 0 0 96.378693304914577 47.090825703846349 0 47.090825703846349 -31.426503178885469 0 0 0 0 -131.45480207298874 -51.644534469865903 0 -51.644534469865903 139.12797778411914 0 0 0 0 -23.648172405074547 76.062702324948987 0 76.062702324948987 194.06360290599241 0 0 0 0 -37.96384506252798 7.6109030010034076 0 7.6109030010034076 113.6956330918963 0 0 0 0 -10.840704964911218 -29.999918909982934 0 -29.999918909982934 36.253949528620382 0 0 0 0 11.228570822860092 8.5669732640189977 0 8.5669732640189977 90.999446288267109 0 0 0 0 14.435505530181672 -82.090429360392164 0 -82.090429360392164 61.310675873629123 0 0 0 0 -17.849450524104668 -25.60797787095953 0 -25.60797787095953 112.9730323632441 0 0 0 0 -185.02227416416008 -4.4800380103420139 0 -4.4800380103420139 125.63633918227413 0 0 0 0 -43.662855238706584 -162.53568083261854 0 -162.53568083261854 83.78284237398384 0 0 0 0 103.5134973749573 -84.490391085623969 0 -84.490391085623969 57.637748481285939 0 0 0 0 45.50878877269065 -56.187865570389931 0 -56.187865570389931 61.607215301016367 0 0 0 0 -325.37369915662975 -44.454684627345273 0 -44.454684627345273 283.07464446643917 0 0 0 0 -351.81479956058297 -107.01899821458073 0 -107.01899821458073 189.13663030199314 0 0 0 0 -293.03515036690533 65.65049221885738 0 65.65049221885738 61.331698952411898 0 0 0 0 -404.08544655073092 23.237749558889846 0 23.237749558889846 205.04179942800238 0 0 0 0 99.612606362675251 -59.402493637859152 0 -59.402493637859152 124.08498059793601 0 0 0 0 11.327857686967491 23.469761512512832 0 23.469761512512832 72.372216032714277 0 0 0 0 14.773817359384338 26.428207400944757 0 26.428207400944757 74.648958665186456 0 0 0 0 -320.64246731447611 -148.23826891389967 0 -148.23826891389967 43.673525719950703 0 0 0 0 19.173932095833152 80.99422174814481 0 80.99422174814481 147.43719115259978 0 0 0 0 -2.4593821815626011 0.44003712142417228 0 0.44003712142417228 -0.28932092432511869 0 0 0 0 -55.048244518870888 141.63892040633527 0 141.63892040633527 -37.634233003820555 0 0 0 0 -176.824200072655 -42.415068271767268 0 -42.415068271767268 120.86977753857263 0 0 0 0 -0.18778846116326697 9.9879893552884944 0 9.9879893552884944 10.860700712087596 0 0 0 0 24.182697841728441 53.386708530651049 0 53.386708530651049 68.348318895282887 0 0 0 0 12.143062481752155 18.640434596297418 0 18.640434596297418 23.862797463778449 0 0 0 0 22.769964783982687 46.414179010794669 0 46.414179010794669 38.350331856088474 0 0 0 0 2.3782206743238881 4.187662308326388 0 4.187662308326388 27.876388024371167 0 0 0 0 -2.0860715799863101 8.8323976045758172 0 8.8323976045758172 39.796180119588826 0 0 0 0 5.3629005790878503 10.313826646763003 0 10.313826646763003 28.548514693085338 0 0 0 0 -107.2551167587485 -287.08562323010847 0 -287.08562323010847 -137.32934829608712 0 0 0 0 -107.25511675874804 -287.08562323010119 0 -287.08562323010119 -137.32934829608348 0 0 0 0 -107.25511675874756 -287.08562323010324 0 -287.08562323010324 -137.32934829607257 0 0 0 0 22.302055065441916 20.534667619334098 0 20.534667619334098 15.446861366236913 0 0 0 0 1.7193066164716106 2.2628742913290232 0 2.2628742913290232 -1.8446030701004759 0 0 0 0 342.56652272104725 502.30704720660469 0 502.30704720660469 816.85606524738614 0 0 0 0 -247.44648192674504 179.58761589868664 0 179.58761589868664 -41.82716274361087 0 0 0 0 132.95310322478173 105.5121534497739 0 105.5121534497739 43.283507364576508 0 0 0 0 -556.33922803017651 -54.633321169651936 0 -54.633321169651936 3493.9119317503391 0 0 0 0 598.74974918330565 880.50440742232968 0 880.50440742232968 664.17759975136141 0 0 0 0 782.56175632825466 526.52608412186964 0 526.52608412186964 429.6671888539131 0 0 0 0 4.7434301893723436 1.0471686267463003 0 1.0471686267463003 9.9482412955917852 0 0 0 0 246.07982816135541 261.25881068886656 0 261.25881068886656 101.11759951030945 0 0 0 0 209.58187096506981 326.06412070337751 0 326.06412070337751 -9.1373100892415096 0 0 0 0 -276.04388142527114 -80.114001074515727 0 -80.114001074515727 204.12637576015459 0 0 0 0 -133.53466532372113 -129.31757082677814 0 -129.31757082677814 -499.17434841844715 0 0 0 0 -537.01542025607978 -138.64541985185588 0 -138.64541985185588 -5.9107356066551802 0 0 0 0 -241.28191871304398 -0.11670139896114051 0 -0.11670139896114051 57.772109269128123 0 0 0 0 -485.53391941092468 92.900967284645958 0 92.900967284645958 69.413359900547221 0 0 0 0 -1.0000273097119332 2.4110934797581223 0 2.4110934797581223 6.5416179261844078 0 0 0 0 247.16235081833167 -591.87182971424591 0 -591.87182971424591 163.8822000204691 0 0 0 0 -288.72256302103676 343.57716028408595 0 343.57716028408595 4025.6053401085883 0 0 0 0 9.3780325213151983 8.2667864814499161 0 8.2667864814499161 6.0077327469136428 0 0 0 0 622.14174552394559 539.17358894983226 0 539.17358894983226 3502.6452322309078 0 0 0 0 1044.099543617876 1377.1240696327022 0 1377.1240696327022 4022.1357883938781 0 0 0 0 577.95357279151813 874.76874283924099 0 874.76874283924099 -694.35789154230724 0 0 0 0 39.150765454498639 767.31387235602369 0 767.31387235602369 4135.969243352587 0 0 0 0 874.09168682608788 1514.8286377044287 0 1514.8286377044287 278.74584844214587 0 0 0 0 1339.5066737643431 910.06345686385566 0 910.06345686385566 3531.2339496836375 0 0 0 0 369.59690207465098 2136.3861921732846 0 2136.3861921732846 3001.7621852404664 0 0 0 0 1040.9789123172079 2004.9419376053384 0 2004.9419376053384 1565.2441412757307 0 0 0 0 44.008728453743451 1393.1748919352412 0 1393.1748919352412 3499.7821590393232 0 0 0 0 -305.52570904269083 831.2041033053074 0 831.2041033053074 2802.5792201162717 0 0 0 0 228.1318002644802 575.70701844326004 0 575.70701844326004 1851.8853578081171 0 0 0 0 359.16032673901219 1280.8302483243256 0 1280.8302483243256 1928.549476428766 0 0 0 0 594.00343313443273 308.81642460948228 0 308.81642460948228 451.72773130738869 0 0 0 0 621.73470660184239 822.26153685440704 0 822.26153685440704 841.56089745482313 0 0 0 0 944.2090305603449 1105.0096664542634 0 1105.0096664542634 611.29677106396957 0 0 0 0 372.68369649327929 1330.7401444330908 0 1330.7401444330908 2104.8863724457997 0 0 0 0 162.84217107525984 245.2454422759989 0 245.2454422759989 601.87172452638924 0 0 0 0 -1.4358318349793282 -2.2667263936277395 0 -2.2667263936277395 4.1000902139543509 0 0 0 0 142.66033617625709 -17.802782462642483 0 -17.802782462642483 -5.0715579822349355 0 0 0 0 54.244922382184313 -134.99172428674387 0 -134.99172428674387 416.4869530810526 0 0 0 0 208.96404538396385 -153.0863966931191 0 -153.0863966931191 113.23707617279138 0 0 0 0 -4.4229470064981395 -4.2321490837233569 0 -4.2321490837233569 6.2475996669228451 0 0 0 0 -21.088065102621727 -5.8170937106291944 0 -5.8170937106291944 33.762564303486215 0 0 0 0 -28.565042425864704 -18.270805076727584 0 -18.270805076727584 940.18152992475984 0 0 0 0 -33.087973124514065 4.081251371896542 0 4.081251371896542 67.456379700702314 0 0 0 0 136.71624166039823 420.63847505256979 0 420.63847505256979 1617.4663503476954 0 0 0 0 -50.056911269590415 581.93861687829781 0 581.93861687829781 2254.0059095541214 0 0 0 0 -40.966234009987375 235.65476599561816 0 235.65476599561816 1051.6148532629356 0 0 0 0 -549.6368415038836 272.20925695184036 0 272.20925695184036 2441.2400576180394 0 0 0 0 -370.78248554152401 902.00378522492542 0 902.00378522492542 3498.5788829757034 0 0 0 0 -544.49093472774371 223.64343886006975 0 223.64343886006975 2872.8886941600704 0 0 0 0 -791.86742882441513 11.450526390294954 0 11.450526390294954 3500.1947349456555 0 0 0 0 -659.54306282529353 -254.97246395030493 0 -254.97246395030493 2833.2705444704616 0 0 0 0 -643.13304302743848 -362.53994243193159 0 -362.53994243193159 3498.6888342151556 0 0 0 0 -383.54334515239719 106.61092631878591 0 106.61092631878591 2311.9938372808233 0 0 0 0 -410.45212563244985 -809.40078510875014 0 -809.40078510875014 2477.8090478329468 0 0 0 0 -323.03480742478087 -1217.5034020301623 0 -1217.5034020301623 3499.9282909463955 0 0 0 0 -269.86348602912881 -283.989916708088 0 -283.989916708088 2453.8624800436755 0 0 0 0 -401.16275577496918 -758.70867568792073 0 -758.70867568792073 2551.2522866402842 0 0 0 0 115.66270403156767 -1022.6472570111964 0 -1022.6472570111964 2144.4697023700655 0 0 0 0 96.776426689823197 -507.01315130004195 0 -507.01315130004195 1161.6353170417669 0 0 0 0 -145.22273917058612 -437.02147139399358 0 -437.02147139399358 1540.4103727604725 0 0 0 0 -107.46767131538354 -551.35207558658942 0 -551.35207558658942 1789.7405495922785 0 0 0 0 -112.00437426397161 68.046646222549498 0 68.046646222549498 1375.6761160979008 0 0 0 0 -13.434147940677121 -29.290964627675748 0 -29.290964627675748 9.5485752348943151 0 0 0 0 -46.812470749196336 -19.969237066063101 0 -19.969237066063101 78.352377982163034 0 0 0 0 -0.6445551895740067 -4.0092502719912648 0 -4.0092502719912648 2.3734651256105646 0 0 0 0 145.17736135378624 -189.88409651841357 0 -189.88409651841357 726.28882656406222 0 0 0 0 -10.858624269207439 -3.846534050430364 0 -3.846534050430364 43.867669361164189 0 0 0 0 -9.1081916778146024 -0.71312303450849868 0 -0.71312303450849868 37.001312204843089 0 0 0 0 -48.81960430241196 -0.07885346504735935 0 -0.07885346504735935 582.61717736589708 0 0 0 0 35.689405919037085 167.44852202376183 0 167.44852202376183 304.94777971819894 0 0 0 0 -221.48320779646292 -173.7636842544357 0 -173.7636842544357 2198.0341097721425 0 0 0 0 -75.5569297535109 289.30461955590596 0 289.30461955590596 1329.3280013905101 0 0 0 0 -60.511708994256935 -107.2511266024012 0 -107.2511266024012 1972.4379385886887 0 0 0 0 -193.03385743353903 -146.92787763717502 0 -146.92787763717502 1973.2197903038975 0 0 0 0 54.527965165437763 -42.202086132917884 0 -42.202086132917884 -83.634787701744358 0 0 0 0 72.109544391769305 -132.50944096409376 0 -132.50944096409376 124.01116556216175 0 0 0 0 0.22380618408278297 -1.723194684290096 0 -1.723194684290096 1.9265797354493017 0 0 0 0 -101.69515544789942 -10.328820014218422 0 -10.328820014218422 1252.6443659267316 0 0 0 0 -3.220099479721739 6.9919011383382035 0 6.9919011383382035 39.586722434055076 0 0 0 0 -14.789383202907629 4.420235054126465 0 4.420235054126465 39.422408787744757 0 0 0 0 -13.803148533262174 10.125673182019227 0 10.125673182019227 46.52244812541764 0 0 0 0 -0.67775421933856705 15.302339599890189 0 15.302339599890189 44.6880545840813 0 0 0 0 -9.0563596945452218 17.306742684183519 0 17.306742684183519 48.135995721783445 0 0 0 0 -9.7431272421451709 -2.679033644464988 0 -2.679033644464988 4.6057989782537927 0 0 0 0 -17.230673021079269 31.374876560942766 0 31.374876560942766 195.11216975730946 0 0 0 0 6.8552824003972432 13.517586590191968 0 13.517586590191968 62.642988938204326 0 0 0 0 -23.50756435153744 -3.4473133885281868 0 -3.4473133885281868 63.026160412120362 0 0 0 0 -13.628743971467486 2.3651238162577783 0 2.3651238162577783 41.676690187927306 0 0 0 0 -13.521238254222226 3.7138546477808632 0 3.7138546477808632 40.865769308621566 0 0 0 0 -14.436783283409795 -0.4114700956949946 0 -0.4114700956949946 43.031060475531035 0 0 0 0 -18.482084721872297 7.6030888540540218 0 7.6030888540540218 49.144742243856399 0 0 0 0 -20.516225443800295 15.33543079559422 0 15.33543079559422 67.63212640770729 0 0 0 0 6.3208507185554481 29.179081165643083 0 29.179081165643083 53.394758162378778 0 0 0 0 -17.591476455536451 16.166390903520892 0 16.166390903520892 36.259551315396493 0 0 0 0 -11.558531289251309 -2.9070320797998797 0 -2.9070320797998797 29.169492327372843 0 0 0 0 -6.9581484102291142 -6.231358878924766 0 -6.231358878924766 22.300997472033487 0 0 0 0 -7.8674721805145964 -27.48122047979416 0 -27.48122047979416 18.216445340035307 0 0 0 0 -6.4849292963083141 -0.13158792465279756 0 -0.13158792465279756 9.1346463910134581 0 0 0 0 -11.279527437694206 -5.1968329917007878 0 -5.1968329917007878 42.34030028666357 0 0 0 0 -8.5410333138734131 22.264054776765136 0 22.264054776765136 53.100420422579191 0 0 0 0 -16.724369954112646 0.70914438332282748 0 0.70914438332282748 7.623358955658035 0 0 0 0 -12.335287731424046 4.6438922623765393 0 4.6438922623765393 32.69184363526233 0 0 0 0 -9.4855387416198482 8.7409435312101209 0 8.7409435312101209 33.545314650102455 0 0 0 0 -15.168821634800679 14.427924085729046 0 14.427924085729046 70.984527611381736 0 0 0 0 2.9080510009517937 4.1424567886673298 0 4.1424567886673298 21.008334031768271 0 0 0 0 -18.641439079849079 28.902062441662565 0 28.902062441662565 70.346004297075751 0 0 0 0 30.831439347874948 -56.992012820804121 0 -56.992012820804121 57.814090305331774 0 0 0 0 -15.463491475923547 -12.736984557988762 0 -12.736984557988762 30.655932894744183 0 0 0 0 2.3675509279848042 4.8299767866149441 0 4.8299767866149441 9.4273547502779653 0 0 0 0 -37.880162807705346 -45.399901437209337 0 -45.399901437209337 81.875291529221613 0 0 0 0 112.0992603812665 -87.530554182149672 0 -87.530554182149672 21.330576520273553 0 0 0 0 -3.11009810998803 9.9964461745923927 0 9.9964461745923927 -1.0011078167703999 0 0 0 0 -15.085489619497821 24.303457341213516 0 24.303457341213516 10.517490760410965 0 0 0 0 -9.0541850139265989 16.689125977757158 0 16.689125977757158 16.791837504654268 0 0 0 0 -12.203808097977799 13.42788994753414 0 13.42788994753414 33.823620682607412 0 0 0 0 -16.804850455709357 14.665409485128919 0 14.665409485128919 40.164922343044964 0 0 0 0 -8.1614515734302131 9.1056479455876911 0 9.1056479455876911 33.502824212404903 0 0 0 0 50.249135931117962 -242.99989823532815 0 -242.99989823532815 428.32382674992846 0 0 0 0 98.155541581799298 -96.491781552627799 0 -96.491781552627799 -102.69899548213834 0 0 0 0 3.4100811439247352 0.99620870996455579 0 0.99620870996455579 0.13968797137190836 0 0 0 0 238.36690483589518 -299.74200449552518 0 -299.74200449552518 280.7238238883474 0 0 0 0 24.185954402631751 -159.2637920390207 0 -159.2637920390207 313.98883790556647 0 0 0 0 39.801838016130091 56.577486440462962 0 56.577486440462962 8.4440669869163685 0 0 0 0 -74.864529279558894 -72.11223213764697 0 -72.11223213764697 133.24375997576135 0 0 0 0 -40.540394256422587 -55.103100938609714 0 -55.103100938609714 141.62583819934662 0 0 0 0 157.21371486619455 -34.173320140031137 0 -34.173320140031137 72.139464911741925 0 0 0 0 257.97107814195215 -64.603722819771065 0 -64.603722819771065 63.695201612939854 0 0 0 0 258.08102856092006 -171.18557628155978 0 -171.18557628155978 125.09605197376368 0 0 0 0 188.15093682973111 -115.95231072821844 0 -115.95231072821844 85.352826557935259 0 0 0 0 116.55713941248086 -134.84515722069773 0 -134.84515722069773 166.15578246490804 0 0 0 0 98.977953360438732 -56.033463060399299 0 -56.033463060399299 57.539881127015178 0 0 0 0 166.45831661017291 -176.73552881913201 0 -176.73552881913201 197.95969996593249 0 0 0 0 -2.7856300933038316 1.9673627690983961 0 1.9673627690983961 40.665764934693868 0 0 0 0 -27.648575943242577 -1.4293010514757043 0 -1.4293010514757043 161.63831428865342 0 0 0 0 -43.73279476093694 -4.3184936509958902 0 -4.3184936509958902 72.586314083686375 0 0 0 0 9.7704190575891126 -16.333409689969844 0 -16.333409689969844 34.5692350126996 0 0 0 0 19.683472849640225 -9.1350126162938068 0 -9.1350126162938068 37.651236581372359 0 0 0 0 46.373568491701008 -82.017085135030356 0 -82.017085135030356 229.43096562428991 0 0 0 0 375.37260122695079 -329.14847874563566 0 -329.14847874563566 90.355323909687286 0 0 0 0 245.48945015348454 149.52090587291787 0 149.52090587291787 -176.10422348537031 0 0 0 0 2.1943149187982129 1.5165792322567313 0 1.5165792322567313 4.6806023072965282 0 0 0 0 -42.565257438085837 31.559025251779076 0 31.559025251779076 117.89230921724084 0 0 0 0 -89.916368050870005 218.25751184616456 0 218.25751184616456 71.165113130782629 0 0 0 0 -0.67441928962653819 -3.5874477848360939 0 -3.5874477848360939 6.9340260270894589 0 0 0 0 10.675096211353093 -196.77529506856717 0 -196.77529506856717 60.910168914691894 0 0 0 0 400.09353920489798 -135.07245576280638 0 -135.07245576280638 53.057118054457533 0 0 0 0 38.085757044943875 -23.611908091813348 0 -23.611908091813348 79.541897938728653 0 0 0 0 -14.607162216167392 1.9730901314239464 0 1.9730901314239464 44.568385279895963 0 0 0 0 20.914763696049704 -10.565138714533532 0 -10.565138714533532 77.728432992706075 0 0 0 0 -12.53658596203968 12.008959866703663 0 12.008959866703663 26.744967170319796 0 0 0 0 -18.668503960851311 9.508561459073519 0 9.508561459073519 40.085002416400584 0 0 0 0 -7.768033942614899 8.5136647133304937 0 8.5136647133304937 28.549858954182127 0 0 0 0 -10.5895735819765 3.6717324529212405 0 3.6717324529212405 35.913913546669448 0 0 0 0 -14.269398975508665 6.2709779730294031 0 6.2709779730294031 33.585552535545958 0 0 0 0 -12.003136971303185 1.987072953829454 0 1.987072953829454 37.393676412779314 0 0 0 0 170.6519604152445 378.39714293147335 0 378.39714293147335 180.49794676092461 0 0 0 0 -8.5979755345305033 11.88618379164061 0 11.88618379164061 25.079297979321137 0 0 0 0 -135.72552127319159 -95.848524777822604 0 -95.848524777822604 119.37035736806831 0 0 0 0 6.9027744451844839 -1.4854727803308805 0 -1.4854727803308805 11.716133053250516 0 0 0 0 20.479023147619046 -111.51399108095029 0 -111.51399108095029 -22.973907045945452 0 0 0 0 54.692387971012522 -52.583223503394038 0 -52.583223503394038 17.014537742819812 0 0 0 0 -6.66811860201733 -24.297288610305259 0 -24.297288610305259 101.16809746617946 0 0 0 0 12.406862153677139 0.74331164226532564 0 0.74331164226532564 115.28835262804751 0 0 0 0 167.19111503889872 -91.282795208760945 0 -91.282795208760945 106.02808707187137 0 0 0 0 57.730029860667855 -131.15146871756679 0 -131.15146871756679 178.07523069437593 0 0 0 0 77.597929133016805 56.744120690762429 0 56.744120690762429 2.0809001962188631 0 0 0 0 13.098751848669593 -28.222158953677081 0 -28.222158953677081 64.301407661794656 0 0 0 0 84.237025508878162 -199.12329928688223 0 -199.12329928688223 227.10683578416138 0 0 0 0 -12.152512472234775 -83.980293163609531 0 -83.980293163609531 171.92428066589309 0 0 0 0 15.112915283483829 -166.89593403604749 0 -166.89593403604749 419.96422448452722 0 0 0 0 3.7722635899739525 1.239362464221891 0 1.239362464221891 -1.5296147551464543 0 0 0 0 0.60761837883420355 -19.984117343906746 0 -19.984117343906746 100.01845476515155 0 0 0 0 5.5637768495535056 -29.134901414200158 0 -29.134901414200158 61.534386612933304 0 0 0 0 -25.413403420991319 18.99666591150535 0 18.99666591150535 46.074180760831545 0 0 0 0 -23.845152807930845 14.256630100904658 0 14.256630100904658 110.90784667979642 0 0 0 0 1.8004602016380886 -52.315673314145897 0 -52.315673314145897 144.92458820443335 0 0 0 0 -3.4772764796265392 -42.031358768035489 0 -42.031358768035489 124.89339995962109 0 0 0 0 -1.2572831009240417 -36.835689644933268 0 -36.835689644933268 121.12703073642842 0 0 0 0 -22.983616420929849 18.792324661117718 0 18.792324661117718 50.322680576741796 0 0 0 0 23.211389458301369 -3.1288279020736809 0 -3.1288279020736809 93.225222692695752 0 0 0 0 -11.397460977705464 2.7197299878837384 0 2.7197299878837384 32.251151565412329 0 0 0 0 -3.910741455585649 -3.1089199307722373 0 -3.1089199307722373 5.7722583878965414 0 0 0 0 67.936818514300739 -37.217087033151984 0 -37.217087033151984 176.09876732028943 0 0 0 0 -69.252492025457741 6.40219794353834 0 6.40219794353834 240.77172956997492 0 0 0 0 53.392101503523008 -94.51215434308051 0 -94.51215434308051 258.42718794071675 0 0 0 0 -19.526994121104053 -16.238033244406324 0 -16.238033244406324 160.31617510625256 0 0 0 0 6.8398943233905811 32.782104918876485 0 32.782104918876485 13.90985458103205 0 0 0 0 -14.608814522723408 13.594626500395862 0 13.594626500395862 25.196510088859679 0 0 0 0 -1.6550452460042981 0.51176592674463883 0 0.51176592674463883 -0.06564937883774391 0 0 0 0 20.275287737440294 -55.205530423117807 0 -55.205530423117807 121.32753050000065 0 0 0 0 101.54757585950892 -121.45109981987935 0 -121.45109981987935 179.60340466598063 0 0 0 0 19.338768107219948 -59.232855603030657 0 -59.232855603030657 132.54515441484273 0 0 0 0 -36.159182398163466 -10.491874940085836 0 -10.491874940085836 216.41399455049032 0 0 0 0 -0.91864887980408549 -0.91533050843474761 0 -0.91533050843474761 0.68029846686836493 0 0 0 0 121.90668570601179 -249.30107495057382 0 -249.30107495057382 344.76495686762291 0 0 0 0 30.757891259558392 -287.80920853032922 0 -287.80920853032922 1176.3031264111523 0 0 0 0 -35.531946674714618 -88.710294848304329 0 -88.710294848304329 453.61060541141023 0 0 0 0 563.60471771900393 -1449.1903810282374 0 -1449.1903810282374 2081.8304495111061 0 0 0 0 241.17213657555283 -669.2097948389885 0 -669.2097948389885 1081.8861829897678 0 0 0 0 565.30009303917677 -1465.3316122709703 0 -1465.3316122709703 2234.376027402308 0 0 0 0 1665.2731636494182 -1170.2188042873022 0 -1170.2188042873022 821.76351637380139 0 0 0 0 0.93196246731416199 -6.5098370675397064 0 -6.5098370675397064 0.36312587285647879 0 0 0 0 37.910068727760972 -79.505306829721121 0 -79.505306829721121 122.13589955208909 0 0 0 0 37.980528066579495 -64.608277648242989 0 -64.608277648242989 84.576775236600952 0 0 0 0 1610.4976244282343 -2475.7817658906806 0 -2475.7817658906806 3497.2812543537566 0 0 0 0 1307.2210485310366 -2121.2552703348356 0 -2121.2552703348356 3143.2694231520454 0 0 0 0 0.82038991114452209 -0.4940090046077863 0 -0.4940090046077863 1.003442540422899 0 0 0 0 523.81567535363843 -1298.3429403502923 0 -1298.3429403502923 2137.9864989126763 0 0 0 0 523.13444154888316 -1304.5552113357635 0 -1304.5552113357635 2297.2866641663195 0 0 0 0 24.35323379156489 -28.788799997337719 0 -28.788799997337719 103.80357983656631 0 0 0 0 12.114548031689992 -54.209968059208222 0 -54.209968059208222 107.26191105115413 0 0 0 0 11.788235032738157 -53.615178855078739 0 -53.615178855078739 121.29330727691649 0 0 0 0 9.0769049345826716 -33.435492982009237 0 -33.435492982009237 97.416105176115707 0 0 0 0 9.9393449409071781 -17.366693874041307 0 -17.366693874041307 -5.1487979993669164 0 0 0 0 34.618019463551263 -42.653785454253011 0 -42.653785454253011 49.850437351929941 0 0 0 0 278.47450154262509 236.36727439372044 0 236.36727439372044 279.62068640030429 0 0 0 0 1.2006064443921125 -1.2529186660528282 0 -1.2529186660528282 15.917824771704225 0 0 0 0 -758.48886275240591 -479.73990393072381 0 -479.73990393072381 3481.274254057691 0 0 0 0 202.10924419623677 -62.54708340610614 0 -62.54708340610614 1.4512078234729415 0 0 0 0 14.255915350695124 -18.112611345877585 0 -18.112611345877585 3.5220938657607626 0 0 0 0 17.047993981972468 -41.631059291192969 0 -41.631059291192969 83.057044831994062 0 0 0 0 9.0416242261674391 412.39456259445433 0 412.39456259445433 3497.5243906310807 0 0 0 0 5.6301160600996107 -1.751019371183979 0 -1.751019371183979 -0.89475657468527459 0 0 0 0 14.632794677774362 -26.409259688047417 0 -26.409259688047417 25.744009846754988 0 0 0 0 8.081421768562695 -59.341268035808753 0 -59.341268035808753 2939.7494129627157 0 0 0 0 7.59214833696507 -5.1624330036647095 0 -5.1624330036647095 12.011252407124276 0 0 0 0 5.833595010449244 -19.109211074162886 0 -19.109211074162886 43.134207928406795 0 0 0 0 24.83335595781648 -40.602650997643522 0 -40.602650997643522 106.00732100635832 0 0 0 0 9.4008062091007787 1.2760480403776455 0 1.2760480403776455 120.19154038131092 0 0 0 0 -19.981931238301637 17.597102218640689 0 17.597102218640689 54.932263444737799 0 0 0 0 1.5418585388319932 -0.43511259955990766 0 -0.43511259955990766 14.126251004297778 0 0 0 0 74.891540892892522 -187.86948522069906 0 -187.86948522069906 502.66326993736402 0 0 0 0 -830.61434078690218 714.12635028483783 0 714.12635028483783 1288.7411396302487 0 0 0 0 10.809092379859472 -3.05155571651283 0 -3.05155571651283 5.8059359206992021 0 0 0 0 0.092332388193085535 0.81901693824374888 0 0.81901693824374888 49.412896833076957 0 0 0 0 5.0377778688361898 -634.79690214408402 0 -634.79690214408402 3539.5725761441608 0 0 0 0 -11.561680159949399 3.8320067701509828 0 3.8320067701509828 28.72656779320517 0 0 0 0 552.15815538201582 -247.11132000048383 0 -247.11132000048383 -100.75948033696113 0 0 0 0 7.5173875472665763 41.121477256211236 0 41.121477256211236 32.473442824957054 0 0 0 0 4459.2354327523399 218.49060674622888 0 218.49060674622888 -5668.2090498866746 0 0 0 0 4744.3551201947157 1830.1799870142468 0 1830.1799870142468 1156.5274683735188 0 0 0 0 409.26222280381194 1557.0278751557307 0 1557.0278751557307 2733.5319071648628 0 0 0 0 1115.6209010734171 2298.5663817706154 0 2298.5663817706154 3494.5492217481151 0 0 0 0 1392.9084983258922 1704.5390759332367 0 1704.5390759332367 2199.3020484440785 0 0 0 0 1407.2703691054298 1791.530023517571 0 1791.530023517571 1655.3033477995559 0 0 0 0 552.32686100014644 -271.89273077691905 0 -271.89273077691905 305.57051056453201 0 0 0 0 3.1472013697257166 -6.3450908816433014 0 -6.3450908816433014 23.794707233418634 0 0 0 0 663.48544300292315 73.678351830054453 0 73.678351830054453 -248.04288009310767 0 0 0 0 38.182520208807546 140.93138789118166 0 140.93138789118166 -3.9057690494519193 0 0 0 0 509.0761264585642 -375.08734403347671 0 -375.08734403347671 146.49241536424961 0 0 0 0 228.80770255224297 134.78555152307854 0 134.78555152307854 492.47981027995593 0 0 0 0 7.1725734502124112 -19.04786681074232 0 -19.04786681074232 57.971011194331311 0 0 0 0 -54.635714166441403 -29.607331026776137 0 -29.607331026776137 82.818841126125335 0 0 0 0 255.13876933975314 -100.2628329000645 0 -100.2628329000645 44.781923858929076 0 0 0 0 138.09021428294454 -39.475116659552441 0 -39.475116659552441 23.550381277849738 0 0 0 0 154.89726190406009 -113.76329008309949 0 -113.76329008309949 153.12170301934384 0 0 0 0 223.20279982553939 -127.17054962447583 0 -127.17054962447583 44.48068186407545 0 0 0 0 231.67151135856636 -172.59668626948951 0 -172.59668626948951 118.62484342729294 0 0 0 0 103.13743440881998 -135.84983480503297 0 -135.84983480503297 153.56080570341146 0 0 0 0 209.96552019388446 -142.04343620093641 0 -142.04343620093641 16.020712804896903 0 0 0 0 200.15906932161738 -131.32644926872308 0 -131.32644926872308 44.468982676907324 0 0 0 0 -248.68596296218368 544.17305608406195 0 544.17305608406195 2401.2393577419425 0 0 0 0 -303.36864758967926 849.80265120241347 0 849.80265120241347 3498.7758283805488 0 0 0 0 240.01071105983084 1025.4067158216531 0 1025.4067158216531 2270.1807889373667 0 0 0 0 -152.58206892222228 1328.5038779762326 0 1328.5038779762326 3500.9257128587415 0 0 0 0 -245.80149232935821 953.62930083031461 0 953.62930083031461 2481.58019398529 0 0 0 0 403.1515978984267 1616.7894112630438 0 1616.7894112630438 2416.0765844919079 0 0 0 0 222.75023992871314 894.08311303278242 0 894.08311303278242 1700.5016277216091 0 0 0 0 345.98021376507086 806.11967808603458 0 806.11967808603458 1762.6068870693634 0 0 0 0 5.6012028056523828 -6.2030026500135662 0 -6.2030026500135662 12.953077953874882 0 0 0 0 328.69691779847255 423.951383054693 0 423.951383054693 182.13723494985049 0 0 0 0 244.07526632512173 1041.2660491185491 0 1041.2660491185491 1053.5620560105817 0 0 0 0 26.845547771225426 42.378349070007971 0 42.378349070007971 670.27184423915423 0 0 0 0 103.23284139653381 926.81995384940092 0 926.81995384940092 1620.3163357794838 0 0 0 0 55.210263280590937 684.54735161554709 0 684.54735161554709 2005.6222694830321 0 0 0 0 447.29618764973497 485.30963659595363 0 485.30963659595363 1271.5343669817739 0 0 0 0 66.486622333307253 512.31794354597969 0 512.31794354597969 1844.710965044178 0 0 0 0 107.02799982983964 656.53843280562796 0 656.53843280562796 2344.6178477476278 0 0 0 0 285.5844458929173 -357.93120493946935 0 -357.93120493946935 600.27298495562718 0 0 0 0 43.401687514657795 581.32502997030679 0 581.32502997030679 1270.0265975377661 0 0 0 0 183.58708094463887 -177.4278957858337 0 -177.4278957858337 -52.421013288563699 0 0 0 0 83.719208230403865 -204.83210120848526 0 -204.83210120848526 50.99121302682488 0 0 0 0 158.96384611405742 1.4681300787015061 0 1.4681300787015061 88.801342169266718 0 0 0 0 -339.66531681904149 -244.49640608679329 0 -244.49640608679329 74.33391952038528 0 0 0 0 -0.74341239708108686 -15.7961077825601 0 -15.7961077825601 12.943271924197802 0 0 0 0 -767.79622875434609 -2.2608008381102991 0 -2.2608008381102991 32.207231600012165 0 0 0 0 -284.75789181952507 -447.13652468171858 0 -447.13652468171858 104.72391921868984 0 0 0 0 -219.96489332505183 391.89340404596805 0 391.89340404596805 222.18623384481907 0 0 0 0 -179.03524911372665 -233.91796662568231 0 -233.91796662568231 -95.704959996277466 0 0 0 0 -197.32330674311993 -360.07812546446803 0 -360.07812546446803 140.53778720093169 0 0 0 0 8.5551736142781003 -29.262076686800164 0 -29.262076686800164 81.78301259759678 0 0 0 0 6.983114631821536 -82.1149659735147 0 -82.1149659735147 99.100849395203113 0 0 0 0 -177.01035009177031 -0.76208573889471154 0 -0.76208573889471154 141.04146280710847 0 0 0 0 -6.7532177309358019 -0.17994239745168983 0 -0.17994239745168983 76.135672464716677 0 0 0 0 -2.9914773587325385 47.737754541711183 0 47.737754541711183 65.970380829101487 0 0 0 0 -30.621052092613695 13.029653333230272 0 13.029653333230272 76.55337697333016 0 0 0 0 -36.965508242118744 18.505838032619977 0 18.505838032619977 149.1451306573581 0 0 0 0 -95.69720643253595 47.580115692355321 0 47.580115692355321 109.12430263535498 0 0 0 0 0.26722794892922508 -5.6355269843444233 0 -5.6355269843444233 22.508700957616568 0 0 0 0 -75.492566096512746 -26.480792752918205 0 -26.480792752918205 245.76932553512597 0 0 0 0 156.7934005435751 274.52211240586075 0 274.52211240586075 396.45429224329564 0 0 0 0 100.35137939685762 103.6081506751616 0 103.6081506751616 138.17054379613546 0 0 0 0 -1.0812322117461224 -3.629420500258064 0 -3.629420500258064 25.270962636976606 0 0 0 0 -338.28227199457558 -225.66494471812985 0 -225.66494471812985 55.485806660353774 0 0 0 0 -57.342618189120429 -33.468767821337678 0 -33.468767821337678 -59.267891360112117 0 0 0 0 111.38803192751311 -137.89746846059279 0 -137.89746846059279 -163.7886616950309 0 0 0 0 1.8213880666055495 -3.5900068503617533 0 -3.5900068503617533 6.5369626238000649 0 0 0 0 22.325464310285827 -297.09049490079269 0 -297.09049490079269 -34.486801617658784 0 0 0 0 26.931556664137229 -247.31853057059197 0 -247.31853057059197 250.79815885169955 0 0 0 0 137.19538986369781 -126.68219584079452 0 -126.68219584079452 64.557966892636614 0 0 0 0 119.11659065757465 -175.61214505850876 0 -175.61214505850876 -35.155680851654324 0 0 0 0 24.407018655940874 -57.898181421849586 0 -57.898181421849586 120.96208723686141 0 0 0 0 264.67503482100216 -153.88808503208929 0 -153.88808503208929 -76.186584599374328 0 0 0 0 260.02852541920328 -16.282364770096763 0 -16.282364770096763 -8.7117167373653501 0 0 0 0 108.92607678435343 -166.51018351591324 0 -166.51018351591324 -22.528555439101183 0 0 0 0 134.76205302943299 44.441170986583529 0 44.441170986583529 148.16329149428202 0 0 0 0 12.670944189807187 132.73192220880355 0 132.73192220880355 145.36002531588747 0 0 0 0 187.94154508861266 215.99820629968781 0 215.99820629968781 113.63585676856746 0 0 0 0 88.937572070835614 10.21048370181461 0 10.21048370181461 126.7017652933755 0 0 0 0 201.77605458214728 -210.08852089763786 0 -210.08852089763786 192.07923741134618 0 0 0 0 186.44856564145243 62.107324469228843 0 62.107324469228843 146.23709596465596 0 0 0 0 210.70633679304086 -10.516043607838583 0 -10.516043607838583 -15.237934190496162 0 0 0 0 163.3607399853579 -161.54581407722253 0 -161.54581407722253 218.97042306277945 0 0 0 0 79.883711530688743 49.310805753053501 0 49.310805753053501 256.54681791214534 0 0 0 0 32.908014964458289 -75.389772208010072 0 -75.389772208010072 79.727460397127288 0 0 0 0 150.46233224674916 9.0346482727836701 0 9.0346482727836701 -11.553063470055349 0 0 0 0 1.6987213655803739 -5.6514040222006017 0 -5.6514040222006017 18.007556050141645 0 0 0 0 7.2397648587157164 -80.697321252965594 0 -80.697321252965594 100.87780373502392 0 0 0 0 -0.0057421015890213312 16.03326461130564 0 16.03326461130564 61.286904705432789 0 0 0 0 155.41479816199944 -140.15775834386386 0 -140.15775834386386 79.033157176931127 0 0 0 0 -0.63243153759903414 1.5493131503317414 0 1.5493131503317414 1.9274102335965466 0 0 0 0 164.8375752169577 -58.149584602938376 0 -58.149584602938376 165.96872698146035 0 0 0 0 211.34359263020087 83.728562408370635 0 83.728562408370635 35.227110753698071 0 0 0 0 4.6236999608111393 0.98601376744872482 0 0.98601376744872482 0.11854475154100452 0 0 0 0 413.22164584605321 91.590079312107264 0 91.590079312107264 -102.91606490470622 0 0 0 0 91.745805467428909 -265.27238792898152 0 -265.27238792898152 390.62727744163203 0 0 0 0 -34.952186505912323 325.59177591007756 0 325.59177591007756 210.27871718964457 0 0 0 0 -50.975208600938913 -193.54974363856491 0 -193.54974363856491 246.25684306610128 0 0 0 0 -6.5957822146758938 18.875541524563705 0 18.875541524563705 80.391539994326351 0 0 0 0 -232.28784942444508 270.04044823352342 0 270.04044823352342 226.13624340491515 0 0 0 0 278.56837471342624 183.16097451273708 0 183.16097451273708 62.583888554319856 0 0 0 0 -128.98985799571346 -6.968890459073009 0 -6.968890459073009 18.071699670701491 0 0 0 0 64.635815983659086 152.96541099080423 0 152.96541099080423 -261.63281731424831 0 0 0 0 68.912973835638695 -141.69119915403098 0 -141.69119915403098 311.63640786670248 0 0 0 0 3.9992801279828516 -0.29741703284692278 0 -0.29741703284692278 4.1869990936917816 0 0 0 0 -49.095102297255835 52.24106629095877 0 52.24106629095877 49.508912018336559 0 0 0 0 268.17259663669205 -262.92563108094629 0 -262.92563108094629 258.65689979170202 0 0 0 0 168.21932071293213 -65.499670785532317 0 -65.499670785532317 40.792916942549709 0 0 0 0 217.72929950528942 -218.42500846676558 0 -218.42500846676558 195.65366365056252 0 0 0 0 64.876864719800324 -97.975518475252102 0 -97.975518475252102 120.55024726194279 0 0 0 0 -26.478515375167262 -157.83263954080394 0 -157.83263954080394 575.13295547672806 0 0 0 0 74.759905665810948 -220.25709303869007 0 -220.25709303869007 335.51888271566622 0 0 0 0 -34.415935890898254 231.22929404743991 0 231.22929404743991 437.70468857328797 0 0 0 0 -228.57901157038827 -60.023473187378841 0 -60.023473187378841 132.47913973469372 0 0 0 0 -66.427260868249277 202.68226917798165 0 202.68226917798165 151.51280294077696 0 0 0 0 68.964606989243293 15.911645479922299 0 15.911645479922299 -49.290531896346693 0 0 0 0 7.9596698636878056 0.40730734365626375 0 0.40730734365626375 -0.063370920796625096 0 0 0 0 105.56998598519658 -105.54862432635127 0 -105.54862432635127 -91.135766137362225 0 0 0 0 46.166860544716201 199.33434998551093 0 199.33434998551093 116.961829822656 0 0 0 0 -48.042417046561013 -103.87727319972237 0 -103.87727319972237 99.280356867941009 0 0 0 0 -5.6584960171044258 -83.706328731617759 0 -83.706328731617759 108.86475849474118 0 0 0 0 -2.4478295554636134 -115.60710948776978 0 -115.60710948776978 233.03137901010905 0 0 0 0 66.302679557235933 -153.15357201572442 0 -153.15357201572442 149.4428214324289 0 0 0 0 -21.72592739188417 -96.01383701805571 0 -96.01383701805571 214.74442625090887 0 0 0 0 15.622523878248124 -102.75192820584743 0 -102.75192820584743 133.77334402826455 0 0 0 0 18.035176342818659 -109.68495555974619 0 -109.68495555974619 124.01170171682679 0 0 0 0 30.232807990738365 -112.28379624293302 0 -112.28379624293302 112.49453985683431 0 0 0 0 38.524321149915977 -84.736009618464777 0 -84.736009618464777 89.892049404847967 0 0 0 0 1.6023171584584457 3.3172969444520817 0 3.3172969444520817 2.2098578301192795 0 0 0 0 231.39003805677896 8.7973949894503676 0 8.7973949894503676 237.71503776954705 0 0 0 0 24.857177017220806 -120.76579497865623 0 -120.76579497865623 217.54790526225588 0 0 0 0 48.677259480257817 -1.0654941872580821 0 -1.0654941872580821 17.029146388687423 0 0 0 0 -309.33739443964168 -240.32237779064417 0 -240.32237779064417 495.72207415563389 0 0 0 0 1.721473761371243 1.6427541069459508 0 1.6427541069459508 4.7107088389302039 0 0 0 0 349.36323453892146 -205.86790943580309 0 -205.86790943580309 171.92623323084825 0 0 0 0 0.83542833380130688 1.0371420018891229 0 1.0371420018891229 7.3804808297355784 0 0 0 0 96.91448523908366 27.428372264940663 0 27.428372264940663 -6.2616442690577969 0 0 0 0 -9.0581301907814122 -22.876601752488568 0 -22.876601752488568 65.837178720095835 0 0 0 0 162.81684776784459 -96.881419824814657 0 -96.881419824814657 82.66836092966696 0 0 0 0 299.56167220377029 60.786557261657435 0 60.786557261657435 180.96902675528327 0 0 0 0 110.24578889277291 3.2690746166190365 0 3.2690746166190365 -4.6871271378331585 0 0 0 0 -194.45306978066401 -159.74397804296405 0 -159.74397804296405 140.72720397680678 0 0 0 0 -190.04553387179567 -152.53103295259825 0 -152.53103295259825 34.803649748260796 0 0 0 0 -246.02347919162639 -18.774819989681419 0 -18.774819989681419 242.87446565329265 0 0 0 0 -154.92998460204308 -68.062928798020948 0 -68.062928798020948 312.19109533825394 0 0 0 0 -15.383478275959533 -18.060977866713074 0 -18.060977866713074 125.98834227511543 0 0 0 0 -0.44170227153394492 8.4137544003517917 0 8.4137544003517917 48.656186296264764 0 0 0 0 -1.9750460763734736 -10.198127826213749 0 -10.198127826213749 54.35166210960233 0 0 0 0 -2.5951470725529555 4.848967888993382 0 4.848967888993382 67.237055254522772 0 0 0 0 3.8370515621286252 -7.9883880199708379 0 -7.9883880199708379 50.538431811029042 0 0 0 0 -243.61075094723492 -0.038228546731261304 0 -0.038228546731261304 93.382318351474169 0 0 0 0 -7.3547748209124997 -19.706969240274546 0 -19.706969240274546 21.582401774472828 0 0 0 0 -3.0384700864374281 -24.900489933483186 0 -24.900489933483186 123.92934590287223 0 0 0 0 10.219999592347904 -55.481283922657894 0 -55.481283922657894 161.73823700867433 0 0 0 0 2.0258404057767621 -10.677480855236354 0 -10.677480855236354 76.080532371863228 0 0 0 0 -39.392420786881701 -118.82533340278735 0 -118.82533340278735 202.57403254059318 0 0 0 0 -9.028037284977616 10.547739766701348 0 10.547739766701348 26.128866846381136 0 0 0 0 6.9018028151121911 -46.385584210793041 0 -46.385584210793041 78.339486617186282 0 0 0 0 0.5834564043334467 -11.511720971229806 0 -11.511720971229806 77.071389260767319 0 0 0 0 -3.612494986051388 -1.9492695118460688 0 -1.9492695118460688 53.946122251399174 0 0 0 0 -5.0254635280905937 12.945826048750263 0 12.945826048750263 7.9617064307586016 0 0 0 0 -38.668213400296736 106.14434544144751 0 106.14434544144751 262.49785333343971 0 0 0 0 -84.041732227717148 117.38464410419692 0 117.38464410419692 374.3631042009165 0 0 0 0 1.20192540112396 2.3819204914756185 0 2.3819204914756185 0.99738004236360212 0 0 0 0 173.5391199778951 179.73455644603564 0 179.73455644603564 272.22750481814182 0 0 0 0 -68.57370434816778 138.04175034925458 0 138.04175034925458 235.90356058928592 0 0 0 0 -131.65445151758468 -17.841424934722454 0 -17.841424934722454 196.01605907725389 0 0 0 0 -1.626376879139225 0.5256836477984006 0 0.5256836477984006 39.593254243580709 0 0 0 0 -4.6892075957994166 -2.6216579666524922 0 -2.6216579666524922 56.369043216225691 0 0 0 0 -4.9001192047217046 -2.304970052338831 0 -2.304970052338831 57.653089024208384 0 0 0 0 -4.4690291390404902 5.4890888458446057 0 5.4890888458446057 17.94702031375331 0 0 0 0 -5.5195430533345871 4.1976798230089116 0 4.1976798230089116 57.42570321124731 0 0 0 0 -3.441877649077469 -0.86745804163911089 0 -0.86745804163911089 56.272645540928352 0 0 0 0 7.5784651527910682 4.2298235636953905 0 4.2298235636953905 31.255578652424447 0 0 0 0 1.7548513825850023 -10.455672516758568 0 -10.455672516758568 77.90678189261962 0 0 0 0 -2.1483177610232378 7.851001800013087 0 7.851001800013087 15.742537615784407 0 0 0 0 0.2889760244813715 9.9857314661821874 0 9.9857314661821874 32.607845850208832 0 0 0 0 8.367409166694415 16.181745885853161 0 16.181745885853161 31.451040859051773 0 0 0 0 -31.164575619659445 21.307356470662853 0 21.307356470662853 46.012735116157273 0 0 0 0 8.9240526278927064 -4.4093225915039511 0 -4.4093225915039511 48.468283814528149 0 0 0 0 2.5972537035307361 10.446100305612994 0 10.446100305612994 19.624106857929618 0 0 0 0 -1.0362557093057032 -4.9286811742318655 0 -4.9286811742318655 48.244210124460082 0 0 0 0 -10.614782577015831 -10.328594817457315 0 -10.328594817457315 98.545618196751093 0 0 0 0 115.42554612196318 -94.606369868671209 0 -94.606369868671209 101.07962404520731 0 0 0 0 -18.452286481431699 -1.2834122681203155 0 -1.2834122681203155 72.572661969163164 0 0 0 0 25.940376946527977 7.4037239629087708 0 7.4037239629087708 51.105463269748725 0 0 0 0 -2.322585452006706 -77.109060000209865 0 -77.109060000209865 102.29491144734493 0 0 0 0 -23.609169185154315 180.87296037645137 0 180.87296037645137 110.18331088300329 0 0 0 0 -136.20390216370939 -40.693845110115944 0 -40.693845110115944 -13.59216337230464 0 0 0 0 3.2367534542259229 0.29780052603349816 0 0.29780052603349816 0.26050689257464388 0 0 0 0 157.69232668157247 -98.044341058801365 0 -98.044341058801365 34.234075064508943 0 0 0 0 97.067875635626478 212.59059887826152 0 212.59059887826152 112.03580863626848 0 0 0 0 312.65784881473019 220.77202103611489 0 220.77202103611489 25.088963543326827 0 0 0 0 37.592982403835094 -20.67088090816469 0 -20.67088090816469 59.245692643293296 0 0 0 0 134.936297431924 113.99104588617047 0 113.99104588617047 -38.082942700566491 0 0 0 0 19.679940776031117 -30.514086232673435 0 -30.514086232673435 92.606780298287049 0 0 0 0 -10.173030358899382 -16.165697775672015 0 -16.165697775672015 225.46277347432624 0 0 0 0 -31.048043605737007 184.59034592458192 0 184.59034592458192 208.00989567657234 0 0 0 0 78.273555303593525 173.88170678399183 0 173.88170678399183 108.93958546960494 0 0 0 0 456.03964884763019 311.71813404664135 0 311.71813404664135 152.04814007139066 0 0 0 0 63.699700355221466 5.9517699245043332 0 5.9517699245043332 -34.848832458839752 0 0 0 0 167.87429695795811 132.96866814139503 0 132.96866814139503 36.522156982740853 0 0 0 0 -26.190662475817426 29.704392268100491 0 29.704392268100491 587.35679681132024 0 0 0 0 -193.36669413979098 -219.5254280383524 0 -219.5254280383524 649.77099521036143 0 0 0 0 524.70607731516793 -249.51095962262525 0 -249.51095962262525 -84.851308376004454 0 0 0 0 -234.60882376931613 -296.43144483962169 0 -296.43144483962169 -80.777581079455558 0 0 0 0 -41.118950484616107 54.965117056170129 0 54.965117056170129 16.958974130218849 0 0 0 0 249.97517983000603 101.29866519559437 0 101.29866519559437 -180.52142768217891 0 0 0 0 1.9955782714932866 -33.893035350320133 0 -33.893035350320133 59.697413962328937 0 0 0 0 6.0845332918172703 -3.1409470569246523 0 -3.1409470569246523 -5.7651518476915555 0 0 0 0 8.2240423449120108 -1.1183380842511923 0 -1.1183380842511923 5.0241533330844081 0 0 0 0 196.82907378727145 -23.791765443456825 0 -23.791765443456825 -300.05630122343246 0 0 0 0 5.2705357289678432 -11.906476240041229 0 -11.906476240041229 44.37418443938077 0 0 0 0 10.366329530067333 -69.821591851032281 0 -69.821591851032281 91.587404373865866 0 0 0 0 2.4345001351321116 -16.11291732724203 0 -16.11291732724203 51.06004401707105 0 0 0 0 -1.4318891413386172 0.39014113500191172 0 0.39014113500191172 21.404246759568863 0 0 0 0 7.314428620928993 -13.021049017501355 0 -13.021049017501355 39.900566022406565 0 0 0 0 77.666747915871383 -7.2106216933461837 0 -7.2106216933461837 -26.151458604838808 0 0 0 0 42.964632341307151 -64.996495473948016 0 -64.996495473948016 38.913952046015766 0 0 0 0 9.3242051381745554 -15.638919544629402 0 -15.638919544629402 13.619031123319989 0 0 0 0 20.873703738993754 -136.98674870170362 0 -136.98674870170362 -8.5578960247948999 0 0 0 0 -113.12307279135757 -307.1425866345071 0 -307.1425866345071 229.56635913808714 0 0 0 0 -7.2273237074950885 2.1322913486910693 0 2.1322913486910693 369.43474663930829 0 0 0 0 -165.65514789315239 40.638782988055027 0 40.638782988055027 693.92245250393171 0 0 0 0 -36.147722617464296 -72.462897045690625 0 -72.462897045690625 206.94836118805688 0 0 0 0 14.19154979993516 -135.96199461268588 0 -135.96199461268588 141.49880342773395 0 0 0 0 -53.709952992569015 -69.737933456111932 0 -69.737933456111932 207.67434619788401 0 0 0 0 -18.158579951405954 -19.987700587116706 0 -19.987700587116706 141.08947950945367 0 0 0 0 -0.85336266576723574 -45.220851125370245 0 -45.220851125370245 136.7153020591013 0 0 0 0 -61.26028486274231 -38.240844430180914 0 -38.240844430180914 136.53921891591744 0 0 0 0 -5.333592851731737 -65.476281906980148 0 -65.476281906980148 96.334517997987859 0 0 0 0 3.9632110003680863 -23.223616030736956 0 -23.223616030736956 14.004378726933131 0 0 0 0 -0.14261916933537577 -11.952151597986813 0 -11.952151597986813 75.010165926623358 0 0 0 0 3.930161409090033 -8.945767199544207 0 -8.945767199544207 77.645060210434167 0 0 0 0 0.47776415691905605 -17.448121980342378 0 -17.448121980342378 31.636026013355831 0 0 0 0 3.7240874028748294 -1.7032816937753523 0 -1.7032816937753523 35.806936628292533 0 0 0 0 3.5622023601941351 -4.2272447387175589 0 -4.2272447387175589 26.155257263148087 0 0 0 0 7.5839058529281829 1.3494779214670416 0 1.3494779214670416 22.327363371627143 0 0 0 0 25.06564609385623 3.8050839582938352 0 3.8050839582938352 21.668433846359676 0 0 0 0 9.1133360074927623 -1.2910555590515287 0 -1.2910555590515287 26.88497584421566 0 0 0 0 9.0698174169995127 -2.3293776985310615 0 -2.3293776985310615 21.871898831588624 0 0 0 0 2.5890657194482678 -10.053316925459228 0 -10.053316925459228 16.160444793159854 0 0 0 0 4.768737448783213 -12.542259884650775 0 -12.542259884650775 20.56032846855669 0 0 0 0 2.7651198312128553 -10.741334655614615 0 -10.741334655614615 22.698578287480728 0 0 0 0 1.6502022587310421 -8.8325616070142132 0 -8.8325616070142132 48.516922432609135 0 0 0 0 2.0090325974710197 -2.8762567809469601 0 -2.8762567809469601 35.082009659527102 0 0 0 0 5.3592122410495051 -8.7620675034914939 0 -8.7620675034914939 31.021123022816028 0 0 0 0 3.085936934676738 -8.9297190174438583 0 -8.9297190174438583 32.781274348144507 0 0 0 0 3.5756722861407204 -9.3148629120367374 0 -9.3148629120367374 29.017495703879149 0 0 0 0 -19.220434178370965 -33.953726692834607 0 -33.953726692834607 49.207472046342446 0 0 0 0 3.6907873602330348 -9.4213234595386197 0 -9.4213234595386197 7.4583978850834853 0 0 0 0 84.099182842110622 93.694737571855512 0 93.694737571855512 91.276071678439621 0 0 0 0 148.672866108363 -112.56116916993051 0 -112.56116916993051 191.04983357560559 0 0 0 0 7.5972659121427908 -18.97233292854246 0 -18.97233292854246 44.126257459643455 0 0 0 0 -16.675645647408885 -69.998117200030833 0 -69.998117200030833 17.883700743172085 0 0 0 0 -20.456075193946617 -9.0646360108366935 0 -9.0646360108366935 228.55788551439764 0 0 0 0 2.3805181376714692 -5.4017448956075924 0 -5.4017448956075924 6.4301471793388885 0 0 0 0 105.29074388659956 103.96197978327837 0 103.96197978327837 -81.628603572375141 0 0 0 0 299.80796817670074 -53.413943447371366 0 -53.413943447371366 -112.82181587291416 0 0 0 0 89.297630168071009 -120.4248350491398 0 -120.4248350491398 109.22454433883104 0 0 0 0 1.8114356958238278 1.5328372864645559 0 1.5328372864645559 0.39038502157720245 0 0 0 0 299.1423481451161 82.755013644658902 0 82.755013644658902 -141.99108227703982 0 0 0 0 101.66842921427713 -48.298754127444454 0 -48.298754127444454 -31.565152300041518 0 0 0 0 30.821999151694399 64.652410707420131 0 64.652410707420131 0.80078012467856752 0 0 0 0 8.3616879507992792 -16.523211806054746 0 -16.523211806054746 60.695607694424396 0 0 0 0 33.120386203702765 -82.295050487364279 0 -82.295050487364279 135.20573008423526 0 0 0 0 -61.823918140015394 -89.105540098708389 0 -89.105540098708389 277.39577169811673 0 0 0 0 -3.031839592060015 7.3227595759246977 0 7.3227595759246977 8.6731046362973387 0 0 0 0 21.36652479759482 93.147409538659304 0 93.147409538659304 45.366720171012275 0 0 0 0 41.956813140044687 -58.445452145992022 0 -58.445452145992022 -32.623334177809738 0 0 0 0 65.466405347897648 -44.060687796323919 0 -44.060687796323919 81.223107481055195 0 0 0 0 63.159137637671847 -27.944494024290179 0 -27.944494024290179 -11.337567935181141 0 0 0 0 -5.3429890260331376 -23.558326853790277 0 -23.558326853790277 239.09277398419363 0 0 0 0 -3.7482836733255454 -24.128365233280192 0 -24.128365233280192 110.36639643317176 0 0 0 0 0.32926893691173831 1.5323234686592677 0 1.5323234686592677 4.9600978111806739 0 0 0 0 42.511747747464142 -65.232223165650794 0 -65.232223165650794 144.88245349368663 0 0 0 0 2.2344269282530149 1.5877826949981682 0 1.5877826949981682 23.534920113037515 0 0 0 0 2.5754939992646246 4.7480109389127776 0 4.7480109389127776 13.701240441586151 0 0 0 0 8.1473428399049226 -7.7222775981026643 0 -7.7222775981026643 20.135937413433567 0 0 0 0 116.65670541367103 67.757223016405987 0 67.757223016405987 52.329432818663918 0 0 0 0 42.089613939543597 -3.1700365219858213 0 -3.1700365219858213 7.6758911257948057 0 0 0 0 -29.290568187910139 77.138482314570865 0 77.138482314570865 394.71937629848253 0 0 0 0 309.47619696936795 14.74880405528711 0 14.74880405528711 -130.71507123344782 0 0 0 0 11.718457882854004 0.50179748437706451 0 0.50179748437706451 5.9296947381167158 0 0 0 0 -85.082879726086503 31.268910685153969 0 31.268910685153969 307.24365023243809 0 0 0 0 6.8789812688147016 -23.070663266681727 0 -23.070663266681727 29.54116067022245 0 0 0 0 106.35977140804425 -225.43693767841887 0 -225.43693767841887 279.91347005398347 0 0 0 0 -23.561186416497549 -71.366794767705869 0 -71.366794767705869 192.67378064396325 0 0 0 0 -1.2430452174392101 6.7396645098013721 0 6.7396645098013721 12.022378517284068 0 0 0 0 49.827185438793094 28.974025873088976 0 28.974025873088976 133.20077306817984 0 0 0 0 24.27691511117564 35.17162445790018 0 35.17162445790018 129.55553184004384 0 0 0 0 2.8311869965037655 19.083734407427357 0 19.083734407427357 31.614099098844918 0 0 0 0 -48.861334455467386 133.67679593557114 0 133.67679593557114 -16.135822175972862 0 0 0 0 -1.3653706283567288 -5.6459240143042564 0 -5.6459240143042564 6.7124843051291236 0 0 0 0 28.498373764599819 -51.132550883397926 0 -51.132550883397926 49.924940504308324 0 0 0 0 -54.257484778720936 5.5213370350393234 0 5.5213370350393234 169.41410665730655 0 0 0 0 -7.8265335482965384 17.320578904599643 0 17.320578904599643 84.200280821125489 0 0 0 0 14.110812079939024 -2.9563297609747679 0 -2.9563297609747679 51.75506809468061 0 0 0 0 -6.2612918161512425 -9.7377004630288866 0 -9.7377004630288866 116.31077316900337 0 0 0 0 6.1711797676964224 6.7199652582813769 0 6.7199652582813769 27.246802470278475 0 0 0 0 -4.4973403181717124 15.72109446717846 0 15.72109446717846 28.80261485716332 0 0 0 0 -39.050082711441291 18.037236938690057 0 18.037236938690057 63.779705395674682 0 0 0 0 5.8697235183399243 32.606761902250582 0 32.606761902250582 41.141891179956474 0 0 0 0 14.797030432014708 -15.617470707452867 0 -15.617470707452867 72.83519376833965 0 0 0 0 14.44570198032352 -9.7241059134558441 0 -9.7241059134558441 52.202243401789019 0 0 0 0 8.5593175746671477 -0.47781579719321599 0 -0.47781579719321599 62.089135014099156 0 0 0 0 -3.7171495833029069 -5.5556125186512419 0 -5.5556125186512419 54.5145132157663 0 0 0 0 -1.0875656872549371 24.967460679918076 0 24.967460679918076 36.456926782881055 0 0 0 0 -40.947874967302596 17.489484028730658 0 17.489484028730658 42.016767106409134 0 0 0 0 66.203785646151118 28.262278881973543 0 28.262278881973543 15.684616631129302 0 0 0 0 15.341604155283903 16.691468029418502 0 16.691468029418502 17.019287411254481 0 0 0 0 20.694655216856745 67.418255760621832 0 67.418255760621832 67.472715266743762 0 0 0 0 -36.361178984343496 -13.87144053922384 0 -13.87144053922384 114.81176521551242 0 0 0 0 -93.270143286607137 61.060521227466893 0 61.060521227466893 32.838050219375873 0 0 0 0 -40.801114694429998 -38.024986193151562 0 -38.024986193151562 5.7787373142455181 0 0 0 0 -40.801114694431817 -38.024986193140649 0 -38.024986193140649 5.7787373142455181 0 0 0 0 -40.801114694432727 -38.024986193151562 0 -38.024986193151562 5.7787373142746219 0 0 0 0 -72.659075589049735 -58.943680271531775 0 -58.943680271531775 158.45641800319572 0 0 0 0 -36.912745893560896 -11.961986352234817 0 -11.961986352234817 108.20285717413208 0 0 0 0 -79.417709954665042 -36.494480077321441 0 -36.494480077321441 162.58390018664795 0 0 0 0 -85.164345809961105 -50.974854374162533 0 -50.974854374162533 127.39128233048541 0 0 0 0 -72.622710690107851 -60.496378841779006 0 -60.496378841779006 155.76620895571978 0 0 0 0 -74.323142084168012 -56.799971506959992 0 -56.799971506959992 262.72982040955321 0 0 0 0 -54.14676583705068 -4.5396209539121628 0 -4.5396209539121628 140.49981157156071 0 0 0 0 -81.367118310217393 -136.93214277906009 0 -136.93214277906009 273.90896745290229 0 0 0 0 -68.710328144540199 -154.43291604262458 0 -154.43291604262458 141.8865432054954 0 0 0 0 -2.4530478631586448 -95.92223324519 0 -95.92223324519 74.986975626943604 0 0 0 0 8.0748289960193329 -0.071843532692284384 0 -0.071843532692284384 -0.64235312075376427 0 0 0 0 75.443024095550754 21.38735442045072 0 21.38735442045072 143.28011956084083 0 0 0 0 -22.082074698649649 -11.159902573179352 0 -11.159902573179352 172.87900139276462 0 0 0 0 -63.214243546814032 -64.09570088471628 0 -64.09570088471628 150.94242204217153 0 0 0 0 16.427945992670175 -23.073134533580742 0 -23.073134533580742 132.69614442826787 0 0 0 0 2.5741988173736789 0.36836061220305538 0 0.36836061220305538 0.45115168312920173 0 0 0 0 -95.647705429381404 -38.403999651920458 0 -38.403999651920458 353.07618812913279 0 0 0 0 -1.7888161252012651 -2.5348532640491612 0 -2.5348532640491612 225.34438613459042 0 0 0 0 81.044270368916841 -16.4740883512859 0 -16.4740883512859 224.54245551563508 0 0 0 0 -9.2680706394380064 17.575860560882155 0 17.575860560882155 40.18477388954652 0 0 0 0 -0.6580145514236273 4.9370097644114708 0 4.9370097644114708 0.67694997720452932 0 0 0 0 40.355393762541553 83.646169764400838 0 83.646169764400838 -33.639281855117588 0 0 0 0 12.445960105647615 76.67181273064557 0 76.67181273064557 47.735213912746985 0 0 0 0 13.241965684921524 -31.152419856111919 0 -31.152419856111919 -35.846216827500029 0 0 0 0 -97.537395168749754 -147.72940335477324 0 -147.72940335477324 231.34554639213093 0 0 0 0 89.010903651887986 159.75467194205839 0 159.75467194205839 108.93532902192965 0 0 0 0 -7.5335978931665961 23.708198483484022 0 23.708198483484022 39.106719904134522 0 0 0 0 25.013567702116461 -8.8218959914311199 0 -8.8218959914311199 82.156289707482756 0 0 0 0 23.161925083851258 -3.9589413195610632 0 -3.9589413195610632 71.191564355380251 0 0 0 0 43.637121510007319 -21.058346417749817 0 -21.058346417749817 81.747754839964728 0 0 0 0 15.771678739654774 4.0610848087313798 0 4.0610848087313798 95.276062698079841 0 0 0 0 10.527810419385332 -13.014768294385249 0 -13.014768294385249 82.192341329241202 0 0 0 0 14.542135678525835 -4.18712833861494 0 -4.18712833861494 68.050829281630286 0 0 0 0 60.246470508177481 50.760720581421083 0 50.760720581421083 -0.29707644473182881 0 0 0 0 10.665777566828419 16.35917730284023 0 16.35917730284023 11.105343018058409 0 0 0 0 21.221141862324018 5.4620727487075555 0 5.4620727487075555 22.881842788387075 0 0 0 0 14.961012934038017 0.27251197787055048 0 0.27251197787055048 43.346806066672798 0 0 0 0 17.569005622491659 -15.176811011895552 0 -15.176811011895552 59.270593046847353 0 0 0 0 61.927548422000655 42.34157971563809 0 42.34157971563809 -30.243230633837356 0 0 0 0 17.616595798289381 -38.37300848394716 0 -38.37300848394716 51.283774370647734 0 0 0 0 -30.640799030570633 -32.154585650308036 0 -32.154585650308036 4.5381398738318239 0 0 0 0 84.400845294219835 47.792468102707062 0 47.792468102707062 1.1371980844767222 0 0 0 0 31.024404012653406 -36.003510453053423 0 -36.003510453053423 67.403771353354387 0 0 0 0 11.798526132398884 17.559045064430975 0 17.559045064430975 14.603293480031354 0 0 0 0 34.284553207396954 49.253970939034147 0 49.253970939034147 26.05785170346644 0 0 0 0 -4.3371202360838197 -15.704450145579813 0 -15.704450145579813 92.658083145755882 0 0 0 0 0.0087199722585729056 -3.3314118794583578 0 -3.3314118794583578 9.3238278734469944 0 0 0 0 43.13119967331977 10.556046148441965 0 10.556046148441965 81.190120519210723 0 0 0 0 46.31811992285094 3.0773840053278718 0 3.0773840053278718 39.776309006780139 0 0 0 0 41.825115309989087 -10.320751864726844 0 -10.320751864726844 50.928032997362607 0 0 0 0 -29.543827530172621 -9.4189784442078235 0 -9.4189784442078235 72.197089310207957 0 0 0 0 12.240096190700251 -26.06206519707434 0 -26.06206519707434 57.051190492437243 0 0 0 0 25.486794962061879 -21.748595953312361 0 -21.748595953312361 45.424702471809724 0 0 0 0 79.687950878753327 -681.58773625099025 0 -681.58773625099025 335.23151538943057 0 0 0 0 28.13480441620959 11.841471980694223 0 11.841471980694223 -13.58999377600594 0 0 0 0 61.043578818263086 -2.0814326576582971 0 -2.0814326576582971 32.016783053369863 0 0 0 0 38.80764145947213 -4.0009474388070352 0 -4.0009474388070352 0.80602753070189603 0 0 0 0 38.54312174955794 -55.008646181378026 0 -55.008646181378026 10.353142861157721 0 0 0 0 47.4986125430285 -28.96318973691913 0 -28.96318973691913 13.117162089046023 0 0 0 0 51.019091654247859 45.537757263065942 0 45.537757263065942 -190.58875800380292 0 0 0 0 166.50555189256011 158.11019192558774 0 158.11019192558774 -109.88854415808987 0 0 0 0 3.747058415863763 6.7684284462019892 0 6.7684284462019892 32.434759838530638 0 0 0 0 42.712492394342007 52.029633734618642 0 52.029633734618642 -29.822785011863516 0 0 0 0 26.206610009865244 -45.52646270157129 0 -45.52646270157129 -31.70599060739778 0 0 0 0 24.103359556705641 -38.441539062101583 0 -38.441539062101583 -3.2558459403408051 0 0 0 0 40.262461951385376 -42.83211651889269 0 -42.83211651889269 -17.229563847470217 0 0 0 0 33.332858117168598 -37.323107684920615 0 -37.323107684920615 14.259151815154837 0 0 0 0 35.511885098239894 -23.179031012990283 0 -23.179031012990283 14.926044849851046 0 0 0 0 180.87573758990402 -436.52211658288786 0 -436.52211658288786 -159.0276039163457 0 0 0 0 24.722664666125638 -40.20791466343826 0 -40.20791466343826 -16.187078786920324 0 0 0 0 25.262501082817835 -33.251012641934267 0 -33.251012641934267 -16.321110046101694 0 0 0 0 -81.068451881484179 -256.69321412029194 0 -256.69321412029194 164.81099078291743 0 0 0 0 22.893403808205697 -15.196663945335668 0 -15.196663945335668 9.9636740602593505 0 0 0 0 444.71629334811314 -584.74180884455723 0 -584.74180884455723 726.74706416574509 0 0 0 0 -73.259965244251788 32.912476974334368 0 32.912476974334368 30.697512970411481 0 0 0 0 -64.465353834513735 229.44949273517628 0 229.44949273517628 663.69607484485584 0 0 0 0 -50.157533783702092 51.858340765877983 0 51.858340765877983 155.49246997594673 0 0 0 0 -210.00988760927612 411.00651185977858 0 411.00651185977858 -306.56504053614799 0 0 0 0 -5.2416596048632229 1.5373562601274724 0 1.5373562601274724 11.090459131550915 0 0 0 0 -233.22846677758571 218.62522461715935 0 218.62522461715935 964.4748094832953 0 0 0 0 -35.45045707866359 218.72813471035889 0 218.72813471035889 -112.20679499386233 0 0 0 0 678.64791401966249 343.00336483429214 0 343.00336483429214 -90.579181645476979 0 0 0 0 312.06404718942213 -855.19247977076475 0 -855.19247977076475 1158.4287018874211 0 0 0 0 -618.44358078514961 28.937670279903614 0 28.937670279903614 496.13017061006713 0 0 0 0 -55.357074041028682 -10.811693403966501 0 -10.811693403966501 -96.467520332897948 0 0 0 0 2.1562790191487307 0.94200061196390372 0 0.94200061196390372 10.024740532113118 0 0 0 0 336.81814972690836 -693.73406475197498 0 -693.73406475197498 488.18222817595233 0 0 0 0 35.407982649426231 148.68306736406703 0 148.68306736406703 365.48494702094104 0 0 0 0 1.061950008409581 -3.693106041936181 0 -3.693106041936181 3.6803921307274976 0 0 0 0 76.964883142631152 -983.53099341873894 0 -983.53099341873894 416.79194767423724 0 0 0 0 596.15765886221925 -787.36947602190048 0 -787.36947602190048 286.78948461750178 0 0 0 0 -2.4376053331302678 2.5472689054988003 0 2.5472689054988003 15.069842793408569 0 0 0 0 603.80915467893817 -167.91936497992833 0 -167.91936497992833 810.83887305579265 0 0 0 0 155.66689032489103 165.43498927900077 0 165.43498927900077 131.79951909968031 0 0 0 0 984.45352252057637 -1061.1649102918991 0 -1061.1649102918991 411.64948749385712 0 0 0 0 -3.8132973291361516 -1.5196161411340547 0 -1.5196161411340547 5.8275227000873535 0 0 0 0 205.47611927334947 -102.07811775487562 0 -102.07811775487562 -210.45931593800287 0 0 0 0 -14.883062658866331 -5.303286173009254 0 -5.303286173009254 14.54647204172862 0 0 0 0 -94.5815103137395 160.53373207115544 0 160.53373207115544 108.7124391115176 0 0 0 0 311.80355974529721 24.767541399702168 0 24.767541399702168 349.08771387594891 0 0 0 0 -6.3211657223271303 -4.4250559249095689 0 -4.4250559249095689 19.513382397814595 0 0 0 0 343.52747406815593 -338.62568546781989 0 -338.62568546781989 256.71353679381536 0 0 0 0 -33.208443254792655 102.93246816982071 0 102.93246816982071 198.14736515727105 0 0 0 0 -109.97655704565295 -55.95155541895474 0 -55.95155541895474 539.04908177481059 0 0 0 0 -132.03105395939519 30.787776855008545 0 30.787776855008545 261.27504676381022 0 0 0 0 26.704079418750553 -45.533123840947042 0 -45.533123840947042 8.6869386513855602 0 0 0 0 86.785796406163399 -34.103607342438792 0 -34.103607342438792 25.14461633162432 0 0 0 0 -120.36282382463469 -142.60733271928893 0 -142.60733271928893 -9.2663720298373846 0 0 0 0 -12.857017689870691 -7.9646310771862883 0 -7.9646310771862883 12.408670339694519 0 0 0 0 -54.890073785240475 7.3055044216271199 0 7.3055044216271199 33.439387500362102 0 0 0 0 -47.373888700967939 98.918642343382615 0 98.918642343382615 155.65641514129766 0 0 0 0 -177.32142986936583 -65.762442221086644 0 -65.762442221086644 243.54874920433758 0 0 0 0 74.418644498249705 61.784641240747192 0 61.784641240747192 11.500238442375121 0 0 0 0 -47.826523961075395 14.507594569033301 0 14.507594569033301 40.775069949163026 0 0 0 0 0.89388474676713692 1.3658375837739452 0 1.3658375837739452 3.0981971237757655 0 0 0 0 181.50735340190204 -202.63398761032477 0 -202.63398761032477 54.173776251491574 0 0 0 0 -8.9227834645889743 16.624563331892205 0 16.624563331892205 16.63020220634553 0 0 0 0 -130.5750852363683 18.851585304356377 0 18.851585304356377 117.05693825128128 0 0 0 0 -4.2322477581625018 1.7977351360924088 0 1.7977351360924088 30.450903276981965 0 0 0 0 128.7145913833449 -129.8917998294728 0 -129.8917998294728 74.367137933330014 0 0 0 0 87.191471027761963 -74.107373052402181 0 -74.107373052402181 87.265779752522576 0 0 0 0 185.80054972337348 -134.6133266502211 0 -134.6133266502211 30.583901626814168 0 0 0 0 169.13734920144179 -198.40151736458847 0 -198.40151736458847 133.85135258728985 0 0 0 0 106.93903065312918 -126.07244048354187 0 -126.07244048354187 311.29442753865806 0 0 0 0 140.43422527422126 -102.09732819494639 0 -102.09732819494639 123.07545394291049 0 0 0 0 149.57958105089989 -124.00603855194936 0 -124.00603855194936 93.220378520672966 0 0 0 0 179.91838213347091 -117.77842025450445 0 -117.77842025450445 85.059257387772959 0 0 0 0 115.14531582773066 -83.984761550544135 0 -83.984761550544135 121.71174027342931 0 0 0 0 123.14969996073114 -110.25740226775724 0 -110.25740226775724 147.42105145473579 0 0 0 0 49.209768589301646 -79.931943293981021 0 -79.931943293981021 148.31837717573944 0 0 0 0 46.63196535830177 -70.158592413386941 0 -70.158592413386941 119.02566756893611 0 0 0 0 42.912993560915424 -68.467731598775572 0 -68.467731598775572 125.05268111285341 0 0 0 0 46.307457885934724 -84.841918449936657 0 -84.841918449936657 167.58134517052167 0 0 0 0 110.40774157555734 -119.90308205804922 0 -119.90308205804922 148.43244723769544 0 0 0 0 90.406558391748376 -122.65112481144433 0 -122.65112481144433 195.8215477315116 0 0 0 0 85.070016449069044 13.09314881012051 0 13.09314881012051 195.83540966737655 0 0 0 0 -0.40492747289281539 1.964596094226394 0 1.964596094226394 2.4031236284699364 0 0 0 0 -23.745026918436849 -82.480410286458209 0 -82.480410286458209 288.55930489218372 0 0 0 0 13.640329962119036 -67.90730840519177 0 -67.90730840519177 159.66813742556951 0 0 0 0 0.46444344213085653 -78.595472578174849 0 -78.595472578174849 152.89555110500442 0 0 0 0 14.442521137911703 24.526628159789652 0 24.526628159789652 69.321758534957098 0 0 0 0 6.5365398410272704 15.457379965601419 0 15.457379965601419 9.9927501902498719 0 0 0 0 -14.829500283914456 -52.355060446584844 0 -52.355060446584844 153.41581846202644 0 0 0 0 83.579111751586751 -130.94885497831666 0 -130.94885497831666 204.20106355721146 0 0 0 0 -32.40526377569995 10.737397966545814 0 10.737397966545814 200.95706969219827 0 0 0 0 -20.187277459460347 -227.89938621336478 0 -227.89938621336478 802.8939204501994 0 0 0 0 21.659428945410582 85.549369139420378 0 85.549369139420378 377.04759621303492 0 0 0 0 28.398065567665981 -160.19472314125505 0 -160.19472314125505 342.35092064453283 0 0 0 0 4.9595057621745582 -126.6584214835184 0 -126.6584214835184 311.62714912633419 0 0 0 0 -6.2370867508140755 25.292729934310046 0 25.292729934310046 26.220900246567908 0 0 0 0 -16.695406728048429 9.2743029036882945 0 9.2743029036882945 8.7998073873313842 0 0 0 0 -5.7450078602038381 14.700032711760286 0 14.700032711760286 27.948711776414711 0 0 0 0 -0.010018930941587612 28.439197126459476 0 28.439197126459476 50.395203287611366 0 0 0 0 -15.109312375258511 16.170277254321263 0 16.170277254321263 57.05709584147553 0 0 0 0 -18.782156932704225 9.3124061394482851 0 9.3124061394482851 71.349967049563929 0 0 0 0 -0.87504809642462078 52.853800331387902 0 52.853800331387902 80.358718224797485 0 0 0 0 -8.7638900395436536 26.459086954297163 0 26.459086954297163 22.751326457946561 0 0 0 0 -26.076679048872592 27.928576368758513 0 27.928576368758513 129.84473588823494 0 0 0 0 -147.10661326319195 120.34048659213113 0 120.34048659213113 136.63314044330036 0 0 0 0 4.0292982256581134 24.255835173141236 0 24.255835173141236 52.162743364208325 0 0 0 0 -146.72849542389042 98.741978599719005 0 98.741978599719005 40.41133652953431 0 0 0 0 -104.13925256970481 -138.002970003261 0 -138.002970003261 608.76692565515987 0 0 0 0 30.873808922640706 97.920763649774017 0 97.920763649774017 113.63389173408359 0 0 0 0 102.89472685316969 87.358715531983762 0 87.358715531983762 20.039790001465008 0 0 0 0 175.55009022178768 106.78085929137887 0 106.78085929137887 -261.5486888839223 0 0 0 0 2.1098568208100481 18.891029232177374 0 18.891029232177374 57.967565964434414 0 0 0 0 4.2866750955233588 8.0343842137004202 0 8.0343842137004202 -5.5177383698587619 0 0 0 0 -174.04723289832145 252.60806899079034 0 252.60806899079034 -79.081032254674938 0 0 0 0 -121.92071353725237 33.988782025680848 0 33.988782025680848 -33.376904596269014 0 0 0 0 -8.0154046725554053 167.51682510542014 0 167.51682510542014 122.98240822769731 0 0 0 0 3.4971643375542225 4.0656883744265997 0 4.0656883744265997 16.216699948043981 0 0 0 0 -22.477134040609215 30.444856968410022 0 30.444856968410022 23.531891000915493 0 0 0 0 -333.65344300924801 259.40779665674563 0 259.40779665674563 156.31211434213037 0 0 0 0 -9.7348172958438681 205.00013397134171 0 205.00013397134171 -11.680255002451304 0 0 0 0 -35.623913476376174 -15.786965993560443 0 -15.786965993560443 106.13709676708095 0 0 0 0 -3.1668913944337116 11.848013143501156 0 11.848013143501156 48.31877236865472 0 0 0 0 28.837656025523387 -98.469699269656303 0 -98.469699269656303 234.22619385577855 0 0 0 0 -73.088592910091279 -117.38764238941076 0 -117.38764238941076 839.81790704241575 0 0 0 0 -227.69446097375362 -93.678297413658584 0 -93.678297413658584 614.38219290797133 0 0 0 0 -1.1117694385455934 -212.58675451597082 0 -212.58675451597082 228.39581394645211 0 0 0 0 -171.32528222561928 -11.902173325477634 0 -11.902173325477634 224.31323130018427 0 0 0 0 116.07691770404827 -90.217361771992728 0 -90.217361771992728 -19.77811305756768 0 0 0 0 1.5340887631813294 3.5835372882103229 0 3.5835372882103229 5.7283023952779217 0 0 0 0 -4.906693617030804 6.8441470910473328 0 6.8441470910473328 54.048866332552336 0 0 0 0 -11.230466006614503 26.374110672979441 0 26.374110672979441 -6.1025066475303902 0 0 0 0 -9.2487504810181278 12.284166064518104 0 12.284166064518104 -5.6497185739863198 0 0 0 0 7.8635119449905339e-05 22.413015526410163 0 22.413015526410163 5.4189631536428351 0 0 0 0 -0.020362833412741439 13.953920197996922 0 13.953920197996922 -12.365707768141874 0 0 0 0 -403.27064389435532 -1021.783435176847 0 -1021.783435176847 3502.5686038867971 0 0 0 0 220.9383146675886 -238.90172072409041 0 -238.90172072409041 4.0994258878199616 0 0 0 0 0.012556471036799521 0.58730425136084818 0 0.58730425136084818 2.3758122856323212 0 0 0 0 -4.0578976933083624 4.3288994323407621 0 4.3288994323407621 43.293964382416277 0 0 0 0 284.01948219665417 -737.70031982098953 0 -737.70031982098953 1169.1833713500382 0 0 0 0 -212.88099542857469 134.5699584228496 0 134.5699584228496 287.06831971280553 0 0 0 0 0.6359249148460322 92.907258100505075 0 92.907258100505075 -82.653565891319886 0 0 0 0 30.326386991592873 24.257635048418823 0 24.257635048418823 4010.4394713408838 0 0 0 0 -0.92294417509902926 -1.5821997416027784 0 -1.5821997416027784 19.651332710153781 0 0 0 0 391.93116103186895 -1961.5651282458384 0 -1961.5651282458384 3537.2595494762936 0 0 0 0 -0.4342341748992069 93.7509441036309 0 93.7509441036309 -82.005124829418492 0 0 0 0 2535.9314194552303 -2449.1794400715298 0 -2449.1794400715298 1699.0227143598258 0 0 0 0 31.607231410080484 -976.96396691289556 0 -976.96396691289556 3285.6852374876798 0 0 0 0 -457.04975371332011 -779.74793798842438 0 -779.74793798842438 1994.2367375876638 0 0 0 0 -381.61336519561269 -557.86986657990565 0 -557.86986657990565 2298.5514938137349 0 0 0 0 -4.6136838463467305 -0.19693261936706108 0 -0.19693261936706108 5.6000934405131915 0 0 0 0 431.94517715530338 -1075.5496722641819 0 -1075.5496722641819 1454.8545121000279 0 0 0 0 57.64235626672837 -229.67996093913098 0 -229.67996093913098 545.30092300603428 0 0 0 0 233.05595188428299 -614.52472904465321 0 -614.52472904465321 942.37350660131779 0 0 0 0 324.18245866022028 -573.66375287070514 0 -573.66375287070514 1272.9183100192022 0 0 0 0 148.3164130084981 -327.74399223576984 0 -327.74399223576984 1887.8340841146019 0 0 0 0 277.5221369477174 -626.79638544428599 0 -626.79638544428599 1798.2606631178451 0 0 0 0 -12.153267679347664 -413.43804638651636 0 -413.43804638651636 1823.0637042735543 0 0 0 0 230.40595284783797 -671.26791741215129 0 -671.26791741215129 2694.2069348464356 0 0 0 0 -284.05353298040956 -503.36431217553218 0 -503.36431217553218 3498.5321686720017 0 0 0 0 36.894754375189677 -852.60921299810434 0 -852.60921299810434 2628.8923848819541 0 0 0 0 -7.5977891977134409 -0.51048971722474334 0 -0.51048971722474334 7.1325499406642763 0 0 0 0 -411.07629656327964 90.857276399370676 0 90.857276399370676 2027.416086647645 0 0 0 0 56.675611320999906 -836.25281579977673 0 -836.25281579977673 2618.3084646052448 0 0 0 0 -3.1409932934645326 -0.54372277370600841 0 -0.54372277370600841 4.1631113267357875 0 0 0 0 -100.36303041809281 -541.31758906155233 0 -541.31758906155233 2257.5713387113647 0 0 0 0 -103.99978554931704 -268.91808191122618 0 -268.91808191122618 1626.2521104726329 0 0 0 0 58.550827988728955 -91.963003437838779 0 -91.963003437838779 696.96697532337566 0 0 0 0 173.3475806952751 -186.62100530854877 0 -186.62100530854877 305.51850746631681 0 0 0 0 112.76758510786408 -103.04451430599875 0 -103.04451430599875 657.81084401510407 0 0 0 0 219.52236596222752 27.68765110188906 0 27.68765110188906 228.09810450147779 0 0 0 0 317.96029605162767 -219.42271071605865 0 -219.42271071605865 661.88429084735981 0 0 0 0 -4.1283200797274731 -44.630663982497936 0 -44.630663982497936 1680.0965090206046 0 0 0 0 238.88850022905649 -0.85014050368044991 0 -0.85014050368044991 762.28855999657389 0 0 0 0 18.481283523350612 -233.12974223035417 0 -233.12974223035417 1290.9563844196678 0 0 0 0 318.2056748735049 -243.99757411242172 0 -243.99757411242172 528.52456275154691 0 0 0 0 229.31288020708166 22.70534989299631 0 22.70534989299631 244.93811789533356 0 0 0 0 -3.9457722760853358 7.6868603447292116 0 7.6868603447292116 517.00095693581261 0 0 0 0 175.52770244381503 -179.53467657555029 0 -179.53467657555029 607.47114753522328 0 0 0 0 226.17863572375882 24.14022226932866 0 24.14022226932866 239.28960408101557 0 0 0 0 119.45913723901387 -60.575196197377863 0 -60.575196197377863 191.07497035754204 0 0 0 0 152.89955735845137 72.417729450069601 0 72.417729450069601 35.786303927503468 0 0 0 0 8.1663508265039582 -11.4826799270013 0 -11.4826799270013 245.46819370213052 0 0 0 0 -28.552506312489641 89.975125510871294 0 89.975125510871294 17.839198504043452 0 0 0 0 156.05681265376575 109.80725088502732 0 109.80725088502732 13.123777948843781 0 0 0 0 -8.1673415848590594 76.700848379907256 0 76.700848379907256 -106.1046075767299 0 0 0 0 4.2438103637418862 93.558463147761358 0 93.558463147761358 -86.513518979059882 0 0 0 0 -81.819420428786543 185.00763602661027 0 185.00763602661027 -103.82281691524804 0 0 0 0 46.050331900613287 -0.22581546783112572 0 -0.22581546783112572 -7.9581436737935292 0 0 0 0 125.64997066570345 121.26026084370824 0 121.26026084370824 -91.26692892495339 0 0 0 0 116.96845785665187 61.087342799459293 0 61.087342799459293 -91.046727524444577 0 0 0 0 61.458514888752688 -26.556939300215163 0 -26.556939300215163 -7.3619272388118588 0 0 0 0 197.76211480831716 -68.147476772101072 0 -68.147476772101072 -5.133705564443062 0 0 0 0 95.735602585371936 10.354874408569231 0 10.354874408569231 -130.88398932786367 0 0 0 0 74.881905256449272 -111.87113871963084 0 -111.87113871963084 -59.960416573623661 0 0 0 0 42.591779735470197 -64.549492941187054 0 -64.549492941187054 12.060386460412701 0 0 0 0 -30.807417929089354 -72.766785850180895 0 -72.766785850180895 249.07515462926676 0 0 0 0 163.54379490674839 -110.30100840186424 0 -110.30100840186424 28.830855481472099 0 0 0 0 81.587551629755694 -60.556041132073005 0 -60.556041132073005 225.50345513272623 0 0 0 0 -60.518199380475025 -159.80106620051811 0 -159.80106620051811 179.66358543741808 0 0 0 0 -73.191913331668957 -106.89242457066575 0 -106.89242457066575 120.04558260074555 0 0 0 0 14.890105542989083 -90.272688947748975 0 -90.272688947748975 112.21625917651181 0 0 0 0 -121.92055326401675 -100.06581654421461 0 -100.06581654421461 122.27187001919083 0 0 0 0 49.674996381425402 -86.639095360083957 0 -86.639095360083957 -125.47027276549488 0 0 0 0 -45.808802009292094 -158.63563728398003 0 -158.63563728398003 13.197432642686181 0 0 0 0 -21.495188228836923 -67.49327327721403 0 -67.49327327721403 -27.213196989241624 0 0 0 0 -10.112880682014918 -10.396897400913673 0 -10.396897400913673 62.418794575955701 0 0 0 0 -17.276274931178023 -48.182720737531781 0 -48.182720737531781 54.497804475484372 0 0 0 0 -33.524072934555534 25.283601380437176 0 25.283601380437176 104.30662335554371 0 0 0 0 13.645044058069971 17.151144336075959 0 17.151144336075959 66.316506132374343 0 0 0 0 -10.547522470574524 -9.449746157445766 0 -9.449746157445766 65.097673152338189 0 0 0 0 -28.472422568044408 -63.762661629501963 0 -63.762661629501963 86.572529794459115 0 0 0 0 -100.61068091746779 -51.098038510077458 0 -51.098038510077458 128.43776872358285 0 0 0 0 -79.408631054218631 -76.891742332657486 0 -76.891742332657486 67.13649587596592 0 0 0 0 -64.916832301976115 36.303991637039871 0 36.303991637039871 78.594474651705241 0 0 0 0 2709.0221263848634 731.07506004867901 0 731.07506004867901 1562.1436677390593 0 0 0 0 -171.10019657858948 69.046888617398508 0 69.046888617398508 76.249084148119891 0 0 0 0 12.370722691872576 23.035361473877487 0 23.035361473877487 35.46568463053211 0 0 0 0 -230.23814197136335 -27.003216922083084 0 -27.003216922083084 128.82588875367946 0 0 0 0 -337.88751179306917 371.86750599052539 0 371.86750599052539 2676.384080036165 0 0 0 0 -451.75551823391299 98.806485783955395 0 98.806485783955395 3081.3461464926222 0 0 0 0 -592.03221177274008 772.40134249586993 0 772.40134249586993 2424.9198225275686 0 0 0 0 -604.29819607542095 414.49367083940945 0 414.49367083940945 3157.3192762942199 0 0 0 0 -690.21841134885904 1208.9918598253607 0 1208.9918598253607 2294.961935036983 0 0 0 0 -709.07863402079579 -2507.6596262782259 0 -2507.6596262782259 2567.8644792238338 0 0 0 0 -278.45673836200484 612.25515761535644 0 612.25515761535644 -44.027109261096484 0 0 0 0 -95.919878609886041 -51.23738753624275 0 -51.23738753624275 1.3401206054259092 0 0 0 0 6.0845015658994601 10.716133341323712 0 10.716133341323712 14.699457588946416 0 0 0 0 -794.08190872031241 -2619.0738121539835 0 -2619.0738121539835 3614.6868330092111 0 0 0 0 -146.81250139219864 -62.519848377115522 0 -62.519848377115522 246.19533563683217 0 0 0 0 -33.424944687898403 44.465477940022538 0 44.465477940022538 118.41038484167075 0 0 0 0 -132.20752601675326 -27.856527366238879 0 -27.856527366238879 111.40114761108271 0 0 0 0 -70.650153434759773 39.533489267665573 0 39.533489267665573 638.08397234453878 0 0 0 0 -290.10987397116406 719.76619615488744 0 719.76619615488744 1888.293179192442 0 0 0 0 1048.8496490353671 -177.82800893886451 0 -177.82800893886451 1491.6344007066655 0 0 0 0 151.43807233169025 451.424135641264 0 451.424135641264 1668.2321107666039 0 0 0 0 -706.76448188259985 1006.7166324748086 0 1006.7166324748086 3495.6094002680875 0 0 0 0 -45.013658126246526 -215.28463101647503 0 -215.28463101647503 3483.6095476085966 0 0 0 0 -414.92174980090459 101.06968892195891 0 101.06968892195891 2402.1905008970498 0 0 0 0 69.537851905164871 158.19203157397988 0 158.19203157397988 853.9672928885193 0 0 0 0 325.96084052885476 -1924.0386903976728 0 -1924.0386903976728 1100.5012031451624 0 0 0 0 351.69100331095132 2238.039181572778 0 2238.039181572778 1798.2628089971222 0 0 0 0 0.37638317098719176 -1.7865531020166827 0 -1.7865531020166827 23.877899405387097 0 0 0 0 -1262.0454585596713 -397.47230814799741 0 -397.47230814799741 745.00578014391795 0 0 0 0 -1959.765122693379 645.70122625765725 0 645.70122625765725 1142.0498156260437 0 0 0 0 -2.0474539475845179 -5.7255628214884453 0 -5.7255628214884453 50.283861215227546 0 0 0 0 -0.77899102334530168 -4.2505309531707312 0 -4.2505309531707312 26.297325529331431 0 0 0 0 -575.54513921382795 -2494.0495260076277 0 -2494.0495260076277 2200.2442863940087 0 0 0 0 48.232712320056635 -836.51859709666132 0 -836.51859709666132 -445.95696669224708 0 0 0 0 292.64122453550766 353.63506853360741 0 353.63506853360741 237.88071775979188 0 0 0 0 -140.4240711224804 1172.2907777530672 0 1172.2907777530672 926.8236224750508 0 0 0 0 252.58513431916285 657.5273664953711 0 657.5273664953711 1408.6403233972669 0 0 0 0 38.344033209475754 472.27501141996254 0 472.27501141996254 1369.052181528843 0 0 0 0 110.19519210964793 461.18713316339017 0 461.18713316339017 1236.3398456562281 0 0 0 0 291.61650848950273 -277.23886398395916 0 -277.23886398395916 1376.6816740958311 0 0 0 0 -32.904285335003465 164.86879164035781 0 164.86879164035781 878.78025491020526 0 0 0 0 -591.47220780085718 -820.80542616832531 0 -820.80542616832531 3501.5621186364369 0 0 0 0 -591.08394036982793 -818.88068915963231 0 -818.88068915963231 3490.3360197153161 0 0 0 0 -402.92615938741051 1.0650069005714613 0 1.0650069005714613 3499.1163095260677 0 0 0 0 -433.16033062265211 -204.00476369841272 0 -204.00476369841272 2213.6987627914059 0 0 0 0 5.8212354171514562 -47.986870608663594 0 -47.986870608663594 2199.0387682247524 0 0 0 0 -220.06710279716384 404.91069265454735 0 404.91069265454735 2530.2376699799934 0 0 0 0 -26.572889899064194 203.63944690013886 0 203.63944690013886 2298.7375720535856 0 0 0 0 -33.845541595518853 121.67586687951098 0 121.67586687951098 1812.0877451635824 0 0 0 0 167.56340353508176 271.0969383062511 0 271.0969383062511 1809.5373863028822 0 0 0 0 220.49948238887231 249.42105289223218 0 249.42105289223218 1640.9669460327059 0 0 0 0 164.32861059747063 302.99356627462475 0 302.99356627462475 1624.6804635786357 0 0 0 0 573.32194118780274 220.70056731923341 0 220.70056731923341 1617.1993307961384 0 0 0 0 3.0308655376149214 -3.3468762854613487 0 -3.3468762854613487 5.7450225614135206 0 0 0 0 176.96113697668747 496.78135259988994 0 496.78135259988994 1897.3269433299029 0 0 0 0 490.25153925342249 -8.9915816149941747 0 -8.9915816149941747 -2.750509639561642 0 0 0 0 96.880234490779003 19.302138829429168 0 19.302138829429168 49.971884275506454 0 0 0 0 85.980188349186079 56.715973206977651 0 56.715973206977651 494.02983734378722 0 0 0 0 6.6016235596500845 -8.8521244359900351 0 -8.8521244359900351 15.075626050208683 0 0 0 0 -88.455824774017458 488.5126256904623 0 488.5126256904623 1615.4091333726824 0 0 0 0 181.58514840404877 507.61809707228031 0 507.61809707228031 1119.6749989342061 0 0 0 0 -64.013392408776156 381.19979493474239 0 381.19979493474239 1962.7114906029383 0 0 0 0 -57.073285032952811 234.9679262123791 0 234.9679262123791 1086.3825526090077 0 0 0 0 -122.26892933547097 382.31035841400808 0 382.31035841400808 2157.3704062860561 0 0 0 0 202.38869226396503 331.33975847621332 0 331.33975847621332 63.354315982032858 0 0 0 0 0.73363972006627987 1.8352899359061539 0 1.8352899359061539 13.421275163472757 0 0 0 0 -263.39183779968084 -523.77486273551767 0 -523.77486273551767 733.57327925274876 0 0 0 0 348.68832709734886 -68.793784533724647 0 -68.793784533724647 99.771730947497417 0 0 0 0 2.6775420842634166 -1.5489432275931492 0 -1.5489432275931492 3.1348371249821412 0 0 0 0 26.344623343468641 213.34475870063034 0 213.34475870063034 1082.7504063043561 0 0 0 0 -58.705044965960099 -49.698231268625705 0 -49.698231268625705 190.64558986802876 0 0 0 0 1.3439062081701409 -1.320439441292919 0 -1.320439441292919 5.4945695813422617 0 0 0 0 3.7941094614657231 12.080498335119046 0 12.080498335119046 21.103490664812853 0 0 0 0 25.615123518271389 184.95300648979901 0 184.95300648979901 -144.36125160011579 0 0 0 0 2.1939559297877622 3.1365685467608273 0 3.1365685467608273 126.31759009266534 0 0 0 0 -3.198123304212821 -3.4015934390299662 0 -3.4015934390299662 9.0017301129106357 0 0 0 0 -84.483396838399756 416.97009506767063 0 416.97009506767063 90.430743500461176 0 0 0 0 120.54555562774226 28.807905870737159 0 28.807905870737159 111.60673363914975 0 0 0 0 8.3678199798152377 2.9816799503078073 0 2.9816799503078073 148.05223232637218 0 0 0 0 5.6903012227458021 10.07063401157211 0 10.07063401157211 20.596311942910688 0 0 0 0 8.2530466401995 10.170635627204319 0 10.170635627204319 20.321111390356236 0 0 0 0 8.993765353383651 11.914365480653942 0 11.914365480653942 20.718338439310173 0 0 0 0 3.6415789639804643 13.965230424248148 0 13.965230424248148 21.956736718500906 0 0 0 0 6.5293954968847174 15.201456476661406 0 15.201456476661406 22.39226161827537 0 0 0 0 2.2878054451726912 5.2948697994751726 0 5.2948697994751726 24.744689212054709 0 0 0 0 86.747839202635078 -48.515366442545201 0 -48.515366442545201 32.504765686121573 0 0 0 0 27.916106028986405 -7.1592409665754531 0 -7.1592409665754531 23.664857196923549 0 0 0 0 85.671034655892754 -60.804539650718652 0 -60.804539650718652 -19.648555670341011 0 0 0 0 77.240027565365722 -20.593804557852309 0 -20.593804557852309 30.127828737902746 0 0 0 0 30.886940766110911 2.6558042436627147 0 2.6558042436627147 40.944159509293968 0 0 0 0 -8.1466265649914931 32.409916093383799 0 32.409916093383799 44.489391719922423 0 0 0 0 9.2184477998414422 25.346797387217521 0 25.346797387217521 27.840408495059819 0 0 0 0 2.35697835852352 55.78486075620458 0 55.78486075620458 62.436751048982842 0 0 0 0 -15.613919594704385 27.462433521446656 0 27.462433521446656 41.966761071082146 0 0 0 0 -48.997541480855034 20.903312299436948 0 20.903312299436948 58.140450770071766 0 0 0 0 0.30240548115845078 4.736813754330492 0 4.736813754330492 44.935251012069386 0 0 0 0 216.0718571327061 349.45190179640485 0 349.45190179640485 200.8656453609874 0 0 0 0 -0.27323333876743305 -0.96883154910221236 0 -0.96883154910221236 8.3134383684110276 0 0 0 0 461.51890387763933 -336.73898191141052 0 -336.73898191141052 -395.39695783381467 0 0 0 0 -16.204296981828975 22.615938511953573 0 22.615938511953573 45.71476986433845 0 0 0 0 -8.1858629519310853 19.695423405803012 0 19.695423405803012 42.279672923556063 0 0 0 0 4.5544165257072109 11.992313029255456 0 11.992313029255456 75.681657202832866 0 0 0 0 2.7609852528161367 11.789175304354664 0 11.789175304354664 36.311473379968561 0 0 0 0 -262.6280827840942 -196.43617617192649 0 -196.43617617192649 40.083282153063919 0 0 0 0 34.502393210184891 -12.403796155886084 0 -12.403796155886084 37.442062222980894 0 0 0 0 1.6831010943174085 8.0844707328782697 0 8.0844707328782697 1.4929475891916013 0 0 0 0 45.241422892114088 -48.279654275338544 0 -48.279654275338544 76.138458352274029 0 0 0 0 -7.3648790967212676 16.544140888250695 0 16.544140888250695 33.814215153339319 0 0 0 0 5.0224137303694079 13.046432207622274 0 13.046432207622274 23.929096715364722 0 0 0 0 3.7967917637961364 23.616312622179976 0 23.616312622179976 36.12098061456345 0 0 0 0 15.892094585362088 12.843021571177815 0 12.843021571177815 21.137539502116852 0 0 0 0 7.3705457136387622 16.427470031783741 0 16.427470031783741 28.094317863709875 0 0 0 0 20.817442328439483 14.724069486321241 0 14.724069486321241 28.065111624291717 0 0 0 0 17.964783817207355 17.306143329224199 0 17.306143329224199 31.974383335487801 0 0 0 0 17.971705014233777 16.443751855502342 0 16.443751855502342 27.290504624907044 0 0 0 0 7.1041459433995442 23.849462325135391 0 23.849462325135391 61.192009874735959 0 0 0 0 -0.5248764669338728 -0.73381359282699066 0 -0.73381359282699066 1.7019059524853049 0 0 0 0 16.616472123309222 -8.7442122057691449 0 -8.7442122057691449 7.0947147002225392 0 0 0 0 -57.384059389712093 15.072839629756345 0 15.072839629756345 4.3233535451145144 0 0 0 0 13.242581811718949 6.3536629263180657 0 6.3536629263180657 30.263520903770768 0 0 0 0 13.53085279981363 8.1836201473415713 0 8.1836201473415713 39.271164311365283 0 0 0 0 32.490804851282746 17.378835944458842 0 17.378835944458842 14.794978481248108 0 0 0 0 14.845607539051571 7.4450898303839494 0 7.4450898303839494 20.868554025160847 0 0 0 0 40.400773522474083 36.316380949756422 0 36.316380949756422 27.183967094377749 0 0 0 0 52.514003715089586 37.578605357317429 0 37.578605357317429 32.263024237036007 0 0 0 0 5.8250677295120568 106.30969582589387 0 106.30969582589387 240.40629088456626 0 0 0 0 108.87407193369108 99.428286565933377 0 99.428286565933377 16.580198366258628 0 0 0 0 86.774364078111944 50.8114739326993 0 50.8114739326993 -32.684441549408945 0 0 0 0 2.6315188016041136 1.5800688141758599 0 1.5800688141758599 1.3916162563069463 0 0 0 0 28.928895800004284 -16.356327958237671 0 -16.356327958237671 -32.61619392556895 0 0 0 0 1.8165971405942398 16.129029552320048 0 16.129029552320048 20.283416654082487 0 0 0 0 61.403799479364508 -264.8710340007965 0 -264.8710340007965 233.0971603608923 0 0 0 0 60.199846472017228 274.24441221969801 0 274.24441221969801 56.894841806279146 0 0 0 0 113.070636168904 -188.35194021496864 0 -188.35194021496864 75.493525827281701 0 0 0 0 -40.21008165455487 -96.992729949604836 0 -96.992729949604836 276.33375732891 0 0 0 0 -32.930190521189616 -60.573243984596047 0 -60.573243984596047 21.218281945366471 0 0 0 0 -35.133991568639431 -31.983836332336068 0 -31.983836332336068 101.44817250236065 0 0 0 0 -29.490538360993014 -79.964792438629956 0 -79.964792438629956 106.19236773648117 0 0 0 0 -73.929324666452885 -6.5550081754627172 0 -6.5550081754627172 58.775573327962775 0 0 0 0 -43.307653756855871 32.467214514050283 0 32.467214514050283 126.65683028541025 0 0 0 0 -51.260027170348167 -42.7406203975479 0 -42.7406203975479 109.71155310721952 0 0 0 0 -18.40585701131613 41.697540789758932 0 41.697540789758932 70.210542075816193 0 0 0 0 -25.631032437312342 34.332255435486331 0 34.332255435486331 49.992887979955412 0 0 0 0 -26.894102993700471 40.031646100062062 0 40.031646100062062 70.934331202734029 0 0 0 0 -34.941564311025559 38.883986038315925 0 38.883986038315925 63.458994940534467 0 0 0 0 -53.152642195201452 -42.545269865335285 0 -42.545269865335285 52.692863302399928 0 0 0 0 -68.007016536370429 -11.840613687265432 0 -11.840613687265432 47.852378392883111 0 0 0 0 79.095741252006007 -64.251381079780913 0 -64.251381079780913 -1.8582036559673725 0 0 0 0 -138.24263455634355 4.799238453462749 0 4.799238453462749 138.94661221305432 0 0 0 0 -34.255599311826245 59.334792790214124 0 59.334792790214124 73.385428546280309 0 0 0 0 -100.94599819938549 -17.084971016862255 0 -17.084971016862255 87.130351965752197 0 0 0 0 -0.78877773330335388 1.6021900136288139 0 1.6021900136288139 51.349541158702522 0 0 0 0 -30.80113988019184 61.903121561728767 0 61.903121561728767 15.990256953475182 0 0 0 0 2.0156749413288537 5.5089516155594538 0 5.5089516155594538 27.879105084866751 0 0 0 0 27.262145288845431 21.444111309534492 0 21.444111309534492 33.49235611705808 0 0 0 0 0.40532283449146211 7.2817948735568461 0 7.2817948735568461 40.926146732239033 0 0 0 0 20.92317253748638 36.637816003232729 0 36.637816003232729 38.533122204059509 0 0 0 0 -0.17608793163483605 -10.653194693962678 0 -10.653194693962678 27.315539733830605 0 0 0 0 -14.958443944379269 -36.330329048942076 0 -36.330329048942076 3.5053852420242038 0 0 0 0 -1.1466263038985929 1.5829631058303022 0 1.5829631058303022 25.671470226565049 0 0 0 0 -2.3323582344432907 4.7323030850420764 0 4.7323030850420764 36.687717754291953 0 0 0 0 25.95837062546525 6.1962287525311694 0 6.1962287525311694 45.3835539065185 0 0 0 0 7.2125218052024742 3.6596283659008719 0 3.6596283659008719 29.360375041835823 0 0 0 0 45.743811011970593 18.072602687934705 0 18.072602687934705 50.002490075479727 0 0 0 0 13.439966124444727 16.516998075009468 0 16.516998075009468 76.467302233867713 0 0 0 0 -1.8955342618497149 11.152768888887067 0 11.152768888887067 65.10352529050455 0 0 0 0 -8.0043958038568235 7.4309810050181113 0 7.4309810050181113 59.182936867109674 0 0 0 0 -8.0110465727602893 6.4576183209555893 0 6.4576183209555893 56.421207273611799 0 0 0 0 1.4517776958336981 140.97810593069153 0 140.97810593069153 140.01668951110332 0 0 0 0 -4.98921570424063 2.4855248994746688 0 2.4855248994746688 82.782900090270203 0 0 0 0 0.53579978971553821 18.139433829586125 0 18.139433829586125 4.2463671958988414 0 0 0 0 -163.2675603003272 -68.551323344814591 0 -68.551323344814591 297.04339912795695 0 0 0 0 70.515616113572833 130.82871265887661 0 130.82871265887661 33.028413268955774 0 0 0 0 2.2701153813422739 -4.8915309047620354 0 -4.8915309047620354 18.181909290051749 0 0 0 0 9.5595378332309338 40.005233578340267 0 40.005233578340267 205.04016384665738 0 0 0 0 30.305747078889965 76.913395771738578 0 76.913395771738578 116.92354319736478 0 0 0 0 30.5205280302132 73.772659456702968 0 73.772659456702968 161.0979291779804 0 0 0 0 -1.6247259368883533 106.43457370231044 0 106.43457370231044 128.54590210257447 0 0 0 0 -2.5527477848518174 51.965299408475403 0 51.965299408475403 1.35505301921512 0 0 0 0 -26.220447481789051 45.648075815472112 0 45.648075815472112 81.607607518570148 0 0 0 0 -50.013418617992102 53.557795899650955 0 53.557795899650955 148.5022699390538 0 0 0 0 21.798723428950325 158.91064388120867 0 158.91064388120867 186.98764732737618 0 0 0 0 -114.648716033852 -3.9073636338798678 0 -3.9073636338798678 254.96110246542594 0 0 0 0 -159.47528712327039 1.6085646749852458 0 1.6085646749852458 199.1538065472414 0 0 0 0 -89.982295852790685 -11.438389856826689 0 -11.438389856826689 100.76480492980045 0 0 0 0 -6.1146580299828202 8.6451779135459219 0 8.6451779135459219 56.251662309456151 0 0 0 0 -16.329091783292824 -43.278251451149117 0 -43.278251451149117 94.171098741429887 0 0 0 0 -136.80202078971524 -40.606365152561921 0 -40.606365152561921 97.863653809192328 0 0 0 0 -0.31051777324653074 -0.17455457513040074 0 -0.17455457513040074 31.073572159121994 0 0 0 0 -3.2842479927869723 5.6834958303414673 0 5.6834958303414673 46.781305874903566 0 0 0 0 -0.77806257065822138 38.078007046307903 0 38.078007046307903 124.13614088648046 0 0 0 0 -6.010710147545069 8.2613311592722312 0 8.2613311592722312 55.786287960501795 0 0 0 0 -2.1268142174973237 29.294382172584392 0 29.294382172584392 95.972303100886023 0 0 0 0 -108.81808101581919 -21.753453736047959 0 -21.753453736047959 69.377963000108139 0 0 0 0 2.899772163761078 5.1424103939614128 0 5.1424103939614128 63.339519157971836 0 0 0 0 -131.27276157880942 -15.846858985783911 0 -15.846858985783911 133.81635893331259 0 0 0 0 104.96125549630688 -112.68150444139246 0 -112.68150444139246 84.829227970862121 0 0 0 0 131.97893811744495 -18.214007915899856 0 -18.214007915899856 4.6512359114694846 0 0 0 0 237.83233687136902 286.08461037065717 0 286.08461037065717 254.13778686420119 0 0 0 0 1.0787963857306195 -2.303387459990347 0 -2.303387459990347 5.1709411933286731 0 0 0 0 141.95197732744873 78.054004279823857 0 78.054004279823857 115.70035021349031 0 0 0 0 14.698393242959469 6.5241140438447474 0 6.5241140438447474 31.011508865562064 0 0 0 0 51.979678553082749 -20.361872605710232 0 -20.361872605710232 41.7136108452396 0 0 0 0 -12.516596629473383 -15.570015461315052 0 -15.570015461315052 41.381661900151812 0 0 0 0 19.523320768483927 -8.0515394592221128 0 -8.0515394592221128 41.637693496715656 0 0 0 0 5.0529972562478633 -5.3513850770978024 0 -5.3513850770978024 41.136809930379968 0 0 0 0 7.2449332319385888 25.288413086428591 0 25.288413086428591 -117.21918553678552 0 0 0 0 90.832248305848111 -97.742101332201855 0 -97.742101332201855 -88.461743701249361 0 0 0 0 -0.83213427517192962 11.037574400756213 0 11.037574400756213 20.469425782529754 0 0 0 0 19.778917085454598 1.2511780947450006 0 1.2511780947450006 45.036906625013216 0 0 0 0 -47.062006294618641 -13.160887849815481 0 -13.160887849815481 50.723732373093299 0 0 0 0 -73.301630858879662 -69.378989969496615 0 -69.378989969496615 35.074158808780339 0 0 0 0 4.8412828001404478 -43.918584735984041 0 -43.918584735984041 41.188489439533441 0 0 0 0 95.342784419133523 -8.1208113818938727 0 -8.1208113818938727 3.7582297018761892 0 0 0 0 0.51129872729148929 -7.6816484768496593 0 -7.6816484768496593 4.3848862777231261 0 0 0 0 14.634280879798041 -32.975352784982533 0 -32.975352784982533 49.213490071699198 0 0 0 0 -3.3975942724252945 -48.216424672624271 0 -48.216424672624271 46.818435942550423 0 0 0 0 -12.088570836175791 -34.841359826754342 0 -34.841359826754342 50.05247856321148 0 0 0 0 -24.826312074462294 -19.918476785303938 0 -19.918476785303938 107.01778174310311 0 0 0 0 -152.53923949320972 64.746137851401727 0 64.746137851401727 82.82769490622195 0 0 0 0 -100.88596102091199 -88.159245937106789 0 -88.159245937106789 279.03228099401895 0 0 0 0 59.191503094340533 61.413352114985173 0 61.413352114985173 93.124446809466463 0 0 0 0 15.924486129674392 36.741028058277152 0 36.741028058277152 123.13358287740266 0 0 0 0 13.983603324087198 54.463656132458709 0 54.463656132458709 221.23525824231911 0 0 0 0 22.343640477483177 53.834808804138447 0 53.834808804138447 109.79532528721029 0 0 0 0 29.3148748223025 29.46471191913588 0 29.46471191913588 91.712461144476947 0 0 0 0 -14.299739812976668 -105.55115187862248 0 -105.55115187862248 11.544891710625961 0 0 0 0 435.01161635034896 59.085830915777478 0 59.085830915777478 -397.63705849996768 0 0 0 0 103.53414675238037 182.85801171808271 0 182.85801171808271 258.89691737743851 0 0 0 0 76.135993512972618 248.36650811726577 0 248.36650811726577 151.53209476344637 0 0 0 0 -4.5615959691984687 22.594718812724764 0 22.594718812724764 58.21224872261206 0 0 0 0 -32.320298585501575 -0.72231045793341764 0 -0.72231045793341764 58.22919719634956 0 0 0 0 2.7257135433548827 1.3701433670874223 0 1.3701433670874223 -0.84508434549461242 0 0 0 0 -5.3251846437942731 15.477778319822391 0 15.477778319822391 296.96360419493794 0 0 0 0 -67.366925493348845 70.910464396292809 0 70.910464396292809 -66.064431493374286 0 0 0 0 18.430370711065734 -31.699933471274562 0 -31.699933471274562 182.94352608187182 0 0 0 0 -4.3955871408190887 9.4493674237601226 0 9.4493674237601226 39.056585330147755 0 0 0 0 -6.3060584388026308 18.821747617538634 0 18.821747617538634 8.9171208591729112 0 0 0 0 2.6368207988921215 14.051477136742392 0 14.051477136742392 38.422226900624338 0 0 0 0 -7.081780596072349 -7.1471223730186466 0 -7.1471223730186466 58.263350317144756 0 0 0 0 2.2181555827165838 -0.87429301880490584 0 -0.87429301880490584 13.652163070883404 0 0 0 0 3.5335599124312012 44.577336483311228 0 44.577336483311228 101.00210335636075 0 0 0 0 5.0432805274987089 24.726489118271502 0 24.726489118271502 61.932845120842103 0 0 0 0 -4.7497311390645756 18.620894252324433 0 18.620894252324433 53.22490758242202 0 0 0 0 -19.990475472609774 -2.4412593616889353 0 -2.4412593616889353 70.16723598210956 0 0 0 0 6.9407594908258972 8.017219643914359 0 8.017219643914359 59.712918880744837 0 0 0 0 -2.556197566211929 -5.0168602146577683 0 -5.0168602146577683 34.484659160313697 0 0 0 0 -5.6258439752334652 -31.652212843084271 0 -31.652212843084271 40.008087253092526 0 0 0 0 -26.972186673084593 19.137973311080714 0 19.137973311080714 88.454723175949766 0 0 0 0 21.58612887599088 8.9627336774829018 0 8.9627336774829018 -20.992894468166924 0 0 0 0 -0.89579875896764649 11.394856425803226 0 11.394856425803226 28.131503211415591 0 0 0 0 4.160993793045904 2.2781950650169165 0 2.2781950650169165 78.411661107216787 0 0 0 0 1.4229693137820081 -1.9165727586066197 0 -1.9165727586066197 0.94544044602955069 0 0 0 0 57.107869654654763 155.16132797922364 0 155.16132797922364 218.03029301374045 0 0 0 0 2.3233098719445313 16.908081746688566 0 16.908081746688566 20.388159275324313 0 0 0 0 365.45399086512111 225.22937144711614 0 225.22937144711614 190.6812273417745 0 0 0 0 91.369330126931573 -127.59080726639513 0 -127.59080726639513 -47.598445909839938 0 0 0 0 1.403148218471415 -154.56607012571476 0 -154.56607012571476 232.66979224904037 0 0 0 0 -5.3738347477985258 97.126149155064923 0 97.126149155064923 -3.4288843132380862 0 0 0 0 -98.335762075245668 61.083283150530406 0 61.083283150530406 236.86029419426632 0 0 0 0 -247.20361456060164 -91.195407614286523 0 -91.195407614286523 225.60154251206859 0 0 0 0 9.6834835037637959 -80.888530030526454 0 -80.888530030526454 92.843740849086316 0 0 0 0 99.910558939809846 -74.404077290506393 0 -74.404077290506393 79.117968023310823 0 0 0 0 -63.365230431394082 -7.9851007115830726 0 -7.9851007115830726 125.46216065708722 0 0 0 0 49.620829321186719 52.930889865405788 0 52.930889865405788 114.64152416699653 0 0 0 0 9.2993454069267791 7.4618740023185808 0 7.4618740023185808 21.230148389080995 0 0 0 0 -20.994045850475459 -9.7294025641240296 0 -9.7294025641240296 117.20356349676513 0 0 0 0 11.451835322848638 -35.657050853260444 0 -35.657050853260444 93.842274871429254 0 0 0 0 -0.51089065076632711 -1.1442557154360742 0 -1.1442557154360742 11.322793878345607 0 0 0 0 21.140181279979402 -4.502651305811014 0 -4.502651305811014 111.64257297403674 0 0 0 0 -80.079620974589488 23.552867947026243 0 23.552867947026243 85.823964497991255 0 0 0 0 12.912594828532747 68.373483714807662 0 68.373483714807662 -62.347465521103004 0 0 0 0 7.6809887937315597 5.8824708966612178 0 5.8824708966612178 3.7083205517760405 0 0 0 0 113.92555456214382 -215.94430250441656 0 -215.94430250441656 101.80346097407164 0 0 0 0 85.858048726604466 19.870797335141106 0 19.870797335141106 -87.380818164267112 0 0 0 0 0.26425775702955434 -16.774150218152499 0 -16.774150218152499 -55.395087670156499 0 0 0 0 78.922111211639276 59.423187864231295 0 59.423187864231295 3.4030661304277601 0 0 0 0 54.628796482302278 -40.712391663910239 0 -40.712391663910239 53.792350409305072 0 0 0 0 -17.527733508087749 19.598674964508973 0 19.598674964508973 11.860033957433188 0 0 0 0 50.275481192384177 24.744296931070494 0 24.744296931070494 76.463831855871831 0 0 0 0 30.19220199333904 64.810005393945175 0 64.810005393945175 124.64800591961648 0 0 0 0 -60.036050052819519 56.998148618346022 0 56.998148618346022 125.31116316770203 0 0 0 0 -28.43021737834124 32.704440917103057 0 32.704440917103057 50.433896651535179 0 0 0 0 -38.171782396982621 -8.3904907501710113 0 -8.3904907501710113 79.683534951225738 0 0 0 0 -40.585663317471244 55.434722341640736 0 55.434722341640736 61.778960598821868 0 0 0 0 -5.0011658424873531 -3.5309220586932497 0 -3.5309220586932497 96.262377520033624 0 0 0 0 -31.120172173090765 1.694770104586496 0 1.694770104586496 53.216156534967013 0 0 0 0 -2.5006978924122887 -4.8560374204297432 0 -4.8560374204297432 11.82420546199296 0 0 0 0 2.1231771498721308 -13.531859866471351 0 -13.531859866471351 44.623450051265962 0 0 0 0 15.648421578287696 0.42477801926725078 0 0.42477801926725078 52.445901841885643 0 0 0 0 -38.360681427466432 -28.354430721599783 0 -28.354430721599783 92.078339588850213 0 0 0 0 33.558442474914557 -30.327702073984256 0 -30.327702073984256 37.165083188992867 0 0 0 0 -117.34633972554226 -130.56796513209702 0 -130.56796513209702 -28.863792141935846 0 0 0 0 0.42369870823894262 -7.539361912668511 0 -7.539361912668511 14.803695122267527 0 0 0 0 -1.454263641185662 -4.5391312180436216 0 -4.5391312180436216 41.755395023807068 0 0 0 0 -0.83072526865379936 11.777497578655385 0 11.777497578655385 26.426694370031697 0 0 0 0 9.0791010888610124 -2.8606519991535038 0 -2.8606519991535038 66.331548076515901 0 0 0 0 0.2220509400770676 -4.504259089178575 0 -4.504259089178575 44.081440635084476 0 0 0 0 22.273726819512831 -23.438555517466739 0 -23.438555517466739 73.774935721110523 0 0 0 0 0.54188646981467059 2.6658600154951273 0 2.6658600154951273 65.251740903207974 0 0 0 0 8.8733356410604358 1.7368279878901376 0 1.7368279878901376 46.21653422593954 0 0 0 0 3.9340560960416155 -1.5216056425997522 0 -1.5216056425997522 65.242816289573966 0 0 0 0 9.1329869934153756 1.3495319926217348 0 1.3495319926217348 52.895524486288195 0 0 0 0 -8.4310099258625542 -28.632334824593272 0 -28.632334824593272 -29.299855405188282 0 0 0 0 1.3156728625510774 -0.92724823314702576 0 -0.92724823314702576 -1.5135403906135139 0 0 0 0 10.742559611715194 -85.752045485201961 0 -85.752045485201961 -70.117437746041105 0 0 0 0 4.4859002443953058 8.7219549095246123 0 8.7219549095246123 7.3451940428152085 0 0 0 0 5.6880448658728326 10.216325400000727 0 10.216325400000727 2.515898990069374 0 0 0 0 99.515533309038574 19.676639104109199 0 19.676639104109199 -218.67022637215268 0 0 0 0 -11.754876207331222 -9.3769670867550303 0 -9.3769670867550303 -134.32256492835586 0 0 0 0 -20.129164296334238 -14.659047055210976 0 -14.659047055210976 -130.16757290618261 0 0 0 0 33.386240013376067 131.15188236424001 0 131.15188236424001 -164.06876885412203 0 0 0 0 -0.41128089758119424 15.173193577200337 0 15.173193577200337 34.34304762934002 0 0 0 0 5.8261884097974166 10.11795802174376 0 10.11795802174376 16.762119929225292 0 0 0 0 3.5411256474408503 8.0090238093252992 0 8.0090238093252992 51.585276036472351 0 0 0 0 -1.340620779494462 1.6801725391799209 0 1.6801725391799209 13.957882005877821 0 0 0 0 -10.423941370196872 11.713637649911107 0 11.713637649911107 29.013056151276032 0 0 0 0 -28.986938367781285 40.825678329033508 0 40.825678329033508 35.150618854997447 0 0 0 0 8.4938436286879693 -0.29723840505539556 0 -0.29723840505539556 38.876584334982908 0 0 0 0 -20.045065746105877 20.929832760573845 0 20.929832760573845 45.829941470932681 0 0 0 0 -5.0962054788902265 18.96511364854814 0 18.96511364854814 42.760086586316902 0 0 0 0 -1.4926829274929811 13.587808498756502 0 13.587808498756502 35.326704659544248 0 0 0 0 -7.3963389981607577 0.78788342315601767 0 0.78788342315601767 53.324552563455654 0 0 0 0 -16.209007966098966 18.314438192894158 0 18.314438192894158 55.550743115833029 0 0 0 0 -14.544983160128709 7.5867298507728265 0 7.5867298507728265 59.936363320652163 0 0 0 0 -3.4224141694108994 -1.9466016374790343 0 -1.9466016374790343 60.921128754916936 0 0 0 0 -4.1681452003347204 1.119561719991907 0 1.119561719991907 51.136967327940511 0 0 0 0 -4.186926466139937 12.008574834038882 0 12.008574834038882 40.309751012231573 0 0 0 0 -9.007699812888859 4.1955167660380539 0 4.1955167660380539 65.539375440886943 0 0 0 0 -3.1411716370942901 10.010998291079318 0 10.010998291079318 39.16474161218332 0 0 0 0 -5.3040482603321379 5.3193778283239226 0 5.3193778283239226 64.483907565692789 0 0 0 0 -6.3782084430617658 1.7132345739501034 0 1.7132345739501034 62.540730155305937 0 0 0 0 -5.5751310227181232 4.6225702958794272 0 4.6225702958794272 49.674276108751656 0 0 0 0 7.186229449440054 11.905699882931458 0 11.905699882931458 50.497989820985822 0 0 0 0 8.4819566517997487 5.4945682487013983 0 5.4945682487013983 36.327708889785072 0 0 0 0 -6.4970906603045933 12.452756986029272 0 12.452756986029272 36.541059275384896 0 0 0 0 -4.7164621886929172 -1.8121163148712043 0 -1.8121163148712043 33.557193982603962 0 0 0 0 -3.0722477591062134 0.36879329969372066 0 0.36879329969372066 31.533171892770611 0 0 0 0 0.56378267877539656 6.6077212985401275 0 6.6077212985401275 64.299773437654039 0 0 0 0 -1.4258405213806782 1.9940205142993364 0 1.9940205142993364 67.751279976437218 0 0 0 0 -4.9019993147381911 5.2098164796698256 0 5.2098164796698256 64.919416453660233 0 0 0 0 7.512187256547989 -7.0954954818989791 0 -7.0954954818989791 43.35879250754806 0 0 0 0 -1.4439723331256573 -0.053102005338587333 0 -0.053102005338587333 49.397967346536461 0 0 0 0 -2.3442523751395727 -2.7955969699795133 0 -2.7955969699795133 21.349947809601645 0 0 0 0 -4.7749432011652289 14.650204047095031 0 14.650204047095031 39.321988617564784 0 0 0 0 -1.8280402426375986 7.8982401269822731 0 7.8982401269822731 27.863677262648707 0 0 0 0 4.8974445759927221 13.773305914379307 0 13.773305914379307 32.329469711396086 0 0 0 0 -4.7700019343452311 15.650978242745623 0 15.650978242745623 45.550369905860862 0 0 0 0 -4.3716856066320133 9.5673875411448535 0 9.5673875411448535 39.309477677146788 0 0 0 0 -0.29850600069612199 0.88164352654121103 0 0.88164352654121103 9.4259582790437335 0 0 0 0 3.4392542791204499 11.23297506444726 0 11.23297506444726 6.9094621712009712 0 0 0 0 13.210096105201274 10.537519510107813 0 10.537519510107813 31.245414299075492 0 0 0 0 31.974189376140657 -24.726323357048386 0 -24.726323357048386 106.16099337179912 0 0 0 0 -2.212722465252682 -39.19873031465977 0 -39.19873031465977 53.446722353342921 0 0 0 0 0.25494703740087465 1.4285336051451623 0 1.4285336051451623 2.3811155167234688 0 0 0 0 0.91538816221122943 11.870075108119636 0 11.870075108119636 73.677188784444297 0 0 0 0 -2.3612308828255664 7.8944743991160067 0 7.8944743991160067 80.318260223371908 0 0 0 0 1.0613390352892793 16.644364206586033 0 16.644364206586033 57.531209577544359 0 0 0 0 0.63208169028867589 2.56065026769339 0 2.56065026769339 3.0130282276131197 0 0 0 0 0.16446977064411783 13.747266204236439 0 13.747266204236439 57.183942633389961 0 0 0 0 2.9986119860569715 14.632444674061844 0 14.632444674061844 56.59737801659503 0 0 0 0 4.8280372403196452 18.357962214387953 0 18.357962214387953 58.018976784471306 0 0 0 0 -1.4368175072094118 28.678983296333172 0 28.678983296333172 89.064063861500472 0 0 0 0 -6.5663255982785813 23.711459168676811 0 23.711459168676811 89.755318603391061 0 0 0 0 -1.942959728055996 28.74650168872904 0 28.74650168872904 71.704319937780383 0 0 0 0 1.1686346111737294 31.19323114992585 0 31.19323114992585 88.152794215799076 0 0 0 0 -2.494647752830474 37.522364229400409 0 37.522364229400409 103.52887824628851 0 0 0 0 -5.2035528027679447 27.044382045685779 0 27.044382045685779 97.692021543560259 0 0 0 0 6.4824959983866393 32.698942653631093 0 32.698942653631093 121.56636393178633 0 0 0 0 -6.5979832485415386 1.3720947665133281 0 1.3720947665133281 106.21868080177228 0 0 0 0 -4.25339399104314 13.416663847936434 0 13.416663847936434 165.91770988394273 0 0 0 0 0.97244869468977413 38.910452874501061 0 38.910452874501061 118.66316261820612 0 0 0 0 -3.4617019858220317 24.337358558921551 0 24.337358558921551 95.274215092387749 0 0 0 0 2.5394276694325413 14.558612224864191 0 14.558612224864191 67.329893976071617 0 0 0 0 -6.5267112362706712 15.254040525069286 0 15.254040525069286 66.13158328422287 0 0 0 0 -2.4463364708535664 30.157805391208967 0 30.157805391208967 85.029641138447914 0 0 0 0 -0.20714714449310989 13.551020292826479 0 13.551020292826479 38.218797372275731 0 0 0 0 0.21205724412970994 25.084383657362196 0 25.084383657362196 50.553594816490659 0 0 0 0 -13.305678165259621 -3.1587323984640534 0 -3.1587323984640534 10.545241945626913 0 0 0 0 -6.3798660700238088 13.398070386334439 0 13.398070386334439 43.478746354041505 0 0 0 0 2.7947930212367567 13.352858608530369 0 13.352858608530369 12.48485529187019 0 0 0 0 4.8819976490962631 17.342372907194658 0 17.342372907194658 14.691613867587876 0 0 0 0 0.21740610744978994 19.896059903941932 0 19.896059903941932 37.109995550068561 0 0 0 0 -2.8116213550861175 24.244775378872873 0 24.244775378872873 64.042224406901369 0 0 0 0 6.9077356002758989 18.535244104485173 0 18.535244104485173 36.908213703049114 0 0 0 0 3.9910549265349573 25.522198477774509 0 25.522198477774509 16.77849996148143 0 0 0 0 -1.2143488554761319 16.518516769949201 0 16.518516769949201 36.946002764627337 0 0 0 0 99.206802402814091 -9.7053897617734037 0 -9.7053897617734037 -28.117227166694647 0 0 0 0 0.64101467786080424 0.5059302535566701 0 0.5059302535566701 -0.25444118803542892 0 0 0 0 11.547008160196469 21.060311059802189 0 21.060311059802189 -12.016768263121776 0 0 0 0 6.844843470908188 10.107671809295425 0 10.107671809295425 -1.7111812478106003 0 0 0 0 -2.6509810783079502 13.229849744733656 0 13.229849744733656 15.711907320157479 0 0 0 0 3.0126525509617181 18.33096304872015 0 18.33096304872015 3.1686484709680371 0 0 0 0 0.072382186669873505 1.2440578898431625 0 1.2440578898431625 3.7265728310622421 0 0 0 0 -0.12906794729236437 0.33991698418307692 0 0.33991698418307692 3.5817976702872159 0 0 0 0 -0.53536076802583921 0.59001320746028796 0 0.59001320746028796 68.605388979238342 0 0 0 0 -102.66556770205648 4.4922984325676225 0 4.4922984325676225 82.224328989599599 0 0 0 0 -3.2490892858938878 1.7281727894442156 0 1.7281727894442156 68.218824545940151 0 0 0 0 -1.4287341636153315 20.834813059846056 0 20.834813059846056 15.376328571481281 0 0 0 0 -3.7311925511501158 2.5921250760438852 0 2.5921250760438852 69.08621103191399 0 0 0 0 -6.8543046595129908 1.8235106853680918 0 1.8235106853680918 69.168716220621718 0 0 0 0 -1.3433310429355174 -1.6169115222583059 0 -1.6169115222583059 70.615959749295143 0 0 0 0 5.8405417743540511 -2.3281644135859096 0 -2.3281644135859096 68.923883056151681 0 0 0 0 -3.5623681970030248 2.0082101744774263 0 2.0082101744774263 69.074405283761735 0 0 0 0 -2.4742360580230525 0.80087029398418963 0 0.80087029398418963 66.131389239453711 0 0 0 0 -7.7588748417001057 -0.68347124634601641 0 -0.68347124634601641 70.472854771986022 0 0 0 0 -6.58869547480802 -11.322625746310223 0 -11.322625746310223 84.457242076619877 0 0 0 0 6.041453844209002 -12.883936821427142 0 -12.883936821427142 74.221032613859279 0 0 0 0 -2.4084790881091145 -8.2562619844075016 0 -8.2562619844075016 76.001610474137124 0 0 0 0 -0.14546563653931344 -4.1587675218615914 0 -4.1587675218615914 77.278932932171301 0 0 0 0 -1.5378566159257616 -13.085397838367498 0 -13.085397838367498 78.80908665721654 0 0 0 0 0.25660267276736526 0.27202941065735331 0 0.27202941065735331 0.16540462383487409 0 0 0 0 6.7792966490745385 -10.284710824547801 0 -10.284710824547801 77.92504926584661 0 0 0 0 13.8754441117248 -7.4168817915051477 0 -7.4168817915051477 -22.169262139839702 0 0 0 0 -0.26615208336812657 0.68249638679117197 0 0.68249638679117197 -26.533720788203937 0 0 0 0 -11.316375076312951 19.973171977766469 0 19.973171977766469 10.654602520371554 0 0 0 0 6.7355277643934057 9.1242690475683048 0 9.1242690475683048 16.871232142759254 0 0 0 0 13.484211332713741 27.282518627493118 0 27.282518627493118 25.234386563548469 0 0 0 0 28.614229305956549 14.034177010493295 0 14.034177010493295 -5.0939912383764749 0 0 0 0 1.4532422147218256 27.638140633491275 0 27.638140633491275 67.249369269717135 0 0 0 0 -8.6066205274681096 27.218999238022661 0 27.218999238022661 149.12087871681433 0 0 0 0 9.9957596332673546 23.795027399566607 0 23.795027399566607 67.124211964323649 0 0 0 0 9.4304766763632415 15.559188526465732 0 15.559188526465732 68.33917125351536 0 0 0 0 -4.6782394218431875 22.975639920172398 0 22.975639920172398 112.93042889401841 0 0 0 0 -2.5474306153814013 22.231913456111215 0 22.231913456111215 68.463412571843946 0 0 0 0 0.00075825580947319268 4.8205439880985068 0 4.8205439880985068 80.113375927350717 0 0 0 0 -28.542281863707611 -4.0727565128181595 0 -4.0727565128181595 161.55456701711228 0 0 0 0 0.016507724652549766 0.11863446881783801 0 0.11863446881783801 0.7028329520016996 0 0 0 0 19.524099691710603 54.075943438794638 0 54.075943438794638 56.573954944498837 0 0 0 0 -6.5336343208214984 -30.782445188193378 0 -30.782445188193378 91.336364050090197 0 0 0 0 -8.7403516270954782 -2.1783987935777986 0 -2.1783987935777986 -0.68641578439201112 0 0 0 0 16.788406987968088 -18.794886131010571 0 -18.794886131010571 -12.362668287125416 0 0 0 0 -16.354599992232451 14.392306814639596 0 14.392306814639596 -9.3974110118788303 0 0 0 0 0.023101706310040982 6.3195305207773345 0 6.3195305207773345 -11.516668369455147 0 0 0 0 -26.348975942250256 10.988412075537781 0 10.988412075537781 -1.0062202557310229 0 0 0 0 -16.94068417678136 -7.004368616748252 0 -7.004368616748252 -2.5332358056330122 0 0 0 0 -34.915092951910026 16.65929961648726 0 16.65929961648726 -6.953930789270089 0 0 0 0 29.433084042557589 31.05157591731404 0 31.05157591731404 -23.649043122364674 0 0 0 0 -0.0094659887139526624 0.25695601075094743 0 0.25695601075094743 1.4255177648977337 0 0 0 0 28.279904168295758 -37.093815361491579 0 -37.093815361491579 -26.510660093801562 0 0 0 0 28.949787146146789 -22.289540476784168 0 -22.289540476784168 22.743185996892862 0 0 0 0 1.5621030705285506 -52.950673475890653 0 -52.950673475890653 26.668725757685024 0 0 0 0 0.3155656311508892 -47.405599002260715 0 -47.405599002260715 72.043724203016609 0 0 0 0 22.930348551469422 -11.423263635748299 0 -11.423263635748299 70.602541808329988 0 0 0 0 2.8508567413927648 19.861698971646547 0 19.861698971646547 11.89136054919436 0 0 0 0 -0.013397676751656028 0.046923575378642113 0 0.046923575378642113 0.75884839005686899 0 0 0 0 -0.019485897738699187 -2.588802404145099 0 -2.588802404145099 149.05119711050065 0 0 0 0 -6.2013781406426745 -45.905126591125736 0 -45.905126591125736 89.764776354946662 0 0 0 0 -10.14218401225672 -27.263157810361008 0 -27.263157810361008 146.76203711750713 0 0 0 0 29.956064262840378 -4.9084781823694357 0 -4.9084781823694357 121.61370428689406 0 0 0 0 24.20013376601435 32.482686920124252 0 32.482686920124252 116.55746167979669 0 0 0 0 4.4070597823398785 20.529712447991187 0 20.529712447991187 78.6196088900615 0 0 0 0 -5.622634165996601 15.180418106436264 0 15.180418106436264 102.78717000321922 0 0 0 0 1.8030714022473973 18.198657937391545 0 18.198657937391545 107.4656995592959 0 0 0 0 -6.3439089437820968 -7.8028039160126355 0 -7.8028039160126355 94.97906938297092 0 0 0 0 -9.3276011897310127 -2.3986329348335858 0 -2.3986329348335858 124.91703827635502 0 0 0 0 -17.337497757323064 -0.07540192136366386 0 -0.07540192136366386 161.16395841306075 0 0 0 0 -9.2460473418350819 -36.910542640051062 0 -36.910542640051062 98.270226272783475 0 0 0 0 0.94252987221494777 -23.270442184366402 0 -23.270442184366402 68.642327485782516 0 0 0 0 3.339001932535723 -30.337814512604382 0 -30.337814512604382 89.454063918921747 0 0 0 0 -5.9695979790432716 -4.2384830319933826 0 -4.2384830319933826 82.915256741548546 0 0 0 0 3.4481373840349079 -16.99012474826668 0 -16.99012474826668 81.848369878091034 0 0 0 0 -3.8750094547064009 -9.2354884188116557 0 -9.2354884188116557 71.085651177432737 0 0 0 0 -11.472572662420021 3.3598750532401027 0 3.3598750532401027 70.162066005576435 0 0 0 0 -4.6532286245528098 -0.27526751375989988 0 -0.27526751375989988 64.939154591789702 0 0 0 0 -7.0744766430657933 15.727899541539955 0 15.727899541539955 66.458299619299396 0 0 0 0 -6.3239517412954456 -2.4096025985563756 0 -2.4096025985563756 86.336134688186576 0 0 0 0 -6.078788464707543 11.066930461558513 0 11.066930461558513 71.214959702308988 0 0 0 0 -5.8469371428644763 11.811585134462803 0 11.811585134462803 72.229908795619849 0 0 0 0 2.2015109615640114 30.591398024007503 0 30.591398024007503 59.58335265237838 0 0 0 0 1.9438684948650575 29.275026337738382 0 29.275026337738382 65.273710230103461 0 0 0 0 -1.1259162843947479 21.833691938561969 0 21.833691938561969 50.14917099478771 0 0 0 0 -12.227754951566595 7.5071995417511062 0 7.5071995417511062 54.825315493217204 0 0 0 0 -1.7855918735849059 25.389014762607985 0 25.389014762607985 46.493161365913693 0 0 0 0 -23.948253157359886 21.414165450027213 0 21.414165450027213 48.451626760012005 0 0 0 0 -23.889094955943293 19.865812988165999 0 19.865812988165999 41.598019152879715 0 0 0 0 1.9886158114211412 18.492845438595396 0 18.492845438595396 32.704662118892884 0 0 0 0 12.644751781870923 23.192183228471549 0 23.192183228471549 34.730291080515599 0 0 0 0 27.177065293131022 36.405718088743015 0 36.405718088743015 25.362227507837815 0 0 0 0 40.419296790491444 28.996581494837301 0 28.996581494837301 23.260049573436845 0 0 0 0 -92.886648362614778 63.565602860937361 0 63.565602860937361 17.286024919769261 0 0 0 0 -21.63005837622481 -18.773713597242022 0 -18.773713597242022 31.972362649918068 0 0 0 0 26.367072389813828 -17.40325144068629 0 -17.40325144068629 13.695718158269301 0 0 0 0 -11.329012833418972 41.429336293171218 0 41.429336293171218 68.239105489017675 0 0 0 0 6.1908813872954536 40.42145757538492 0 40.42145757538492 65.192568478538305 0 0 0 0 6.1440144931772238 39.4802619083639 0 39.4802619083639 46.345880240784027 0 0 0 0 11.113300183160277 35.431611627485836 0 35.431611627485836 49.613876766828071 0 0 0 0 -1.4176863967514635 57.247500265817507 0 57.247500265817507 62.831374038622016 0 0 0 0 33.838590017396271 58.362592433011741 0 58.362592433011741 56.371572054398712 0 0 0 0 -0.043107833254893535 29.826983061357168 0 29.826983061357168 56.223147660837185 0 0 0 0 -9.6149064017023047 27.86664832569295 0 27.86664832569295 67.11299944439088 0 0 0 0 11.921248321407933 30.867813017270237 0 30.867813017270237 76.183545040141325 0 0 0 0 8.957779452070227 24.140741677379992 0 24.140741677379992 67.135594277690643 0 0 0 0 0.031980412046903793 21.787381318928965 0 21.787381318928965 98.353933775855694 0 0 0 0 -1.8317333353576473 31.185428872744524 0 31.185428872744524 82.671183166166884 0 0 0 0 -1.2214845280087943 -1.9978479104647704 0 -1.9978479104647704 39.41867661656579 0 0 0 0 24.731228411815486 -56.826120926045405 0 -56.826120926045405 66.613595951668685 0 0 0 0 33.021136518922333 -13.880187300528632 0 -13.880187300528632 5.0995647058225586 0 0 0 0 -0.12556201005615716 0.032671980494534125 0 0.032671980494534125 3.0438896765737695 0 0 0 0 0.0055697637776589929 -5.1407637273332512 0 -5.1407637273332512 0.46041747747221962 0 0 0 0 2.1759091920243456 24.981570042866224 0 24.981570042866224 -20.028671301100985 0 0 0 0 -55.145970877127731 20.845227549980336 0 20.845227549980336 31.973315735929646 0 0 0 0 -46.272797932574257 -0.49707666462927591 0 -0.49707666462927591 32.868238325660059 0 0 0 0 -2.5247351890802481 0.20820776750042569 0 0.20820776750042569 3.3112802010437008 0 0 0 0 -6.5796909879647885 18.365138478286099 0 18.365138478286099 -11.414287871768465 0 0 0 0 -5.2247869062593821 -16.530222058223444 0 -16.530222058223444 -1.3385838974209037 0 0 0 0 0.67383818088872971 -1.7923719235259341 0 -1.7923719235259341 6.7562963671516627 0 0 0 0 21.946684736849512 -0.70656039777895785 0 -0.70656039777895785 5.5973246451030718 0 0 0 0 20.584693051536448 -18.747154894910636 0 -18.747154894910636 26.664012151604766 0 0 0 0 4.7583072473461812 6.0414852590620285 0 6.0414852590620285 20.698361943890632 0 0 0 0 13.021737956081708 0.24220015366881853 0 0.24220015366881853 46.137342578633707 0 0 0 0 14.199940576864336 -7.5502866183160222 0 -7.5502866183160222 45.722693874125071 0 0 0 0 -1.7972412468047096 5.721151466408628 0 5.721151466408628 155.28907548256393 0 0 0 0 6.3462119242774477 -7.6912940171714581 0 -7.6912940171714581 91.966905069843051 0 0 0 0 3.0232751051861442 -58.721264117513783 0 -58.721264117513783 128.90297006921173 0 0 0 0 -17.771886724931278 -36.053240194843966 0 -36.053240194843966 159.78051807897282 0 0 0 0 -25.406688007980012 -41.598239108334383 0 -41.598239108334383 236.78960548754549 0 0 0 0 -16.960946945222929 -14.989643786786473 0 -14.989643786786473 148.95823422870308 0 0 0 0 -17.782935400526853 -73.548325686783755 0 -73.548325686783755 233.65744673507288 0 0 0 0 -25.678126031955578 -67.967342280127923 0 -67.967342280127923 225.8897475473932 0 0 0 0 -22.146595867808081 -54.179178065562155 0 -54.179178065562155 242.41967588311672 0 0 0 0 -24.346761622311764 -58.248640537006395 0 -58.248640537006395 231.57232489794842 0 0 0 0 -22.16730907850674 -72.341540652269032 0 -72.341540652269032 257.86573696551204 0 0 0 0 -20.893507184816052 -63.080412596038514 0 -63.080412596038514 324.80646753689507 0 0 0 0 12.380933517665394 -106.76732151463511 0 -106.76732151463511 149.99155039296602 0 0 0 0 11.149663809687791 -96.305586200430298 0 -96.305586200430298 205.30293527434696 0 0 0 0 6.8027463195801277 -39.192178851689278 0 -39.192178851689278 97.712209170669666 0 0 0 0 -0.023657460963903858 -0.22088145759545341 0 -0.22088145759545341 1.3974882966901419 0 0 0 0 -19.141150108515056 6.1286144662735751 0 6.1286144662735751 5.3596988328063162 0 0 0 0 131.9037526018775 -165.32322606567323 0 -165.32322606567323 188.91155559296021 0 0 0 0 105.13348388905737 -99.27436138750636 0 -99.27436138750636 25.959057868658419 0 0 0 0 -0.11461506924100834 -130.05277038566055 0 -130.05277038566055 336.89351713575888 0 0 0 0 28.68470095582807 -144.36228038982745 0 -144.36228038982745 372.25727693270892 0 0 0 0 27.154106268268883 -117.05788142222445 0 -117.05788142222445 220.36319681614987 0 0 0 0 -2.1725051287220669 -64.763974707049783 0 -64.763974707049783 299.91125684787403 0 0 0 0 66.68261735985763 -10.829305416118586 0 -10.829305416118586 311.35368718604514 0 0 0 0 -0.58215962794262666 -38.579431332545937 0 -38.579431332545937 408.67627004522365 0 0 0 0 10.035561517699154 -36.463432072370779 0 -36.463432072370779 307.45527246888378 0 0 0 0 0.13404876080229583 -4.7938842505136563 0 -4.7938842505136563 250.84879907764116 0 0 0 0 -1.5897602143892229 -6.1440311593032675 0 -6.1440311593032675 299.07036659746234 0 0 0 0 -2.9428727980592413 -25.014990927182225 0 -25.014990927182225 235.98435789262294 0 0 0 0 -16.688080971321618 -28.97735544747411 0 -28.97735544747411 269.82536455002628 0 0 0 0 4.1495291075151535 -8.5940304047762766 0 -8.5940304047762766 233.88677931213715 0 0 0 0 14.736555128505 -10.27249164580644 0 -10.27249164580644 195.29185801229323 0 0 0 0 -0.031161026268864335 8.6300127829927078 0 8.6300127829927078 188.13891883585893 0 0 0 0 25.805917494485954 -2.2111785484676147 0 -2.2111785484676147 154.6930416857067 0 0 0 0 23.647419487077837 9.3825898550030615 0 9.3825898550030615 158.25155327131506 0 0 0 0 11.011754854204511 0.80583952223241795 0 0.80583952223241795 113.08868268938386 0 0 0 0 -4.2979780131064658 6.5124900328810327 0 6.5124900328810327 150.38147562573431 0 0 0 0 12.761941076751938 -13.265640147081285 0 -13.265640147081285 146.29556265375459 0 0 0 0 5.3827552971045236 -15.132124651572667 0 -15.132124651572667 185.19229191791237 0 0 0 0 9.1381880014114216 -15.153264579043025 0 -15.153264579043025 150.63657138267172 0 0 0 0 3.2751733917402674 -17.220765037578531 0 -17.220765037578531 170.56515851721633 0 0 0 0 0.6034809001888668 -32.184509009535759 0 -32.184509009535759 172.99919392463926 0 0 0 0 4.0725941091499465 -16.497235731188994 0 -16.497235731188994 184.54889298815397 0 0 0 0 -1.9796416679571038 -35.163248663775448 0 -35.163248663775448 226.0515514389117 0 0 0 0 -20.060897438732766 -41.977613254324751 0 -41.977613254324751 223.94074095581891 0 0 0 0 15.486431925204641 -67.483682776648493 0 -67.483682776648493 200.23600082652752 0 0 0 0 14.078773549277642 -51.578336934027902 0 -51.578336934027902 200.57561844242036 0 0 0 0 78.116377263400324 -77.271528399345698 0 -77.271528399345698 179.78967311795714 0 0 0 0 101.92698950249957 -4.4373399110481841 0 -4.4373399110481841 122.91262355264189 0 0 0 0 40.356787657698035 7.1735443574393685 0 7.1735443574393685 108.59401312925911 0 0 0 0 30.964356891425666 -8.3368387022346724 0 -8.3368387022346724 131.61001064732409 0 0 0 0 44.044269219417373 -28.087570587675145 0 -28.087570587675145 141.64728231503977 0 0 0 0 22.510178629981851 -32.561096472411009 0 -32.561096472411009 144.9895441294284 0 0 0 0 19.31379711662359 -8.9085727183919516 0 -8.9085727183919516 128.07956717205525 0 0 0 0 8.9434645653893483 -0.85879481014126213 0 -0.85879481014126213 130.58317519811681 0 0 0 0 30.926423906517073 7.9952532646129839 0 7.9952532646129839 106.75282435814734 0 0 0 0 17.540221777968668 10.913290100979793 0 10.913290100979793 118.00394503069401 0 0 0 0 6.9116937249700889 20.252621142237331 0 20.252621142237331 91.209788458130788 0 0 0 0 0.51566956050686485 23.359173099233885 0 23.359173099233885 105.56242021380785 0 0 0 0 14.471853931376728 9.7209754436225921 0 9.7209754436225921 97.265801241912413 0 0 0 0 -1.3248390311630942 10.863417758562719 0 10.863417758562719 126.67702913733865 0 0 0 0 7.8145435521515765 36.587992639440927 0 36.587992639440927 92.909879062717664 0 0 0 0 3.7642145944600998 37.459645693466882 0 37.459645693466882 93.92542134593532 0 0 0 0 5.7720991415687877 27.51638693064524 0 27.51638693064524 79.381024863483617 0 0 0 0 6.4260625811611964 37.182818722154764 0 37.182818722154764 93.632615821465151 0 0 0 0 6.3863491972682507 40.963093038918146 0 40.963093038918146 96.539338290458545 0 0 0 0 3.6044896831495947 36.64748346635497 0 36.64748346635497 95.083856238721637 0 0 0 0 2.0609999238504315 34.928213300037896 0 34.928213300037896 99.546661048632814 0 0 0 0 6.3688284071013186 26.872394748548686 0 26.872394748548686 99.510741868507466 0 0 0 0 21.706890154263931 29.966820563473448 0 29.966820563473448 93.234893446613569 0 0 0 0 0.93826056786440404 29.376586751917785 0 29.376586751917785 88.273702681195573 0 0 0 0 6.2668445791215817 28.496541405445441 0 28.496541405445441 85.940004414791474 0 0 0 0 16.367852200771836 -0.96704952752770623 0 -0.96704952752770623 176.06445324193191 0 0 0 0 -9.0770188789851431 6.1495569586804777 0 6.1495569586804777 82.722266259137541 0 0 0 0 -1.7428208547276824 20.804821085977892 0 20.804821085977892 108.89554529097222 0 0 0 0 39.921423298934656 17.230987523864314 0 17.230987523864314 94.048120926308911 0 0 0 0 -14.150209770440171 -68.02495049619921 0 -68.02495049619921 -11.859432770987041 0 0 0 0 -13.278237931033402 -36.811397977246088 0 -36.811397977246088 136.6788718619573 0 0 0 0 149.93431215283309 12.111364490105188 0 12.111364490105188 177.34458496684965 0 0 0 0 0.1146002884632793 -48.407604770120088 0 -48.407604770120088 198.44131560547976 0 0 0 0 9.0663616129756974 -89.381631072617893 0 -89.381631072617893 335.67603479535319 0 0 0 0 118.69320087843396 -150.2669291616694 0 -150.2669291616694 246.44058187389601 0 0 0 0 17.965691291585856 -78.862137475334748 0 -78.862137475334748 197.38832398295926 0 0 0 0 -40.856289223604399 -35.902379336803278 0 -35.902379336803278 368.94621442957578 0 0 0 0 0.11165231264675254 -0.59003070875432351 0 -0.59003070875432351 3.2802166179507708 0 0 0 0 -20.664868047787785 72.788906064302864 0 72.788906064302864 149.43517687069107 0 0 0 0 183.45868999743837 -173.67750605895333 0 -173.67750605895333 145.85227591237344 0 0 0 0 37.462623799544261 29.598981679628196 0 29.598981679628196 -0.57469094783300534 0 0 0 0 8.04723290337283 -30.155951406872191 0 -30.155951406872191 -0.28753771304138809 0 0 0 0 11.979914678963269 -12.528181358167785 0 -12.528181358167785 33.839179003473873 0 0 0 0 13.749214910707451 -75.857413746394741 0 -75.857413746394741 100.0744935888024 0 0 0 0 51.655189098903605 -140.58663202427488 0 -140.58663202427488 196.8910064768861 0 0 0 0 34.595527843313675 -95.100360728658416 0 -95.100360728658416 101.3811241567455 0 0 0 0 99.805367277235632 -72.06210951742105 0 -72.06210951742105 25.210060417606655 0 0 0 0 17.161308649782995 -113.44677132219658 0 -113.44677132219658 97.117620858665759 0 0 0 0 22.585609583727205 -104.88801209220401 0 -104.88801209220401 126.51384942056029 0 0 0 0 12.456397413033756 -91.638238339815871 0 -91.638238339815871 119.4868299218233 0 0 0 0 22.266013777336866 -102.25344606203726 0 -102.25344606203726 118.98267644322186 0 0 0 0 40.966770721974399 -90.254433539616002 0 -90.254433539616002 124.4651720960228 0 0 0 0 0.64882878835080637 -1.4374199038352202 0 -1.4374199038352202 4.8877132725950219 0 0 0 0 153.55848697889905 -113.66936765894206 0 -113.66936765894206 50.99611109298985 0 0 0 0 8.4178417134010033 14.640407155176945 0 14.640407155176945 31.582793917928939 0 0 0 0 -0.40142117669529753 0.42019875899620729 0 0.42019875899620729 -0.5474388109216477 0 0 0 0 -4.2981208923960139 -85.728781200767116 0 -85.728781200767116 124.17560517814127 0 0 0 0 65.05571913939616 -61.923469880810444 0 -61.923469880810444 81.361471466443618 0 0 0 0 2.6497888199921817 -26.217317637463566 0 -26.217317637463566 -6.0180052615214663 0 0 0 0 -20.254107290342517 -4.5673020821159298 0 -4.5673020821159298 91.846093448548345 0 0 0 0 -11.243827452816276 18.941196478263009 0 18.941196478263009 94.372771026750343 0 0 0 0 -21.177564721751651 19.655364298087079 0 19.655364298087079 114.15615917817922 0 0 0 0 13.185576501283663 10.618953303957824 0 10.618953303957824 110.63523291098318 0 0 0 0 25.649857690915269 -47.689483611800824 0 -47.689483611800824 68.355610882379551 0 0 0 0 -11.568610361914295 -28.274868897073247 0 -28.274868897073247 144.94666479741863 0 0 0 0 3.1907966059903572 -43.455248161375494 0 -43.455248161375494 175.79923472214432 0 0 0 0 25.420597658834595 -43.977795636419614 0 -43.977795636419614 161.07069751315794 0 0 0 0 8.2654085035351272 44.471742552421347 0 44.471742552421347 283.05381664148445 0 0 0 0 -0.43159083889582162 -0.069752822681550697 0 -0.069752822681550697 0.61853211572713462 0 0 0 0 -0.94222742043350438 -0.2993022934340388 0 -0.2993022934340388 -1.2614489946556375 0 0 0 0 -16.678078771576281 -7.8960692210366688 0 -7.8960692210366688 38.227781980269356 0 0 0 0 -9.5067257949517625 17.90849673642515 0 17.90849673642515 54.917483416080358 0 0 0 0 -29.326679165818064 3.0894713429333933 0 3.0894713429333933 73.300104391601053 0 0 0 0 -1.872915844944373 8.7718437978837756 0 8.7718437978837756 70.578761381239019 0 0 0 0 -8.9366444867376913 22.279185705825512 0 22.279185705825512 87.330697677301941 0 0 0 0 -20.538032729431592 6.9854928326312802 0 6.9854928326312802 76.755333708730177 0 0 0 0 46.145292653447939 30.478732104587834 0 30.478732104587834 71.23955549436505 0 0 0 0 40.548093377901409 35.879776141598995 0 35.879776141598995 81.805660821963102 0 0 0 0 9.7592496255433616 27.496685313279158 0 27.496685313279158 84.898664625659876 0 0 0 0 19.096069492266906 39.117821965715848 0 39.117821965715848 86.691779181404854 0 0 0 0 27.221159468436326 8.8066272745272727 0 8.8066272745272727 59.201296000086586 0 0 0 0 -100.59596708497142 17.351837755486486 0 17.351837755486486 79.828340023770579 0 0 0 0 -19.366152751324478 10.096049929170476 0 10.096049929170476 72.443557879290893 0 0 0 0 -4.1548738059551686 22.406162159291569 0 22.406162159291569 62.779632131591711 0 0 0 0 -4.9906669329627675 5.9000129869527882 0 5.9000129869527882 69.919502043747343 0 0 0 0 -5.5371456299886788 22.239755975612496 0 22.239755975612496 59.588100692634043 0 0 0 0 -4.9924946733054512 5.7502610053552417 0 5.7502610053552417 75.527374647805118 0 0 0 0 15.075498040090622 280.41539586091494 0 280.41539586091494 49.548805719074153 0 0 0 0 -8.3882555473583125 15.120115416611952 0 15.120115416611952 100.30902408486872 0 0 0 0 -6.3753268831899845 10.478242708375546 0 10.478242708375546 77.908001714167767 0 0 0 0 -2.5529209889454405 2.2572456258695581 0 2.2572456258695581 14.363865212077627 0 0 0 0 -6.4310626773740296 11.683838127995841 0 11.683838127995841 71.002328762468096 0 0 0 0 -0.59025266528692555 12.790873755518987 0 12.790873755518987 97.36144857868203 0 0 0 0 -6.5544409745455141 38.70936775363225 0 38.70936775363225 162.99596844792541 0 0 0 0 -9.8667858646804234 4.762916613050038 0 4.762916613050038 94.027358350969735 0 0 0 0 -15.42566615526539 2.6173996458892361 0 2.6173996458892361 115.20328652801982 0 0 0 0 -42.316238403548596 -31.854462011469877 0 -31.854462011469877 244.74349382132641 0 0 0 0 -29.293776944689398 -20.256308680480288 0 -20.256308680480288 77.826648099551676 0 0 0 0 15.002149273584223 -143.47970036576953 0 -143.47970036576953 77.834605945041403 0 0 0 0 -12.633333486311813 7.9532310259965016 0 7.9532310259965016 46.359614801833231 0 0 0 0 -10.173629063119279 18.496450753344106 0 18.496450753344106 41.868076211801963 0 0 0 0 -46.830089421059313 110.88388679255604 0 110.88388679255604 277.43706508167088 0 0 0 0 -5.7954660284619166 6.4624888933031173 0 6.4624888933031173 48.195183776754448 0 0 0 0 -1.5881163066136423 11.475880823083571 0 11.475880823083571 47.214282826258568 0 0 0 0 -6.8700530000924118 17.584337549669726 0 17.584337549669726 72.403848201691289 0 0 0 0 -0.41589742302812738 18.159313779673539 0 18.159313779673539 34.352192459846265 0 0 0 0 0.0096341139819742239 13.498957623865863 0 13.498957623865863 70.426228093303507 0 0 0 0 3.8367953239608141 19.606007384791155 0 19.606007384791155 69.159749043021293 0 0 0 0 -5.5228248961816462 25.38649991928105 0 25.38649991928105 81.747123407052641 0 0 0 0 -4.0897809477587543 13.691314604126092 0 13.691314604126092 83.423551617852354 0 0 0 0 -4.2163108301310785 9.531877009634627 0 9.531877009634627 77.025250523991417 0 0 0 0 9.6039152284051852 37.733270510441798 0 37.733270510441798 -49.364641280288197 0 0 0 0 -0.84801957007570916 20.638730068149627 0 20.638730068149627 47.042326559140463 0 0 0 0 227.21844744964164 -73.423910937686742 0 -73.423910937686742 -179.92430001092362 0 0 0 0 -9.0337731308305962 3.3981251881839682 0 3.3981251881839682 15.659844508739866 0 0 0 0 13.841450962492218 161.67891464616696 0 161.67891464616696 410.77611657386296 0 0 0 0 -113.74503743233709 -159.95073363052506 0 -159.95073363052506 312.64138651299436 0 0 0 0 -2.9551808305179499 -3.7869933411102963 0 -3.7869933411102963 54.173216780272668 0 0 0 0 -23.333351797641171 2.3174957920527959 0 2.3174957920527959 57.929808017783216 0 0 0 0 -17.30227085259321 -1.2765647049236577 0 -1.2765647049236577 43.920940119423904 0 0 0 0 -1.4167964337577938 -0.1557051028787555 0 -0.1557051028787555 6.3198749809070449 0 0 0 0 -3.3325008039862896 0.8076062268914086 0 0.8076062268914086 51.427773244582966 0 0 0 0 -120.36504011564011 13.469491176503652 0 13.469491176503652 112.64557925414829 0 0 0 0 -129.45392037625879 -13.53695015926678 0 -13.53695015926678 126.34118937845051 0 0 0 0 -0.39089282233999256 -155.46236739540473 0 -155.46236739540473 -63.516179171449039 0 0 0 0 1.0986612512728016 -2.248500412530305 0 -2.248500412530305 8.3387812448449523 0 0 0 0 -5.4335179764268755 -6.2314199269335617 0 -6.2314199269335617 44.246645450721985 0 0 0 0 0.91375263849204202 -0.445220214620349 0 -0.445220214620349 55.187779961132037 0 0 0 0 2.580280785648938 8.6762390686490107 0 8.6762390686490107 58.333870121605287 0 0 0 0 1.6784509086442654 -2.8710027671240823 0 -2.8710027671240823 50.52229300577892 0 0 0 0 -17.324164478738567 -12.71869514057471 0 -12.71869514057471 69.939070430198626 0 0 0 0 -1.933609773232547 6.1314337240073655 0 6.1314337240073655 51.538397177806473 0 0 0 0 -5.3620482042051663 1.6599229528310389 0 1.6599229528310389 62.161393835544004 0 0 0 0 0.92839367360156189 -8.0633138161583702 0 -8.0633138161583702 68.885154925039387 0 0 0 0 4.1283037629335961 10.106338954112303 0 10.106338954112303 26.953121630801945 0 0 0 0 -0.65055310279444711 20.021190358311287 0 20.021190358311287 40.442383792462351 0 0 0 0 -4.1683126847997025 9.7897343360933178 0 9.7897343360933178 17.115633797060724 0 0 0 0 -1.7346598519412222 -0.2039770067906943 0 -0.2039770067906943 14.69415033977269 0 0 0 0 -11.001629085590707 6.1878327467875351 0 6.1878327467875351 49.229156261804746 0 0 0 0 26.818350796872778 7.8325490039751458 0 7.8325490039751458 32.502336245277547 0 0 0 0 -8.2698286297757875 6.1207256289492165 0 6.1207256289492165 32.740788898890287 0 0 0 0 -1.2037095349243145 36.216038746988488 0 36.216038746988488 66.322819196691853 0 0 0 0 -3.5382372036842753 18.245226766872293 0 18.245226766872293 84.947464705866878 0 0 0 0 -4.9659631710460417 11.989441000230727 0 11.989441000230727 58.79677792059374 0 0 0 0 -6.5151263948118867 31.312874341067072 0 31.312874341067072 73.156964398323908 0 0 0 0 -5.7644784277454164 29.212895868800842 0 29.212895868800842 80.936884515307611 0 0 0 0 -9.6171463974910694 35.48091184443183 0 35.48091184443183 70.789757151629601 0 0 0 0 -77.766200173300376 -8.1600894762941607 0 -8.1600894762941607 79.878731975331903 0 0 0 0 -9.468417993895839 -8.9559814892905933 0 -8.9559814892905933 28.516992494911591 0 0 0 0 -0.8341999798946631 13.086286369565642 0 13.086286369565642 91.524039937270572 0 0 0 0 -0.5372096448211181 15.820687849444312 0 15.820687849444312 84.146955161413644 0 0 0 0 -3.2734871112716148 1.2716690292855617 0 1.2716690292855617 20.839957423289647 0 0 0 0 149.18068866673207 -163.21174460198381 0 -163.21174460198381 -51.228081548822956 0 0 0 0 0.0032196215859485733 9.0715589747269405 0 9.0715589747269405 41.685212309228518 0 0 0 0 3.2487532173675531 9.7409234295157461 0 9.7409234295157461 33.421261010683907 0 0 0 0 9.4973271976122078 7.6707033409911674 0 7.6707033409911674 48.351475188246695 0 0 0 0 -6.4266744959965116 -4.5167189824146305 0 -4.5167189824146305 41.926049342097372 0 0 0 0 -124.65045916593772 84.950762352034872 0 84.950762352034872 274.64324839497567 0 0 0 0 -0.85825334910521178 -3.9361454296434744 0 -3.9361454296434744 10.308003940826836 0 0 0 0 -41.407573172022978 60.923561736053671 0 60.923561736053671 141.57448790433409 0 0 0 0 55.436453413241338 78.201139297147165 0 78.201139297147165 81.001808633605833 0 0 0 0 -7.9959771112188633 42.720361382308511 0 42.720361382308511 61.157240566390101 0 0 0 0 56.831482364682181 26.827789864827309 0 26.827789864827309 39.368889994817437 0 0 0 0 -14.9977740449865 -18.696236650517676 0 -18.696236650517676 48.89738683717178 0 0 0 0 1.3150681858856776 5.5963422431887011 0 5.5963422431887011 36.794984552229266 0 0 0 0 -8.2792959682968057 -5.7991202071061068 0 -5.7991202071061068 75.883799422842685 0 0 0 0 -2.1540092761724638 -6.607853690353366 0 -6.607853690353366 12.667817360396214 0 0 0 0 32.335912121608089 -87.26192876395362 0 -87.26192876395362 42.8859785382665 0 0 0 0 26.386899541835646 -83.320935271003691 0 -83.320935271003691 52.05788625619607 0 0 0 0 -2.6257450444079495 11.888470714795403 0 11.888470714795403 65.654905936225987 0 0 0 0 -9.571923537641851 11.781372992492834 0 11.781372992492834 66.366772718902212 0 0 0 0 31.583251055724077 31.519855447593727 0 31.519855447593727 47.17614008957753 0 0 0 0 11.911603726989597 61.951999866694678 0 61.951999866694678 153.97107118205895 0 0 0 0 -2.5715642119596396 -14.3312117062178 0 -14.3312117062178 16.245974429140915 0 0 0 0 -1.9717151384508806 0.79511122451384608 0 0.79511122451384608 4.1421474914174894 0 0 0 0 0.5750634449957488 -1.1946173545402416 0 -1.1946173545402416 31.410473601034028 0 0 0 0 -1.2384522969763339 17.980502591690311 0 17.980502591690311 66.981323587315273 0 0 0 0 -15.223107443686786 9.8648595207778271 0 9.8648595207778271 64.288302997985738 0 0 0 0 -0.19580958004967464 -1.7007559785954527 0 -1.7007559785954527 28.542563905547581 0 0 0 0 2.6467830830521475 2.6755218807108179 0 2.6755218807108179 16.018678968049286 0 0 0 0 46.689659747629548 91.094988867320353 0 91.094988867320353 74.86246089177439 0 0 0 0 -15.318457658917168 8.0117098442860879 0 8.0117098442860879 61.822370955662336 0 0 0 0 -10.038490338470124 -0.260292073693563 0 -0.260292073693563 52.853802867190097 0 0 0 0 -145.515039538363 198.90332053818565 0 198.90332053818565 121.9366656129132 0 0 0 0 38.010981426228 54.194993804609112 0 54.194993804609112 91.075998026761226 0 0 0 0 1.9312846711463703 -4.4637392632752011 0 -4.4637392632752011 13.322052302642021 0 0 0 0 -13.171572099774039 -2.3038430180677096 0 -2.3038430180677096 29.515407809629323 0 0 0 0 81.606575152612777 83.196980985114351 0 83.196980985114351 114.85593808609701 0 0 0 0 80.65359160422031 60.64786661065591 0 60.64786661065591 88.22231163795368 0 0 0 0 -116.76342781027233 199.53921561141033 0 199.53921561141033 25.24550854775589 0 0 0 0 -58.873419173834463 29.604582486441359 0 29.604582486441359 160.72290094080381 0 0 0 0 -195.33300451163768 -41.977787116076797 0 -41.977787116076797 177.14615914662136 0 0 0 0 -56.565732607321479 35.720787823694991 0 35.720787823694991 163.70475208231073 0 0 0 0 -166.92834782908267 95.033226837724214 0 95.033226837724214 193.39169624297938 0 0 0 0 -84.367113674363736 129.10508703894448 0 129.10508703894448 36.631154545757454 0 0 0 0 -117.7866294802534 42.331545090768486 0 42.331545090768486 249.91113629553001 0 0 0 0 -512.31770604512985 325.87704960553674 0 325.87704960553674 160.91388592452859 0 0 0 0 -449.73028645045281 -213.29003176213882 0 -213.29003176213882 703.21974496985786 0 0 0 0 232.94548526251765 47.917217867157888 0 47.917217867157888 76.091222436769385 0 0 0 0 79.214234291559478 66.647895458314451 0 66.647895458314451 126.75248561595799 0 0 0 0 337.25678880823216 -342.36206903011771 0 -342.36206903011771 320.62470640003448 0 0 0 0 74.990136949873886 -50.127484993950929 0 -50.127484993950929 170.24334253603593 0 0 0 0 68.806097905315255 58.048421243962366 0 58.048421243962366 122.43656821237528 0 0 0 0 21.069920643705245 61.818230636607041 0 61.818230636607041 136.30054790504801 0 0 0 0 -37.359668893909088 49.910503230436007 0 49.910503230436007 163.92226745997323 0 0 0 0 -7.152743760126782 16.96003155989456 0 16.96003155989456 160.53574804204982 0 0 0 0 -89.228121727319149 42.763975631445646 0 42.763975631445646 173.16273822140647 0 0 0 0 -73.229349967185726 37.405102058342891 0 37.405102058342891 187.90605858844356 0 0 0 0 -73.520802301225558 32.984146634320496 0 32.984146634320496 149.85152499505784 0 0 0 0 -64.614749612131291 51.496327890556131 0 51.496327890556131 117.10624170035589 0 0 0 0 -88.087811134817244 69.312661923971973 0 69.312661923971973 132.8409862879198 0 0 0 0 -77.214524672793459 45.629783106414834 0 45.629783106414834 159.62450059916591 0 0 0 0 -66.872466180884658 66.769201489572879 0 66.769201489572879 115.36577992222738 0 0 0 0 -66.9595094134188 94.384913153859088 0 94.384913153859088 105.69005315528193 0 0 0 0 -68.070976112957993 70.438177562082274 0 70.438177562082274 109.82378419069573 0 0 0 0 -31.221533409229302 54.009465551440371 0 54.009465551440371 79.85486791760195 0 0 0 0 -43.697310553050002 89.766906475168071 0 89.766906475168071 40.453047803079244 0 0 0 0 12.466933827114985 15.417951167823048 0 15.417951167823048 60.207531193911564 0 0 0 0 11.689801927300323 17.549084969272371 0 17.549084969272371 54.824227767698176 0 0 0 0 -31.394214428230519 48.861960683978396 0 48.861960683978396 70.417139894969296 0 0 0 0 -15.684378652696523 24.030013952578884 0 24.030013952578884 109.02015925053274 0 0 0 0 -43.293702103982014 38.019419767151703 0 38.019419767151703 104.49507385672769 0 0 0 0 -50.404884930982746 35.581446479780425 0 35.581446479780425 132.60386295354692 0 0 0 0 14.966206344928423 -12.720605012829765 0 -12.720605012829765 98.035112581637804 0 0 0 0 -2.9239892686083397 17.637889031402821 0 17.637889031402821 60.189687238359909 0 0 0 0 -25.098409873267457 9.1362151184875984 0 9.1362151184875984 127.21232079826586 0 0 0 0 -9.7937336435359157 13.324692498230434 0 13.324692498230434 63.626286617291044 0 0 0 0 3.8717538948667425 6.8494686387857655 0 6.8494686387857655 44.836706098190916 0 0 0 0 -4.5091543532887304 1.0886066972410333 0 1.0886066972410333 36.701646043043688 0 0 0 0 -3.1142759238853159 11.761347948471666 0 11.761347948471666 94.523678257042775 0 0 0 0 1.7241606588158238 14.043053769229275 0 14.043053769229275 24.154450938510792 0 0 0 0 -4.4908250154639973 8.3005733835125284 0 8.3005733835125284 88.330111519724596 0 0 0 0 85.255945755414359 91.112170833628625 0 91.112170833628625 97.829365964862518 0 0 0 0 14.912093098805599 9.5668198994681006 0 9.5668198994681006 91.89096227484697 0 0 0 0 -0.31834082595757263 3.1784696324552328 0 3.1784696324552328 14.069225911841556 0 0 0 0 -22.749788190076856 83.138258995459182 0 83.138258995459182 -4.4856194099920685 0 0 0 0 37.139514924509967 74.656673840639996 0 74.656673840639996 154.99659917294775 0 0 0 0 -4.1143048940390621 1.0719486084934147 0 1.0719486084934147 12.158879742192624 0 0 0 0 20.809104687717991 14.373399538279045 0 14.373399538279045 50.771400549332611 0 0 0 0 5.2019124900714981 18.623716500644946 0 18.623716500644946 25.433556116776458 0 0 0 0 -2.0375191876194472 3.0562946143437273 0 3.0562946143437273 9.2674288806823029 0 0 0 0 4.2200746528620536 20.465489879927475 0 20.465489879927475 64.326765449128061 0 0 0 0 74.01251422218229 30.346381021954585 0 30.346381021954585 96.570201631402597 0 0 0 0 11.499235903537269 6.3413402382575441 0 6.3413402382575441 47.935110256075859 0 0 0 0 -0.86983998195069034 35.332963400054723 0 35.332963400054723 32.886468271899503 0 0 0 0 357.57087188681908 412.47328951919917 0 412.47328951919917 -164.49762080734945 0 0 0 0 -269.50156418246297 -122.24304987237701 0 -122.24304987237701 887.85281514597591 0 0 0 0 -20.958887456343291 199.15684368470102 0 199.15684368470102 222.62125732126879 0 0 0 0 3.353995701050728 3.3202382940030262 0 3.3202382940030262 2.5175331640465686 0 0 0 0 101.92463144263911 -285.55145925090619 0 -285.55145925090619 566.28839229408641 0 0 0 0 123.34917505272676 -159.17819943452378 0 -159.17819943452378 263.9283934389241 0 0 0 0 -31.740482686559517 50.568678829156852 0 50.568678829156852 314.59824811793806 0 0 0 0 67.171101036870823 42.99239967788526 0 42.99239967788526 120.4215411759651 0 0 0 0 20.086290761501004 84.903793779041735 0 84.903793779041735 637.42666138288223 0 0 0 0 -48.695824433480254 16.711517026298679 0 16.711517026298679 125.01292176978313 0 0 0 0 -15.868161287327768 -30.487915717834454 0 -30.487915717834454 68.515033496802261 0 0 0 0 -80.441437249601222 -45.045569823174446 0 -45.045569823174446 106.73879645348643 0 0 0 0 119.97764733296026 -173.30750167219594 0 -173.30750167219594 -165.29269977312651 0 0 0 0 -57.035148065864405 19.324982862563047 0 19.324982862563047 128.29643973143538 0 0 0 0 -55.694963136159629 23.877512784863939 0 23.877512784863939 132.70803949853871 0 0 0 0 -65.435599926976465 29.099677163452725 0 29.099677163452725 129.92620567207632 0 0 0 0 -64.98612355268699 24.82631933659286 0 24.82631933659286 156.62676167784957 0 0 0 0 -68.234607995927945 10.24359849737084 0 10.24359849737084 136.0258877587039 0 0 0 0 -63.495574531826151 -3.0089361366553931 0 -3.0089361366553931 144.33899067074526 0 0 0 0 -22.818934808399717 -62.921747947984841 0 -62.921747947984841 53.978072202226031 0 0 0 0 -71.085344816326824 8.7121805912465788 0 8.7121805912465788 178.49341456753609 0 0 0 0 65.03439886236788 103.69617829765048 0 103.69617829765048 167.39471584536659 0 0 0 0 -53.804812151795318 53.953351796215429 0 53.953351796215429 281.82707279853639 0 0 0 0 -94.832586612562864 -74.116596341526019 0 -74.116596341526019 200.11343862154899 0 0 0 0 -49.755728083131316 12.09058097799425 0 12.09058097799425 102.09069666353753 0 0 0 0 203.03014021630054 263.21422553094089 0 263.21422553094089 334.7604261454544 0 0 0 0 -41.155604991381551 -31.710517234965664 0 -31.710517234965664 505.51321965488023 0 0 0 0 -14.266832522747904 1.2172842615436821 0 1.2172842615436821 220.15838550531771 0 0 0 0 90.930945267591596 1.8410855137299222 0 1.8410855137299222 -46.866922181579866 0 0 0 0 -183.72315326685111 -86.749946213909425 0 -86.749946213909425 250.32827714414452 0 0 0 0 -151.91488307391319 -144.66349200541117 0 -144.66349200541117 217.13030205342511 0 0 0 0 -13.912066561315157 -36.842783415802572 0 -36.842783415802572 68.662545467480214 0 0 0 0 -125.05552214166619 -187.26614248682745 0 -187.26614248682745 104.91007761829314 0 0 0 0 -31.378506760890559 64.247674509846547 0 64.247674509846547 188.62960392530658 0 0 0 0 21.271884493158723 40.594412427384668 0 40.594412427384668 150.67943196489068 0 0 0 0 52.914459796553274 58.877637424382556 0 58.877637424382556 161.1174900863989 0 0 0 0 -12.869840239563473 1.7463801472113119 0 1.7463801472113119 154.02207371231634 0 0 0 0 -10.203039842092039 28.733637987541442 0 28.733637987541442 296.94304840338009 0 0 0 0 -13.336709319649369 -35.207194233782658 0 -35.207194233782658 67.530903290562037 0 0 0 0 -25.061752773488479 196.82925956815598 0 196.82925956815598 454.71273272612598 0 0 0 0 76.864520395243289 -179.21344805750414 0 -179.21344805750414 -64.767797831955249 0 0 0 0 87.277777038803379 152.47993033540843 0 152.47993033540843 402.51497905784345 0 0 0 0 -121.09014053866099 150.12668617225245 0 150.12668617225245 134.05918132431543 0 0 0 0 -244.70889891071511 -63.320260412507196 0 -63.320260412507196 -18.279104348752298 0 0 0 0 -188.22711370200432 239.30443511844896 0 239.30443511844896 458.35095046876813 0 0 0 0 22.284298840048905 -66.910452332864224 0 -66.910452332864224 349.23871149680417 0 0 0 0 1.0473288529481444 -2.4310783884024829 0 -2.4310783884024829 4.8827509043848067 0 0 0 0 -105.96213779261598 21.335754110055859 0 21.335754110055859 -13.488640900633982 0 0 0 0 -1.0480578120426252 -2.0269605422049466 0 -2.0269605422049466 7.472043665895006 0 0 0 0 -256.73047557329664 -76.239527673242264 0 -76.239527673242264 40.695443723587232 0 0 0 0 -38.210116694069256 106.34000660610036 0 106.34000660610036 -6.7037182104977546 0 0 0 0 19.748089187902224 -87.904892523423769 0 -87.904892523423769 188.48533657256485 0 0 0 0 -11.047751617783433 1.579622339711932 0 1.579622339711932 149.53954702329793 0 0 0 0 1.4619166654780749 -15.277029228076216 0 -15.277029228076216 2.650709591694226 0 0 0 0 25.726076743195335 -48.123358012973767 0 -48.123358012973767 92.422892080372549 0 0 0 0 -2.2441027533022861 -29.80433940464718 0 -29.80433940464718 43.11400191076973 0 0 0 0 -13.244140296666842 177.46908378718217 0 177.46908378718217 82.410285699283122 0 0 0 0 16.009700120526759 111.39835612562092 0 111.39835612562092 21.996331246191403 0 0 0 0 -20.315377712669942 91.208986365754754 0 91.208986365754754 142.86917839662055 0 0 0 0 -0.472836704581578 3.1443907932462736 0 3.1443907932462736 25.235969740057101 0 0 0 0 -14.806664462031627 -11.9294695073757 0 -11.9294695073757 14.901756273294435 0 0 0 0 -80.005776457516049 14.523594543119543 0 14.523594543119543 126.90217416038649 0 0 0 0 -1.8525045086635146 -2.3462761696009693 0 -2.3462761696009693 76.558963557807147 0 0 0 0 -12.296477211611958 16.020424726629614 0 16.020424726629614 16.111950333441015 0 0 0 0 0.75545086261354299 -9.9680218132998561 0 -9.9680218132998561 68.491130859270015 0 0 0 0 -6.1246983654032192 -5.0588622824670892 0 -5.0588622824670892 80.968396705618943 0 0 0 0 -23.90283453353095 17.723637286922894 0 17.723637286922894 14.040122498059645 0 0 0 0 1.6251331356273226 7.1978752060336149 0 7.1978752060336149 3.2770079081809342 0 0 0 0 -20.756106031486979 29.613745130992356 0 29.613745130992356 41.896512973078643 0 0 0 0 -15.812355735732126 18.048754062416265 0 18.048754062416265 38.268568816016341 0 0 0 0 -32.451857169982759 41.322822445705242 0 41.322822445705242 44.588853099237895 0 0 0 0 -43.514017678327946 22.280300475482363 0 22.280300475482363 -4.1444126944552409 0 0 0 0 -10.840460048388195 -4.3780021078382561 0 -4.3780021078382561 -16.866516536363633 0 0 0 0 -5.7614229246852631 -98.348903247408941 0 -98.348903247408941 328.51766431279248 0 0 0 0 68.782427381898742 70.264555239496985 0 70.264555239496985 -8.2005885930157092 0 0 0 0 1.035506915195306 1.4563808766828501 0 1.4563808766828501 2.8683280716583113 0 0 0 0 -4.2391949761702961 -35.798962976055236 0 -35.798962976055236 140.22820046523702 0 0 0 0 -25.478023649566239 10.84206302866005 0 10.84206302866005 90.112547109398292 0 0 0 0 -56.418609729782474 36.81689803309564 0 36.81689803309564 139.5884328961256 0 0 0 0 -55.721841604819929 56.561939536171849 0 56.561939536171849 147.80793441248534 0 0 0 0 -73.183169466650725 42.498088002568693 0 42.498088002568693 137.7426960910816 0 0 0 0 -72.173871747530939 29.80359063486685 0 29.80359063486685 232.0456273847667 0 0 0 0 -55.385691151516767 69.594173610872531 0 69.594173610872531 130.08567809584201 0 0 0 0 -58.606988213548902 75.347388443289674 0 75.347388443289674 131.8619086330873 0 0 0 0 -36.956240368042927 62.436428779401467 0 62.436428779401467 106.75893403527152 0 0 0 0 -40.828332397804843 72.70927511690752 0 72.70927511690752 101.79953015796491 0 0 0 0 -39.349286806971577 76.964983230012876 0 76.964983230012876 72.763012018622248 0 0 0 0 -64.929901236948353 94.049587236564548 0 94.049587236564548 115.32324721617624 0 0 0 0 -49.14513018967773 60.9672023417952 0 60.9672023417952 96.748186625343806 0 0 0 0 -21.913031575692003 105.85713442727138 0 105.85713442727138 53.491617267944093 0 0 0 0 -46.928084432704964 113.66123270258868 0 113.66123270258868 346.22326773186796 0 0 0 0 -35.07281668809901 91.567388662835583 0 91.567388662835583 120.84485604686779 0 0 0 0 -62.8463879815572 102.24676926863322 0 102.24676926863322 187.69755847980559 0 0 0 0 19.330986463226907 19.117244949124071 0 19.117244949124071 15.236683445738919 0 0 0 0 6.0697753395697758 4.7775577755029417 0 4.7775577755029417 -0.31022599998962619 0 0 0 0 67.401864586340707 69.436042128654663 0 69.436042128654663 153.38345690944698 0 0 0 0 150.96216271651258 -565.29838291832129 0 -565.29838291832129 1174.8236722640067 0 0 0 0 -6.8882137149030314 -41.077191099968331 0 -41.077191099968331 195.30395464366302 0 0 0 0 -23.793511430718354 -1.1120805521641159 0 -1.1120805521641159 153.20058183973924 0 0 0 0 -9.8080669999822021 -3.0675226436887897 0 -3.0675226436887897 186.94294005924894 0 0 0 0 48.243623338612451 5.3243472192552872 0 5.3243472192552872 97.811223889380926 0 0 0 0 36.737192730121023 -41.122502166996128 0 -41.122502166996128 145.37546922473121 0 0 0 0 1.0416182174012647 57.781877043715212 0 57.781877043715212 57.628081682034463 0 0 0 0 24.093412475736841 32.119071803994302 0 32.119071803994302 78.019326869572978 0 0 0 0 -54.118422981246113 50.594114026431271 0 50.594114026431271 129.4779270021827 0 0 0 0 -35.38682744662583 58.362209039492882 0 58.362209039492882 112.93676587360096 0 0 0 0 -18.56382851332819 46.069855783644016 0 46.069855783644016 121.38870533504814 0 0 0 0 -0.84352451474478585 22.093638835787715 0 22.093638835787715 125.55947995308088 0 0 0 0 -21.000341842850503 28.449126492168944 0 28.449126492168944 129.5753361848474 0 0 0 0 -34.970448745201793 32.53735363332089 0 32.53735363332089 110.6647913945053 0 0 0 0 -45.213778612638635 26.143243050988531 0 26.143243050988531 133.67557482436678 0 0 0 0 -41.414296885082877 49.4476711975949 0 49.4476711975949 125.62110148320789 0 0 0 0 -52.184188128621827 56.574126393636107 0 56.574126393636107 74.733276468970871 0 0 0 0 -56.211316360821257 30.56105133385563 0 30.56105133385563 111.22430324747984 0 0 0 0 -73.028632592722715 34.629753897206683 0 34.629753897206683 114.5545428284131 0 0 0 0 -45.896576715860647 23.946929382327653 0 23.946929382327653 116.85926222255512 0 0 0 0 -40.018065352037979 0.74362030592783412 0 0.74362030592783412 144.32331416310626 0 0 0 0 -1.9207526893042086 -4.7641223878672463 0 -4.7641223878672463 137.36753063107608 0 0 0 0 -15.65696224419753 -15.985354274351266 0 -15.985354274351266 139.43355782785511 0 0 0 0 -25.513576246599769 -26.804634729298414 0 -26.804634729298414 128.29695805748634 0 0 0 0 -86.189978750832552 -16.54201194397956 0 -16.54201194397956 103.34991358823027 0 0 0 0 -25.348799207427874 -4.0024014859518502 0 -4.0024014859518502 100.67798934792518 0 0 0 0 -72.909455813417708 47.271773062892862 0 47.271773062892862 60.489035507984227 0 0 0 0 -55.422144384559942 7.5439973454049323 0 7.5439973454049323 97.819730408744363 0 0 0 0 -149.80371109281623 51.814318595796067 0 51.814318595796067 72.984472098840342 0 0 0 0 -96.339120403516063 -18.500969667340541 0 -18.500969667340541 27.093374552801833 0 0 0 0 -51.858293987937941 13.351748042063264 0 13.351748042063264 49.687674442597199 0 0 0 0 -49.707377739105141 54.18595794589055 0 54.18595794589055 16.263696102636459 0 0 0 0 -44.84576188927349 21.122716355159355 0 21.122716355159355 40.087204712654056 0 0 0 0 -8.494951909570382 12.131289692260964 0 12.131289692260964 28.013493148851495 0 0 0 0 -6.3881553540404248 -0.24099652070705702 0 -0.24099652070705702 7.7358063424954935 0 0 0 0 -50.207577684945136 62.549822086759377 0 62.549822086759377 -108.58423272974323 0 0 0 0 -20.369705169469853 46.704311980032799 0 46.704311980032799 -53.333118418035156 0 0 0 0 21.019618720321887 31.382762921806716 0 31.382762921806716 52.349324688751949 0 0 0 0 24.447703412878809 -38.139285286623817 0 -38.139285286623817 3.814746141055366 0 0 0 0 -169.51149344303485 -79.883519076567609 0 -79.883519076567609 125.42928197464789 0 0 0 0 -2.0766358343249536 -0.10941463458300404 0 -0.10941463458300404 0.014552969833097507 0 0 0 0 -86.935216132498681 169.27551737842441 0 169.27551737842441 -185.50735268384597 0 0 0 0 -316.80952839761176 103.7988344138721 0 103.7988344138721 -9.2875257448467892 0 0 0 0 -337.25308822230909 -39.932924014538003 0 -39.932924014538003 116.63077561867249 0 0 0 0 37.157088268202642 79.936950575654919 0 79.936950575654919 14.267951764370082 0 0 0 0 39.681295709251572 132.88922556228499 0 132.88922556228499 -254.77572935898206 0 0 0 0 186.32207726815614 136.46402068511088 0 136.46402068511088 -54.827215353725478 0 0 0 0 75.82759548751892 65.813287622047937 0 65.813287622047937 156.57464515249012 0 0 0 0 85.70442419342362 33.341904770786641 0 33.341904770786641 25.440682828353602 0 0 0 0 -50.768174003536842 -112.08367435565742 0 -112.08367435565742 -86.089054451265838 0 0 0 0 -14.604307270798017 -6.4769901101535652 0 -6.4769901101535652 15.110052847576299 0 0 0 0 88.176203717925091 61.850195938910474 0 61.850195938910474 157.48054235447853 0 0 0 0 106.33803460263653 175.66766861514589 0 175.66766861514589 184.70004713819071 0 0 0 0 103.88841766349196 92.32837923016632 0 92.32837923016632 200.68811382070999 0 0 0 0 92.746533014686065 -80.373476181775914 0 -80.373476181775914 237.06401490830467 0 0 0 0 71.298057295870365 37.768866446374659 0 37.768866446374659 258.86402568756603 0 0 0 0 70.209974901366536 21.796862672625593 0 21.796862672625593 120.42132610894623 0 0 0 0 64.343025868758559 -52.42301814122402 0 -52.42301814122402 109.10411171099986 0 0 0 0 79.082624523438426 -31.921883053702913 0 -31.921883053702913 127.46930599518237 0 0 0 0 81.602697244168667 -45.313846080600342 0 -45.313846080600342 194.28653427558311 0 0 0 0 130.34973106862708 -37.348673102496832 0 -37.348673102496832 109.39806867777952 0 0 0 0 -66.541218703529012 -28.226571268081898 0 -28.226571268081898 106.68504256170127 0 0 0 0 51.356493184102874 -5.1366448691842379 0 -5.1366448691842379 147.25340620325005 0 0 0 0 20.111264782439321 -61.489418391865911 0 -61.489418391865911 58.041439546621405 0 0 0 0 21.062245391214674 -43.478507224172063 0 -43.478507224172063 131.03295977774542 0 0 0 0 -36.288649310403343 -37.953137219514247 0 -37.953137219514247 126.99134746493655 0 0 0 0 21.855191324471889 -48.281591501523508 0 -48.281591501523508 94.63830428145593 0 0 0 0 38.308685745365437 -38.328826308716089 0 -38.328826308716089 119.399138297631 0 0 0 0 65.397508001486131 -19.516877235626453 0 -19.516877235626453 139.58370715192405 0 0 0 0 42.401242442700095 -56.230078702428727 0 -56.230078702428727 145.7079447356009 0 0 0 0 28.793171693388103 -65.146045242840046 0 -65.146045242840046 140.13408564269776 0 0 0 0 49.976519036474201 -60.939543111860985 0 -60.939543111860985 120.67429983059264 0 0 0 0 -46.833593237926834 -43.850183324539103 0 -43.850183324539103 -96.985128607979277 0 0 0 0 53.402273923396024 -52.353756777160015 0 -52.353756777160015 137.82631008076714 0 0 0 0 2.6075925704304002 -0.58656768932463876 0 -0.58656768932463876 -8.5357239277585109 0 0 0 0 63.092106061524646 -32.742285875556263 0 -32.742285875556263 148.6601059280074 0 0 0 0 79.859798767362008 -65.76836438391183 0 -65.76836438391183 136.61614203872887 0 0 0 0 111.67391371433405 -27.184644373235642 0 -27.184644373235642 113.87760580082249 0 0 0 0 90.442873555632104 -5.8399789118848275 0 -5.8399789118848275 140.9554747518705 0 0 0 0 84.297128457077406 -30.773973368875886 0 -30.773973368875886 121.85024317540228 0 0 0 0 22.718411797828843 30.957260515850237 0 30.957260515850237 26.954993635924112 0 0 0 0 50.729938490818313 -58.731070955102041 0 -58.731070955102041 137.45854129133704 0 0 0 0 143.93514225053104 -464.67696576022718 0 -464.67696576022718 1148.3784083443898 0 0 0 0 267.83541356278511 -522.26454430825834 0 -522.26454430825834 1113.0760076419829 0 0 0 0 199.40657258959021 -628.11306365404835 0 -628.11306365404835 1251.2906606524193 0 0 0 0 157.0664600144346 -447.00065403207554 0 -447.00065403207554 1549.111531383176 0 0 0 0 160.93169025434713 -362.16550357540837 0 -362.16550357540837 1157.699954249947 0 0 0 0 24.788575206424177 26.054666393867507 0 26.054666393867507 12.650364755852365 0 0 0 0 56.559550701464104 -75.606509476870997 0 -75.606509476870997 156.10120696356171 0 0 0 0 314.09719628187815 -483.974128890477 0 -483.974128890477 904.56079811739619 0 0 0 0 -575.20504905697362 1079.9239576697801 0 1079.9239576697801 -584.54800371567399 0 0 0 0 848.65986356776648 -1643.8464977305248 0 -1643.8464977305248 2047.82762781161 0 0 0 0 -1476.6845175119247 1570.0278277658508 0 1570.0278277658508 347.16372644247167 0 0 0 0 0.13056079288142364 7.0669570086689788 0 7.0669570086689788 23.153664532481258 0 0 0 0 717.69129932536293 -418.10881983060608 0 -418.10881983060608 100.95181737602252 0 0 0 0 1076.772391275631 -1072.3187195403298 0 -1072.3187195403298 1156.3345153816335 0 0 0 0 254.54735803232325 -710.47506860180874 0 -710.47506860180874 2025.5290277234744 0 0 0 0 316.80676265585862 -464.70976256032009 0 -464.70976256032009 1641.2719382598461 0 0 0 0 84.002288916766702 120.68337512991275 0 120.68337512991275 66.589351361166337 0 0 0 0 101.32257985083243 53.158490626101411 0 53.158490626101411 26.899152949772542 0 0 0 0 28.058192376427726 32.333114982438474 0 32.333114982438474 24.983609146071245 0 0 0 0 330.40920235654903 -772.48609299944656 0 -772.48609299944656 1659.0711813178932 0 0 0 0 93.264221666049707 33.771168957246118 0 33.771168957246118 59.733223594041192 0 0 0 0 64.115138935581399 26.472805988429172 0 26.472805988429172 103.56746583853965 0 0 0 0 137.98709669949676 -8.2796003179973923 0 -8.2796003179973923 91.689291632959794 0 0 0 0 69.946296193259968 57.072752038342514 0 57.072752038342514 78.018283152807271 0 0 0 0 -1508.2129398624033 1012.0993879492212 0 1012.0993879492212 1140.8319996403879 0 0 0 0 193.83998575160513 -415.08435253116477 0 -415.08435253116477 1779.2962063748782 0 0 0 0 -2317.3453896468964 -456.9133780405682 0 -456.9133780405682 5621.3629681970924 0 0 0 0 24.093162175913925 13.491926660574407 0 13.491926660574407 70.580066806323686 0 0 0 0 37.680164159834021 141.49570464120916 0 141.49570464120916 191.40125729161082 0 0 0 0 122.44778871496965 94.284682392186369 0 94.284682392186369 180.37480764262727 0 0 0 0 -7.0233958145785031 -36.356745445752367 0 -36.356745445752367 63.806201258314616 0 0 0 0 216.46276022575876 190.33381869902951 0 190.33381869902951 293.61295412664185 0 0 0 0 79.491147768770134 121.52845360466745 0 121.52845360466745 332.07746778726869 0 0 0 0 153.01097514026924 51.288482105112053 0 51.288482105112053 247.79650091899384 0 0 0 0 4.322356495555832 6.0888209580377151 0 6.0888209580377151 14.069225422050408 0 0 0 0 113.41872628655983 13.196665507326543 0 13.196665507326543 39.386588342596951 0 0 0 0 194.79549840969412 -32.094499942322727 0 -32.094499942322727 294.07007697055815 0 0 0 0 144.11931536481279 -23.287133704929147 0 -23.287133704929147 82.676704058110772 0 0 0 0 150.98503573572816 -81.021441897682962 0 -81.021441897682962 162.82169470777444 0 0 0 0 111.94441963082841 192.12263559126586 0 192.12263559126586 247.32251959449786 0 0 0 0 -10.838539332669878 -35.074106580915497 0 -35.074106580915497 65.986524887791035 0 0 0 0 98.330196702309649 101.97637918445616 0 101.97637918445616 75.905480351735605 0 0 0 0 65.947341921537827 64.345168594722054 0 64.345168594722054 267.20568760899005 0 0 0 0 181.24659354688379 136.43209872537409 0 136.43209872537409 150.76431427319767 0 0 0 0 127.38983870875779 105.35476752140312 0 105.35476752140312 152.85199066327186 0 0 0 0 61.473586382813437 72.362138927157503 0 72.362138927157503 170.56530402060162 0 0 0 0 89.29198633138958 23.142741259358445 0 23.142741259358445 78.642378849996021 0 0 0 0 69.573191984520236 98.754296949802665 0 98.754296949802665 200.03106613566342 0 0 0 0 114.52002238825355 73.984656755419564 0 73.984656755419564 63.095938779631979 0 0 0 0 -67.019150245718151 1.1558304039135692 0 1.1558304039135692 17.049319014477078 0 0 0 0 67.274436256884542 4.6562380182331253 0 4.6562380182331253 1.0343129621178377 0 0 0 0 89.591403119763072 22.257585868122987 0 22.257585868122987 -86.499250954395393 0 0 0 0 28.993379251726822 84.501447422655474 0 84.501447422655474 68.507540244958363 0 0 0 0 73.147624305327099 24.750031753545045 0 24.750031753545045 8.7717867354076589 0 0 0 0 21.468196162786171 78.641079853332485 0 78.641079853332485 -37.203087438188959 0 0 0 0 4.8283599120445615 49.939355775335571 0 49.939355775335571 -0.80384599197714124 0 0 0 0 22.248923051935549 10.028338410062133 0 10.028338410062133 -38.630990850535454 0 0 0 0 7.8560413580330533 -2.5142110429878812 0 -2.5142110429878812 43.525873335325741 0 0 0 0 -0.1846261681100021 -0.035003095031953535 0 -0.035003095031953535 -0.0020543751416539635 0 0 0 0 -0.81075698478731928 0.43933057727150526 0 0.43933057727150526 -0.43285443359760833 0 0 0 0 -21.221789799936232 57.548107022361364 0 57.548107022361364 14.92164306572522 0 0 0 0 1.9132822128531188 -3.9393417652026983 0 -3.9393417652026983 25.695939202407317 0 0 0 0 29.658641805216575 18.388022007420659 0 18.388022007420659 44.463789406174328 0 0 0 0 30.800899000794288 -7.3616153379261959 0 -7.3616153379261959 43.224934412719449 0 0 0 0 -51.519652440896152 18.824865550035611 0 18.824865550035611 58.089804151502904 0 0 0 0 30.419570071014959 -59.925032096834911 0 -59.925032096834911 3.9890544207883067 0 0 0 0 103.56979202034881 18.839629941561725 0 18.839629941561725 26.883122326558805 0 0 0 0 121.92154659544258 78.859901853036718 0 78.859901853036718 -26.421559722861275 0 0 0 0 100.82942256352385 29.168073259701487 0 29.168073259701487 -1.7843718402436934 0 0 0 0 134.41044592653998 59.377418624964776 0 59.377418624964776 15.340103096270468 0 0 0 0 34.230161515452437 70.398353715951089 0 70.398353715951089 19.95078720751917 0 0 0 0 59.586183437615546 -10.121767968521453 0 -10.121767968521453 -15.39298936794512 0 0 0 0 59.88437330375109 47.652729013047065 0 47.652729013047065 92.529085905029206 0 0 0 0 92.870039072652162 66.327243813153473 0 66.327243813153473 5.1228688172959664 0 0 0 0 126.06260076884524 70.81728202233171 0 70.81728202233171 38.912886533827987 0 0 0 0 140.94751216231771 38.225235933277872 0 38.225235933277872 72.199039286046172 0 0 0 0 -12.06026484397861 -33.948417057940304 0 -33.948417057940304 64.971186040752684 0 0 0 0 107.13721992827368 85.317594743755762 0 85.317594743755762 44.730129052710254 0 0 0 0 120.19071666782543 74.63044686111607 0 74.63044686111607 37.308194303332129 0 0 0 0 135.49255143343908 56.411639428406488 0 56.411639428406488 9.8663748096660129 0 0 0 0 132.8796212511761 67.274617640840006 0 67.274617640840006 6.2533323088719044 0 0 0 0 233.72532848370247 287.0357310322579 0 287.0357310322579 108.93176268629759 0 0 0 0 319.33296519232499 88.982511922709818 0 88.982511922709818 -32.294229406987142 0 0 0 0 -34.611363541292121 -7.4044120583239419 0 -7.4044120583239419 413.01990092378401 0 0 0 0 115.45490645431028 1.4952439655098715 0 1.4952439655098715 42.382703080904321 0 0 0 0 14.787183578061729 25.548008046724135 0 25.548008046724135 57.052145439258311 0 0 0 0 103.15253394130104 62.28913885136717 0 62.28913885136717 34.482948393717379 0 0 0 0 127.70925116275725 52.056583147103083 0 52.056583147103083 10.896688037668355 0 0 0 0 168.40992973705124 55.347646082547726 0 55.347646082547726 9.2630514235315786 0 0 0 0 134.66389570392289 80.215186900102708 0 80.215186900102708 57.025044347814401 0 0 0 0 44.036832513159425 8.8168963702992187 0 8.8168963702992187 125.27893810602836 0 0 0 0 89.709310311832382 109.2044861929644 0 109.2044861929644 345.36840256483993 0 0 0 0 59.184688648596875 34.558380276168464 0 34.558380276168464 135.82363591529429 0 0 0 0 243.85482087301966 -192.2995580668503 0 -192.2995580668503 197.45078199535783 0 0 0 0 336.64345128357718 83.667068366841704 0 83.667068366841704 64.953591265921204 0 0 0 0 42.749782715100537 -145.49149955863686 0 -145.49149955863686 323.97120285905839 0 0 0 0 14.473665087594838 -109.249389157103 0 -109.249389157103 169.88184495581663 0 0 0 0 -1.1019166275257248 -27.407147286779946 0 -27.407147286779946 210.10924522125424 0 0 0 0 21.752084134829033 -85.822141324526456 0 -85.822141324526456 110.78605924136355 0 0 0 0 -5.7094035897980575 -42.640242069202941 0 -42.640242069202941 113.7918285671185 0 0 0 0 4.3385944861457801 -47.348677000860334 0 -47.348677000860334 110.95848441468843 0 0 0 0 -5.9476581516807983 -9.5192651324323379 0 -9.5192651324323379 120.87752366399218 0 0 0 0 9.6711343272640988 -24.15406675828126 0 -24.15406675828126 68.163002947898349 0 0 0 0 4.2591097192489542 19.162828303480637 0 19.162828303480637 49.780423473130213 0 0 0 0 4.3947555410751384 -7.7304672776673442 0 -7.7304672776673442 75.001435358310118 0 0 0 0 25.582166205942031 4.947423562160111 0 4.947423562160111 82.550897487904876 0 0 0 0 26.286081727490227 -11.033614042695262 0 -11.033614042695262 114.74592045154714 0 0 0 0 62.732350834762656 20.837231041543419 0 20.837231041543419 67.475331771405763 0 0 0 0 43.484945745765685 8.7424240402542637 0 8.7424240402542637 134.74521105736494 0 0 0 0 -9.6547975602881877 12.705120468323003 0 12.705120468323003 16.103329466391187 0 0 0 0 7.2998948928628238 4.0786940741236322 0 4.0786940741236322 13.64439704202232 0 0 0 0 -2.7483021138122012 -12.924964222722338 0 -12.924964222722338 41.883545474760467 0 0 0 0 -4.2213411370209428 -2.8170916837007098 0 -2.8170916837007098 53.664097838453017 0 0 0 0 61.93165745485426 -65.355499522171158 0 -65.355499522171158 56.488668958176277 0 0 0 0 -2.777948678415143 -22.21995896844237 0 -22.21995896844237 57.496958591422299 0 0 0 0 21.388902340908203 -41.308904486657411 0 -41.308904486657411 64.174409163646487 0 0 0 0 17.918717696395476 -19.879788862454006 0 -19.879788862454006 13.142792648242903 0 0 0 0 -39.21260587322687 -15.622506860479916 0 -15.622506860479916 12.171322058493388 0 0 0 0 0.076627593097403329 -1.0290463099540295 0 -1.0290463099540295 8.2678465188579935 0 0 0 0 -17.123346179186854 -22.53161916452882 0 -22.53161916452882 45.083399768911477 0 0 0 0 4.0179844708431318 -11.555290432785114 0 -11.555290432785114 3.1205787891667569 0 0 0 0 -3.0381264466666806 -9.1401494358069613 0 -9.1401494358069613 2.3583329192042584 0 0 0 0 -19.671976304106366 8.0187170377315624 0 8.0187170377315624 15.494756878339103 0 0 0 0 -0.5862381626983999 -0.98918712021438449 0 -0.98918712021438449 11.318892027965546 0 0 0 0 -10.007558187113879 -7.642599173461349 0 -7.642599173461349 7.9812086544843623 0 0 0 0 1.6448125096695776 -6.8886314376359223 0 -6.8886314376359223 2.8567037894608802 0 0 0 0 -3.6703967837688651 -6.4895687636308139 0 -6.4895687636308139 3.7454761946864892 0 0 0 0 -5.082857083997677 -3.507344837542405 0 -3.507344837542405 10.815824989695102 0 0 0 0 0.80585013483971579 -1.6162189924943959 0 -1.6162189924943959 7.8940524257050129 0 0 0 0 -3.9850740816124306 4.5057371797720123 0 4.5057371797720123 2.6627257179068025 0 0 0 0 -4.5782067139033416 -1.5682309878320666 0 -1.5682309878320666 12.33687795408332 0 0 0 0 -1.8421727509098105 8.888157921275706 0 8.888157921275706 13.212093793626991 0 0 0 0 -19.166562484973383 13.433824196792557 0 13.433824196792557 17.450530569192779 0 0 0 0 -0.86354364193900035 0.31474595424370477 0 0.31474595424370477 2.920947575605819 0 0 0 0 -3.137296930001412 4.6291740392043721 0 4.6291740392043721 17.758461862031254 0 0 0 0 -3.7269096618251094 4.356313028439331 0 4.356313028439331 35.59049085812876 0 0 0 0 -4.5032119077046326 2.0334208602177704 0 2.0334208602177704 11.827662962739623 0 0 0 0 -3.8221512953659214 0.40356630076439615 0 0.40356630076439615 4.1274900047254732 0 0 0 0 -2.7690952082901372 0.80984594747192773 0 0.80984594747192773 2.3415898188665345 0 0 0 0 -14.211042551978153 -36.554014591732994 0 -36.554014591732994 -32.257798036702297 0 0 0 0 4.9117521554030645 6.376208803820191 0 6.376208803820191 35.992066267819609 0 0 0 0 -30.680290483012868 -34.246446634235326 0 -34.246446634235326 11.086130891024368 0 0 0 0 -6.5493583057998421 9.6332816266949521 0 9.6332816266949521 1.6361076661851257 0 0 0 0 -9.4574685454748249 7.1873624237341573 0 7.1873624237341573 4.5508647149254102 0 0 0 0 -10.224021622614657 8.046092648874037 0 8.046092648874037 15.402623354253592 0 0 0 0 6.3004488322376915 12.330029425922476 0 12.330029425922476 15.587771767284721 0 0 0 0 -9.060227274601516 14.111660402457346 0 14.111660402457346 7.8052063027134864 0 0 0 0 -9.2148198625625355 -8.8041132724465569 0 -8.8041132724465569 5.5187099038739689 0 0 0 0 45.363157081332247 -38.678627606685041 0 -38.678627606685041 -127.80894189426181 0 0 0 0 -1.4885216471061415 -0.36069499897001833 0 -0.36069499897001833 -0.19169252959175509 0 0 0 0 -15.821463590007625 6.171577978937421 0 6.171577978937421 45.991989015252329 0 0 0 0 7.2349087263660294 17.431798973018886 0 17.431798973018886 -76.474198409734527 0 0 0 0 -2.8280404830616135 -14.08238984568743 0 -14.08238984568743 6.3819358735636342 0 0 0 0 22.203423362148442 -62.357594399523805 0 -62.357594399523805 -85.320814235485159 0 0 0 0 26.314113817755924 45.537573960871669 0 45.537573960871669 71.652597176187555 0 0 0 0 54.986517618545349 -19.671722205639526 0 -19.671722205639526 5.276179620064795 0 0 0 0 14.40171197601785 20.408781879210437 0 20.408781879210437 83.358709249616368 0 0 0 0 75.278696798736746 -3.7228340349101927 0 -3.7228340349101927 92.130756270475104 0 0 0 0 67.672595479687516 74.187721543712541 0 74.187721543712541 157.44470068340888 0 0 0 0 24.32983896999076 -32.202064123252057 0 -32.202064123252057 5.1025623822351918 0 0 0 0 -5.1912585964014397 5.3431491071969504 0 5.3431491071969504 92.988965577809722 0 0 0 0 55.637670263496602 14.394680243873154 0 14.394680243873154 69.848947054379096 0 0 0 0 -7.7828469021524143 30.839069638175715 0 30.839069638175715 163.97895619452174 0 0 0 0 138.45003912899483 134.37742134871951 0 134.37742134871951 223.89462492599705 0 0 0 0 103.30716903558022 37.542284655850381 0 37.542284655850381 189.01838066685013 0 0 0 0 55.320843864304749 77.869944629525918 0 77.869944629525918 171.04780321099679 0 0 0 0 88.472415804646744 41.824395413248567 0 41.824395413248567 208.31176025397144 0 0 0 0 99.659643394682917 195.73314670184482 0 195.73314670184482 359.91338749248098 0 0 0 0 39.315670325691826 62.544131960356026 0 62.544131960356026 113.18592764620553 0 0 0 0 12.348473034061541 6.0914019517182254 0 6.0914019517182254 26.405787198224886 0 0 0 0 1589.6500782293265 -1444.4253648210724 0 -1444.4253648210724 2561.2456149909995 0 0 0 0 -2.8135951987963743 -7.0707412074290659 0 -7.0707412074290659 50.090032459036934 0 0 0 0 -1064.450466716838 589.13078071845666 0 589.13078071845666 1184.5160880502081 0 0 0 0 154.76637217553844 159.28548107929964 0 159.28548107929964 221.58241691430158 0 0 0 0 72.018407682374914 79.638910143279645 0 79.638910143279645 254.4620786653104 0 0 0 0 11.240969997068532 180.98098613601178 0 180.98098613601178 298.69498675860814 0 0 0 0 68.525121702304205 124.72556723425805 0 124.72556723425805 150.98662427957788 0 0 0 0 24.095154607288237 213.36540652797339 0 213.36540652797339 278.08286618971033 0 0 0 0 3.6769383523013874 -10.118985416226167 0 -10.118985416226167 20.742976701922458 0 0 0 0 0.91816058958091107 2.2111998055392803 0 2.2111998055392803 7.2013549717597698 0 0 0 0 393.22781976782028 1174.4322215048305 0 1174.4322215048305 911.18141844935599 0 0 0 0 -4.0192179496098106 199.36890957270225 0 199.36890957270225 290.45679174878023 0 0 0 0 -107.88111838492841 134.68910334768589 0 134.68910334768589 215.95444255997427 0 0 0 0 -56.082958361654164 248.05865564166743 0 248.05865564166743 266.72853034405853 0 0 0 0 319.55851496544039 424.65870498416189 0 424.65870498416189 987.68005011383866 0 0 0 0 -182.820192769203 722.0009158455141 0 722.0009158455141 668.27040664957894 0 0 0 0 -214.13311165066625 542.69772732045385 0 542.69772732045385 208.02668395357841 0 0 0 0 73.137586501167789 361.71136310853763 0 361.71136310853763 723.12394966998545 0 0 0 0 -581.83405218505959 1172.5613395212713 0 1172.5613395212713 224.53339072642848 0 0 0 0 592.22234732599611 886.60272094271568 0 886.60272094271568 221.48104462536867 0 0 0 0 -74.53426678550295 -57.440790305947303 0 -57.440790305947303 193.84513388220512 0 0 0 0 -63.764047637769181 24.141499201163242 0 24.141499201163242 362.63832398623344 0 0 0 0 -77.361268087419035 -91.273518681609858 0 -91.273518681609858 501.42459052515915 0 0 0 0 -129.04797396064123 144.00576719756646 0 144.00576719756646 594.68290890627031 0 0 0 0 262.15326402703818 -40.690059752065281 0 -40.690059752065281 14.729286930542003 0 0 0 0 532.18444671799261 -134.07747013121843 0 -134.07747013121843 607.0080485829676 0 0 0 0 0.27192381287674022 0.60900735208666035 0 0.60900735208666035 4.5760259013421773 0 0 0 0 521.33511470947269 364.27054898576171 0 364.27054898576171 13.365446643409086 0 0 0 0 0.53100571194840995 -141.72565934118029 0 -141.72565934118029 223.40763971324486 0 0 0 0 165.27939883668569 604.84223463053058 0 604.84223463053058 87.989717374570318 0 0 0 0 190.98360616611626 161.64284925932589 0 161.64284925932589 115.43106471952342 0 0 0 0 8.6645304748702756 18.444968998239347 0 18.444968998239347 86.270769287599251 0 0 0 0 34.982619014642523 -36.073395510473347 0 -36.073395510473347 -34.156873402069323 0 0 0 0 0.16485595661174557 -36.163886984286364 0 -36.163886984286364 188.52591401489371 0 0 0 0 -4.6187336992893506 7.084546004756703 0 7.084546004756703 8.9656955008540535 0 0 0 0 0.019702288163815723 1.0748190221328677 0 1.0748190221328677 12.191783961939677 0 0 0 0 -79.270249094751307 48.586378629879619 0 48.586378629879619 17.773650666666072 0 0 0 0 -97.871907148916989 38.680078022058296 0 38.680078022058296 129.18847738565091 0 0 0 0 -8.691048792440597 55.655852515446895 0 55.655852515446895 37.059476737485966 0 0 0 0 -1.6709502733990764 1.3067251463889944 0 1.3067251463889944 17.491449561405034 0 0 0 0 -74.019687951652486 -32.863440049528435 0 -32.863440049528435 20.659321802653722 0 0 0 0 -27.897609729056008 19.708465084432191 0 19.708465084432191 15.939342458819738 0 0 0 0 -13.358814004813382 -44.261718867663149 0 -44.261718867663149 -2.6840232300455682 0 0 0 0 -1.4268290340851308 22.435522015017341 0 22.435522015017341 2.7429497993070981 0 0 0 0 -18.673605295970901 22.315435834811069 0 22.315435834811069 5.6309800835442729 0 0 0 0 1.0129205980296092 12.336121284028195 0 12.336121284028195 -1.2913611987896729 0 0 0 0 0.9608448945850796 13.745293318501353 0 13.745293318501353 9.1133732428133953 0 0 0 0 8.1240265570917245 11.018449303977832 0 11.018449303977832 -8.4064277142606443 0 0 0 0 5.4418568229095854 14.562546190943976 0 14.562546190943976 -3.369131587605807 0 0 0 0 7.9663487191596687 9.1832710636008414 0 9.1832710636008414 2.9251024184050038 0 0 0 0 10.882331360902526 15.57072052359581 0 15.57072052359581 -0.49170601804144098 0 0 0 0 -1.2347455632157576 3.4888180520849801 0 3.4888180520849801 -0.91941494818917135 0 0 0 0 3.6301685160325405 -3.0892057668461348 0 -3.0892057668461348 -12.920523456923547 0 0 0 0 -2.8148232421388002 -1.8666689169913298 0 -1.8666689169913298 -4.0742007859134901 0 0 0 0 32.155273206524697 29.298301887640264 0 29.298301887640264 12.726556461246219 0 0 0 0 2.6672966174117789 -9.9149709304438147 0 -9.9149709304438147 6.7507646909361938 0 0 0 0 21.748164428888231 6.6735928493435495 0 6.6735928493435495 -2.6318373265476112 0 0 0 0 21.526084983684996 9.7964287383947521 0 9.7964287383947521 17.321969560223806 0 0 0 0 9.2315978026394987 17.775309947679489 0 17.775309947679489 14.186473424488213 0 0 0 0 5.225080893268796 27.470309058437124 0 27.470309058437124 45.81469431676669 0 0 0 0 6.8690334151561956 -24.724111086281482 0 -24.724111086281482 68.214800118119456 0 0 0 0 -8.5379315533234603 28.968430360109778 0 28.968430360109778 198.31699136196403 0 0 0 0 7.0911432797328757 29.778316189960606 0 29.778316189960606 88.784560974410851 0 0 0 0 -2.8947085127539367 13.350022025464568 0 13.350022025464568 98.8874680755398 0 0 0 0 -20.807149457836545 91.74658603304124 0 91.74658603304124 180.567773293762 0 0 0 0 3.1840385691383517 25.096888063257211 0 25.096888063257211 215.23040804709308 0 0 0 0 -34.533235295797681 61.059457494899107 0 61.059457494899107 264.91726364890928 0 0 0 0 -54.737621851758718 20.699951008116841 0 20.699951008116841 207.88985472652712 0 0 0 0 -44.015462757783432 9.5858400970391813 0 9.5858400970391813 210.55538696592703 0 0 0 0 -54.476903212000835 67.965184699543897 0 67.965184699543897 266.15532085899031 0 0 0 0 -9.1034180956260116 45.622426935791736 0 45.622426935791736 96.106739003116672 0 0 0 0 -115.97912791923474 21.466121332865441 0 21.466121332865441 93.589193104249716 0 0 0 0 -0.15449560339660212 -0.25298723918642452 0 -0.25298723918642452 -0.19912840111044261 0 0 0 0 0.013226883015043579 51.803952939277224 0 51.803952939277224 51.48723500854976 0 0 0 0 -17.703887130398755 15.520429710231838 0 15.520429710231838 0.17770640278467909 0 0 0 0 -23.818410500498938 41.620155549115225 0 41.620155549115225 -22.186902078188723 0 0 0 0 -9.1813549598193731 1.3580544129727059 0 1.3580544129727059 -0.50317993604403455 0 0 0 0 0.035134903463747424 0.29143398646231589 0 0.29143398646231589 -1.5355337697981213 0 0 0 0 -54.047572926105843 45.519194994034478 0 45.519194994034478 -13.34369064195198 0 0 0 0 -35.857824810316664 35.391664231377945 0 35.391664231377945 -37.996917000826215 0 0 0 0 -0.021442018184751679 0.33044754655406905 0 0.33044754655406905 0.16565336156020294 0 0 0 0 -35.597676819098872 37.985044173517963 0 37.985044173517963 -12.199843451286142 0 0 0 0 -0.019022693257384506 24.911108433541813 0 24.911108433541813 -33.496275859302841 0 0 0 0 -28.07096759979164 28.867987253630417 0 28.867987253630417 -13.074800247050007 0 0 0 0 -0.01694926126473131 11.974554207667097 0 11.974554207667097 -7.4683059453436726 0 0 0 0 -11.477038916058691 4.1199384486935742 0 4.1199384486935742 6.6524579667311627 0 0 0 0 -3.5779806420122071 6.2643601117233629 0 6.2643601117233629 2.7393161954096286 0 0 0 0 -8.4360242319425716 4.8666944047872676 0 4.8666944047872676 -6.732647196171456 0 0 0 0 -0.23986052452195042 0.81167055544800704 0 0.81167055544800704 3.5829489721380696 0 0 0 0 5.9429269323213099 2.2428036730561871 0 2.2428036730561871 -7.6163567353214603 0 0 0 0 -35.903842824924162 -1.6450859461547225 0 -1.6450859461547225 11.832770872613764 0 0 0 0 -23.919837673799108 -4.4155780702203629 0 -4.4155780702203629 27.824477398462477 0 0 0 0 -6.1516740160582799 2.6151163880131207 0 2.6151163880131207 18.62592503905762 0 0 0 0 -2.7672683080119356 -4.5645292352637625 0 -4.5645292352637625 1.4549073983343987 0 0 0 0 9.6906688386297475 18.589855816888303 0 18.589855816888303 -9.5527663191460306 0 0 0 0 -0.27360827535368143 0.089640913083570695 0 0.089640913083570695 -0.27172082155338373 0 0 0 0 -2.6241032566593545 3.9653684927056077 0 3.9653684927056077 -1.4577990316196079 0 0 0 0 0.92835041732117229 -2.602505885512528 0 -2.602505885512528 1.6178167584876064 0 0 0 0 1.9052910441697293 -5.485420848504873 0 -5.485420848504873 1.4168741126995883 0 0 0 0 -9.1012446534443825 7.3337632634647889 0 7.3337632634647889 2.7049587378933211 0 0 0 0 -11.016270643219968 0.69397117690823507 0 0.69397117690823507 2.7778714347805362 0 0 0 0 -3.4845565461638692 5.865347022025162 0 5.865347022025162 -1.1332566864730325 0 0 0 0 3.0548103966538918 0.44148102918552468 0 0.44148102918552468 1.9720044154491916 0 0 0 0 2.2038041767975116 -5.18261789902499 0 -5.18261789902499 0.37732635028078221 0 0 0 0 2.2979047541962103 -6.9994296110453433 0 -6.9994296110453433 -0.87591932578652631 0 0 0 0 15.555462197959898 -10.667790911444172 0 -10.667790911444172 -2.8788689943758072 0 0 0 0 26.946598840763123 4.6473931628861465 0 4.6473931628861465 4.3210193707491271 0 0 0 0 4.2260022156606709 2.8953358888393268 0 2.8953358888393268 7.112722076184582 0 0 0 0 12.5678608286116 5.2499769357164041 0 5.2499769357164041 -1.6825347804388002 0 0 0 0 -12.043970062400042 2.3193360445548024 0 2.3193360445548024 -1.1884683987445896 0 0 0 0 -34.716552469903313 17.571725030742527 0 17.571725030742527 7.9933439957967494 0 0 0 0 2.0823664583993642 13.762419930535543 0 13.762419930535543 -1.8879019653249998 0 0 0 0 -0.0031843958813604196 1.4664712349196309 0 1.4664712349196309 2.4667184655845631 0 0 0 0 -1.6388319075288391 0.57256674087693682 0 0.57256674087693682 2.9051593581607449 0 0 0 0 -0.05433445927129997 0.31483497517328374 0 0.31483497517328374 3.4699230492348647 0 0 0 0 -4.932762777474303 3.3665682992650545 0 3.3665682992650545 1.9917080467494088 0 0 0 0 0.0087053057691959847 0.30086732817810002 0 0.30086732817810002 3.618465017505514 0 0 0 0 -7.133191138581541 10.588116056595027 0 10.588116056595027 -0.58346452729892917 0 0 0 0 -19.497765272464676 1.8799549312508361 0 1.8799549312508361 30.555766656315527 0 0 0 0 -59.067018041811934 -24.591332319530011 0 -24.591332319530011 32.974660659451601 0 0 0 0 57.233685998681722 -46.412182894579004 0 -46.412182894579004 45.663489014434617 0 0 0 0 -0.0055808232102656508 -1.1112590566662846 0 -1.1112590566662846 8.930734929577131 0 0 0 0 -58.945211849106954 -22.544394981064897 0 -22.544394981064897 28.148578510175184 0 0 0 0 71.972591926126825 -22.011314684380977 0 -22.011314684380977 19.512478321629715 0 0 0 0 -49.002848294948762 77.029566889322609 0 77.029566889322609 66.591847917951156 0 0 0 0 0.095518807917352677 -0.36175408964543276 0 -0.36175408964543276 3.1188375672434612 0 0 0 0 142.11809720849078 -36.904366604518003 0 -36.904366604518003 41.872182935449985 0 0 0 0 330.12746573967593 -164.95284777527888 0 -164.95284777527888 19.772488283463758 0 0 0 0 -39.583868354670358 -28.471767180952384 0 -28.471767180952384 13.274512212974059 0 0 0 0 -44.382056044993533 37.240009137001607 0 37.240009137001607 120.35540163089695 0 0 0 0 -30.481315418610166 10.232135791096994 0 10.232135791096994 75.721828400315417 0 0 0 0 -24.279436965283935 -0.80997779513478463 0 -0.80997779513478463 95.371301907216093 0 0 0 0 7.4266763419623771 22.252153344158046 0 22.252153344158046 55.263943927213631 0 0 0 0 31.148870813737176 -13.124947464540071 0 -13.124947464540071 61.261182035201273 0 0 0 0 -9.9086335621857415 39.10847486794259 0 39.10847486794259 -4.337180527074679 0 0 0 0 -36.719182483910117 -10.025206068919488 0 -10.025206068919488 46.886222930178974 0 0 0 0 -33.455192455487349 17.637595017686692 0 17.637595017686692 70.726385280455588 0 0 0 0 -134.22682880881541 -43.843791023572521 0 -43.843791023572521 23.658198740396074 0 0 0 0 3.8953142722953089 69.701563983155211 0 69.701563983155211 -100.30627339381363 0 0 0 0 57.450784214441455 -37.029181475973814 0 -37.029181475973814 33.079179833835269 0 0 0 0 2.2880955369278495 3.9977961631040397 0 3.9977961631040397 6.0774047854204269 0 0 0 0 89.281105540522731 -95.44707282750187 0 -95.44707282750187 75.16797842212236 0 0 0 0 38.483193814048718 -64.364788123543804 0 -64.364788123543804 100.80136645196603 0 0 0 0 -110.46312560922843 -51.841967008874235 0 -51.841967008874235 99.061386584631236 0 0 0 0 -132.92047676591466 69.748893861882806 0 69.748893861882806 16.446194574159563 0 0 0 0 -141.7471847338245 35.811846524851717 0 35.811846524851717 8.9280721955858553 0 0 0 0 2.5449336567508314 -8.4508442158196928 0 -8.4508442158196928 17.411623858928955 0 0 0 0 -125.16864617891406 61.651428033244315 0 61.651428033244315 -22.735786465282672 0 0 0 0 -20.238380456234154 -35.497922232704809 0 -35.497922232704809 -6.8950903622635451 0 0 0 0 -1.1398704986630932 -1.484401657486885 0 -1.484401657486885 3.9160742675665583 0 0 0 0 -37.674082417103364 -2.4712122612784242 0 -2.4712122612784242 38.144466507709012 0 0 0 0 -23.987973951509503 -42.126315651106552 0 -42.126315651106552 -40.466004293153901 0 0 0 0 39.082524031909998 -30.357381084812232 0 -30.357381084812232 7.5934542142917962 0 0 0 0 18.938618857838264 -7.4544150412862109 0 -7.4544150412862109 5.5831210478552009 0 0 0 0 -1.3221264644097372 1.7460554815494405 0 1.7460554815494405 2.0826352907076506 0 0 0 0 -52.110622344394073 -31.495377219511738 0 -31.495377219511738 -2.5741723799742431 0 0 0 0 -0.96103403308143243 -12.251339502913424 0 -12.251339502913424 -4.5364681408469494 0 0 0 0 -0.59820103149837678 -3.4610032106586459 0 -3.4610032106586459 4.9122587653832852 0 0 0 0 1.0507319090866227 -3.2949695401152996 0 -3.2949695401152996 8.1162606227777445 0 0 0 0 -5.1123923634345374 -7.1127447621310722 0 -7.1127447621310722 23.131651957047779 0 0 0 0 1.0015757789050141 -2.5327972762784445 0 -2.5327972762784445 4.03505412689353 0 0 0 0 2.384332106432872 -7.081741849586785 0 -7.081741849586785 7.4223717933613642 0 0 0 0 -2.0944301833551435 -4.8827343407383523 0 -4.8827343407383523 40.880925203791548 0 0 0 0 9.6758535474637029 -1.7326044335768529 0 -1.7326044335768529 19.292843819606787 0 0 0 0 18.269520589577041 -17.53594606160982 0 -17.53594606160982 20.882963886728021 0 0 0 0 9.3407981395048409 -35.074878427269368 0 -35.074878427269368 -86.008787974573693 0 0 0 0 3.0979977971741519 0.33769961249593639 0 0.33769961249593639 0.0088328513738766823 0 0 0 0 1.1272511676675734 0.74642930949489816 0 0.74642930949489816 0.19773670004344002 0 0 0 0 60.184259325918447 78.326228605707456 0 78.326228605707456 -71.989015056529297 0 0 0 0 48.563215079818406 -64.539327852119129 0 -64.539327852119129 85.813554831016745 0 0 0 0 29.914126194199071 -44.751420446957354 0 -44.751420446957354 53.772857389765022 0 0 0 0 14.655640141712638 -21.984147978300712 0 -21.984147978300712 41.80730345126085 0 0 0 0 30.843571759172846 -15.605246544083911 0 -15.605246544083911 17.934866203250294 0 0 0 0 30.546834029333695 -24.82068623533894 0 -24.82068623533894 21.316181228959067 0 0 0 0 21.688009539996983 -27.297535401647679 0 -27.297535401647679 31.87515871235405 0 0 0 0 21.229292981670312 -23.898545103731905 0 -23.898545103731905 25.403241796326711 0 0 0 0 15.444541711476404 66.339543683874354 0 66.339543683874354 37.993464029721224 0 0 0 0 -36.539956384581728 -19.315234260832995 0 -19.315234260832995 48.999237067522245 0 0 0 0 118.83842311920893 -17.051868189725553 0 -17.051868189725553 30.93928943387732 0 0 0 0 22.658757630322043 -8.7222570556894539 0 -8.7222570556894539 50.079230160971349 0 0 0 0 18.247907307338096 7.2164429767536262 0 7.2164429767536262 48.875787756050428 0 0 0 0 5.2904549151180618 -98.316718622278131 0 -98.316718622278131 -48.121624842571009 0 0 0 0 -1.2230239409102328 0.71284714040339203 0 0.71284714040339203 4.5988750151326769 0 0 0 0 -9.2068938015527237 -767.93039380197661 0 -767.93039380197661 23.631045111607818 0 0 0 0 -15.014271587582876 17.588396566177035 0 17.588396566177035 40.629639890158522 0 0 0 0 28.435040731088293 -24.746698634811537 0 -24.746698634811537 61.433325843421201 0 0 0 0 45.236950220492872 -275.35940400692198 0 -275.35940400692198 287.4795686847483 0 0 0 0 -16.986172056775104 -157.24412620246039 0 -157.24412620246039 112.9186910063363 0 0 0 0 0.41833661954819945 3.6947599987134154 0 3.6947599987134154 5.3015459276145194 0 0 0 0 231.04786267423697 219.05839192456915 0 219.05839192456915 905.33802561834455 0 0 0 0 23.170966780224262 -20.093692931963233 0 -20.093692931963233 45.996089057476638 0 0 0 0 -42.888622786583255 193.44027984547211 0 193.44027984547211 375.04094219140643 0 0 0 0 34.932204276812854 -63.255000127088294 0 -63.255000127088294 74.507977779991393 0 0 0 0 59.120903682722201 -44.314085597825056 0 -44.314085597825056 33.149883390701234 0 0 0 0 32.091624227272973 -38.935639899277326 0 -38.935639899277326 72.021923031941128 0 0 0 0 27.78990619170645 -49.523208480802737 0 -49.523208480802737 51.448332376507096 0 0 0 0 -65.622405438332862 -11.868795190636888 0 -11.868795190636888 98.827432787050284 0 0 0 0 11.237137809397154 -46.191553498299633 0 -46.191553498299633 95.571242960563069 0 0 0 0 96.768225470587822 -131.85575682972785 0 -131.85575682972785 95.257559664026189 0 0 0 0 -1.8775659754528533 -68.680339695068241 0 -68.680339695068241 73.75023242948906 0 0 0 0 136.8492454768525 -218.48459016567537 0 -218.48459016567537 142.37330804046098 0 0 0 0 -87.189697386573243 -127.49795525675995 0 -127.49795525675995 149.51536908930177 0 0 0 0 64.427924914474715 -79.383212088852815 0 -79.383212088852815 160.50661786354976 0 0 0 0 27.966453790268133 -16.193966915518104 0 -16.193966915518104 49.250169419362464 0 0 0 0 17.356258526550846 -128.23714101352834 0 -128.23714101352834 124.92276547913934 0 0 0 0 87.062906604624004 -62.14119228481286 0 -62.14119228481286 161.84558518400081 0 0 0 0 25.354386705919751 -105.17701407309505 0 -105.17701407309505 137.73988642543191 0 0 0 0 -18.17069743554433 15.66246105570165 0 15.66246105570165 37.466767543778666 0 0 0 0 -4.9222506894002436 -29.448087405398837 0 -29.448087405398837 57.833042513066175 0 0 0 0 48.903980335577216 -89.721053247558302 0 -89.721053247558302 179.18393173019649 0 0 0 0 -0.80306179256948695 4.6271361571468272 0 4.6271361571468272 8.4682448612817005 0 0 0 0 16.468697188109218 -30.337853199269375 0 -30.337853199269375 57.797663062061986 0 0 0 0 26.856434274445519 2.4996830598529414 0 2.4996830598529414 51.265725738601759 0 0 0 0 -1.505955311678175 0.29495954579684103 0 0.29495954579684103 2.8237552747430286 0 0 0 0 5.9812061778218215 0.45103314583041509 0 0.45103314583041509 3.5139844152147504 0 0 0 0 51.846361480013911 -70.053042030713641 0 -70.053042030713641 116.29119413674925 0 0 0 0 -18.450640276934365 8.2170766056380913 0 8.2170766056380913 38.041309790039691 0 0 0 0 2.2662891222618846 2.2001963017608706 0 2.2001963017608706 8.8541309714869811 0 0 0 0 62.123201546355631 -57.919422367041989 0 -57.919422367041989 113.93016846210958 0 0 0 0 75.96006901722285 -66.8135486611136 0 -66.8135486611136 85.777396004705224 0 0 0 0 -127.8608073023471 -8.6864675179776896 0 -8.6864675179776896 178.25171867639619 0 0 0 0 -94.862239719399668 -34.017027257215886 0 -34.017027257215886 91.681747255612208 0 0 0 0 8.3056372925160868 2.6223724452621866 0 2.6223724452621866 0.32727263521465133 0 0 0 0 11.229968253133848 -25.139207143773092 0 -25.139207143773092 50.096073261305719 0 0 0 0 0.21613789750483292 4.3246284021408208 0 4.3246284021408208 6.2090462584111989 0 0 0 0 12.152502020715474 73.723721267371729 0 73.723721267371729 18.154200905684775 0 0 0 0 -9.6356443828152578 -79.516733298318968 0 -79.516733298318968 82.419435749183322 0 0 0 0 63.125347283010342 -32.515758210000058 0 -32.515758210000058 112.44906925976647 0 0 0 0 37.475979268260744 -208.52660215163723 0 -208.52660215163723 292.88812971829566 0 0 0 0 -3.3642169778962865 -0.76436681242234172 0 -0.76436681242234172 1.8892744227647711 0 0 0 0 -143.65193542110228 -48.975278214657465 0 -48.975278214657465 81.599539953100248 0 0 0 0 9.867556191505173 -65.930306136298896 0 -65.930306136298896 83.471527589918423 0 0 0 0 22.095520485004272 -69.720289182519537 0 -69.720289182519537 52.707495351725811 0 0 0 0 -6.8129447542040822 -1.6576502684945993 0 -1.6576502684945993 1.7384560756268144 0 0 0 0 48.445390760087321 -125.02121001338128 0 -125.02121001338128 174.33103796820251 0 0 0 0 20.486108997042265 -55.85501466278447 0 -55.85501466278447 53.469120596831999 0 0 0 0 34.463172616502561 -66.333101793974492 0 -66.333101793974492 -6.7903406269851985 0 0 0 0 22.6802064175032 -83.828142881738131 0 -83.828142881738131 47.531714192341497 0 0 0 0 5.8796161589807525 -44.198320129647982 0 -44.198320129647982 54.665477142329109 0 0 0 0 22.958669141330574 -57.114952212212302 0 -57.114952212212302 89.321039215376004 0 0 0 0 4.1117935463171307 -6.7154934525567569 0 -6.7154934525567569 32.56553397256539 0 0 0 0 40.056751527131837 -59.119853090215656 0 -59.119853090215656 80.675637195766285 0 0 0 0 -0.35886416596809312 -8.1635243376285622 0 -8.1635243376285622 3.926739452992571 0 0 0 0 51.793065292938991 -100.00903693114378 0 -100.00903693114378 125.20714311543998 0 0 0 0 33.595071845431448 -46.540714365659369 0 -46.540714365659369 133.95955288444566 0 0 0 0 257.47638534657744 -231.55657891888586 0 -231.55657891888586 164.59146308373238 0 0 0 0 56.556882511588014 -36.54381639957262 0 -36.54381639957262 27.395185137331282 0 0 0 0 38.665964384743347 -78.00878786060764 0 -78.00878786060764 308.30942934324776 0 0 0 0 12.960963313390238 0.80392446700282605 0 0.80392446700282605 -6.061614933462053 0 0 0 0 -9.3415424625536616 -69.382630629388586 0 -69.382630629388586 108.27385513716422 0 0 0 0 42.335334713070949 11.20325322870849 0 11.20325322870849 60.450253925473589 0 0 0 0 1073.7430614082659 666.39709351065176 0 666.39709351065176 -806.58293952439271 0 0 0 0 75.828693921612455 -40.261863174398059 0 -40.261863174398059 65.71026581643946 0 0 0 0 14.768086947035044 -40.284095822594281 0 -40.284095822594281 164.7194473912059 0 0 0 0 -2.9810954010359452 5.5376299477728796 0 5.5376299477728796 9.9841292800861865 0 0 0 0 4.0868215199238307 -28.836708884062151 0 -28.836708884062151 71.360409544676315 0 0 0 0 -30.420538977988656 -85.406332410634221 0 -85.406332410634221 56.391217925299543 0 0 0 0 63.805883944221421 -34.064302001545911 0 -34.064302001545911 45.838359299875265 0 0 0 0 -6.205609951925112 -22.743813145821917 0 -22.743813145821917 41.288487292147011 0 0 0 0 -223.46834787228363 120.67864877448483 0 120.67864877448483 97.264223625183149 0 0 0 0 3.8602332579457661 -24.9750391438157 0 -24.9750391438157 67.928564101247161 0 0 0 0 8.684834945057089 -17.49172859738669 0 -17.49172859738669 12.883829337066128 0 0 0 0 16.061300088975258 -31.914151706695975 0 -31.914151706695975 38.843939789376634 0 0 0 0 18.301284424291225 -18.53318812615953 0 -18.53318812615953 62.041963866136939 0 0 0 0 2.6385942537431841 -5.2466897142874807 0 -5.2466897142874807 10.757765195171443 0 0 0 0 15.701265172450249 -10.527686767722763 0 -10.527686767722763 29.389827222516455 0 0 0 0 -2.3320778520786094 3.3106701680811481 0 3.3106701680811481 2.0020529437006624 0 0 0 0 -2.1695361858773801 -3.1871182377935394 0 -3.1871182377935394 28.432395232772002 0 0 0 0 37.988661317205697 -55.774083016978693 0 -55.774083016978693 121.73199675401338 0 0 0 0 23.063801845994021 -33.469805330243616 0 -33.469805330243616 58.117019883258763 0 0 0 0 175.62389156248764 -77.198880476093109 0 -77.198880476093109 61.735624752570857 0 0 0 0 17.501852560295685 -11.125094599893281 0 -11.125094599893281 10.397121066641713 0 0 0 0 -94.584932321230099 252.31600903745996 0 252.31600903745996 208.3943569699569 0 0 0 0 119.37965273963164 -22.173997452394815 0 -22.173997452394815 25.674460405615491 0 0 0 0 18.562837691786626 27.091803022229442 0 27.091803022229442 5.3087707376487288 0 0 0 0 -6.1453384530732169 -11.82217377817296 0 -11.82217377817296 50.971268114558377 0 0 0 0 -2.7676312602425241 -33.289155792266627 0 -33.289155792266627 66.074358290692089 0 0 0 0 -0.16613549076395451 -2.4996135578204481 0 -2.4996135578204481 6.2460287338048852 0 0 0 0 30.089399303512664 -87.710016893456299 0 -87.710016893456299 31.458540927555532 0 0 0 0 3.8982817837759285 -37.546807537270638 0 -37.546807537270638 40.412141102982105 0 0 0 0 85.211316264596462 -53.776370059112878 0 -53.776370059112878 31.071259638173387 0 0 0 0 19.55213627046453 -78.863793209832806 0 -78.863793209832806 121.28755395575718 0 0 0 0 35.533751611004845 -41.502674064123539 0 -41.502674064123539 48.001008114137449 0 0 0 0 115.60983971393944 -114.17205649923062 0 -114.17205649923062 112.10432029204412 0 0 0 0 15.985487521743835 -74.205204881962118 0 -74.205204881962118 134.65132511500849 0 0 0 0 87.511275229165676 -153.21887318641882 0 -153.21887318641882 218.43854801243833 0 0 0 0 12.815582500625453 -61.67995627555328 0 -61.67995627555328 109.51632995675845 0 0 0 0 -52.178318285295063 -26.090496854360254 0 -26.090496854360254 189.22625724857653 0 0 0 0 -49.625766195764157 -2.9967692297596287 0 -2.9967692297596287 269.99458362058749 0 0 0 0 -56.732408906172509 -227.57266582649507 0 -227.57266582649507 612.88477677831634 0 0 0 0 -105.05787187292776 -43.346718709580841 0 -43.346718709580841 -7.3012336096699073 0 0 0 0 23.790821840933404 -20.708977847298229 0 -20.708977847298229 37.278845832817751 0 0 0 0 -50.202020200346396 -20.864043133886867 0 -20.864043133886867 89.713255272445224 0 0 0 0 -62.602796058729837 -50.51208230746613 0 -50.51208230746613 118.84929579656239 0 0 0 0 1.8452180829796196 -25.336433832797479 0 -25.336433832797479 65.905674682007245 0 0 0 0 -20.171335639686276 -19.692629105090248 0 -19.692629105090248 34.547470732672309 0 0 0 0 9.8134497683882955 -32.905534411530425 0 -32.905534411530425 70.203202501535998 0 0 0 0 29.595983445623915 -8.0141429594432338 0 -8.0141429594432338 64.822404490376357 0 0 0 0 18.480596185770082 -40.399832301684 0 -40.399832301684 68.701969446696211 0 0 0 0 17.174396721602193 -18.624964055172313 0 -18.624964055172313 97.547532850974676 0 0 0 0 28.800405360730906 -15.62311078393941 0 -15.62311078393941 84.740572081939263 0 0 0 0 -31.780385424619112 -22.477523009754805 0 -22.477523009754805 98.271902172924456 0 0 0 0 -4.3758153198944623 22.450793947647234 0 22.450793947647234 46.483412014748659 0 0 0 0 1.4249139153237138 -96.883744452490646 0 -96.883744452490646 102.5383469222885 0 0 0 0 79.992841091396485 -50.575349465920226 0 -50.575349465920226 68.913205257795198 0 0 0 0 62.590456450472743 -4.3694884177798485 0 -4.3694884177798485 73.91378111220547 0 0 0 0 30.099378717475702 -15.240270835105548 0 -15.240270835105548 61.175023319434331 0 0 0 0 15.529323587847102 -23.301283926142787 0 -23.301283926142787 71.247047993538217 0 0 0 0 -5.8309403782977824 -17.245094004800194 0 -17.245094004800194 77.52979453169246 0 0 0 0 3.682796426022378 -8.5596206019672536 0 -8.5596206019672536 82.018174660399382 0 0 0 0 22.524201059600273 2.1398367270703602 0 2.1398367270703602 87.215366972667425 0 0 0 0 7.20337253104708 -3.2666582846450183 0 -3.2666582846450183 89.93488716941647 0 0 0 0 -0.60818972886556821 -5.8650505095315566 0 -5.8650505095315566 90.724657961822231 0 0 0 0 -7.574200156544066 -3.7629992091497115 0 -3.7629992091497115 112.90295237880491 0 0 0 0 -2.2978824720466946 1.5779580843045551 0 1.5779580843045551 96.060392077541678 0 0 0 0 0.55601863257936657 -1.2125141763212923 0 -1.2125141763212923 98.770339705057268 0 0 0 0 -8.9759060315109309 -9.0230121029599104 0 -9.0230121029599104 95.858474689322975 0 0 0 0 -6.0775951579180401 6.0582038081483915 0 6.0582038081483915 102.12769622859923 0 0 0 0 -18.876836091487348 -0.033974825742916437 0 -0.033974825742916437 169.09419889303535 0 0 0 0 27.98760903841071 -63.408623462575633 0 -63.408623462575633 140.16016373910679 0 0 0 0 16.583748185305922 -27.66454240041503 0 -27.66454240041503 55.092640309230774 0 0 0 0 0.18752338475042052 -24.485769805996824 0 -24.485769805996824 99.889691273134304 0 0 0 0 0.81279249441877255 -9.8891671438068443 0 -9.8891671438068443 59.549744299329177 0 0 0 0 -0.47417316630071582 -20.343005615241054 0 -20.343005615241054 49.683685145238996 0 0 0 0 7.2642086552505134 -11.995562097392394 0 -11.995562097392394 10.134414849628229 0 0 0 0 3.146709436970923 5.7131941063416889 0 5.7131941063416889 2.334454313669994 0 0 0 0 -22.276276727226104 52.91965524850275 0 52.91965524850275 -1.8313185308688844 0 0 0 0 5.4867611944282544 -6.8870784899063437 0 -6.8870784899063437 52.639208042634209 0 0 0 0 -0.14624348724946934 1.701146060866698 0 1.701146060866698 3.4119632863310443 0 0 0 0 -17.858620487076223 -28.926281294781802 0 -28.926281294781802 136.59007490791191 0 0 0 0 3.2462327643895108 -2.7095626188586763 0 -2.7095626188586763 15.571148998719302 0 0 0 0 6.0360272793204786 -18.654062027364489 0 -18.654062027364489 75.837578960103201 0 0 0 0 28.716336857974056 -45.100408207666987 0 -45.100408207666987 -3.6274653423354266 0 0 0 0 -39.016634010738926 -26.772320880812913 0 -26.772320880812913 168.45653190713529 0 0 0 0 0.16314170072004686 1.5355502206815004 0 1.5355502206815004 0.54623995697079764 0 0 0 0 -0.21123371725196272 1.8748742967271141 0 1.8748742967271141 3.8426578255843538 0 0 0 0 -3.3682010823504243 54.183418659626113 0 54.183418659626113 75.758097390644252 0 0 0 0 -57.939180453509834 4.0365696527478576 0 4.0365696527478576 156.02030536648817 0 0 0 0 195.89643797648569 -15.813734799281519 0 -15.813734799281519 -14.601804705554969 0 0 0 0 -18.593063337974854 15.402687541820342 0 15.402687541820342 13.007276490679942 0 0 0 0 2.5362845739773547 -12.271699855147745 0 -12.271699855147745 21.328096329952132 0 0 0 0 0.56539628300288314 -3.3385568860139756 0 -3.3385568860139756 -19.985391196009004 0 0 0 0 -27.405830095950591 -9.4397194906027835 0 -9.4397194906027835 23.50829543195141 0 0 0 0 -0.012206205108668655 1.1086572464737401 0 1.1086572464737401 33.504438122829015 0 0 0 0 4.2712506277550801 0.97844601405358844 0 0.97844601405358844 29.826955163145612 0 0 0 0 12.80052182905456 -13.966279518943338 0 -13.966279518943338 49.871072502648985 0 0 0 0 20.031046309971771 -12.207348124520649 0 -12.207348124520649 30.066413133007757 0 0 0 0 -3.6992904450648894 -12.58067184160609 0 -12.58067184160609 48.670830389182811 0 0 0 0 9.503220008498829 -30.28987488157145 0 -30.28987488157145 50.332021154892573 0 0 0 0 8.5761589591170377 -7.0672487200190517 0 -7.0672487200190517 51.013539852538088 0 0 0 0 -10.60238139915009 0.12527143395345774 0 0.12527143395345774 29.30862980200618 0 0 0 0 -0.71707545907565873 -21.243442299963135 0 -21.243442299963135 36.905490549033857 0 0 0 0 62.497549350562622 16.470537067896657 0 16.470537067896657 18.139378673100509 0 0 0 0 17.253961748174333 -31.190769304113928 0 -31.190769304113928 30.629410237732372 0 0 0 0 -1.7626359756482088 -23.686286182899494 0 -23.686286182899494 68.822634247539099 0 0 0 0 0.77971010205328639 -8.4408446910238126 0 -8.4408446910238126 92.134336933738041 0 0 0 0 4.7265843561399379 -7.7787195862365479 0 -7.7787195862365479 52.628773804215598 0 0 0 0 31.573398920815634 -12.477874065076321 0 -12.477874065076321 53.117293566931039 0 0 0 0 -2.0622997016771478 2.8776514033597778 0 2.8776514033597778 59.129442124147317 0 0 0 0 6.8555249027303944 -3.1398291490695556 0 -3.1398291490695556 62.324312164678986 0 0 0 0 20.191541496941682 6.9847404567281046 0 6.9847404567281046 45.131784568075091 0 0 0 0 48.778528485896459 48.835329269360955 0 48.835329269360955 108.97487395733333 0 0 0 0 32.488577455838822 9.2643759284037515 0 9.2643759284037515 43.164900207520986 0 0 0 0 8.5387963708230927 20.856945642597566 0 20.856945642597566 97.275258240377298 0 0 0 0 -7.5289164347263409 8.6376873222412769 0 8.6376873222412769 57.040217052125854 0 0 0 0 -33.603320467844014 22.817616793823618 0 22.817616793823618 79.392075376534194 0 0 0 0 26.370113446285359 66.379457444032596 0 66.379457444032596 15.811076041760316 0 0 0 0 28.372965182152257 45.260621684916259 0 45.260621684916259 2.1914178827646538 0 0 0 0 0.90558691511023426 2.4609522890714288 0 2.4609522890714288 52.942325883901503 0 0 0 0 0.51534057012732504 -3.0515068171715356 0 -3.0515068171715356 8.0776944407331115 0 0 0 0 -10.32025471360339 -48.613281693962563 0 -48.613281693962563 167.96401751201483 0 0 0 0 -9.4875784525975178 29.363202537545476 0 29.363202537545476 47.467154109886906 0 0 0 0 -8.2307467464158037 8.7836102818713826 0 8.7836102818713826 59.846239207375291 0 0 0 0 -63.260845206474187 -8.7113642936492397 0 -8.7113642936492397 142.76216316877253 0 0 0 0 49.833036755295325 -35.422123059142905 0 -35.422123059142905 39.823121774228753 0 0 0 0 -36.674441363838923 -45.510870676745981 0 -45.510870676745981 123.99930040877371 0 0 0 0 -45.690457177364806 -31.886186152572918 0 -31.886186152572918 229.87029193289345 0 0 0 0 185.95898476337243 -40.518074603511195 0 -40.518074603511195 165.56243239450851 0 0 0 0 50.992315119749037 12.503209882001102 0 12.503209882001102 53.648814156201411 0 0 0 0 29.422429976943022 34.893112952708179 0 34.893112952708179 -30.260014405257607 0 0 0 0 22.556604068755405 39.693449939244601 0 39.693449939244601 -12.413651581748127 0 0 0 0 28.777227778660745 62.489035146398237 0 62.489035146398237 -12.497728134716453 0 0 0 0 -0.54422068451142636 0.65955032975287509 0 0.65955032975287509 1.9250896546871559 0 0 0 0 7.4015100438882655 -37.88577931868349 0 -37.88577931868349 249.28050067005097 0 0 0 0 36.97903146167846 84.621367115165413 0 84.621367115165413 43.987121933940216 0 0 0 0 25.613119877129066 86.090824354367214 0 86.090824354367214 153.95325056872025 0 0 0 0 40.092734373967687 -27.197399993616273 0 -27.197399993616273 29.162944727653667 0 0 0 0 -8.296992426701939 6.2683761699007832 0 6.2683761699007832 55.995134640428745 0 0 0 0 -24.736650105731769 -33.387931937750153 0 -33.387931937750153 37.46855582273929 0 0 0 0 2.3025685469525374 -7.9904492137602574 0 -7.9904492137602574 12.867791940306802 0 0 0 0 4.523669096384765 -14.769832827900245 0 -14.769832827900245 68.725862337552826 0 0 0 0 5.6563253102281124 -19.403875493921078 0 -19.403875493921078 71.951705908342774 0 0 0 0 -12.059696201722545 -12.81763460455295 0 -12.81763460455295 98.061740965596982 0 0 0 0 -7.6096741417396565 6.6160261706988877 0 6.6160261706988877 11.017805443857391 0 0 0 0 -5.238576183076475 -29.698164033306966 0 -29.698164033306966 114.64653761389491 0 0 0 0 3.0014295091782408 -3.5769350198501115 0 -3.5769350198501115 1.8566357142526648 0 0 0 0 3.5451098905978142 -16.894158736603458 0 -16.894158736603458 72.869465807940287 0 0 0 0 2.4150941880861865 1.7686143050159444 0 1.7686143050159444 63.66267389398854 0 0 0 0 10.310736817805264 -30.852690920599343 0 -30.852690920599343 85.712178146131919 0 0 0 0 -7.6719428065835018 -11.53479267235889 0 -11.53479267235889 122.53624918720743 0 0 0 0 2.2542618687584763 0.70735567885276396 0 0.70735567885276396 92.727784577158673 0 0 0 0 2.6006114775748301 7.5850481599077284 0 7.5850481599077284 197.74505777320883 0 0 0 0 19.16514837128625 -28.345512086013514 0 -28.345512086013514 73.11234825925203 0 0 0 0 40.055090722891691 -84.251880307834654 0 -84.251880307834654 159.31137878386653 0 0 0 0 16.661932292583515 -33.601789848224143 0 -33.601789848224143 111.68431818415775 0 0 0 0 1.0157871668088774 -13.860633945085283 0 -13.860633945085283 77.865453342186811 0 0 0 0 -10.675494038785473 -3.5781727928988403 0 -3.5781727928988403 83.867681544239758 0 0 0 0 10.261836128120194 -17.000904271160834 0 -17.000904271160834 14.684661679173587 0 0 0 0 2.9124107717122847 1.6103624694123511 0 1.6103624694123511 4.7868088387223295 0 0 0 0 0.61419345154354232 6.4657952446868876 0 6.4657952446868876 8.2601728408117197 0 0 0 0 -5.1140164193900528 11.012564157567027 0 11.012564157567027 25.724054917461729 0 0 0 0 -8.13611405395568 7.331877313205041 0 7.331877313205041 15.095467987615848 0 0 0 0 -3.632067498896113 11.141377629469261 0 11.141377629469261 39.577171510200429 0 0 0 0 -2.7639676380501754 -0.57582901624849114 0 -0.57582901624849114 26.365625659974839 0 0 0 0 -2.4182104648025415 5.7030975203524577 0 5.7030975203524577 9.4124166449182667 0 0 0 0 0.0045870162803893777 -4.0679715060518333 0 -4.0679715060518333 21.298600297419881 0 0 0 0 1.3201590038716207 9.743453199900479 0 9.743453199900479 -11.490399792861865 0 0 0 0 -14.782681555679119 14.578452360146912 0 14.578452360146912 40.573433041594399 0 0 0 0 -1.9699219926381364 18.371963071412381 0 18.371963071412381 55.335227238170887 0 0 0 0 27.338150108709669 45.694907688113744 0 45.694907688113744 -82.458184922070359 0 0 0 0 12.964571242639067 17.005152656471182 0 17.005152656471182 78.918205260408286 0 0 0 0 -3.9104539859354759 10.231826354138988 0 10.231826354138988 52.481282211323787 0 0 0 0 -22.089238786516944 24.913898283091839 0 24.913898283091839 -33.091780232207384 0 0 0 0 -6.2403320580432258 16.951347763204083 0 16.951347763204083 43.067783541018343 0 0 0 0 -10.935208412688098 9.508605454757344 0 9.508605454757344 46.046236284135375 0 0 0 0 -33.702801599805753 32.06561113457974 0 32.06561113457974 196.25801160503761 0 0 0 0 -2.7746004756341716 8.3828889995075428 0 8.3828889995075428 58.229853228009972 0 0 0 0 24.495898135130119 -1.412358192843385 0 -1.412358192843385 -2.9365451209123421 0 0 0 0 22.554817628330056 -11.212795901512436 0 -11.212795901512436 -30.302813095739111 0 0 0 0 -0.64122113329966801 0.72836443804123263 0 0.72836443804123263 0.2307442012388492 0 0 0 0 -0.10693811425774058 0.36063138933030814 0 0.36063138933030814 -0.35220579087204129 0 0 0 0 -10.362047052429716 10.637396132740832 0 10.637396132740832 84.792372905008961 0 0 0 0 -4.1095571314567678 10.681947085700813 0 10.681947085700813 80.110254297160282 0 0 0 0 -4.2745179040118728 2.1293827184100138 0 2.1293827184100138 15.744207795616788 0 0 0 0 -4.3013549338152188 -0.90741398202226264 0 -0.90741398202226264 45.691405836761987 0 0 0 0 -6.4000459575299828 28.943039055448025 0 28.943039055448025 83.51052479426653 0 0 0 0 -2.1203969000070577 2.4217951329030711 0 2.4217951329030711 38.383134626325727 0 0 0 0 -0.99530536227348421 9.9847287603224686 0 9.9847287603224686 53.559986118096276 0 0 0 0 -9.4598788318238576 -3.205123626490078 0 -3.205123626490078 38.669306003073558 0 0 0 0 -3.0063064569359508 5.332045202806583 0 5.332045202806583 42.999674942960638 0 0 0 0 -15.211927348994323 4.3705283459639759 0 4.3705283459639759 49.719557121374237 0 0 0 0 -15.490313755984971 13.093600556414458 0 13.093600556414458 73.201220462844503 0 0 0 0 -12.447149917588831 4.3936757541487168 0 4.3936757541487168 45.424030057431082 0 0 0 0 -5.6038361842926534 2.629907984857951 0 2.629907984857951 53.763851624075286 0 0 0 0 -4.5010119713449717 7.2565581999011002 0 7.2565581999011002 52.756369854507966 0 0 0 0 -7.1535155564065462 0.85855131806238205 0 0.85855131806238205 49.043264140782412 0 0 0 0 -7.4348737464042642 2.0692540510353865 0 2.0692540510353865 47.239499360644913 0 0 0 0 -3.1600781714045372 3.5808056989882466 0 3.5808056989882466 44.150978181312212 0 0 0 0 -3.837791590537563 33.435772104632633 0 33.435772104632633 76.708945722326462 0 0 0 0 -32.619558883699256 -17.535491544845627 0 -17.535491544845627 82.841592864373524 0 0 0 0 0.029941131933751919 2.8874708606440436 0 2.8874708606440436 8.7413272697441897 0 0 0 0 -0.20754566244978712 1.5284750588652685 0 1.5284750588652685 11.722493340200671 0 0 0 0 -13.524170900883291 42.803144521130889 0 42.803144521130889 83.689928467558275 0 0 0 0 -14.472666666507394 8.4422240109997801 0 8.4422240109997801 83.945610149020439 0 0 0 0 13.795375012785826 -11.148898903589725 0 -11.148898903589725 27.676068154709355 0 0 0 0 35.097810405919972 0.1015532818128122 0 0.1015532818128122 67.131883971647767 0 0 0 0 -1.0052852811108153 2.0864095368965394 0 2.0864095368965394 10.204028060700118 0 0 0 0 -4.8071084315270127 -92.020222507067956 0 -92.020222507067956 133.6294306761265 0 0 0 0 -25.530139941746086 34.910214107339925 0 34.910214107339925 84.884133900151937 0 0 0 0 -3.4481768772479899 3.8340599282798564 0 3.8340599282798564 16.858489911104463 0 0 0 0 -84.507707628892263 -57.842978938224405 0 -57.842978938224405 103.23447788663907 0 0 0 0 -16.225220323270605 -7.0381582465488464 0 -7.0381582465488464 85.433312076042057 0 0 0 0 -114.18164093828273 -9.5847374362892879 0 -9.5847374362892879 163.93630176201987 0 0 0 0 -44.012030768807563 -47.591399968572659 0 -47.591399968572659 133.01094804307286 0 0 0 0 -43.095055422101836 16.739983436878902 0 16.739983436878902 72.085212297366525 0 0 0 0 -41.757270708931088 -17.759338877175651 0 -17.759338877175651 83.613207845861325 0 0 0 0 -29.110168323457401 14.858344396430766 0 14.858344396430766 33.478232874673267 0 0 0 0 -6.0798710979953023 -1.973476900495001 0 -1.973476900495001 7.0726829976080765 0 0 0 0 -25.35641213121778 -46.635121153973159 0 -46.635121153973159 144.40114778053612 0 0 0 0 -7.2676019011061044 -48.098009165578333 0 -48.098009165578333 115.40977817543535 0 0 0 0 -18.427710371252942 -19.722548202487815 0 -19.722548202487815 33.110426329651091 0 0 0 0 -8.3229535788707434 -2.4985497274806079 0 -2.4985497274806079 35.209695251592763 0 0 0 0 -9.2684332134156193 -14.12667164517552 0 -14.12667164517552 35.817272060143296 0 0 0 0 -17.614140349864101 -3.7225568322246545 0 -3.7225568322246545 51.574480545757979 0 0 0 0 -41.279446302559109 -16.915589664482468 0 -16.915589664482468 44.779018401444773 0 0 0 0 -15.050178084538743 -5.5409781425878464 0 -5.5409781425878464 41.451003642709111 0 0 0 0 -7.7609855555229164 0.392792555925908 0 0.392792555925908 57.056428855877797 0 0 0 0 -13.259835638992172 -8.7746301235820283 0 -8.7746301235820283 43.490114039814216 0 0 0 0 -11.71008792124303 1.4011524386733072 0 1.4011524386733072 58.641398618463427 0 0 0 0 -8.9760345216094208 2.4496582312203259 0 2.4496582312203259 40.177599406063763 0 0 0 0 -0.15480632814956152 4.8505048120277934 0 4.8505048120277934 62.439187684998615 0 0 0 0 -8.7342190264382573 -3.1519500589646583 0 -3.1519500589646583 44.283995700592925 0 0 0 0 -23.54228728862617 0.62666591690384621 0 0.62666591690384621 49.555553745811167 0 0 0 0 -12.397277205228875 -8.292211376121486 0 -8.292211376121486 51.34197233778832 0 0 0 0 -12.630355602365691 -2.5095337406883402 0 -2.5095337406883402 41.255720739846879 0 0 0 0 -7.119533259481198 -6.708736786962767 0 -6.708736786962767 37.253865904366648 0 0 0 0 -17.939153229916428 -8.3695644056533638 0 -8.3695644056533638 118.77614105297926 0 0 0 0 -26.9713381189149 10.425804437483748 0 10.425804437483748 50.320518303939025 0 0 0 0 -86.005830215093738 44.396686729736757 0 44.396686729736757 97.321214416493603 0 0 0 0 2.8940785920250462 -23.768135127490837 0 -23.768135127490837 25.374749321245169 0 0 0 0 -15.987854528686366 -5.8687965243263616 0 -5.8687965243263616 91.840881429537575 0 0 0 0 -10.241909251157807 5.1809759883943798 0 5.1809759883943798 66.691642011515796 0 0 0 0 -25.32429260614299 21.235104995357688 0 21.235104995357688 56.788783092322774 0 0 0 0 -14.290615678237016 -1.5225480209311115 0 -1.5225480209311115 31.421121843138565 0 0 0 0 -14.944092468200665 9.9901896566880168 0 9.9901896566880168 86.578273227860336 0 0 0 0 -6.2323652750937368 17.320821038544381 0 17.320821038544381 21.498179562583132 0 0 0 0 -6.5798457423093168 11.214573387345808 0 11.214573387345808 84.75527549891558 0 0 0 0 -9.9597042140997551 -6.2053511217171859 0 -6.2053511217171859 21.877201607679986 0 0 0 0 38.97078465612276 34.416417616603212 0 34.416417616603212 65.828419103603665 0 0 0 0 -18.666520204332301 -39.171269182357719 0 -39.171269182357719 171.59347110932504 0 0 0 0 -0.72196092446198357 1.7761175417787314 0 1.7761175417787314 0.59125954481014986 0 0 0 0 -21.711452340109645 23.953192874394517 0 23.953192874394517 123.88524769165451 0 0 0 0 21.74056079825823 -84.183252324835848 0 -84.183252324835848 77.040693272759199 0 0 0 0 5.9786281060573927 -16.798091087451134 0 -16.798091087451134 44.670097465061851 0 0 0 0 2.8057682203687819 -0.095299692732883301 0 -0.095299692732883301 21.283636133150083 0 0 0 0 32.179728363757022 16.234972957110585 0 16.234972957110585 23.321176013720105 0 0 0 0 -0.49556484370350384 -20.795166866744665 0 -20.795166866744665 61.461525858286052 0 0 0 0 -2.8526342007899075 -73.455977500940207 0 -73.455977500940207 309.04681095929118 0 0 0 0 -0.78358262169645165 0.80588870410465319 0 0.80588870410465319 2.5977547878441882 0 0 0 0 -12.767670607079708 87.613637064072464 0 87.613637064072464 96.111396543725277 0 0 0 0 2.7111044317275628 27.638724358634136 0 27.638724358634136 45.882199388473737 0 0 0 0 4.7521742965300291 35.693519059212122 0 35.693519059212122 -7.5279549450133345 0 0 0 0 -133.37035100993398 8.5906224562022544 0 8.5906224562022544 624.06476594961714 0 0 0 0 -5.7656144158997016 -11.839623107582952 0 -11.839623107582952 16.732578318819037 0 0 0 0 38.48653162611663 -116.14061887498247 0 -116.14061887498247 297.3381053188059 0 0 0 0 2.7822980867088489 35.888396439700443 0 35.888396439700443 3.7427770070062252 0 0 0 0 3.2894054431981203 -155.32495545767233 0 -155.32495545767233 253.71507545474742 0 0 0 0 24.758866459822457 -27.11640323681786 0 -27.11640323681786 69.732797804324946 0 0 0 0 -13.675500975729847 31.794108969641456 0 31.794108969641456 254.55951514849585 0 0 0 0 15.455364956857011 -159.22254849022647 0 -159.22254849022647 34.157970059286527 0 0 0 0 71.941608064346838 -85.539937826435562 0 -85.539937826435562 94.191354555783619 0 0 0 0 7.6033067594617023 -24.710576228746504 0 -24.710576228746504 59.45985960699727 0 0 0 0 -11.435912222433672 -10.006129030684406 0 -10.006129030684406 73.493343366946647 0 0 0 0 38.777827206372422 -47.745779346229028 0 -47.745779346229028 73.598642112847301 0 0 0 0 1.9831141706857238 -2.8810016656708726 0 -2.8810016656708726 14.484916561700448 0 0 0 0 9.9581788164523459 -54.125508058619744 0 -54.125508058619744 106.6296628017908 0 0 0 0 -18.614252693167145 -25.625762230669352 0 -25.625762230669352 99.590886689116815 0 0 0 0 4.6060579378281545 -17.940381992440962 0 -17.940381992440962 76.17339490618906 0 0 0 0 -9.9505498073423588 1.6188515250609186 0 1.6188515250609186 42.753304011425939 0 0 0 0 -22.670074850907667 -21.792396435179398 0 -21.792396435179398 118.98440053694867 0 0 0 0 -12.019515043013305 5.7855915635677135 0 5.7855915635677135 53.811341527715527 0 0 0 0 55.521685639983382 -35.082314113629764 0 -35.082314113629764 94.454003814313182 0 0 0 0 -0.66731962227186159 -12.901904159956757 0 -12.901904159956757 95.309832491264387 0 0 0 0 21.639727084980223 -31.209552593467379 0 -31.209552593467379 74.974157131557149 0 0 0 0 -10.089848490090978 -3.6465854097717241 0 -3.6465854097717241 67.607506665444845 0 0 0 0 -6.1847507971197047 5.9932706131430677 0 5.9932706131430677 58.309212343664512 0 0 0 0 93.892163350514863 -149.30955253272168 0 -149.30955253272168 145.10061463760212 0 0 0 0 -29.109939342026358 -22.328450189040268 0 -22.328450189040268 67.803546398921753 0 0 0 0 33.717230313784938 8.6802922403840057 0 8.6802922403840057 82.364744131773477 0 0 0 0 -8.8679177623193368 110.35937339076554 0 110.35937339076554 -68.499593022923364 0 0 0 0 -2.4100187357479097 0.75512528397889866 0 0.75512528397889866 -0.42263060846362421 0 0 0 0 -93.649052986377626 155.9702584156621 0 155.9702584156621 -83.927109537267825 0 0 0 0 -205.59994680105115 28.270427098719665 0 28.270427098719665 335.68007907184801 0 0 0 0 -50.323602836539067 -2.9120299883275038 0 -2.9120299883275038 75.990409447288243 0 0 0 0 -39.342731129024287 -23.910090428296371 0 -23.910090428296371 77.916521800268129 0 0 0 0 -25.098608783439886 -18.028670813703684 0 -18.028670813703684 75.518503926012798 0 0 0 0 -1.6690424212627022 -21.656950500946095 0 -21.656950500946095 22.608036784586147 0 0 0 0 0.35613510879533194 -15.159769854414286 0 -15.159769854414286 48.677200368366783 0 0 0 0 -26.756950171728249 -22.56028374920254 0 -22.56028374920254 76.633504898776664 0 0 0 0 14.598827986946617 -42.23905341152863 0 -42.23905341152863 32.034135417910875 0 0 0 0 14.255687950484571 -38.988328452322094 0 -38.988328452322094 56.275584802991943 0 0 0 0 68.191256908414289 -39.755744577805672 0 -39.755744577805672 46.776425757027482 0 0 0 0 -6.2517264943280679 -51.660845548134148 0 -51.660845548134148 89.729185300004247 0 0 0 0 -3.4731024399579837 -37.141071127216946 0 -37.141071127216946 78.207629449823798 0 0 0 0 -30.232986072979656 -27.321198261507107 0 -27.321198261507107 71.924416276078773 0 0 0 0 -45.560956564570006 -27.668642188712965 0 -27.668642188712965 96.649883324813345 0 0 0 0 41.416482262211503 -54.816420657278286 0 -54.816420657278286 74.735488657607675 0 0 0 0 -28.068536232105117 -64.561389329631297 0 -64.561389329631297 99.752486428587872 0 0 0 0 -30.7053952971537 -25.604943500461104 0 -25.604943500461104 71.145582199123965 0 0 0 0 -51.73506120843922 -40.22395971355445 0 -40.22395971355445 69.031236610914675 0 0 0 0 -59.347235139472559 37.844074413202293 0 37.844074413202293 -52.251879627376184 0 0 0 0 -49.984552125351001 -24.444321746871083 0 -24.444321746871083 -9.7492207704090106 0 0 0 0 -69.06741039112967 -11.685231889631723 0 -11.685231889631723 55.404617783320873 0 0 0 0 -43.585607698177228 -45.497513555136834 0 -45.497513555136834 40.520284450505642 0 0 0 0 -105.85378854644296 6.8242973054329923 0 6.8242973054329923 51.822176846558762 0 0 0 0 -116.80669641636086 -488.64378402482498 0 -488.64378402482498 -385.82617725733689 0 0 0 0 -241.62216636105552 -15.23265683473916 0 -15.23265683473916 86.204467497484075 0 0 0 0 0.66038996678670525 6.6667178999166765 0 6.6667178999166765 15.768549347715982 0 0 0 0 81.866859977102308 252.77190446587937 0 252.77190446587937 1493.8661331498015 0 0 0 0 -36.898991386331545 -44.774694562385093 0 -44.774694562385093 27.135683339117122 0 0 0 0 -215.85616809048361 105.2073414567426 0 105.2073414567426 25.66632003951446 0 0 0 0 -93.47446568452051 -647.36304462123644 0 -647.36304462123644 -523.42133654007284 0 0 0 0 -117.24027950067557 414.49339963526108 0 414.49339963526108 1655.2864789140713 0 0 0 0 4.8196521731447746 -8.5008759859436172 0 -8.5008759859436172 12.743970925129391 0 0 0 0 -250.73141151451273 -2575.1213281387609 0 -2575.1213281387609 -187.74912075300563 0 0 0 0 1.7187789603608756 -6.079722347420093 0 -6.079722347420093 18.835907268847428 0 0 0 0 63.195523165618624 148.33278339710296 0 148.33278339710296 -369.05778296656899 0 0 0 0 -62.445379731043431 -9.8856279579531474 0 -9.8856279579531474 73.094008216605289 0 0 0 0 -65.353112904023874 -27.337426113635502 0 -27.337426113635502 46.0880689527703 0 0 0 0 -63.832011974430316 -12.406883384222283 0 -12.406883384222283 77.854673990304036 0 0 0 0 -18.338288470559519 -62.78325243316408 0 -62.78325243316408 340.69536829961726 0 0 0 0 2.3178235794910744 -35.434052737846741 0 -35.434052737846741 96.552510499638998 0 0 0 0 66.654698150740728 -194.36602414922459 0 -194.36602414922459 -469.76848670246 0 0 0 0 -2.1210324064119561 -58.830111469465919 0 -58.830111469465919 142.61095298424698 0 0 0 0 85.390420155562069 -39.811800232710084 0 -39.811800232710084 76.948599593328254 0 0 0 0 -220.42975934730941 -463.59477427037962 0 -463.59477427037962 1293.8127703751052 0 0 0 0 -24.69606870973945 -2.813137767408989 0 -2.813137767408989 138.35086743094007 0 0 0 0 -4.5817561408463225 -24.673265428441404 0 -24.673265428441404 75.94272571461002 0 0 0 0 59.448195511729864 326.10656869683862 0 326.10656869683862 281.68599100144422 0 0 0 0 13.884887770409478 179.56715061328669 0 179.56715061328669 1048.6688010445469 0 0 0 0 57.044082599825288 613.69404470011705 0 613.69404470011705 221.17390420302127 0 0 0 0 34.988501453323124 -137.05131838208399 0 -137.05131838208399 296.95641400056411 0 0 0 0 200.5916847602881 107.58992588848378 0 107.58992588848378 91.575662611418011 0 0 0 0 9.4779347280872948 -22.031508435450124 0 -22.031508435450124 35.149110367270431 0 0 0 0 -2.8884635643880943 -0.91512972437067042 0 -0.91512972437067042 13.148626796514449 0 0 0 0 480.23197979992437 687.71725064695875 0 687.71725064695875 -98.222320401382603 0 0 0 0 48.02220143537923 -207.03516570835188 0 -207.03516570835188 31.565271790455881 0 0 0 0 -231.97237408801129 73.603343116945325 0 73.603343116945325 309.79709595789609 0 0 0 0 245.56771080419719 56.74171603558716 0 56.74171603558716 -205.90049678087598 0 0 0 0 -214.24591808253899 -1654.6799867608695 0 -1654.6799867608695 -785.17781302179219 0 0 0 0 723.83189487675736 -259.00707952219091 0 -259.00707952219091 -123.15402556294237 0 0 0 0 -865.76685401513214 -537.66369680704497 0 -537.66369680704497 -56.41369870662902 0 0 0 0 -0.84586002733794885 -173.4081031674549 0 -173.4081031674549 -5.5761463831481706 0 0 0 0 3005.8414781128886 -1377.4112890605147 0 -1377.4112890605147 -1199.7015818884156 0 0 0 0 -335.59497863440993 -168.15830665548947 0 -168.15830665548947 -197.32292137741513 0 0 0 0 -303.97892201681316 -661.25507731086327 0 -661.25507731086327 -339.58039997370406 0 0 0 0 152.02681665311047 97.926261827162421 0 97.926261827162421 92.721135658960293 0 0 0 0 301.29954439102039 -153.85136920679491 0 -153.85136920679491 281.71841149751845 0 0 0 0 149.52769323489522 151.73927110973915 0 151.73927110973915 670.5634644257799 0 0 0 0 154.95219973445774 63.595144239713591 0 63.595144239713591 25.177151787343973 0 0 0 0 -58.270796916856852 -187.61459137061229 0 -187.61459137061229 80.843770236083529 0 0 0 0 -87.125004067078862 5.3872655726795529 0 5.3872655726795529 -797.12494382370642 0 0 0 0 -8.1076614121702733 23.605502603677451 0 23.605502603677451 133.65563913543883 0 0 0 0 -29.764837597789665 -69.276252451079927 0 -69.276252451079927 186.70536944567721 0 0 0 0 -0.92873135288027697 6.3364995013180305 0 6.3364995013180305 155.24454930600768 0 0 0 0 -7.7828986800670847 -8.2788551909683008 0 -8.2788551909683008 16.143934099299599 0 0 0 0 20.562925568430728 11.179432755568996 0 11.179432755568996 54.982026886882522 0 0 0 0 -78.08365616468771 63.459487051361407 0 63.459487051361407 131.39143229380716 0 0 0 0 -53.278810718703426 10.2611766816608 0 10.2611766816608 47.089687575542484 0 0 0 0 -46.374134488145501 38.573843492984452 0 38.573843492984452 162.01359073723143 0 0 0 0 -51.733603321980809 -11.677093546142714 0 -11.677093546142714 86.794090408813645 0 0 0 0 -62.637906221993703 2.7278171276766443 0 2.7278171276766443 106.09162312974513 0 0 0 0 -10.578487398562206 -5.7637904577496073 0 -5.7637904577496073 84.392304871271079 0 0 0 0 -123.78552079984365 23.312419013353065 0 23.312419013353065 154.0389331287879 0 0 0 0 -9.69197825165935 -26.692316880733415 0 -26.692316880733415 89.138103218156175 0 0 0 0 -22.465278514815338 -28.772359223392414 0 -28.772359223392414 127.59034564570538 0 0 0 0 -21.068972598778174 -13.247252221122835 0 -13.247252221122835 71.531367893105198 0 0 0 0 -74.224092327871915 -12.104697760165436 0 -12.104697760165436 72.130961106339782 0 0 0 0 189.51591768711705 70.956250824083327 0 70.956250824083327 143.8527333816819 0 0 0 0 -24.270861296929876 -4.4392735084324961 0 -4.4392735084324961 58.531864982299624 0 0 0 0 -0.42864311936921951 -8.774299223111349 0 -8.774299223111349 26.619879120934982 0 0 0 0 -138.29313969719283 -146.43548382136169 0 -146.43548382136169 85.371645719154913 0 0 0 0 203.11954267016699 0.97440520706732059 0 0.97440520706732059 705.71194053796353 0 0 0 0 389.11419283189025 120.69444677792671 0 120.69444677792671 69.684905823676672 0 0 0 0 -219.38854087369327 306.59067044858602 0 306.59067044858602 1050.6544995331788 0 0 0 0 54.633980999700725 224.06757537187514 0 224.06757537187514 1074.9975968411563 0 0 0 0 1.473082797580954 -2.3990762511108343 0 -2.3990762511108343 23.148662561110928 0 0 0 0 113.09221072328364 -169.60829359261697 0 -169.60829359261697 85.017356696112984 0 0 0 0 -48.523488018365242 -46.388069528409687 0 -46.388069528409687 161.79438705940265 0 0 0 0 -7.1093398574398989 -57.125977489571248 0 -57.125977489571248 25.092818403383855 0 0 0 0 -7.9681292375641188 -15.483123707728243 0 -15.483123707728243 9.8614020643037321 0 0 0 0 295.36923435281642 845.85851192288465 0 845.85851192288465 820.41923246193619 0 0 0 0 -2.7814613045992544 -10.258133566656866 0 -10.258133566656866 -5.6853324631548219 0 0 0 0 427.70086119300322 259.64251469646842 0 259.64251469646842 947.59073953643383 0 0 0 0 -17.777841764224458 -20.078914842894903 0 -20.078914842894903 85.111557248082704 0 0 0 0 -57.524529005487238 -49.96851738874102 0 -49.96851738874102 160.90962869016221 0 0 0 0 -45.628393691124302 -72.210080982352338 0 -72.210080982352338 137.80639186323242 0 0 0 0 -7.6766144930843438 -56.750922770384932 0 -56.750922770384932 144.07095049187046 0 0 0 0 -26.183193866085279 -48.881554233981845 0 -48.881554233981845 19.01224777930365 0 0 0 0 -185.93241766208121 63.980046314965875 0 63.980046314965875 233.9929562833463 0 0 0 0 -10.712978602374733 -64.108119327074746 0 -64.108119327074746 126.55348090774351 0 0 0 0 18.010736905318481 -95.970650287410535 0 -95.970650287410535 157.6800407150443 0 0 0 0 23.154300699619853 -55.433531948689051 0 -55.433531948689051 157.13211112949648 0 0 0 0 -0.051139239687373106 20.046729976605576 0 20.046729976605576 8.1781679845351292 0 0 0 0 59.146607804701489 57.515921012247418 0 57.515921012247418 22.490854255651357 0 0 0 0 3.0365493025146861 -4.049786961688369 0 -4.049786961688369 88.838784467363439 0 0 0 0 -22.171235221674578 48.512623019501916 0 48.512623019501916 47.962185062424396 0 0 0 0 -5.2696521666402987 -1.728350622986909 0 -1.728350622986909 88.424821690059616 0 0 0 0 -2.8114996599997539 7.309620953034937 0 7.309620953034937 83.72930547503347 0 0 0 0 2.5778678646584474 30.884209128469738 0 30.884209128469738 76.087192183068609 0 0 0 0 15.242827838988887 5.4230894891370554 0 5.4230894891370554 83.843403806166407 0 0 0 0 -143.39946344069494 -51.39023491806438 0 -51.39023491806438 455.73878438536485 0 0 0 0 -29.082664316665614 41.153078988245397 0 41.153078988245397 166.65615796337079 0 0 0 0 30.668065220958852 -11.337865111858264 0 -11.337865111858264 87.648438745323801 0 0 0 0 8.0791771143485676 25.952070780826034 0 25.952070780826034 143.98984018202464 0 0 0 0 12.766190175659084 18.401697879704173 0 18.401697879704173 34.52785132660712 0 0 0 0 4.4338080758414655 17.873108477806724 0 17.873108477806724 45.153383785044298 0 0 0 0 -120.14930090608868 289.07068659831566 0 289.07068659831566 -58.446909123616933 0 0 0 0 0.10867813425707418 -3.2556305299269752 0 -3.2556305299269752 39.30293383357737 0 0 0 0 -56.636805584903414 -320.962576847729 0 -320.962576847729 -119.39493254217086 0 0 0 0 -107.3000038869086 8.0794072957542085 0 8.0794072957542085 181.80450368810125 0 0 0 0 -19.486577162019291 21.290177418032584 0 21.290177418032584 33.788445340565744 0 0 0 0 -0.81734809367727124 -5.1312413368329857 0 -5.1312413368329857 82.08852082705198 0 0 0 0 4.4189780679189425 174.54701911297161 0 174.54701911297161 53.718576109560672 0 0 0 0 -1.3625924922118173 33.075906317584121 0 33.075906317584121 58.747156754827571 0 0 0 0 -23.86959227038821 14.121880141172795 0 14.121880141172795 141.59091785499629 0 0 0 0 -15.459243662669905 3.3732395342667587 0 3.3732395342667587 50.25378334744164 0 0 0 0 130.86749413780854 -8.9968380436948792 0 -8.9968380436948792 -27.543629730504108 0 0 0 0 -0.27234517606607866 -2.9581221391891717 0 -2.9581221391891717 27.823091261976273 0 0 0 0 -177.34910277626113 -144.04443758163688 0 -144.04443758163688 -98.59658148267772 0 0 0 0 555.2082190872834 -259.27197497766792 0 -259.27197497766792 73.145129151365836 0 0 0 0 361.79920681824296 297.7190784078557 0 297.7190784078557 -65.876619613824005 0 0 0 0 283.54166110878577 346.55549732998043 0 346.55549732998043 -413.50657763442723 0 0 0 0 195.26823507386871 98.195209376041021 0 98.195209376041021 1178.4280552986347 0 0 0 0 161.79568954877323 -4.3769504318879626 0 -4.3769504318879626 -57.623649542685598 0 0 0 0 289.32046152378825 -465.05874770087394 0 -465.05874770087394 -200.97220695990836 0 0 0 0 -176.55425503150946 94.320000238441025 0 94.320000238441025 291.37104401174292 0 0 0 0 134.32749613182477 768.33459226469677 0 768.33459226469677 456.28277071329649 0 0 0 0 324.21109952620191 -64.417185241807601 0 -64.417185241807601 -244.91041827695881 0 0 0 0 -456.91130835638114 -92.07615548321337 0 -92.07615548321337 870.40227172410232 0 0 0 0 -48.464748677876742 113.4285078702087 0 113.4285078702087 197.69998638263496 0 0 0 0 117.95676424801042 265.06069485330579 0 265.06069485330579 224.65100011037066 0 0 0 0 -3.1572789339043261 -8.5709222865825438 0 -8.5709222865825438 49.667625715453006 0 0 0 0 -4.94544045560467 -4.4056485962179428 0 -4.4056485962179428 60.774171298470094 0 0 0 0 -279.09840126078871 -196.52173767593194 0 -196.52173767593194 315.68947269178898 0 0 0 0 79.197910010727355 121.14805448875268 0 121.14805448875268 -210.32064057862226 0 0 0 0 -142.0024935717679 220.80877922907075 0 220.80877922907075 538.53568166887999 0 0 0 0 -421.30567316468387 21.101025293994098 0 21.101025293994098 161.32112254921913 0 0 0 0 -135.54185979632439 -44.041200452045814 0 -44.041200452045814 175.89983307033799 0 0 0 0 -12.803604095180503 140.15840700612762 0 140.15840700612762 35.973044928483432 0 0 0 0 -21.120984099661225 41.873129294446088 0 41.873129294446088 135.84633702820554 0 0 0 0 -164.15350375500748 -43.354830373988079 0 -43.354830373988079 198.00581091429922 0 0 0 0 -5.753622288681413 196.46365503296374 0 196.46365503296374 72.612891335200402 0 0 0 0 -8.9136560355677403 17.923252849961358 0 17.923252849961358 25.688651446881494 0 0 0 0 11.578089763977459 213.04220733458715 0 213.04220733458715 232.91565856171655 0 0 0 0 -24.556570797587483 -50.718031473919837 0 -50.718031473919837 89.103179042768716 0 0 0 0 95.807962200884504 60.589984791295137 0 60.589984791295137 54.324883160108584 0 0 0 0 -14.9641339124355 -74.109413341546315 0 -74.109413341546315 216.74014151968004 0 0 0 0 158.21038300686496 80.157013748497548 0 80.157013748497548 214.03658194260061 0 0 0 0 6.7516341370663433 26.176952643026759 0 26.176952643026759 113.59149240915031 0 0 0 0 0.78203853719116623 5.8127389833063319 0 5.8127389833063319 25.214622399760685 0 0 0 0 -151.32650603696311 11.552195360316546 0 11.552195360316546 192.03574466901409 0 0 0 0 276.35283411056685 104.18903192960261 0 104.18903192960261 -33.014669054449769 0 0 0 0 -200.04128569293243 102.28942193459079 0 102.28942193459079 338.00994028550485 0 0 0 0 1.2436253296168864 -2.5091202685458427 0 -2.5091202685458427 -0.5911388628096006 0 0 0 0 105.51630622301673 -174.17244734596898 0 -174.17244734596898 -59.93535474363307 0 0 0 0 -106.85138779995759 -197.41719987335819 0 -197.41719987335819 -9.3567539057694376 0 0 0 0 -119.78540548095771 -16.201806405180832 0 -16.201806405180832 31.006502594125777 0 0 0 0 175.03516393077189 107.98078249210812 0 107.98078249210812 64.626432729161024 0 0 0 0 -116.98329643134275 101.53888896212084 0 101.53888896212084 267.0852056829317 0 0 0 0 85.946053116467738 168.4975337427968 0 168.4975337427968 142.06168459003675 0 0 0 0 2.2102963948796859 5.7363789128343399 0 5.7363789128343399 17.341926977460105 0 0 0 0 -180.10333839363102 -412.07993980534548 0 -412.07993980534548 873.6758260501897 0 0 0 0 12.350890167710531 -531.44711146892018 0 -531.44711146892018 601.800877013339 0 0 0 0 298.75302488304806 -443.36989110585967 0 -443.36989110585967 592.23671239935152 0 0 0 0 194.89304075097698 143.14684395281802 0 143.14684395281802 672.1836258041053 0 0 0 0 -3.8301512188099878 -115.44046267924807 0 -115.44046267924807 390.53119744381138 0 0 0 0 203.91892394912156 484.63015278100983 0 484.63015278100983 865.00629885589103 0 0 0 0 -45.91535925041444 -143.25637570999592 0 -143.25637570999592 1138.6176013801564 0 0 0 0 -1233.0110454139558 -463.9017187762463 0 -463.9017187762463 1059.9522067847593 0 0 0 0 -274.0976601116472 386.48635035598045 0 386.48635035598045 1278.5982288323157 0 0 0 0 197.58676007034228 -943.5095642583284 0 -943.5095642583284 664.41141445136236 0 0 0 0 -713.95048656260224 -884.62755904714413 0 -884.62755904714413 1386.3340196423867 0 0 0 0 -1106.691133649555 -992.25109979991237 0 -992.25109979991237 589.29299535477958 0 0 0 0 -0.67389413499498119 -5.9919997771172699 0 -5.9919997771172699 13.100917353502014 0 0 0 0 5.5807538840790105 -23.245255853109924 0 -23.245255853109924 43.338451440736733 0 0 0 0 -1045.4915137308901 1536.0243754204716 0 1536.0243754204716 1093.8545987514112 0 0 0 0 479.59456614247938 -78.654348805679547 0 -78.654348805679547 -312.2084531704968 0 0 0 0 103.65958537366623 189.13980236269708 0 189.13980236269708 104.14879055960773 0 0 0 0 -446.24937823821233 239.3487102964823 0 239.3487102964823 90.135685464027119 0 0 0 0 -341.41931415660292 183.34766513089107 0 183.34766513089107 -374.43994345895817 0 0 0 0 -272.62389909991361 -176.36772596406445 0 -176.36772596406445 -579.64807047684371 0 0 0 0 -405.92639286520534 -120.57238253116793 0 -120.57238253116793 -191.19396625016816 0 0 0 0 -451.54336123415669 192.10112008395549 0 192.10112008395549 277.00592423101261 0 0 0 0 616.76084200120749 307.08113222470161 0 307.08113222470161 36.096250188791146 0 0 0 0 -48.263907774349036 121.19186905975903 0 121.19186905975903 43.339191949372434 0 0 0 0 15.526535948920355 152.97022404416566 0 152.97022404416566 28.179805461662909 0 0 0 0 -35.144077034743532 177.1904069896591 0 177.1904069896591 60.989685803541988 0 0 0 0 59.362240489970191 209.3308106503132 0 209.3308106503132 46.05887716406869 0 0 0 0 -309.31326860882109 126.93260311743779 0 126.93260311743779 143.16137071150661 0 0 0 0 -147.3218433407892 414.58768044063709 0 414.58768044063709 166.89454909390815 0 0 0 0 -99.270828258310758 153.57076548642522 0 153.57076548642522 81.35874177446567 0 0 0 0 -100.26534243392962 142.93882348205716 0 142.93882348205716 136.32271294803468 0 0 0 0 -63.287439414156324 130.64854562905111 0 130.64854562905111 49.557663952756911 0 0 0 0 4.9733077340942842 15.898365875630457 0 15.898365875630457 46.216569491107421 0 0 0 0 420.6968839858373 193.24712418029276 0 193.24712418029276 75.947150726785594 0 0 0 0 264.17511752049177 -45.601705924035741 0 -45.601705924035741 -26.340250159424158 0 0 0 0 -361.02386507981328 135.93173413606928 0 135.93173413606928 181.65812519055908 0 0 0 0 45.504471702643968 -129.29896366323419 0 -129.29896366323419 227.23814064220187 0 0 0 0 38.971475474874296 -125.75013519509412 0 -125.75013519509412 234.31142819632714 0 0 0 0 103.54456082738056 -156.91975434346386 0 -156.91975434346386 139.89953247827725 0 0 0 0 -39.223894807931345 -147.92980303849239 0 -147.92980303849239 570.52841712498412 0 0 0 0 111.02696231714162 -239.09339137438019 0 -239.09339137438019 323.92632374204072 0 0 0 0 296.45098059145096 -492.15928531364062 0 -492.15928531364062 788.96817679530386 0 0 0 0 135.55007694934557 -144.16678215638171 0 -144.16678215638171 221.7072966330345 0 0 0 0 -3.5245465289075355 -90.549362403194948 0 -90.549362403194948 222.75989565712916 0 0 0 0 -2.1100647781831867 -82.499518388420256 0 -82.499518388420256 234.84926863684723 0 0 0 0 3.3078111291606547 -86.748068586180125 0 -86.748068586180125 216.63597452003341 0 0 0 0 21.406393568424392 -114.09011013726649 0 -114.09011013726649 209.16081142515213 0 0 0 0 -1.9084686228924284 -103.61090785947744 0 -103.61090785947744 252.35684674821823 0 0 0 0 35.780082902251706 -150.00596858252129 0 -150.00596858252129 252.48793390602395 0 0 0 0 21.425234338239228 -115.75710927496924 0 -115.75710927496924 196.35149571090733 0 0 0 0 -26.155920696031899 -104.04359288871865 0 -104.04359288871865 308.48781156949599 0 0 0 0 -41.821551387800355 -100.92353711323767 0 -100.92353711323767 310.35227206131731 0 0 0 0 -54.291052893365304 -39.496170556241395 0 -39.496170556241395 274.24579834208043 0 0 0 0 -20.310437245358798 -92.481218011601186 0 -92.481218011601186 280.95620408940522 0 0 0 0 -18.111912063998716 -81.329737321706034 0 -81.329737321706034 248.1913934670232 0 0 0 0 -2.0680140947861219 -57.352785963372753 0 -57.352785963372753 240.09569916915098 0 0 0 0 -13.652478722025762 -69.50738348397158 0 -69.50738348397158 228.55970374922254 0 0 0 0 -32.286453178928127 -26.041774996740486 0 -26.041774996740486 278.61983797893208 0 0 0 0 -32.969428884011705 -15.490608989065578 0 -15.490608989065578 213.87894759226583 0 0 0 0 -40.232360805234748 37.013653529079875 0 37.013653529079875 226.18011357069372 0 0 0 0 -51.591892722723514 -59.344353016729087 0 -59.344353016729087 385.12989296381238 0 0 0 0 -36.720216047249664 6.0039785689301368 0 6.0039785689301368 240.445960536862 0 0 0 0 -36.868438887207049 42.323916992652812 0 42.323916992652812 304.25872419640746 0 0 0 0 -4.8919912579931406 55.544080275148644 0 55.544080275148644 96.398147093926127 0 0 0 0 -42.072066297936544 81.637747221288464 0 81.637747221288464 208.15961858928858 0 0 0 0 -31.473358654891854 13.332185265562657 0 13.332185265562657 188.32761252224554 0 0 0 0 -37.908784522425947 49.879310411911064 0 49.879310411911064 171.94576048355975 0 0 0 0 3.5325780606704535 -3.4079360379809689 0 -3.4079360379809689 3.6173091475821701 0 0 0 0 298.636561326373 -431.26693042524806 0 -431.26693042524806 -142.91122600096128 0 0 0 0 44.024834026748067 242.59537128331567 0 242.59537128331567 929.79951703280858 0 0 0 0 58.679183112782084 61.398345190178588 0 61.398345190178588 192.39929703863345 0 0 0 0 -51.656264662578906 96.252618216605697 0 96.252618216605697 523.55722869108592 0 0 0 0 40.866534428538216 125.08067814158403 0 125.08067814158403 344.40781122656426 0 0 0 0 -39.644471298730423 13.360932517709443 0 13.360932517709443 375.94509239417675 0 0 0 0 -33.174719808382179 1.2435009458308741 0 1.2435009458308741 186.24178328264145 0 0 0 0 -169.44097552578023 -448.67243413014671 0 -448.67243413014671 12.804046119243779 0 0 0 0 4.5808017663967666 -7.6104087576699557 0 -7.6104087576699557 9.6651542297164923 0 0 0 0 -385.77537797049899 -92.934064712381428 0 -92.934064712381428 534.93548490795934 0 0 0 0 400.48184382812951 351.69136127492391 0 351.69136127492391 -215.81335563710672 0 0 0 0 263.68519517156165 319.89331721214592 0 319.89331721214592 262.09784322697044 0 0 0 0 -0.68256896413331702 0.98437445895333475 0 0.98437445895333475 7.4800083687836469 0 0 0 0 13.387633466472494 338.01677139128992 0 338.01677139128992 846.32109388083268 0 0 0 0 -66.65513624515097 -189.75324317741888 0 -189.75324317741888 112.40514985146331 0 0 0 0 16.249962790942845 287.85472815571757 0 287.85472815571757 -41.149873496209182 0 0 0 0 143.54248562527505 -51.383353867020617 0 -51.383353867020617 -138.27949686409124 0 0 0 0 150.72928251972507 444.52394325680871 0 444.52394325680871 582.72565087740213 0 0 0 0 0.98332465381188872 -2.014491775021094 0 -2.014491775021094 5.7273166518204794 0 0 0 0 -181.22590461347681 195.8212149230888 0 195.8212149230888 798.15771858223115 0 0 0 0 256.10068885355236 -32.300882765960978 0 -32.300882765960978 -53.513151831410013 0 0 0 0 2.3582058575180618 -6.1290673670593971 0 -6.1290673670593971 9.5578227026822606 0 0 0 0 -148.83904909424291 -62.742634862436717 0 -62.742634862436717 73.569949886212498 0 0 0 0 -154.56020146910669 43.40436325714245 0 43.40436325714245 452.24402017374723 0 0 0 0 -13.455009313378923 92.580012274710725 0 92.580012274710725 71.414638839924464 0 0 0 0 0.67869705246766188 -2.0252250200806792 0 -2.0252250200806792 4.0373560038124454 0 0 0 0 -179.08333501008565 -300.71481844867799 0 -300.71481844867799 55.347170528566039 0 0 0 0 114.84492150743313 529.19920224384623 0 529.19920224384623 923.01782303593245 0 0 0 0 9.0149517609220311 180.24759623759519 0 180.24759623759519 491.90573874871069 0 0 0 0 69.124155934937335 251.24830999822905 0 251.24830999822905 196.73375167801578 0 0 0 0 -82.989210403234551 -157.66853318595537 0 -157.66853318595537 262.84645616883972 0 0 0 0 1.9261047168853498 -5.676826457915773 0 -5.676826457915773 14.204139210822539 0 0 0 0 -158.07492587993329 -238.19573973570334 0 -238.19573973570334 685.77410276710771 0 0 0 0 35.106539606857382 -14.446789265204814 0 -14.446789265204814 -47.129006516594018 0 0 0 0 -86.148203226415546 -58.300677479937846 0 -58.300677479937846 -26.371081136720022 0 0 0 0 26.788705141252649 -26.686819714355579 0 -26.686819714355579 -64.823753988676344 0 0 0 0 61.992090111862581 -5.4200307100377358 0 -5.4200307100377358 -56.173739340355041 0 0 0 0 1.1267015460125782 -1.5653546859090488 0 -1.5653546859090488 -3.127600712555644 0 0 0 0 17.102814299600254 -29.394178465307618 0 -29.394178465307618 -59.07012085027327 0 0 0 0 -145.43509399280879 34.919829502950734 0 34.919829502950734 53.335264480624801 0 0 0 0 181.66762270769095 -189.23560914741756 0 -189.23560914741756 112.73002180416643 0 0 0 0 14.576557474804758 36.481188563159776 0 36.481188563159776 -29.280306997716934 0 0 0 0 -0.18541279870253158 0.32589561210917761 0 0.32589561210917761 2.9730093449642432 0 0 0 0 57.822375042764179 -112.46546425999327 0 -112.46546425999327 22.868129117839544 0 0 0 0 69.716836285737372 -136.27470635889472 0 -136.27470635889472 185.34876382083735 0 0 0 0 151.08738986328535 -78.31860927939664 0 -78.31860927939664 71.904228528730528 0 0 0 0 13.241879965002227 -67.184527968498969 0 -67.184527968498969 109.85219769985611 0 0 0 0 15.385077882831411 -69.529961241441242 0 -69.529961241441242 52.658269463770011 0 0 0 0 64.631321230314825 -50.064740021995931 0 -50.064740021995931 58.505127557800733 0 0 0 0 66.751795204317659 -31.713106063101748 0 -31.713106063101748 -35.299240450807929 0 0 0 0 -1.757444660343026 -52.13603850704385 0 -52.13603850704385 66.633828926468368 0 0 0 0 -8.4501344802056337 -15.000280277830598 0 -15.000280277830598 47.581063420581415 0 0 0 0 70.339097778548876 -55.979209837144651 0 -55.979209837144651 -34.474465840974062 0 0 0 0 98.213040118488607 -67.331066787553368 0 -67.331066787553368 -112.62344873933512 0 0 0 0 -116.38724218719153 -254.28835719002154 0 -254.28835719002154 175.38947655736297 0 0 0 0 35.826121440609313 -28.180695723644703 0 -28.180695723644703 141.35154070092324 0 0 0 0 42.571213195096334 43.403851281955554 0 43.403851281955554 -31.666142062367499 0 0 0 0 135.60280171575278 181.10724253019089 0 181.10724253019089 329.12982198455666 0 0 0 0 130.57655184741907 319.95180151446766 0 319.95180151446766 717.64807822616331 0 0 0 0 -86.987909637187386 116.3564991535336 0 116.3564991535336 394.57888034348434 0 0 0 0 31.783013652974432 99.076475385062622 0 99.076475385062622 272.85073869001553 0 0 0 0 4.1338082429228962 65.167714970044472 0 65.167714970044472 187.75029066116804 0 0 0 0 5.4333288465752361 -6.6231370570215606 0 -6.6231370570215606 7.4665195427166786 0 0 0 0 18.031102128463772 121.20484883486938 0 121.20484883486938 274.50878484006535 0 0 0 0 86.262427013965862 -98.779108802858445 0 -98.779108802858445 -5.3824771695210529 0 0 0 0 23.581988721240691 44.762214728895913 0 44.762214728895913 -22.523014921280719 0 0 0 0 20.927041180370452 68.246099842807325 0 68.246099842807325 34.974209810869979 0 0 0 0 56.323637242960103 100.51617988243788 0 100.51617988243788 -18.320188574371059 0 0 0 0 106.20529446727244 -67.947195707616913 0 -67.947195707616913 -88.959272607400635 0 0 0 0 -3.4693207018071917 -100.96456623367658 0 -100.96456623367658 -29.275963641291611 0 0 0 0 248.82102442463975 95.364774790320098 0 95.364774790320098 -37.406254043156125 0 0 0 0 44.500525057569348 -43.886484192474427 0 -43.886484192474427 680.3147810334026 0 0 0 0 1.9266699599253041 -1.9662233055193736 0 -1.9662233055193736 3.1365075764001613 0 0 0 0 95.898113616188766 1.8619940986752681 0 1.8619940986752681 16.304046560707832 0 0 0 0 351.24398911553544 3.8383333892627434 0 3.8383333892627434 204.24630185876958 0 0 0 0 108.01990239489692 -99.812451368285338 0 -99.812451368285338 629.70904822213924 0 0 0 0 -47.255096823730128 -3.0347722105652792 0 -3.0347722105652792 697.52012519423192 0 0 0 0 82.138337634668005 12.246624619046543 0 12.246624619046543 127.39041036593517 0 0 0 0 154.2408057077696 51.560222799917028 0 51.560222799917028 138.61674602295761 0 0 0 0 75.302035694322512 12.936478771576844 0 12.936478771576844 220.62811611047618 0 0 0 0 10.889005299421569 0.44359048129035727 0 0.44359048129035727 254.37315571255976 0 0 0 0 165.21266946284413 -66.382835242514147 0 -66.382835242514147 108.23275429970317 0 0 0 0 -44.154069000147956 78.21568296651094 0 78.21568296651094 515.3458064979809 0 0 0 0 126.64060396870445 -8.9951882882185146 0 -8.9951882882185146 251.39936053372458 0 0 0 0 -111.65923989503335 110.5511051015302 0 110.5511051015302 247.62799559382074 0 0 0 0 -45.202430440117496 47.799367248522685 0 47.799367248522685 306.12315492270454 0 0 0 0 33.774558815165619 -38.621864592604652 0 -38.621864592604652 92.497915918787385 0 0 0 0 -113.11026742327067 -45.728074304828624 0 -45.728074304828624 121.48423140755949 0 0 0 0 -87.499191281642197 -66.665168576542783 0 -66.665168576542783 55.267551734287281 0 0 0 0 70.448993940301534 -72.768103603245891 0 -72.768103603245891 34.602147991475249 0 0 0 0 45.824809648013343 -21.466364538699509 0 -21.466364538699509 95.524915822316871 0 0 0 0 66.563610434398925 -88.828791929157887 0 -88.828791929157887 59.862397511729796 0 0 0 0 54.462966691792758 -59.53285892941733 0 -59.53285892941733 -1.6276844154272112 0 0 0 0 21.491306740517757 -155.7727045735046 0 -155.7727045735046 33.137152532043046 0 0 0 0 -59.243058367810818 -104.0535170905556 0 -104.0535170905556 30.871202468646516 0 0 0 0 62.531054158415827 64.544439803776186 0 64.544439803776186 116.11927948698599 0 0 0 0 90.696875967538631 6.235474749671198 0 6.235474749671198 106.51245904408006 0 0 0 0 98.398978187477042 -51.063803444131509 0 -51.063803444131509 98.651380387364043 0 0 0 0 67.173233223623356 -16.460762357130534 0 -16.460762357130534 120.85893304064575 0 0 0 0 28.27486792551008 -20.182194617164896 0 -20.182194617164896 157.02437475881925 0 0 0 0 18.47307194394034 -1.7630558705664043 0 -1.7630558705664043 198.16544998473273 0 0 0 0 20.192885126981309 -62.28899044592572 0 -62.28899044592572 177.4634394028833 0 0 0 0 -1.0117752832805991 -60.135446592861229 0 -60.135446592861229 205.16433481583863 0 0 0 0 35.446487083040665 -110.01258720086662 0 -110.01258720086662 102.73278392036701 0 0 0 0 32.56360846964435 -83.878979118672532 0 -83.878979118672532 185.6737638387176 0 0 0 0 -10.268185416998676 -103.9400885526934 0 -103.9400885526934 187.85442436657712 0 0 0 0 -0.52220508429581969 -79.247768628991253 0 -79.247768628991253 221.74145345528316 0 0 0 0 0.59508792389942755 -84.322205517912607 0 -84.322205517912607 221.93987266073327 0 0 0 0 0.52072044891883706 -82.772386520337932 0 -82.772386520337932 213.15226024090634 0 0 0 0 1.5313458200598689 -80.292293982688079 0 -80.292293982688079 214.56939100125783 0 0 0 0 4.6383327862822625 -84.25365481685003 0 -84.25365481685003 219.11387778090079 0 0 0 0 -1.8973735033268895 -81.734057041806409 0 -81.734057041806409 219.58622650474172 0 0 0 0 13.04049716042482 -226.13871878280133 0 -226.13871878280133 143.94700522617916 0 0 0 0 -15.372590758526712 -155.79625906460569 0 -155.79625906460569 35.650849888248842 0 0 0 0 44.76234425286566 -266.88857965078205 0 -266.88857965078205 41.213765423397376 0 0 0 0 50.821187496948824 -178.02295325907426 0 -178.02295325907426 -2.4697276186971067 0 0 0 0 11.380748297492573 -171.9029100957182 0 -171.9029100957182 149.34305725744707 0 0 0 0 42.908595249075006 -146.07151139211874 0 -146.07151139211874 37.096327773121629 0 0 0 0 39.18617717784764 -131.0311851467859 0 -131.0311851467859 166.94239832113999 0 0 0 0 -18.014887825689584 -155.43342396885964 0 -155.43342396885964 168.03390991666348 0 0 0 0 -18.840425486648201 -188.98485685990863 0 -188.98485685990863 325.79181747065195 0 0 0 0 -12.325661911802626 -118.31875619076982 0 -118.31875619076982 262.90449754099791 0 0 0 0 -45.841426561147273 -76.15523289072371 0 -76.15523289072371 252.14657051446511 0 0 0 0 -64.103882417988643 -82.297106657929362 0 -82.297106657929362 370.89575521533061 0 0 0 0 -98.822646062600143 -129.4179090403677 0 -129.4179090403677 308.87957023472745 0 0 0 0 -95.272486646395009 -176.99695642560982 0 -176.99695642560982 623.5822120899029 0 0 0 0 -12.865319490158981 -231.288697481501 0 -231.288697481501 315.91737629025715 0 0 0 0 3.792240476814186 -293.01011216261759 0 -293.01011216261759 322.50153149364041 0 0 0 0 -10.293065212044894 -245.18713074869856 0 -245.18713074869856 307.88009878889898 0 0 0 0 -207.56802613518039 17.322873778861435 0 17.322873778861435 1434.8022720910903 0 0 0 0 -183.38901025424786 -11.283073313610544 0 -11.283073313610544 504.8841939068534 0 0 0 0 86.540994844830948 126.95421848663864 0 126.95421848663864 85.308131274239713 0 0 0 0 56.331167186602897 225.79653639480398 0 225.79653639480398 -12.951135102372064 0 0 0 0 40.354471436113045 271.61622340072972 0 271.61622340072972 212.9006439827499 0 0 0 0 -87.325943977925817 50.883202828495087 0 50.883202828495087 539.56282475571243 0 0 0 0 -85.167907053400995 60.129117810764001 0 60.129117810764001 290.76379518371186 0 0 0 0 13.835277912339734 5.8347174046584769 0 5.8347174046584769 212.54026770754808 0 0 0 0 105.15324692016338 -46.444529208871245 0 -46.444529208871245 26.672746053469382 0 0 0 0 0.063285748232448924 -0.080157887068510902 0 -0.080157887068510902 0.21024104509445429 0 0 0 0 -2.3040855296276277 106.82437825696616 0 106.82437825696616 116.57873445480618 0 0 0 0 96.32452137884502 -86.955310061040109 0 -86.955310061040109 171.46029973742134 0 0 0 0 -44.292137393260418 29.825119902782717 0 29.825119902782717 -66.833266821208781 0 0 0 0 0.17372360692870714 -2.7254749999961465 0 -2.7254749999961465 6.6369792950666042 0 0 0 0 74.072493214064707 53.51934735983923 0 53.51934735983923 -119.30366334987229 0 0 0 0 -26.49263191949467 40.690122507181513 0 40.690122507181513 127.04507788594992 0 0 0 0 13.297054379118435 -79.89299083389642 0 -79.89299083389642 200.64199887647737 0 0 0 0 9.2037268743579261 -73.349165237433226 0 -73.349165237433226 212.50630014942089 0 0 0 0 12.166323426300778 -77.704882005665695 0 -77.704882005665695 200.13380782227523 0 0 0 0 5.0993261873531992 -22.712711176132871 0 -22.712711176132871 181.72475161651255 0 0 0 0 5.5842149709988007 -56.582206176600266 0 -56.582206176600266 228.66192306637095 0 0 0 0 -22.301803609555009 -65.188064156702694 0 -65.188064156702694 226.29205956555234 0 0 0 0 56.164830549770159 -65.77588531237916 0 -65.77588531237916 173.52317139656134 0 0 0 0 28.301905047232594 -87.485844034197271 0 -87.485844034197271 197.52655731671621 0 0 0 0 14.219201984882602 -78.028027196775838 0 -78.028027196775838 200.05468257308598 0 0 0 0 24.941484065163195 -82.294276708968709 0 -82.294276708968709 200.92971038511496 0 0 0 0 8.4046428596557234 -79.125503542974002 0 -79.125503542974002 207.10777939141371 0 0 0 0 -22.514105570510367 -72.111217240047154 0 -72.111217240047154 237.86092266764717 0 0 0 0 -20.555275787115534 -74.857659017346123 0 -74.857659017346123 240.46319218112149 0 0 0 0 17.570661007168269 -92.105797046542193 0 -92.105797046542193 214.09198435092731 0 0 0 0 54.149437746386866 -125.76312884210893 0 -125.76312884210893 227.13807609078867 0 0 0 0 55.21943692467454 -117.99328255221297 0 -117.99328255221297 151.35425585306075 0 0 0 0 -18.711149117276364 -101.33331591979641 0 -101.33331591979641 283.26568316496287 0 0 0 0 17.891060210463365 -91.870141485850581 0 -91.870141485850581 196.83056464485412 0 0 0 0 -3.8276687261286497 -130.64202894348 0 -130.64202894348 363.19673156832869 0 0 0 0 -33.247561993418003 -74.688652511034888 0 -74.688652511034888 262.86441054263742 0 0 0 0 -57.168677652056431 -59.859886427724177 0 -59.859886427724177 313.09212077966549 0 0 0 0 -62.775796530126172 -26.865902975508106 0 -26.865902975508106 242.0486592833613 0 0 0 0 -51.436807050581592 -57.401088641178831 0 -57.401088641178831 266.25145938791411 0 0 0 0 117.6743201102754 -18.538778963314599 0 -18.538778963314599 31.072401301531499 0 0 0 0 7.1318961404149377 -45.976547002530424 0 -45.976547002530424 74.253031332156752 0 0 0 0 0.99448281021432017 -2.9215283918851274 0 -2.9215283918851274 12.584169431737802 0 0 0 0 32.001723250768521 17.135128919644217 0 17.135128919644217 18.406514512731519 0 0 0 0 121.83791653094067 -232.7295429451101 0 -232.7295429451101 307.16225362418209 0 0 0 0 39.486354389656697 -67.892500403047876 0 -67.892500403047876 110.59487525879922 0 0 0 0 230.86996650056062 -139.88813451531132 0 -139.88813451531132 60.333069064972733 0 0 0 0 13.412692538477359 -109.30932038488345 0 -109.30932038488345 370.23993083422101 0 0 0 0 62.482902197785734 -148.86553689064476 0 -148.86553689064476 1031.8641179409797 0 0 0 0 63.920536748250925 -107.53867966331654 0 -107.53867966331654 351.46819594774843 0 0 0 0 473.71498862908584 -303.12693805087883 0 -303.12693805087883 146.21750394157425 0 0 0 0 0.78922340667226587 -1.6582850669013851 0 -1.6582850669013851 4.7488881460455765 0 0 0 0 -32.363318560756397 337.36688871503111 0 337.36688871503111 562.94716500781215 0 0 0 0 -93.683204024781844 290.80502111333544 0 290.80502111333544 930.35460967645849 0 0 0 0 554.39567074747697 -298.48187383538652 0 -298.48187383538652 576.42923749716283 0 0 0 0 -108.41665323401867 38.186348714978521 0 38.186348714978521 1061.9767976097155 0 0 0 0 474.13482921312408 169.51932107377297 0 169.51932107377297 394.55838086313997 0 0 0 0 413.84282928736502 -86.187351193302675 0 -86.187351193302675 178.69698159396648 0 0 0 0 152.80370538377065 -76.195095335941005 0 -76.195095335941005 488.51914216409932 0 0 0 0 256.9725468426609 -93.499181793991625 0 -93.499181793991625 121.1335732689713 0 0 0 0 243.63593575008508 -8.9873458873798882 0 -8.9873458873798882 148.52806207490357 0 0 0 0 272.29980870025975 -33.579443130984146 0 -33.579443130984146 -9.3163050354141888 0 0 0 0 218.68122258981924 -68.343452096008122 0 -68.343452096008122 70.32489416829776 0 0 0 0 161.87928693536196 -47.18305146684088 0 -47.18305146684088 98.590196468807335 0 0 0 0 272.25445350427219 -34.459815491465292 0 -34.459815491465292 72.056177185510023 0 0 0 0 -43.784764558936331 138.02047277002384 0 138.02047277002384 196.66284996250079 0 0 0 0 87.586130361447431 -43.941654730276241 0 -43.941654730276241 33.82000218353096 0 0 0 0 218.50937231499796 75.786301642873369 0 75.786301642873369 143.19743120455496 0 0 0 0 59.508311725907674 145.15332591407321 0 145.15332591407321 381.92030644928127 0 0 0 0 254.80854399081159 137.56329520807162 0 137.56329520807162 389.94042499845273 0 0 0 0 125.93478688405867 -16.41797281187155 0 -16.41797281187155 207.46581037623355 0 0 0 0 -20.328905554822995 -104.31268505806611 0 -104.31268505806611 478.8272985785834 0 0 0 0 -84.704729599073744 44.434254807989419 0 44.434254807989419 307.56779414094899 0 0 0 0 -54.545330454295254 -26.229950119310161 0 -26.229950119310161 317.03830750582165 0 0 0 0 -43.089835252942976 -28.726759276782104 0 -28.726759276782104 257.21053547110932 0 0 0 0 -65.435390900600396 61.568827090280138 0 61.568827090280138 126.71949636417594 0 0 0 0 -56.343512660509077 -31.5340949032352 0 -31.5340949032352 221.31287078620699 0 0 0 0 -74.043989277967739 27.02130717802811 0 27.02130717802811 229.91015314813194 0 0 0 0 -54.019737602512578 57.523090261070138 0 57.523090261070138 121.85728003066606 0 0 0 0 -37.421631286095362 116.01279427633835 0 116.01279427633835 33.160161202646123 0 0 0 0 -29.243369980807529 103.66675002095735 0 103.66675002095735 -60.755735420481869 0 0 0 0 -32.694084956971892 15.043088396079838 0 15.043088396079838 220.13335760400696 0 0 0 0 -25.041344991759615 86.913161794996995 0 86.913161794996995 143.99317606215118 0 0 0 0 -95.035907606795263 127.21445154876983 0 127.21445154876983 145.61874921416131 0 0 0 0 -47.968979156757769 67.680455721360431 0 67.680455721360431 47.7593980199199 0 0 0 0 -20.965561388777132 77.267692912000712 0 77.267692912000712 -248.39866253568198 0 0 0 0 -43.448448273240047 64.920269415378698 0 64.920269415378698 -42.777654492664396 0 0 0 0 -182.90986481281107 131.67101346020354 0 131.67101346020354 27.098826252695289 0 0 0 0 -36.615873613761323 61.697330574582338 0 61.697330574582338 -32.716100962885321 0 0 0 0 -34.236085610886676 80.784343998923305 0 80.784343998923305 -68.209663270098645 0 0 0 0 -57.598462903681138 -1.1021268361487273 0 -1.1021268361487273 210.96703959551724 0 0 0 0 -27.612939878886376 8.3296434581547611 0 8.3296434581547611 6.3492814587205126 0 0 0 0 -22.685553734458153 57.879650058872357 0 57.879650058872357 -108.57645036387385 0 0 0 0 -103.10512096714274 -76.742433710171554 0 -76.742433710171554 367.80651211504937 0 0 0 0 -71.802680976947158 74.773313139157153 0 74.773313139157153 438.04089965349931 0 0 0 0 -149.14818965150516 -14.588437287406009 0 -14.588437287406009 344.19188062118405 0 0 0 0 -44.820795483909023 158.08137034766241 0 158.08137034766241 296.97689291662596 0 0 0 0 -67.193245891544393 177.37499885442958 0 177.37499885442958 -371.04680912655658 0 0 0 0 133.64074549849136 54.398426384983622 0 54.398426384983622 139.1659388764092 0 0 0 0 -12.906230327392709 1.9709518479137849 0 1.9709518479137849 -0.83262445526903184 0 0 0 0 301.59037266097084 -206.34699199363649 0 -206.34699199363649 436.87917429656432 0 0 0 0 -2.9763985246836562 -0.21284022273957071 0 -0.21284022273957071 -0.10550440439564968 0 0 0 0 1617.4402091718803 -37.672715587286802 0 -37.672715587286802 -755.1318818208365 0 0 0 0 -20.473999018267932 219.239143100604 0 219.239143100604 360.97446954853422 0 0 0 0 -39.665376454828902 264.55210726050927 0 264.55210726050927 437.43746993610694 0 0 0 0 -71.841236707048665 124.44042070664045 0 124.44042070664045 343.21266381967973 0 0 0 0 -75.689685760616157 153.39689345990928 0 153.39689345990928 571.17402727594572 0 0 0 0 -30.839757803271823 116.02147737309951 0 116.02147737309951 222.40685879815987 0 0 0 0 21.167327449812319 269.94593898313985 0 269.94593898313985 -46.994227017474259 0 0 0 0 -50.857275028289223 230.38961297216156 0 230.38961297216156 359.43260540270865 0 0 0 0 -6.0212983176770649 217.82269310693209 0 217.82269310693209 279.64355641003522 0 0 0 0 -723.87366879229376 329.77161975771014 0 329.77161975771014 -270.07795040521023 0 0 0 0 410.92786446802029 155.92748769411082 0 155.92748769411082 -104.04462429424893 0 0 0 0 327.00142572077129 193.99133369286028 0 193.99133369286028 102.1966966766704 0 0 0 0 223.97747544533195 47.496783691978635 0 47.496783691978635 71.41180079341575 0 0 0 0 281.86804558994481 38.364459098264888 0 38.364459098264888 65.040801788247336 0 0 0 0 213.66696101535672 4.6950171178341407 0 4.6950171178341407 52.740698136312858 0 0 0 0 312.82608632706251 19.310122374470666 0 19.310122374470666 -3.4107271690938887 0 0 0 0 274.31279675475361 -29.789531293396493 0 -29.789531293396493 -65.91666076176989 0 0 0 0 -77.934763609650872 0.35073976732564915 0 0.35073976732564915 30.489650271973801 0 0 0 0 277.04963613262453 -96.896427517467345 0 -96.896427517467345 -208.12635268984377 0 0 0 0 -13.666919084849724 -13.528432866350158 0 -13.528432866350158 -102.15214218416986 0 0 0 0 -404.0649549534337 23.900613122908908 0 23.900613122908908 -104.42046035054591 0 0 0 0 29.589346302823287 -249.80220848478348 0 -249.80220848478348 -522.1288154300837 0 0 0 0 375.07567390974873 67.076420116318786 0 67.076420116318786 -257.65047329705703 0 0 0 0 -58.442965118068969 42.320248248683129 0 42.320248248683129 68.553815424338609 0 0 0 0 -60.529296916537533 -47.521902976866841 0 -47.521902976866841 128.78301604735316 0 0 0 0 -88.524323690458004 -9.537099701774423 0 -9.537099701774423 80.678371884474473 0 0 0 0 -31.223204903942133 -59.459219745904193 0 -59.459219745904193 -7.5437192397439503 0 0 0 0 0.32646209519936775 1.5266153880868387 0 1.5266153880868387 10.196439236315872 0 0 0 0 -52.002031812656128 22.796532444993318 0 22.796532444993318 99.746726939385553 0 0 0 0 -38.336198617185119 35.869077915306903 0 35.869077915306903 36.740770440453602 0 0 0 0 -2.7507486200847779 60.244481462803378 0 60.244481462803378 125.92377614217185 0 0 0 0 -14.229377816450912 2.0116354009870658 0 2.0116354009870658 81.575720378552916 0 0 0 0 2.0631365334918144 8.4276032369077658 0 8.4276032369077658 -4.7671069944154283 0 0 0 0 -132.29213623096257 112.00216290395065 0 112.00216290395065 44.918101570329924 0 0 0 0 -42.867310293353512 -63.693965355116234 0 -63.693965355116234 188.28293312555115 0 0 0 0 -65.801161675666663 109.43915854569673 0 109.43915854569673 238.85481873389932 0 0 0 0 -65.884567743313312 -13.48119728176855 0 -13.48119728176855 56.237864071829918 0 0 0 0 -17.302372263041597 1.5855276599034713 0 1.5855276599034713 9.1719973914272863 0 0 0 0 -51.171794113307442 56.127370183540734 0 56.127370183540734 -55.944067120928594 0 0 0 0 7.8602357269188499 23.205785362706511 0 23.205785362706511 28.860875733547644 0 0 0 0 -45.236391709249517 86.648068365711481 0 86.648068365711481 -27.780663424102386 0 0 0 0 -28.757827720639398 76.821205296734661 0 76.821205296734661 -36.103613141535789 0 0 0 0 -29.062494677322093 90.221541407573568 0 90.221541407573568 -24.537735089968919 0 0 0 0 -151.72484363962485 -24.282010276736401 0 -24.282010276736401 73.72821848738522 0 0 0 0 -35.277290731489501 22.087164603985535 0 22.087164603985535 72.68404306238979 0 0 0 0 -54.563389822524186 27.782163286459763 0 27.782163286459763 33.850515724679099 0 0 0 0 -63.030535090902617 75.053156153728366 0 75.053156153728366 42.107485118578552 0 0 0 0 -50.284797596479052 78.386351660456057 0 78.386351660456057 45.869198903174038 0 0 0 0 -39.343406502725884 63.289481597723352 0 63.289481597723352 26.898233389861161 0 0 0 0 -55.920329633299843 57.968591924433895 0 57.968591924433895 85.235236324282596 0 0 0 0 -64.28402275751705 33.734759753794606 0 33.734759753794606 115.91831452118458 0 0 0 0 -58.173183224075729 35.973849700349092 0 35.973849700349092 116.61605757336747 0 0 0 0 -65.859553545166818 11.726596624657759 0 11.726596624657759 185.86285871817199 0 0 0 0 -3.141158014559096 22.799205003436782 0 22.799205003436782 12.306403005232823 0 0 0 0 -49.032193157647271 14.215746085899809 0 14.215746085899809 93.184667994432516 0 0 0 0 -54.821433046641687 9.1428706850956587 0 9.1428706850956587 148.06002625869769 0 0 0 0 -4.0832438901734349 -40.882472046750081 0 -40.882472046750081 80.173986254009833 0 0 0 0 14.217266067417565 -102.19020943307484 0 -102.19020943307484 243.77421222252997 0 0 0 0 -155.25749858129348 273.8709476580778 0 273.8709476580778 -65.326094901230221 0 0 0 0 11.017176486441645 14.039159129018488 0 14.039159129018488 18.871626997951214 0 0 0 0 -209.83039000749642 -36.736885546096225 0 -36.736885546096225 71.843377417028364 0 0 0 0 -151.21220815419292 36.201424186665463 0 36.201424186665463 157.17414293815091 0 0 0 0 -26.547485357929933 12.263807203897951 0 12.263807203897951 95.028751943279062 0 0 0 0 -111.17358187358786 51.367201610441043 0 51.367201610441043 67.158243841766307 0 0 0 0 -22.532485443566408 19.337440798943721 0 19.337440798943721 87.050499660508351 0 0 0 0 -1.8795895248865691 45.78052232294057 0 45.78052232294057 81.899483416441328 0 0 0 0 -183.36429866736853 327.19748333349617 0 327.19748333349617 -192.14726839683908 0 0 0 0 -2.3023512323134128 -110.67709781694066 0 -110.67709781694066 410.19975293902098 0 0 0 0 -98.052159585999789 748.46346908728856 0 748.46346908728856 -325.75430705766848 0 0 0 0 3.9398181940717851 5.4334349773500321 0 5.4334349773500321 6.5302473063282189 0 0 0 0 473.26319029112801 -924.94696135528898 0 -924.94696135528898 470.63142030515519 0 0 0 0 -32.098755920951589 37.098378465491805 0 37.098378465491805 404.95757317173047 0 0 0 0 -33.288845442459206 89.946988496845734 0 89.946988496845734 551.21853080329402 0 0 0 0 14.235398596167215 -112.89518978779597 0 -112.89518978779597 274.44016482131337 0 0 0 0 -21.755206884336076 -41.136517795169311 0 -41.136517795169311 385.50513592252901 0 0 0 0 -26.46913145056169 -6.6725701310979275 0 -6.6725701310979275 208.03830161582164 0 0 0 0 -57.707337911210118 20.489322184063489 0 20.489322184063489 271.58765908034366 0 0 0 0 -35.347129582776688 60.215395137040105 0 60.215395137040105 295.82067365918829 0 0 0 0 -21.670254158517309 54.477224631852096 0 54.477224631852096 273.08552755329947 0 0 0 0 -20.698633662471366 55.140712494739091 0 55.140712494739091 239.34895978262466 0 0 0 0 -29.959850684588673 33.724340016820406 0 33.724340016820406 192.00820364363244 0 0 0 0 6.3521597218350507 22.641272785908768 0 22.641272785908768 184.20687014002624 0 0 0 0 25.393065268057398 105.59473590212656 0 105.59473590212656 173.50622395119626 0 0 0 0 37.189542556844572 28.115664220855251 0 28.115664220855251 77.637155406343481 0 0 0 0 -70.599078800845746 105.54862198293267 0 105.54862198293267 88.410678283372363 0 0 0 0 -60.174523977502986 149.00164227396061 0 149.00164227396061 -21.337569686578718 0 0 0 0 97.231340222720974 232.10977933575032 0 232.10977933575032 392.38069133577119 0 0 0 0 96.047886264572298 181.25578439526089 0 181.25578439526089 229.88741330355879 0 0 0 0 15.243204227965521 46.305560869219732 0 46.305560869219732 126.49944975239305 0 0 0 0 -47.719208702181277 -34.26398379877628 0 -34.26398379877628 223.44170681103287 0 0 0 0 -69.284113201231776 -20.313862957821129 0 -20.313862957821129 236.22996017341029 0 0 0 0 -53.662021839825684 -17.680676417603536 0 -17.680676417603536 180.75137220266822 0 0 0 0 -41.39761177237142 -14.234532149416737 0 -14.234532149416737 222.84051532244831 0 0 0 0 -65.515333630527493 -16.32597889337103 0 -16.32597889337103 223.02673112428965 0 0 0 0 -47.712923718641832 -22.495629097633355 0 -22.495629097633355 149.49800313085822 0 0 0 0 -52.085111286242864 -35.336501792011404 0 -35.336501792011404 257.22228327005723 0 0 0 0 -37.128391581626602 21.107326006657786 0 21.107326006657786 239.15140976494513 0 0 0 0 -57.70079233727634 3.6291768395315378 0 3.6291768395315378 225.64884868010813 0 0 0 0 -1.4301661775298271 -0.86558867712847132 0 -0.86558867712847132 185.14628314977926 0 0 0 0 -49.773947838618824 -3.3769029661348213 0 -3.3769029661348213 213.62472021003487 0 0 0 0 -18.011890399473486 -1.7431871723765653 0 -1.7431871723765653 209.84179088168457 0 0 0 0 -25.776414384928785 -21.865412894529072 0 -21.865412894529072 213.26225167746452 0 0 0 0 -44.219044901577035 -19.656288645665882 0 -19.656288645665882 214.93039034274261 0 0 0 0 -7.8613759784802824 -33.154206481398433 0 -33.154206481398433 192.01605390342229 0 0 0 0 -16.296136406488586 -51.580433623327735 0 -51.580433623327735 212.29191041821923 0 0 0 0 -44.633255433339606 -42.959879527222064 0 -42.959879527222064 234.24023664721244 0 0 0 0 -20.976552215652191 -53.074481095863121 0 -53.074481095863121 217.21212134285634 0 0 0 0 14.302003532854997 -77.927148852146615 0 -77.927148852146615 198.05860447128725 0 0 0 0 10.984764950525914 -65.64626819548721 0 -65.64626819548721 203.93228517455827 0 0 0 0 2.6220639542198114 -72.733289701008744 0 -72.733289701008744 203.49566551983571 0 0 0 0 5.0402950349962339 -53.512265513227248 0 -53.512265513227248 179.35517232391794 0 0 0 0 31.836800899887749 -72.441132022229795 0 -72.441132022229795 184.76798224454205 0 0 0 0 12.108923178317127 -22.78887567712934 0 -22.78887567712934 151.35076859282708 0 0 0 0 16.108868330978112 -40.81932010993296 0 -40.81932010993296 193.84952531087038 0 0 0 0 46.487905918907018 -43.739718263923805 0 -43.739718263923805 164.10245680250227 0 0 0 0 59.179821101395191 -104.50172784841874 0 -104.50172784841874 169.24011418987175 0 0 0 0 24.122172811189557 -103.13994494178678 0 -103.13994494178678 194.74254977455905 0 0 0 0 30.060314973399727 -63.579649298265394 0 -63.579649298265394 141.77407853346176 0 0 0 0 17.365427735245248 -78.069421711212271 0 -78.069421711212271 190.40282787159231 0 0 0 0 24.57411331842286 -100.57932765133228 0 -100.57932765133228 207.67981611752555 0 0 0 0 16.579670155292661 -89.376940989480772 0 -89.376940989480772 192.17008588717363 0 0 0 0 15.678458698343093 -91.117704584720741 0 -91.117704584720741 208.97486665274664 0 0 0 0 17.610372938206638 -79.563846654121335 0 -79.563846654121335 198.85694828335363 0 0 0 0 29.481341709230037 43.372655676834711 0 43.372655676834711 52.583352566869507 0 0 0 0 -1.4699335167085792 71.31485482706546 0 71.31485482706546 -64.635682979862395 0 0 0 0 13.030731847529751 20.875458156713648 0 20.875458156713648 23.751789341149561 0 0 0 0 67.968699477474729 -28.942523615321079 0 -28.942523615321079 -2.0351160865134261 0 0 0 0 34.184497400483451 23.950485865600513 0 23.950485865600513 141.84373479835995 0 0 0 0 63.533410202336199 -49.396907152378844 0 -49.396907152378844 120.19705190608784 0 0 0 0 45.602506804460205 -26.672438862069782 0 -26.672438862069782 94.208947790079037 0 0 0 0 46.580885276205663 -87.679780043366918 0 -87.679780043366918 132.09513543973657 0 0 0 0 63.31425755746352 -86.328379561153156 0 -86.328379561153156 105.38755673318701 0 0 0 0 74.656797614149355 -106.16853158321692 0 -106.16853158321692 64.95357245656578 0 0 0 0 7.0839776854069685 23.530273533890998 0 23.530273533890998 67.225653941699406 0 0 0 0 -275.70704557744557 37.351608622465847 0 37.351608622465847 41.954755487206057 0 0 0 0 -9.5850564464035415 104.48792874646688 0 104.48792874646688 -23.298845945540513 0 0 0 0 -76.091889243474725 95.398473446404751 0 95.398473446404751 13.674700991774444 0 0 0 0 -211.57006183760132 119.29328293002345 0 119.29328293002345 88.999635272979503 0 0 0 0 -106.14350921819278 61.931779326338074 0 61.931779326338074 12.478647916042974 0 0 0 0 -64.83462155545385 92.15043866959968 0 92.15043866959968 -157.92424403656423 0 0 0 0 -68.735955969073075 111.72426245733277 0 111.72426245733277 60.191925954692124 0 0 0 0 -123.95503261066187 179.88185661721218 0 179.88185661721218 -132.31601424331893 0 0 0 0 -55.504592570041495 77.733042429152192 0 77.733042429152192 116.55533845369291 0 0 0 0 -28.615931642636422 37.734029675678507 0 37.734029675678507 126.78812530115518 0 0 0 0 -74.656608823679562 11.796007781989829 0 11.796007781989829 103.29565830653337 0 0 0 0 -35.876974395071144 31.1045348427796 0 31.1045348427796 121.90885763409929 0 0 0 0 -15.090679125804172 642.19109573838978 0 642.19109573838978 -304.6930690251902 0 0 0 0 -627.15803543483526 -39.487509498118015 0 -39.487509498118015 584.21856383559498 0 0 0 0 5.1579233055056477 4.0242872769217826 0 4.0242872769217826 2.8383517789760901 0 0 0 0 -88.782532682132796 170.5188521667651 0 170.5188521667651 -266.90353936130123 0 0 0 0 79.998168426844131 -39.983695984708902 0 -39.983695984708902 1093.8507109255879 0 0 0 0 51.536871288697512 -47.705015757921501 0 -47.705015757921501 371.87961399280357 0 0 0 0 160.09845083151686 -110.41959119793319 0 -110.41959119793319 250.19508266189951 0 0 0 0 292.92060147909251 72.524201271840866 0 72.524201271840866 320.22502261622867 0 0 0 0 -93.871901482551038 -219.32151342822908 0 -219.32151342822908 319.6054708199008 0 0 0 0 -590.79650403260166 468.5893935778513 0 468.5893935778513 150.78771462816621 0 0 0 0 -106.72829480111432 -8.2065611909952167 0 -8.2065611909952167 91.46449284148548 0 0 0 0 -212.6953864988609 36.339290679905389 0 36.339290679905389 -48.627702685724216 0 0 0 0 -44.579539424558035 23.43333955520653 0 23.43333955520653 111.47636556824781 0 0 0 0 -60.41834108668445 104.22823219588827 0 104.22823219588827 -24.419108721776865 0 0 0 0 -616.21979992366232 46.00601115906602 0 46.00601115906602 346.99158756400539 0 0 0 0 -257.99967984982595 134.16288158407406 0 134.16288158407406 106.72036174032837 0 0 0 0 9.6610605626601256 26.078373896885289 0 26.078373896885289 85.852697830866987 0 0 0 0 -223.76500316539841 50.268483162191387 0 50.268483162191387 153.40606135683265 0 0 0 0 -41.531958981962248 -128.17547396042937 0 -128.17547396042937 896.63052588175924 0 0 0 0 273.97515256056067 -302.50354949971006 0 -302.50354949971006 283.05198289494729 0 0 0 0 156.15994303739535 376.7905849876588 0 376.7905849876588 64.134216577775078 0 0 0 0 204.33484259167017 418.7931687845703 0 418.7931687845703 203.49527544512239 0 0 0 0 -332.79954988153168 -45.796786540970061 0 -45.796786540970061 393.55888081630837 0 0 0 0 -194.32211739489776 40.412413628182549 0 40.412413628182549 -11.874884915363509 0 0 0 0 142.2049319453854 13.552410437601793 0 13.552410437601793 -176.43840730028751 0 0 0 0 -57.438223668999854 106.18015914298303 0 106.18015914298303 38.049247889954131 0 0 0 0 27.382909249595947 18.385092417471839 0 18.385092417471839 10.099091409780144 0 0 0 0 18.65965589652842 154.34558813024341 0 154.34558813024341 -231.61631414136173 0 0 0 0 21.035294126601684 -45.917491428270296 0 -45.917491428270296 564.2569938796405 0 0 0 0 -47.619409064663159 39.072693585944762 0 39.072693585944762 -80.919686095097859 0 0 0 0 -76.726727065986779 144.0543345739934 0 144.0543345739934 88.669362108410496 0 0 0 0 -24.913078255840901 70.961646560006557 0 70.961646560006557 -78.686669417395024 0 0 0 0 -83.175251036860573 80.726722147126566 0 80.726722147126566 30.370478105052371 0 0 0 0 -26.919866048101539 127.85357393356389 0 127.85357393356389 -235.81448026417274 0 0 0 0 113.63530278543226 -146.09968573878359 0 -146.09968573878359 665.4467327546372 0 0 0 0 147.49362385512632 -170.07545283041691 0 -170.07545283041691 559.09013709992723 0 0 0 0 99.853870596050683 -233.39662451080221 0 -233.39662451080221 518.74632188415853 0 0 0 0 16.31350356453159 11.561243254424269 0 11.561243254424269 6.8847692740539088 0 0 0 0 32.286337965303574 -205.5582854883105 0 -205.5582854883105 730.36210848026894 0 0 0 0 36.251133482614563 -191.64050757272435 0 -191.64050757272435 739.35608350815164 0 0 0 0 38.524442059777357 -269.0898683896703 0 -269.0898683896703 694.35897911149368 0 0 0 0 53.77661006484891 -276.18350432520674 0 -276.18350432520674 607.42327470107921 0 0 0 0 154.5598959653945 79.78870872612606 0 79.78870872612606 1108.5978841032993 0 0 0 0 115.17897650587395 -520.2131983521067 0 -520.2131983521067 1232.4093571992998 0 0 0 0 130.37778230432536 3.0002824531520673 0 3.0002824531520673 21.603318770590704 0 0 0 0 24.153922175508114 -161.24361113305713 0 -161.24361113305713 286.2284967283922 0 0 0 0 239.28329942222052 -418.51508275778906 0 -418.51508275778906 507.38069081561844 0 0 0 0 130.89189413337908 -178.53163751350075 0 -178.53163751350075 262.96854631977476 0 0 0 0 156.24333774277198 -287.93949049351068 0 -287.93949049351068 323.40540859769681 0 0 0 0 125.53956808312046 -152.47065491712965 0 -152.47065491712965 136.99146104089596 0 0 0 0 94.353777847545189 -136.02389635559666 0 -136.02389635559666 315.28930796062514 0 0 0 0 157.67231031431993 -234.82907873683871 0 -234.82907873683871 314.39871197701723 0 0 0 0 141.89387078528944 -195.42575325092548 0 -195.42575325092548 513.29450715636722 0 0 0 0 172.91461717096445 -104.01873289966898 0 -104.01873289966898 565.08407331310354 0 0 0 0 175.26203425715721 -188.13289064129094 0 -188.13289064129094 340.54719967021811 0 0 0 0 253.18870073276548 -169.96829409970087 0 -169.96829409970087 338.11828998598503 0 0 0 0 251.10216756000682 -134.99632694617685 0 -134.99632694617685 233.61283391940378 0 0 0 0 325.60922623261672 -210.63072335455581 0 -210.63072335455581 220.3676725260666 0 0 0 0 284.09472386527364 -286.93068094944647 0 -286.93068094944647 335.27772844339779 0 0 0 0 183.38064907160242 -107.05404322318827 0 -107.05404322318827 160.03999934239255 0 0 0 0 18.566363648521019 121.8918633918729 0 121.8918633918729 -98.478469703975861 0 0 0 0 0.24978297588663878 0.81458538444735495 0 0.81458538444735495 0.95080165839090114 0 0 0 0 168.37588024807974 64.056567623956653 0 64.056567623956653 -232.20014921629991 0 0 0 0 0.88951173441587006 -0.27465067045199021 0 -0.27465067045199021 -1.035906981007173 0 0 0 0 -17.25251789352069 -56.564203788329905 0 -56.564203788329905 63.440358116953576 0 0 0 0 118.36529419964984 156.51446828298685 0 156.51446828298685 326.59167641346721 0 0 0 0 284.26982740946994 -114.75117264962319 0 -114.75117264962319 -23.555079936030779 0 0 0 0 22.682296481651008 -83.613700691839767 0 -83.613700691839767 -39.035902226052713 0 0 0 0 8.9321239882666248 -70.725224853416876 0 -70.725224853416876 -27.883674311189679 0 0 0 0 -131.24354711119122 -90.819409089268447 0 -90.819409089268447 236.49970761522127 0 0 0 0 -11.599677709963544 -95.212119950181659 0 -95.212119950181659 188.54517932394083 0 0 0 0 -119.54448164700261 11.272214203836484 0 11.272214203836484 175.50931564387429 0 0 0 0 -83.707384330557034 2.0980807875894243 0 2.0980807875894243 144.70698335411726 0 0 0 0 -297.24240364239449 74.132861035272072 0 74.132861035272072 169.31403173232684 0 0 0 0 -57.682185317820938 2.0839227339304642 0 2.0839227339304642 118.28803598232527 0 0 0 0 -262.17242627748055 87.214963743510452 0 87.214963743510452 102.73201497199261 0 0 0 0 -246.79819670641518 78.254209398801322 0 78.254209398801322 162.24660683560978 0 0 0 0 -161.11622731333136 1.8152709777968994 0 1.8152709777968994 136.20519942355168 0 0 0 0 -312.02921754167846 -34.050118264829507 0 -34.050118264829507 135.96134113986045 0 0 0 0 -251.75787327057242 -104.41055074699943 0 -104.41055074699943 270.34176165774988 0 0 0 0 -275.32785110847726 58.00500542284135 0 58.00500542284135 175.95452185372415 0 0 0 0 189.66045757124539 -167.96161332801785 0 -167.96161332801785 221.74777970628929 0 0 0 0 244.99103984503608 -58.75348838850914 0 -58.75348838850914 296.04309017705964 0 0 0 0 195.54369222277091 -181.93847335482133 0 -181.93847335482133 264.25485755646514 0 0 0 0 150.52095391702551 -126.42082802591722 0 -126.42082802591722 212.03919806843624 0 0 0 0 -12.19951428240347 -165.94066235683931 0 -165.94066235683931 286.99512512816364 0 0 0 0 44.663922439925955 -139.13837402974605 0 -139.13837402974605 210.78717891187989 0 0 0 0 135.00978318016678 -197.27878579962635 0 -197.27878579962635 214.04806240694381 0 0 0 0 217.16660669754674 -124.33292563534269 0 -124.33292563534269 172.29838417747669 0 0 0 0 143.67070385311513 -125.71102452156174 0 -125.71102452156174 182.6571136513885 0 0 0 0 161.72928757014824 -139.23085509413067 0 -139.23085509413067 171.86842967862037 0 0 0 0 134.41665761235708 -147.64324306968047 0 -147.64324306968047 184.67574699099714 0 0 0 0 50.025091145408169 -130.81435722789865 0 -130.81435722789865 174.74715539895988 0 0 0 0 -103.00207639364089 27.775513854383462 0 27.775513854383462 121.25364083542081 0 0 0 0 14.541879884476657 -144.83043355833797 0 -144.83043355833797 211.29094485421683 0 0 0 0 21.339853877350833 -80.768377264466835 0 -80.768377264466835 213.27767302747816 0 0 0 0 -25.731982317258371 -45.251046158518875 0 -45.251046158518875 112.16492713640037 0 0 0 0 -27.702472528115322 -101.40031433094555 0 -101.40031433094555 202.34340385087125 0 0 0 0 -2.0707971244455621 -128.99334452806579 0 -128.99334452806579 157.60527817177353 0 0 0 0 50.136739628161649 -88.402306022815537 0 -88.402306022815537 229.13596133184183 0 0 0 0 61.547110586763438 -123.66851077289721 0 -123.66851077289721 247.57136811030068 0 0 0 0 71.296152506064573 -122.85226299623173 0 -122.85226299623173 243.63573186115173 0 0 0 0 62.324419047688934 -109.38021769563056 0 -109.38021769563056 235.88890922529754 0 0 0 0 72.691678458394563 -140.0408937961256 0 -140.0408937961256 202.33978395551094 0 0 0 0 137.41746951938876 -106.43350514389022 0 -106.43350514389022 170.39513992024877 0 0 0 0 178.61307692709033 -42.805935414580745 0 -42.805935414580745 268.46072204148368 0 0 0 0 120.43061267225448 -92.209932564528572 0 -92.209932564528572 248.04078112165007 0 0 0 0 69.97473733607967 -125.34864348127303 0 -125.34864348127303 284.49380034933347 0 0 0 0 103.06900683188405 -138.00349249858118 0 -138.00349249858118 233.22761013703712 0 0 0 0 103.47224623174839 -148.33079330989858 0 -148.33079330989858 401.78715710307006 0 0 0 0 -0.209282316933038 1.2663287954878086 0 1.2663287954878086 3.415833901626371 0 0 0 0 99.66768517743094 -40.100200304590544 0 -40.100200304590544 -12.579907720792107 0 0 0 0 -14.131083511154429 39.941522854627692 0 39.941522854627692 -13.511265572531556 0 0 0 0 85.640646226692297 -116.65980741675958 0 -116.65980741675958 209.50023369910923 0 0 0 0 39.678817304911718 -104.8037106597294 0 -104.8037106597294 210.64607812146733 0 0 0 0 2.2705375080033221 4.1951300298328604 0 4.1951300298328604 6.3819052751961181 0 0 0 0 68.71326254637188 -152.1827004302977 0 -152.1827004302977 187.430127211941 0 0 0 0 98.633187988234567 -128.33299644288854 0 -128.33299644288854 206.44086438878367 0 0 0 0 101.02671264231731 -116.90795606993106 0 -116.90795606993106 226.78810466491268 0 0 0 0 247.26489689622576 -183.74758722072875 0 -183.74758722072875 224.31421592662809 0 0 0 0 133.49559146558204 -101.08548463891202 0 -101.08548463891202 229.83459144954577 0 0 0 0 84.450115754214039 -125.63225546478407 0 -125.63225546478407 226.96146255046187 0 0 0 0 83.02619486286676 -126.09412787183828 0 -126.09412787183828 244.48982046718447 0 0 0 0 65.008449478973944 -144.73097909819262 0 -144.73097909819262 230.80015592042764 0 0 0 0 -21.010085141504511 38.009569964466209 0 38.009569964466209 25.139550214102201 0 0 0 0 199.88943476674146 98.002914182548921 0 98.002914182548921 33.794759121970856 0 0 0 0 -79.324974651163785 -36.549751302306504 0 -36.549751302306504 526.50362818782742 0 0 0 0 -2.3945439331297393 -197.46651900100005 0 -197.46651900100005 378.68718209447252 0 0 0 0 -0.036403099125060789 0.57183630575929811 0 0.57183630575929811 5.2238985593338043 0 0 0 0 20.157114575280275 -165.61667302901697 0 -165.61667302901697 170.63931888283332 0 0 0 0 50.607785160160574 -104.24839600723135 0 -104.24839600723135 174.57934518712864 0 0 0 0 236.35157906234144 -108.08981280489024 0 -108.08981280489024 111.98391510086731 0 0 0 0 172.22494026075128 -50.481888204858478 0 -50.481888204858478 20.343697911717754 0 0 0 0 -102.28908234575874 118.57932437697309 0 118.57932437697309 9.4809936944984656 0 0 0 0 47.893940908435184 135.71640137349368 0 135.71640137349368 -0.32372319528076332 0 0 0 0 -165.64765612733595 62.247315150343638 0 62.247315150343638 109.68342666824992 0 0 0 0 -58.71419862185212 -107.04286364377185 0 -107.04286364377185 307.84008892270504 0 0 0 0 33.519947257446624 27.725232697492174 0 27.725232697492174 -2.9545870766014559 0 0 0 0 0.76718371192842483 2.941631396261748 0 2.941631396261748 13.284666621374839 0 0 0 0 -18.714987662998794 27.735188087703136 0 27.735188087703136 11.779172332928283 0 0 0 0 -26.004933190395661 26.185494865247165 0 26.185494865247165 13.801376504947257 0 0 0 0 -21.342943560080109 32.738456626175321 0 32.738456626175321 7.89205717749428 0 0 0 0 -44.775856292293881 41.673286646575434 0 41.673286646575434 13.22241678597311 0 0 0 0 -15.267815854771193 6.4415264228555884 0 6.4415264228555884 45.649417960970311 0 0 0 0 -78.503287889987888 78.973031709534553 0 78.973031709534553 9.0628841337456834 0 0 0 0 505.56547412774398 -17.642744898861565 0 -17.642744898861565 -106.36911867577874 0 0 0 0 361.21357459795217 383.08485766644299 0 383.08485766644299 50.706551580346058 0 0 0 0 -29.279811385206926 299.35658193947302 0 299.35658193947302 37.863831025722902 0 0 0 0 -34.15618389573865 -242.90829268724337 0 -242.90829268724337 -191.70113769859017 0 0 0 0 256.72426105232262 -51.301939506993222 0 -51.301939506993222 -537.01461939862202 0 0 0 0 3.3087511324692969 -9.5756514535387396 0 -9.5756514535387396 55.146189360952121 0 0 0 0 0.87050355511738431 -5.4085519113654357 0 -5.4085519113654357 4.9004205397665928 0 0 0 0 -24.260688221280986 21.339019824077695 0 21.339019824077695 24.277746080770157 0 0 0 0 -22.092720828712434 17.793785720205832 0 17.793785720205832 20.395022622704886 0 0 0 0 126.3314094964835 241.77845275126674 0 241.77845275126674 -283.96037368692487 0 0 0 0 -11.972998785454934 20.71402383431996 0 20.71402383431996 15.189067537008668 0 0 0 0 -37.692436546785054 27.218502550165795 0 27.218502550165795 21.948950454752776 0 0 0 0 -140.89373115531635 8.0940041672074585 0 8.0940041672074585 61.942499437944207 0 0 0 0 -107.14768215082177 174.71875450035259 0 174.71875450035259 654.15164290492248 0 0 0 0 -264.31779693167573 163.75863868221495 0 163.75863868221495 111.07540745697042 0 0 0 0 -10.539490479064131 5.4101823843062711 0 5.4101823843062711 58.829448924694248 0 0 0 0 -14.535269488825179 5.9071076120926591 0 5.9071076120926591 66.690143403061484 0 0 0 0 -1.9368399315292635 0.82174196867472915 0 0.82174196867472915 12.387579777252107 0 0 0 0 0.019532919843595398 8.1878174304847136 0 8.1878174304847136 16.708413745366983 0 0 0 0 8.9859526323225509 60.928706754322775 0 60.928706754322775 -79.452043657503964 0 0 0 0 -11.33020180689914 24.463732072159473 0 24.463732072159473 -28.768634476771695 0 0 0 0 -3.1001083760629626 -5.6123939487624739 0 -5.6123939487624739 59.929464951834234 0 0 0 0 -0.57963276242223039 0.56567221141747837 0 0.56567221141747837 0.52133683866051683 0 0 0 0 -9.4947315813892601 -3.2657140889969014 0 -3.2657140889969014 100.72372932080907 0 0 0 0 -8.0752328455387214 12.264248605615649 0 12.264248605615649 59.350599056619103 0 0 0 0 -1.9551147913088904 -6.7788883863493119 0 -6.7788883863493119 60.190219252094806 0 0 0 0 0.20330768663279741 6.6945594611215711 0 6.6945594611215711 50.311961196319317 0 0 0 0 0.92264406349022465 3.7704769015726924 0 3.7704769015726924 61.097386287277914 0 0 0 0 -3.0168969986789307 5.1504633945969545 0 5.1504633945969545 59.839805459385389 0 0 0 0 -8.9333289837818484 39.314287328441424 0 39.314287328441424 81.905757635238842 0 0 0 0 5.1447458618293069 -9.1161290634066745 0 -9.1161290634066745 21.873002363478534 0 0 0 0 -221.38472297788394 10.482894741879136 0 10.482894741879136 163.77046609463287 0 0 0 0 -22.732068672565219 -75.137058382199029 0 -75.137058382199029 87.657472213861183 0 0 0 0 -108.88961329049926 1.6849990836490178 0 1.6849990836490178 46.660924653246184 0 0 0 0 -43.193381901184694 -92.994250693613139 0 -92.994250693613139 124.31054349127589 0 0 0 0 -96.509458489394092 -116.04564027850392 0 -116.04564027850392 151.54385947604897 0 0 0 0 15.417135803365454 -135.45977622333885 0 -135.45977622333885 99.413493982225191 0 0 0 0 12.425727494926832 -140.4205424154643 0 -140.4205424154643 101.07827645001817 0 0 0 0 -206.55128201037593 -131.05203850070552 0 -131.05203850070552 175.92372860193427 0 0 0 0 115.19439679399784 -329.71141001861179 0 -329.71141001861179 431.5230912431216 0 0 0 0 3.2187816555587805 -40.544019015332275 0 -40.544019015332275 -34.456505509302119 0 0 0 0 141.03937710786613 -93.273197629274364 0 -93.273197629274364 31.902428748355305 0 0 0 0 85.484049081432204 -200.03112863955175 0 -200.03112863955175 127.22996387754392 0 0 0 0 -60.513141489644568 -126.68459791786699 0 -126.68459791786699 209.81257519277278 0 0 0 0 406.49686483908499 -233.3440073592792 0 -233.3440073592792 105.04511312686009 0 0 0 0 3.7109484950054084 -7.6321815288443595 0 -7.6321815288443595 6.4480054840071261 0 0 0 0 66.243580055335769 146.80746801946179 0 146.80746801946179 533.05508312001621 0 0 0 0 42.298459257950526 2.642330885733827 0 2.642330885733827 23.596782186446944 0 0 0 0 38.415713261671044 16.874763830608572 0 16.874763830608572 24.165109595837066 0 0 0 0 9.9343212020667124 -22.559176124457736 0 -22.559176124457736 -89.393851326378353 0 0 0 0 2.8437902988412347 -5.8977595360552328 0 -5.8977595360552328 9.3279540075574658 0 0 0 0 299.97494145093879 72.86119804369082 0 72.86119804369082 49.70046129506045 0 0 0 0 2.7498194875895479 37.052051265561204 0 37.052051265561204 101.63876436057035 0 0 0 0 -2.0400807188243064 -1.0650368779987573 0 -1.0650368779987573 5.4845131003872183 0 0 0 0 172.06681365190707 107.00099402926207 0 107.00099402926207 54.314838051359402 0 0 0 0 33.084622160932668 -77.170758400039176 0 -77.170758400039176 308.90828181725374 0 0 0 0 5.0919004586647176 0.36965435802450486 0 0.36965435802450486 0.79041237565614608 0 0 0 0 10.586788467481142 18.384938256892383 0 18.384938256892383 130.85490593555005 0 0 0 0 4.6184801853605677 6.218856298124777 0 6.218856298124777 10.554238875059468 0 0 0 0 26.535515095244136 49.638063714723103 0 49.638063714723103 -148.88760035041923 0 0 0 0 -18.780742436316359 12.654292359635292 0 12.654292359635292 0.80313110349379713 0 0 0 0 3.5178813846114281 52.956747936048487 0 52.956747936048487 6.9534352158188995 0 0 0 0 -26.97285174476383 23.363508445803745 0 23.363508445803745 61.921712699993805 0 0 0 0 43.050002722176941 12.991152595066524 0 12.991152595066524 -21.531271967585781 0 0 0 0 43.713223711213914 5.4354655170463957 0 5.4354655170463957 12.542525262571871 0 0 0 0 21.699139684032161 19.698064879168669 0 19.698064879168669 55.259954192631994 0 0 0 0 35.318088431597062 23.804695737431757 0 23.804695737431757 9.4019438444165644 0 0 0 0 5.9849989542317239 -10.366302509943779 0 -10.366302509943779 9.7497570513307039 0 0 0 0 134.93728716198234 -359.43825771207139 0 -359.43825771207139 206.84743461549078 0 0 0 0 10.001393490070768 40.836412702814414 0 40.836412702814414 61.748421004507691 0 0 0 0 -38.889760090298296 -34.966205080636428 0 -34.966205080636428 381.14881133875315 0 0 0 0 -160.6833365487073 299.27105428959112 0 299.27105428959112 239.78504479172989 0 0 0 0 14.317156762678678 11.633220604649978 0 11.633220604649978 57.400327194758574 0 0 0 0 28.183165454974187 10.787104469192855 0 10.787104469192855 53.012178724595287 0 0 0 0 16.797613620507946 2.1518066984572215 0 2.1518066984572215 56.985538522938441 0 0 0 0 31.221054369266312 254.61610927346919 0 254.61610927346919 -1.4960207864733093 0 0 0 0 -25.16463675930936 -107.76039990626305 0 -107.76039990626305 109.87021372677555 0 0 0 0 -5.8913918359564832 42.478914362498472 0 42.478914362498472 2.5258652465126943 0 0 0 0 4.74937932135132 -4.9318044017898188 0 -4.9318044017898188 12.213022216571503 0 0 0 0 188.02085176782498 -102.60097185816721 0 -102.60097185816721 97.04123720118514 0 0 0 0 5.4984583996539129 -1.2938144290985036 0 -1.2938144290985036 -1.6006183601806896 0 0 0 0 138.80070684860038 34.461676177037589 0 34.461676177037589 14.2997948836055 0 0 0 0 27.451121322894323 62.713496487718658 0 62.713496487718658 12.950895751598182 0 0 0 0 127.84639019483166 31.792985912597942 0 31.792985912597942 -21.500031058327295 0 0 0 0 53.058702874813207 -4.6673310079240764 0 -4.6673310079240764 44.221130955462286 0 0 0 0 71.658598406518649 -23.611889813189919 0 -23.611889813189919 13.194841699434619 0 0 0 0 30.451371159320843 -7.4012851757379394 0 -7.4012851757379394 105.54428714011738 0 0 0 0 0.097032231875346042 39.208719728405413 0 39.208719728405413 105.76547339644765 0 0 0 0 40.005435130062324 199.0374919507849 0 199.0374919507849 -75.536355980635562 0 0 0 0 -47.088308447751047 67.998062445996766 0 67.998062445996766 95.702367268895614 0 0 0 0 14.173950941869407 75.2924550988173 0 75.2924550988173 93.890515866991336 0 0 0 0 21.177878963109833 65.67887483816412 0 65.67887483816412 64.25385198539152 0 0 0 0 130.21565063664275 0.71770669723628089 0 0.71770669723628089 62.294214093562914 0 0 0 0 126.24855589348408 127.7838927083103 0 127.7838927083103 69.577946416398845 0 0 0 0 18.004592868904183 48.124865535097342 0 48.124865535097342 56.145376357322675 0 0 0 0 142.73933770286385 10.556286136328708 0 10.556286136328708 12.056706329211011 0 0 0 0 152.83375614069701 -1.3653969351862543 0 -1.3653969351862543 24.11128751221986 0 0 0 0 63.050581706986918 -20.773101849508066 0 -20.773101849508066 -16.461087723218952 0 0 0 0 67.894192558927898 -6.1500633418436337 0 -6.1500633418436337 9.2252939244644949 0 0 0 0 67.558264054478059 40.823963008377177 0 40.823963008377177 48.471546800181386 0 0 0 0 38.055700187065668 5.630293622309182 0 5.630293622309182 7.779421657200146 0 0 0 0 70.876789877926058 -16.858100719346112 0 -16.858100719346112 -22.233803610113682 0 0 0 0 25.844630517916812 -48.105540570402809 0 -48.105540570402809 -18.221053943216248 0 0 0 0 64.147363932122971 -81.226573851996363 0 -81.226573851996363 -49.760480028686288 0 0 0 0 98.162780154310894 -51.903809691648348 0 -51.903809691648348 -25.880288813568768 0 0 0 0 -18.371997126334463 -129.02512530451349 0 -129.02512530451349 -47.234944749259739 0 0 0 0 30.496727889640169 -102.64006834889005 0 -102.64006834889005 -51.258895129421944 0 0 0 0 5.1792562725240714 -119.13940642146918 0 -119.13940642146918 -47.826664350244755 0 0 0 0 76.607093328213523 -77.268624467673362 0 -77.268624467673362 -27.088216231974002 0 0 0 0 18.635096220090418 -101.75380725396099 0 -101.75380725396099 -21.362995452902396 0 0 0 0 -10.974866984359323 -140.330601753878 0 -140.330601753878 -32.122915502695832 0 0 0 0 21.997780594861979 -113.26365324146172 0 -113.26365324146172 -28.941469704994233 0 0 0 0 35.007035008144157 -129.72666443842172 0 -129.72666443842172 -8.17814872940653 0 0 0 0 76.972949639339276 -108.94560970744169 0 -108.94560970744169 40.85421015904285 0 0 0 0 119.84509166788666 -53.065009091445972 0 -53.065009091445972 9.7512418378610164 0 0 0 0 64.753192849420884 -86.260740180390712 0 -86.260740180390712 2.380625458794384 0 0 0 0 89.453069749755741 -32.70760345250892 0 -32.70760345250892 19.596701118818601 0 0 0 0 105.06661605075351 -28.983861267268367 0 -28.983861267268367 -4.4265241973480443 0 0 0 0 79.570212914666627 -92.297759205725015 0 -92.297759205725015 5.7034743595140753 0 0 0 0 124.83008393342243 -77.451847300369991 0 -77.451847300369991 59.599944760630024 0 0 0 0 175.7783426168171 -7.7574814557592617 0 -7.7574814557592617 21.638863654297438 0 0 0 0 371.6193483958541 -120.09915133004688 0 -120.09915133004688 107.12207293885331 0 0 0 0 294.53068452117077 32.719004895647231 0 32.719004895647231 57.671900040482797 0 0 0 0 152.016723287692 -53.683967396262233 0 -53.683967396262233 96.387621221190784 0 0 0 0 143.797287784113 -31.934609323951008 0 -31.934609323951008 64.622246122231445 0 0 0 0 39.800690588470388 -123.97761365845872 0 -123.97761365845872 139.32896825099306 0 0 0 0 31.750311918563966 -18.929000998959964 0 -18.929000998959964 148.30694372759899 0 0 0 0 157.5650457334923 -88.898903508030344 0 -88.898903508030344 41.457203930905507 0 0 0 0 71.783364391718351 -9.7520808568660868 0 -9.7520808568660868 365.97817988397037 0 0 0 0 74.297062225802165 -101.78475210304032 0 -101.78475210304032 260.93845615622558 0 0 0 0 73.325866258470342 2.0112122824866674 0 2.0112122824866674 246.1665878446538 0 0 0 0 73.463166435511084 -106.16415910216301 0 -106.16415910216301 372.76703485010512 0 0 0 0 -92.267751513101757 -122.21797701442301 0 -122.21797701442301 397.15424729467486 0 0 0 0 -52.463265085840249 -139.98864803106699 0 -139.98864803106699 170.43474824131954 0 0 0 0 94.120191046695254 -90.871258826948178 0 -90.871258826948178 178.66544511677694 0 0 0 0 11.143659373239643 -15.754100108410057 0 -15.754100108410057 237.25523685769622 0 0 0 0 8.8618374455109006 -74.904067941526591 0 -74.904067941526591 222.68880467254712 0 0 0 0 37.940562522842811 -43.474042324465699 0 -43.474042324465699 46.287330609484343 0 0 0 0 -0.87201103247934952 -62.103952950154053 0 -62.103952950154053 61.240619680247619 0 0 0 0 -57.464842200148269 -110.38501108474884 0 -110.38501108474884 76.191944656973646 0 0 0 0 -2.995039472978533 -133.78903095878195 0 -133.78903095878195 -7.1442535136084189 0 0 0 0 -101.87032221710433 -58.396232522627542 0 -58.396232522627542 41.45745173231262 0 0 0 0 -37.25717466551032 -175.48282670377466 0 -175.48282670377466 -119.58262984426256 0 0 0 0 260.45113029722415 -180.97813865911667 0 -180.97813865911667 661.68905627569984 0 0 0 0 -153.13187170450919 -247.80896819071768 0 -247.80896819071768 -26.302747908812307 0 0 0 0 29.3590063518606 -45.468547133917198 0 -45.468547133917198 69.749066212432368 0 0 0 0 -177.75673718203507 -129.60056717436692 0 -129.60056717436692 15.995691070245812 0 0 0 0 27.380660243881721 -143.83753041825912 0 -143.83753041825912 13.005274695649859 0 0 0 0 -129.77204893801536 -158.03623758928734 0 -158.03623758928734 14.316940917924512 0 0 0 0 -22.695879871607758 -149.41067983760149 0 -149.41067983760149 -35.174302571576845 0 0 0 0 -106.67540355537858 -100.41244579498016 0 -100.41244579498016 -51.731527364885551 0 0 0 0 -18.294408161131287 -111.86518387919205 0 -111.86518387919205 -8.471551226110023 0 0 0 0 -7.0410364132985706 -158.17942286275502 0 -158.17942286275502 -30.930468438571552 0 0 0 0 -67.018114366248483 -166.91826663891698 0 -166.91826663891698 -35.739900018685148 0 0 0 0 249.01420577898807 -53.173532793931372 0 -53.173532793931372 83.102192827675026 0 0 0 0 27.779490717005373 -42.440631240716328 0 -42.440631240716328 58.178686334894614 0 0 0 0 -50.182156785696861 -165.44180495669571 0 -165.44180495669571 -29.541157702673445 0 0 0 0 -37.210360237382702 -139.48926495590422 0 -139.48926495590422 -36.868807926337468 0 0 0 0 -37.571123331639683 -146.69469410571037 0 -146.69469410571037 -72.703504286822863 0 0 0 0 -45.803582312619255 -166.64116466159612 0 -166.64116466159612 -55.97689104971505 0 0 0 0 252.5249687260075 -52.968854078575532 0 -52.968854078575532 -1.979797774583858 0 0 0 0 -89.084498509830155 -125.48783578401344 0 -125.48783578401344 -30.601358948013512 0 0 0 0 -63.873662694881205 -134.23529536287242 0 -134.23529536287242 -33.920270217609868 0 0 0 0 -20.919158161821542 -132.02646156565606 0 -132.02646156565606 -34.29521424844279 0 0 0 0 522.33684686478409 357.23936888479602 0 357.23936888479602 -368.93792959151688 0 0 0 0 8.7169228273269255 -80.877365934535192 0 -80.877365934535192 122.83749932034152 0 0 0 0 0.34000356429026679 -0.34475316420140878 0 -0.34475316420140878 3.1538496417171089 0 0 0 0 295.37755698622004 -118.08744140333965 0 -118.08744140333965 96.966935606109473 0 0 0 0 256.60791780237741 -104.66910930296581 0 -104.66910930296581 163.43459490995156 0 0 0 0 28.965165670199667 -10.719334359929235 0 -10.719334359929235 -15.696587208913115 0 0 0 0 13.278499960727459 -39.807622811174951 0 -39.807622811174951 132.80767116774678 0 0 0 0 22.470811343840069 -37.95674953742855 0 -37.95674953742855 132.82453153837923 0 0 0 0 8.832754148116237 -46.037831173503037 0 -46.037831173503037 138.90204731692938 0 0 0 0 6.2213779595140295 -58.375424061388912 0 -58.375424061388912 180.03181500101346 0 0 0 0 12.897485773646622 -85.543637907374432 0 -85.543637907374432 131.98449332748714 0 0 0 0 32.178561500274327 -35.587653613972037 0 -35.587653613972037 143.57505367827252 0 0 0 0 32.435169920970964 -40.683047883949541 0 -40.683047883949541 77.069776141070179 0 0 0 0 11.780752833159568 -41.130135693405464 0 -41.130135693405464 87.749524670507526 0 0 0 0 37.200635963520654 133.9472568803867 0 133.9472568803867 253.8728934345624 0 0 0 0 -18.491070484312331 -50.931733873189842 0 -50.931733873189842 256.555351168372 0 0 0 0 92.516197681370613 15.355865648409235 0 15.355865648409235 97.070987654335113 0 0 0 0 53.933342974441075 82.955615802655302 0 82.955615802655302 21.887019646961562 0 0 0 0 -5.256612830421691 13.494612232276427 0 13.494612232276427 84.557596717918045 0 0 0 0 -94.669462600267252 -150.14945592953154 0 -150.14945592953154 -375.87119597091623 0 0 0 0 -172.35869176390884 347.13601891811084 0 347.13601891811084 515.51760034281324 0 0 0 0 -10.022968390803726 91.157388329598689 0 91.157388329598689 213.97000065492466 0 0 0 0 18.851298447193585 50.607437038539501 0 50.607437038539501 17.129209458207697 0 0 0 0 -0.10829683586902483 -1.103209589018741 0 -1.103209589018741 6.1825310137003413 0 0 0 0 131.87470725910134 -187.74588152071101 0 -187.74588152071101 155.06551267867872 0 0 0 0 -183.83381919969361 173.00222571412451 0 173.00222571412451 191.0963987162686 0 0 0 0 -4.2349664183756266 4.9175510080848781 0 4.9175510080848781 81.82887959672297 0 0 0 0 16.8258934512412 -72.793899745684712 0 -72.793899745684712 54.5417344661073 0 0 0 0 0.49484956438436711 -4.7050315942851739 0 -4.7050315942851739 32.794043682442862 0 0 0 0 26.204259790740252 -28.658843740623524 0 -28.658843740623524 23.509637639610219 0 0 0 0 -23.828150740024284 -9.012399780414853 0 -9.012399780414853 90.132396500261166 0 0 0 0 -2.0973485182257718 -28.244752473616245 0 -28.244752473616245 106.97715245575455 0 0 0 0 -44.656172051875274 -10.92664329060608 0 -10.92664329060608 94.305013584462358 0 0 0 0 -12.363578463645325 16.020565182781532 0 16.020565182781532 53.465106195132812 0 0 0 0 -82.34107478450187 3.1802988403378549 0 3.1802988403378549 93.460900598969602 0 0 0 0 -1.8040000076919878 10.285470497637178 0 10.285470497637178 14.017728802618883 0 0 0 0 -34.438829319065007 -53.405903119200048 0 -53.405903119200048 91.976117257559963 0 0 0 0 -7.754626810539321 46.964641825025865 0 46.964641825025865 52.017828449456829 0 0 0 0 -100.5921522334902 48.18901738887746 0 48.18901738887746 41.363814698822353 0 0 0 0 -2.9982144579107723 9.2268479349361776 0 9.2268479349361776 57.20402499558034 0 0 0 0 -49.49982156043643 87.552221211975848 0 87.552221211975848 109.93388047878489 0 0 0 0 -4.2530621201813048 20.610439198916566 0 20.610439198916566 36.05151591807774 0 0 0 0 -8.5092680941977612 9.5786306591445793 0 9.5786306591445793 65.521642775805304 0 0 0 0 35.602833838580906 -46.402397832002407 0 -46.402397832002407 117.66234955329128 0 0 0 0 31.246146349798892 -21.840665671838906 0 -21.840665671838906 81.207409528782591 0 0 0 0 53.318199204055418 -61.967321669348166 0 -61.967321669348166 200.04210339727433 0 0 0 0 29.262434581375842 -47.395683925097359 0 -47.395683925097359 74.789819686395745 0 0 0 0 165.04685155931475 21.544315060054942 0 21.544315060054942 -5.0984626652607403 0 0 0 0 48.247237443796621 -22.807844057324473 0 -22.807844057324473 64.660284276746097 0 0 0 0 44.385015819654654 -14.277483163095894 0 -14.277483163095894 61.950444965630595 0 0 0 0 18.09660733587225 17.168754108146459 0 17.168754108146459 25.564337859477746 0 0 0 0 17.956861219849088 17.194283410917706 0 17.194283410917706 214.13439237708008 0 0 0 0 153.35061273286021 -82.712698854633004 0 -82.712698854633004 98.103095946924441 0 0 0 0 -24.10413122179034 30.506542886230818 0 30.506542886230818 102.68811210333297 0 0 0 0 170.15458355382725 82.48020108811761 0 82.48020108811761 114.99417498070034 0 0 0 0 -177.2374598352676 -247.08345464915601 0 -247.08345464915601 75.504759088325955 0 0 0 0 -3.9537133039339096 -47.819894063031825 0 -47.819894063031825 9.6461717845704698 0 0 0 0 18.180831707751931 -22.39604943360246 0 -22.39604943360246 -10.051035507893062 0 0 0 0 -165.10927352587169 31.717237646185822 0 31.717237646185822 240.38702909787389 0 0 0 0 -62.88083849648865 -16.423662423236237 0 -16.423662423236237 187.13098622972029 0 0 0 0 -20.798805345393703 -12.315555375809708 0 -12.315555375809708 63.398865931852924 0 0 0 0 -0.99216820825679086 -1.0481018914878497 0 -1.0481018914878497 38.133263215910844 0 0 0 0 -193.87098045505718 -43.565547236359635 0 -43.565547236359635 236.2328375721554 0 0 0 0 27.931220944952656 44.135295745036274 0 44.135295745036274 21.915924158660346 0 0 0 0 4.3298281850427554 -23.118853219387059 0 -23.118853219387059 78.291791984615514 0 0 0 0 -58.526929542040762 -1.5900007949051087 0 -1.5900007949051087 88.018242004419335 0 0 0 0 0.13185777884501704 -24.22132836475873 0 -24.22132836475873 65.99195882726994 0 0 0 0 0.45268557112062124 -6.7916496124491719 0 -6.7916496124491719 89.785861434646378 0 0 0 0 -26.726203091436183 39.355954672062062 0 39.355954672062062 66.734611023046071 0 0 0 0 -27.734564888727618 -0.46072102326434106 0 -0.46072102326434106 -3.3441720061236992 0 0 0 0 -94.079823016108207 62.020373450391162 0 62.020373450391162 77.443267352649855 0 0 0 0 -28.489095619772193 37.524819578355491 0 37.524819578355491 51.041093232766812 0 0 0 0 -65.817795157729051 30.301295965617101 0 30.301295965617101 59.089733808585152 0 0 0 0 -8.1129809518323448 13.335699541739373 0 13.335699541739373 62.422786181613759 0 0 0 0 -10.336736543230828 4.4369394384144734 0 4.4369394384144734 69.566128069020579 0 0 0 0 52.074507841071181 120.19504835160524 0 120.19504835160524 48.745656701235475 0 0 0 0 -268.05676904121356 81.948737188358791 0 81.948737188358791 78.166193780605681 0 0 0 0 -60.325551912286755 21.275602293979318 0 21.275602293979318 81.409559937077574 0 0 0 0 -55.193755814363598 40.223711377214826 0 40.223711377214826 69.347512795889827 0 0 0 0 -56.873471525505011 29.871285913002794 0 29.871285913002794 71.838873052882263 0 0 0 0 -43.928463699766731 2.9132386703774387 0 2.9132386703774387 93.432445917949892 0 0 0 0 -70.061349128485745 -22.187034325976128 0 -22.187034325976128 126.2392951567017 0 0 0 0 -7.070574382590479 1.4041811181427448 0 1.4041811181427448 31.432033107189383 0 0 0 0 -81.930432828434277 45.52468143970691 0 45.52468143970691 232.14472003920673 0 0 0 0 -2.1416658546950771 7.692463779719219 0 7.692463779719219 101.66343769991363 0 0 0 0 -12.988036355568429 2.6305585380080982 0 2.6305585380080982 91.032829875102948 0 0 0 0 43.23402540964139 -12.535989322181194 0 -12.535989322181194 102.69156676577768 0 0 0 0 6.7684465471738804 -14.192016335406151 0 -14.192016335406151 124.2240895396244 0 0 0 0 -65.76744064563718 12.286568393146126 0 12.286568393146126 76.764143507581593 0 0 0 0 -6.0469092280644681 -26.354701231614733 0 -26.354701231614733 68.036880497851214 0 0 0 0 22.299711509613189 16.615392450861691 0 16.615392450861691 113.06971721046557 0 0 0 0 -4.2807053371006925 -19.157042071463181 0 -19.157042071463181 76.410139069289528 0 0 0 0 -10.179498720667766 -44.500309398842091 0 -44.500309398842091 139.58866563492847 0 0 0 0 1.4485467780584607 -10.354489972530327 0 -10.354489972530327 4.7463329092363722 0 0 0 0 10.360714617867529 -9.6171946570711953 0 -9.6171946570711953 74.091675159565057 0 0 0 0 -5.3990174782588838 14.78427686962641 0 14.78427686962641 92.696742780695786 0 0 0 0 43.314921907174266 24.085838626357599 0 24.085838626357599 28.46174560061263 0 0 0 0 102.02131088101987 -71.466878119778812 0 -71.466878119778812 75.317253312844883 0 0 0 0 -41.142598300531972 3.121170204709415 0 3.121170204709415 100.38390701934804 0 0 0 0 -10.27245794073273 -10.136919642672494 0 -10.136919642672494 35.454480630759733 0 0 0 0 -22.106554019013402 -9.9215972707854689 0 -9.9215972707854689 265.61530026337368 0 0 0 0 88.951329826489427 -4.0914339268714457 0 -4.0914339268714457 -23.478019819405745 0 0 0 0 -50.669366129696755 -138.14024950262797 0 -138.14024950262797 491.748403835305 0 0 0 0 -6.0897594610469241 86.581275128790367 0 86.581275128790367 247.37055065824552 0 0 0 0 -10.360326458758518 -15.817649007508052 0 -15.817649007508052 48.166719471912927 0 0 0 0 -10.341627897473018 -33.877804253221825 0 -33.877804253221825 193.019720989083 0 0 0 0 0.43952825640946713 -14.058809461983273 0 -14.058809461983273 40.235489225013744 0 0 0 0 -75.659403124549982 193.0919744037281 0 193.0919744037281 75.36362517221869 0 0 0 0 -48.933905501486151 1.8312387273726927 0 1.8312387273726927 137.56374397316358 0 0 0 0 -36.456430182365892 35.822701456577249 0 35.822701456577249 124.67040568532221 0 0 0 0 1.0299746077920169 1.9976784853223917 0 1.9976784853223917 -1.4715819170025703 0 0 0 0 -76.149468650897461 33.6098194743671 0 33.6098194743671 1.5284412371977396 0 0 0 0 -3.2483982750430553 2.8373226616553815 0 2.8373226616553815 12.502072268426058 0 0 0 0 -16.535531955435886 16.269860572603193 0 16.269860572603193 -12.569805311123332 0 0 0 0 -10.334877042865742 -4.6137917710192369 0 -4.6137917710192369 80.176479912052855 0 0 0 0 20.529068878944599 179.24405289215451 0 179.24405289215451 322.46268409733148 0 0 0 0 146.12574535436102 120.66849873888327 0 120.66849873888327 42.877224964242657 0 0 0 0 60.389723211243336 -136.8815227983207 0 -136.8815227983207 192.69148431599319 0 0 0 0 -0.8456591772346761 1.8706703365804858 0 1.8706703365804858 4.96067590225198 0 0 0 0 303.58411085235946 320.40987532977687 0 320.40987532977687 273.34400211833417 0 0 0 0 9.4741709567779253 276.62172447823923 0 276.62172447823923 567.93673315419414 0 0 0 0 -26.808610243513726 122.69781116695111 0 122.69781116695111 295.47927598221531 0 0 0 0 -33.489380052878914 -2.430164124134194 0 -2.430164124134194 33.94040629052688 0 0 0 0 5.181733603513976 135.97560351185186 0 135.97560351185186 224.89513373439172 0 0 0 0 -117.69955561841107 -17.250217296512403 0 -17.250217296512403 255.05795359952958 0 0 0 0 -31.090886669851518 56.48276732465547 0 56.48276732465547 146.391211426496 0 0 0 0 -169.19379281646616 107.2467580840846 0 107.2467580840846 268.50002433777365 0 0 0 0 -40.581112147062413 23.347930084477412 0 23.347930084477412 151.13650300301379 0 0 0 0 -35.84635633081416 12.331828691516421 0 12.331828691516421 176.71506229790975 0 0 0 0 -26.955206426184304 34.189968132606737 0 34.189968132606737 152.65661980410005 0 0 0 0 -18.549970929077972 19.836000301704189 0 19.836000301704189 174.05387933362363 0 0 0 0 29.758981071558082 -0.84983071914030006 0 -0.84983071914030006 177.40291489615629 0 0 0 0 -38.669878051794512 20.159776287895511 0 20.159776287895511 205.59131179201358 0 0 0 0 4.2731989412313851 -11.224656614744163 0 -11.224656614744163 216.8467555171228 0 0 0 0 -31.072720016603853 40.965945056821511 0 40.965945056821511 215.11676124911173 0 0 0 0 -73.458818062846149 27.459361418109438 0 27.459361418109438 224.53420061229554 0 0 0 0 -84.965179906075718 90.198972893580503 0 90.198972893580503 178.96228928829078 0 0 0 0 4.7110981590740266 -26.360014635662083 0 -26.360014635662083 270.80074785610395 0 0 0 0 -41.833256008190801 173.60446281000623 0 173.60446281000623 288.91437650116859 0 0 0 0 3.3827284938997764 -38.825797349771165 0 -38.825797349771165 386.99592654783919 0 0 0 0 60.13081732906403 17.61699852703714 0 17.61699852703714 279.54085982865945 0 0 0 0 53.835370086289913 -35.205540766568447 0 -35.205540766568447 231.53255330469528 0 0 0 0 55.580343262488896 -23.199498594010947 0 -23.199498594010947 268.13332406970221 0 0 0 0 63.36846130347476 10.371754319763568 0 10.371754319763568 237.52848818374332 0 0 0 0 76.01024598789445 -57.30326720888479 0 -57.30326720888479 266.48506015922089 0 0 0 0 24.326925140572712 -46.363764561174321 0 -46.363764561174321 359.00880816554854 0 0 0 0 10.901655446903533 -95.172582230450644 0 -95.172582230450644 264.78464889511815 0 0 0 0 69.523948352660227 -39.138265638750454 0 -39.138265638750454 217.18175725518086 0 0 0 0 73.991224773093563 -44.128794946023845 0 -44.128794946023845 220.11520212670803 0 0 0 0 20.508851345035509 -2.3696563973062439 0 -2.3696563973062439 206.29926824882568 0 0 0 0 64.510141602931981 -18.495214160030628 0 -18.495214160030628 198.17219426362863 0 0 0 0 29.347277593471517 -29.399341609416297 0 -29.399341609416297 209.49172223060214 0 0 0 0 61.909434963461536 -50.098101939071057 0 -50.098101939071057 201.27459103384899 0 0 0 0 87.473247600916693 -32.44519552253405 0 -32.44519552253405 209.70977265777037 0 0 0 0 129.40131030656812 -48.695564820500294 0 -48.695564820500294 198.04019649487236 0 0 0 0 230.10630119263851 17.820180609450404 0 17.820180609450404 249.99772613136884 0 0 0 0 93.296073695157247 -52.662718132087321 0 -52.662718132087321 213.84037290010747 0 0 0 0 48.907481084241226 -11.753505944654535 0 -11.753505944654535 291.4234373194995 0 0 0 0 7.9032644526196236 -10.021260442576022 0 -10.021260442576022 291.49046219335287 0 0 0 0 15.093431875146052 -68.495903079932759 0 -68.495903079932759 197.23924360208912 0 0 0 0 -3.8864207593105675 -61.241518664930481 0 -61.241518664930481 326.25605782163802 0 0 0 0 35.411848231884505 44.831240820210951 0 44.831240820210951 357.82153941833531 0 0 0 0 41.444905742113406 222.75216642597297 0 222.75216642597297 471.70471933903173 0 0 0 0 -26.577859830080342 -157.78723813921169 0 -157.78723813921169 64.572145393485698 0 0 0 0 5.6246039880576291 0.70926167234358672 0 0.70926167234358672 -3.993737736679833 0 0 0 0 -23.939985416627678 12.930056066135876 0 12.930056066135876 111.46087146321952 0 0 0 0 -68.672073128090346 0.53301714978078962 0 0.53301714978078962 149.3379814937507 0 0 0 0 15.502739378243859 -33.798993214251823 0 -33.798993214251823 166.73503637616159 0 0 0 0 33.726049519960725 -6.1562350759286346 0 -6.1562350759286346 208.66155378097028 0 0 0 0 52.318621178530478 89.350478824275342 0 89.350478824275342 245.11447203182615 0 0 0 0 42.991607469538764 81.040524597272452 0 81.040524597272452 246.28593388141235 0 0 0 0 22.202311611127811 78.145101713009353 0 78.145101713009353 246.00190843489145 0 0 0 0 52.414941965001006 59.969319787451241 0 59.969319787451241 229.01225771869031 0 0 0 0 46.675576278032779 58.62315175322874 0 58.62315175322874 369.51580069777265 0 0 0 0 -5.7188948614788728 -95.424367686857295 0 -95.424367686857295 128.25155018411169 0 0 0 0 82.524556435467133 57.562268071866129 0 57.562268071866129 228.10473593768984 0 0 0 0 99.682172142230911 62.29715768621827 0 62.29715768621827 187.51044868266035 0 0 0 0 136.59014370505759 47.025209227447704 0 47.025209227447704 -6.4994324443832738 0 0 0 0 97.374994095886819 139.67838594030763 0 139.67838594030763 236.31258704968786 0 0 0 0 90.294722086016421 161.66070220492838 0 161.66070220492838 299.70338185745641 0 0 0 0 129.48426388976509 149.2145468100498 0 149.2145468100498 136.73008616988227 0 0 0 0 55.559014889330498 112.69005474204823 0 112.69005474204823 230.81152958454913 0 0 0 0 42.529600851489178 135.12227483500101 0 135.12227483500101 309.39201278897235 0 0 0 0 0.02723207122769053 91.355292864576768 0 91.355292864576768 265.39252549568482 0 0 0 0 0.050160026793639539 119.87933099684597 0 119.87933099684597 333.05890565437949 0 0 0 0 18.929959303828014 171.69706655185291 0 171.69706655185291 412.03199012238474 0 0 0 0 -1.095569393161071 176.23362150081084 0 176.23362150081084 485.3143673002196 0 0 0 0 -20.133568312584146 140.09599789389904 0 140.09599789389904 417.17995614965002 0 0 0 0 -0.084578740423590787 118.9770759489802 0 118.9770759489802 439.38985927942849 0 0 0 0 -50.037417252070071 41.421586179505539 0 41.421586179505539 379.3823870535889 0 0 0 0 -65.033504772049412 74.391916431164645 0 74.391916431164645 529.12005450361175 0 0 0 0 -0.05216082614604535 88.825104544957867 0 88.825104544957867 280.31633471726673 0 0 0 0 -21.313853781694775 82.081259966689686 0 82.081259966689686 398.60478883801261 0 0 0 0 0.9111366307104305 -5.7560228674478822 0 -5.7560228674478822 304.88089735922404 0 0 0 0 -53.978418050623077 25.155345805840625 0 25.155345805840625 317.04576099767291 0 0 0 0 1.7788253913435028 18.824513825900794 0 18.824513825900794 315.26386914421164 0 0 0 0 -9.2375733692745143 -203.13413642020896 0 -203.13413642020896 710.95909484998265 0 0 0 0 184.97292080740931 396.75637119423482 0 396.75637119423482 766.38643806373011 0 0 0 0 2.6889459156255953 171.62219653700595 0 171.62219653700595 489.35677571889391 0 0 0 0 35.480705140685075 172.14253185419511 0 172.14253185419511 297.74166448435062 0 0 0 0 87.417043502603974 273.44834863652432 0 273.44834863652432 468.18706153152016 0 0 0 0 252.44632021662215 229.5469938925562 0 229.5469938925562 204.58314451240585 0 0 0 0 123.13160704536187 110.0491085107933 0 110.0491085107933 386.52563204456237 0 0 0 0 238.2795364763187 222.46134661517863 0 222.46134661517863 194.21209434638149 0 0 0 0 -54.274300765074784 32.370030622754712 0 32.370030622754712 406.09402587714794 0 0 0 0 273.6472008128016 -52.786713056312692 0 -52.786713056312692 428.20046397656552 0 0 0 0 338.20200917373626 -6.8301891814235205 0 -6.8301891814235205 718.29697700563702 0 0 0 0 244.59743146264844 295.89313791480527 0 295.89313791480527 493.52219414564024 0 0 0 0 625.17928799860942 734.06000917500933 0 734.06000917500933 982.35864821089126 0 0 0 0 0.842259485525231 -1.9723234378141683 0 -1.9723234378141683 4.5481367784932729 0 0 0 0 187.50885061630015 353.79162722120964 0 353.79162722120964 1119.4276694181608 0 0 0 0 467.25791803476534 139.1620748869027 0 139.1620748869027 441.37513264438894 0 0 0 0 0.71449475976902921 -6.2285493496661388 0 -6.2285493496661388 12.345118760787443 0 0 0 0 -252.06098950784462 157.40538576361723 0 157.40538576361723 220.7939197550586 0 0 0 0 671.4960757095298 820.17341093187861 0 820.17341093187861 845.91062724823132 0 0 0 0 0.90543983775903047 -0.052671797880265103 0 -0.052671797880265103 -0.67328358706654967 0 0 0 0 344.23949240374122 484.13504415644275 0 484.13504415644275 817.32037010343629 0 0 0 0 453.8660828303473 13.165566361014498 0 13.165566361014498 -9.8119215894985246 0 0 0 0 -9.214758598589313 -189.38044456194757 0 -189.38044456194757 71.912003404126153 0 0 0 0 -128.50386578219013 159.17262461934297 0 159.17262461934297 270.33132737323467 0 0 0 0 9.9744778896084938 64.359988509839241 0 64.359988509839241 73.770684535324108 0 0 0 0 -203.32293610888132 421.31419500579977 0 421.31419500579977 -31.213313866101089 0 0 0 0 -131.11473013133082 183.24201233356143 0 183.24201233356143 443.575573219332 0 0 0 0 279.01427499366014 660.66991290955048 0 660.66991290955048 231.30475948406092 0 0 0 0 336.8808725354836 321.3074757098293 0 321.3074757098293 640.11188408728776 0 0 0 0 375.71371030560664 335.11500873228579 0 335.11500873228579 191.11835991768748 0 0 0 0 845.80938046384802 450.81375634277356 0 450.81375634277356 404.42289210575109 0 0 0 0 514.14506793700514 459.79541621149838 0 459.79541621149838 535.97679688650533 0 0 0 0 -108.11447933419657 176.47410339221278 0 176.47410339221278 122.71595023864938 0 0 0 0 -70.357060976604544 11.172346140308946 0 11.172346140308946 432.27965906531244 0 0 0 0 -293.53919261227486 -164.25273987975743 0 -164.25273987975743 268.50687088636914 0 0 0 0 -153.34495875599669 54.157218534783169 0 54.157218534783169 482.60902371419797 0 0 0 0 285.79349852222822 100.10711661932146 0 100.10711661932146 570.10523306761752 0 0 0 0 256.73743973421358 -18.174815120350104 0 -18.174815120350104 190.47358599846484 0 0 0 0 169.83845206989625 -78.019156904820193 0 -78.019156904820193 37.994177486689296 0 0 0 0 0.017425398664645986 -1.0142226479593148 0 -1.0142226479593148 2.6016737046790581 0 0 0 0 4.7589496013627013 -236.88319423461508 0 -236.88319423461508 186.83611187160568 0 0 0 0 -72.410297078911583 5.9453071371642636 0 5.9453071371642636 157.84070745884674 0 0 0 0 -73.227159246221618 33.014891023685777 0 33.014891023685777 124.14980970737088 0 0 0 0 15.024122177608177 26.588317603207543 0 26.588317603207543 61.528139518661192 0 0 0 0 -1.9901880760600528 -0.96041913361261777 0 -0.96041913361261777 1.00140643581463 0 0 0 0 23.339416748573797 -9.9832717195422447 0 -9.9832717195422447 8.8733932051218289 0 0 0 0 -0.021926774184491293 -0.65060663244639727 0 -0.65060663244639727 1.1295400670276337 0 0 0 0 118.32474569799004 160.78715546382955 0 160.78715546382955 107.82366945961985 0 0 0 0 0.17381139133789292 -1.7729898507346036 0 -1.7729898507346036 4.6738175352122653 0 0 0 0 8.4729356155994573 19.706750591705713 0 19.706750591705713 86.033148689501104 0 0 0 0 -46.796588906789637 24.893156523576181 0 24.893156523576181 400.11203810551251 0 0 0 0 31.699521459977902 101.4708945197126 0 101.4708945197126 409.35925998419407 0 0 0 0 73.25837756605452 40.523923975273647 0 40.523923975273647 84.103925968421208 0 0 0 0 0.23443951411168273 -0.73938509431629029 0 -0.73938509431629029 2.342690332719485 0 0 0 0 -174.47500026450317 31.200324427169107 0 31.200324427169107 356.21438129043236 0 0 0 0 -166.38110416753693 16.41549638754077 0 16.41549638754077 210.99915797340509 0 0 0 0 28.190883781919226 113.86863610779983 0 113.86863610779983 187.05107744972338 0 0 0 0 -385.83319855905495 26.06370173709729 0 26.06370173709729 209.92896498496157 0 0 0 0 -314.13531651758944 -80.381793990512961 0 -80.381793990512961 178.62752493087373 0 0 0 0 -319.87739405175773 -48.144547756659449 0 -48.144547756659449 174.86646318814564 0 0 0 0 -368.61993218614566 -57.445590329094557 0 -57.445590329094557 243.00403597484546 0 0 0 0 -354.26811333278226 -59.098758399108192 0 -59.098758399108192 132.06703070015465 0 0 0 0 -427.99565336830585 9.2669078915969294 0 9.2669078915969294 235.86010841236566 0 0 0 0 -0.1370914423553084 -1.1792362848272502 0 -1.1792362848272502 2.3301124301896721 0 0 0 0 -489.30990940867196 -60.547520822805382 0 -60.547520822805382 156.93471308535663 0 0 0 0 -388.86628361552795 30.679196703458729 0 30.679196703458729 -17.112192201479047 0 0 0 0 -398.20402255911813 32.235832814891182 0 32.235832814891182 145.503072733095 0 0 0 0 -387.69774809082844 90.43524851831171 0 90.43524851831171 64.68327197337203 0 0 0 0 -0.60795192148997435 12.305703297798738 0 12.305703297798738 8.5234576264958832 0 0 0 0 -455.09361965786343 127.66479059997073 0 127.66479059997073 44.165015791717451 0 0 0 0 -0.73838146280214145 16.214898864599377 0 16.214898864599377 1.4361670003384006 0 0 0 0 -537.36375000712815 95.086658421925677 0 95.086658421925677 83.963957947547897 0 0 0 0 -429.54809480382073 46.968631046374867 0 46.968631046374867 104.30975281866267 0 0 0 0 -463.64826322268277 23.647973275405548 0 23.647973275405548 108.61001145311457 0 0 0 0 -368.16947746618882 12.819020880053358 0 12.819020880053358 91.688039462285815 0 0 0 0 -299.16112128720226 -149.8703150465808 0 -149.8703150465808 135.13238446798641 0 0 0 0 -1.0632215558254279 -0.32112121897500856 0 -0.32112121897500856 -0.042128855912565655 0 0 0 0 -190.9761324217109 56.338942539128766 0 56.338942539128766 142.40896318604064 0 0 0 0 -467.36501050523691 -87.920369324805506 0 -87.920369324805506 252.01926427299622 0 0 0 0 -679.71141604765785 97.033102835448517 0 97.033102835448517 199.54571486252826 0 0 0 0 -802.7497715071454 97.980067482378217 0 97.980067482378217 87.089913510208135 0 0 0 0 -513.18764735458694 105.15915450062676 0 105.15915450062676 33.573316690875799 0 0 0 0 -502.03326955469061 160.35198088181642 0 160.35198088181642 202.62984322886678 0 0 0 0 -617.27624672355205 -68.266696281498298 0 -68.266696281498298 144.20524640113581 0 0 0 0 -764.88823049235452 457.20460708456903 0 457.20460708456903 -123.60382157165441 0 0 0 0 -1523.0118918576536 586.46007479809487 0 586.46007479809487 89.849143284787715 0 0 0 0 -18.866321716438506 23.549336149524606 0 23.549336149524606 533.53332176187541 0 0 0 0 -1.284680826665757 17.525547938696448 0 17.525547938696448 56.683575411041943 0 0 0 0 -794.36040867727615 12.45040325177979 0 12.45040325177979 -276.26031677943683 0 0 0 0 147.48695358009468 -426.03866231298889 0 -426.03866231298889 686.32133665147558 0 0 0 0 122.80596848895209 -327.54150977715472 0 -327.54150977715472 873.37343247140234 0 0 0 0 310.97919054386784 -542.65560846513836 0 -542.65560846513836 673.18870840333693 0 0 0 0 134.52164247483438 -193.78688531338412 0 -193.78688531338412 643.65422589676018 0 0 0 0 -100.48384454713414 193.88878077347181 0 193.88878077347181 134.54365539852233 0 0 0 0 142.7787903524123 -398.76532514124665 0 -398.76532514124665 211.27970263986208 0 0 0 0 234.31702945170935 -274.2945036903111 0 -274.2945036903111 338.2623268856114 0 0 0 0 33.914921194889985 -78.696495235410111 0 -78.696495235410111 412.48458498773107 0 0 0 0 287.94979938096731 121.46465511781571 0 121.46465511781571 -136.13293166683434 0 0 0 0 8.6289353104197914 -137.9989015152305 0 -137.9989015152305 299.14293679277762 0 0 0 0 -0.37209514671194732 22.068366097264331 0 22.068366097264331 70.227091248977047 0 0 0 0 -889.57926877088948 393.89164347131373 0 393.89164347131373 62.783673159428872 0 0 0 0 -632.80119221371331 279.79245532513414 0 279.79245532513414 -62.496203025235445 0 0 0 0 -440.65508536752236 114.77790533108055 0 114.77790533108055 68.693890783419192 0 0 0 0 -0.63690931568076703 23.718542463791806 0 23.718542463791806 74.383510743252742 0 0 0 0 -76.686636607967102 195.23049005064968 0 195.23049005064968 11.585809905620408 0 0 0 0 -445.02433490796375 132.71397158818581 0 132.71397158818581 46.521533262330195 0 0 0 0 -311.80215686524082 -143.40838767868263 0 -143.40838767868263 260.75069707997318 0 0 0 0 -37.901075813991724 23.432260388319264 0 23.432260388319264 -60.089427083752526 0 0 0 0 106.38662367485438 3.5195315213350113 0 3.5195315213350113 150.76359808328561 0 0 0 0 115.4123036506308 55.451279101042928 0 55.451279101042928 63.521414456146886 0 0 0 0 -45.8591403436767 35.586999056031345 0 35.586999056031345 312.55273513652355 0 0 0 0 30.28375458554973 -121.16734388848636 0 -121.16734388848636 477.88986378617119 0 0 0 0 80.382288363215906 -250.28604225063282 0 -250.28604225063282 651.90951445735118 0 0 0 0 50.888061117644725 -192.16519490153587 0 -192.16519490153587 221.63157110561224 0 0 0 0 0.15796027266450696 -2.8709617710589255 0 -2.8709617710589255 0.078455810503072598 0 0 0 0 -90.609305835951147 6.8791529793252266 0 6.8791529793252266 330.30910944208154 0 0 0 0 132.41055564991086 -225.01850279641076 0 -225.01850279641076 367.0179926636647 0 0 0 0 122.22036189272529 -288.51446928087171 0 -288.51446928087171 740.62354974426853 0 0 0 0 218.62873794420443 -378.19723488017189 0 -378.19723488017189 606.901302300932 0 0 0 0 58.354336530310206 -196.57715012529661 0 -196.57715012529661 546.26782638324948 0 0 0 0 149.6581380838212 -381.61023830994236 0 -381.61023830994236 542.91332220755612 0 0 0 0 131.48046695710414 -350.28462534657774 0 -350.28462534657774 651.21808871383837 0 0 0 0 252.50401303027587 -432.14369714016357 0 -432.14369714016357 663.73568491008336 0 0 0 0 171.39842150227867 -510.77224176693198 0 -510.77224176693198 1116.8264009491686 0 0 0 0 0.80394334167027204 1.7222687690097871 0 1.7222687690097871 3.031305004129436 0 0 0 0 -22.741744183709216 -240.10310211835895 0 -240.10310211835895 55.355800499295583 0 0 0 0 152.19864338605291 -326.06477116834503 0 -326.06477116834503 869.733384682826 0 0 0 0 271.99969777347854 -276.28081152696541 0 -276.28081152696541 966.47723514730751 0 0 0 0 293.31511531753847 -458.72029139442748 0 -458.72029139442748 874.40597138626617 0 0 0 0 182.32801590318593 -354.10693954458839 0 -354.10693954458839 1036.7898122238621 0 0 0 0 222.27212011180009 -457.9048455330485 0 -457.9048455330485 772.7493806253915 0 0 0 0 32.215631096783 22.303166590460307 0 22.303166590460307 12.178575479451794 0 0 0 0 69.981108848340227 186.20459170461254 0 186.20459170461254 -205.83250860108819 0 0 0 0 -111.31577964155076 97.051682179873751 0 97.051682179873751 -123.20508056713152 0 0 0 0 -12.630686915566912 25.459615892796137 0 25.459615892796137 -71.30357372565777 0 0 0 0 -48.102636320390957 9.2816248881717911 0 9.2816248881717911 -75.805787939243601 0 0 0 0 167.6301646400434 194.07843069307273 0 194.07843069307273 456.5713677018648 0 0 0 0 28.41522722468882 21.056365211026502 0 21.056365211026502 11.569302132530268 0 0 0 0 -53.871832443941457 67.073884609126253 0 67.073884609126253 74.384335254236248 0 0 0 0 -22.880883109717615 75.84645756235841 0 75.84645756235841 55.416700964861775 0 0 0 0 215.87756666466294 -584.08788386790548 0 -584.08788386790548 202.9055735091606 0 0 0 0 -57.527841180878625 -404.54468737735442 0 -404.54468737735442 630.58863485499751 0 0 0 0 358.47846480131028 -365.26003048286293 0 -365.26003048286293 519.51424098821008 0 0 0 0 196.28362684441097 -499.05838759270591 0 -499.05838759270591 786.41967029159423 0 0 0 0 203.92316381540707 -572.31218738853204 0 -572.31218738853204 629.78881733887101 0 0 0 0 184.73601187463311 -373.66473683535696 0 -373.66473683535696 586.8831312230468 0 0 0 0 307.87081095770435 -56.619856572477147 0 -56.619856572477147 300.23051688351552 0 0 0 0 370.17896591701106 -86.730624239804456 0 -86.730624239804456 193.93357609248778 0 0 0 0 252.64338581072343 -215.45165491261287 0 -215.45165491261287 588.53888732558698 0 0 0 0 761.26468742432371 -27.212297019905236 0 -27.212297019905236 657.6344734699087 0 0 0 0 695.92154131607185 -607.83667939034058 0 -607.83667939034058 693.24883320530353 0 0 0 0 86.925419834650484 -500.1933183811052 0 -500.1933183811052 1355.2397587252271 0 0 0 0 48.320678057495684 -268.53149105842022 0 -268.53149105842022 651.40182091270253 0 0 0 0 229.66655922191489 43.169950082150535 0 43.169950082150535 63.859954319326789 0 0 0 0 154.50901676152603 179.68559503825963 0 179.68559503825963 429.0788255947009 0 0 0 0 0.86332190495836159 -2.0419061312401414 0 -2.0419061312401414 9.5730263813271961 0 0 0 0 159.32717563446738 318.47095748751963 0 318.47095748751963 819.93491342612106 0 0 0 0 745.80614725886676 -631.0322154394853 0 -631.0322154394853 433.61351998562168 0 0 0 0 276.63874661346398 -94.356173666151562 0 -94.356173666151562 33.12051803637587 0 0 0 0 -8.7567622830147229 -80.452422951540939 0 -80.452422951540939 153.35704589356828 0 0 0 0 71.570328747821748 -9.428817173362404 0 -9.428817173362404 52.904226722719613 0 0 0 0 0.37199553363688376 -6.1128649704361067 0 -6.1128649704361067 24.781976358413431 0 0 0 0 -2.3798477979603474 -3.5216639762530946 0 -3.5216639762530946 4.6864806468414884 0 0 0 0 -0.48815435217968828 -2.1777673288326973 0 -2.1777673288326973 42.927141730713629 0 0 0 0 -11.677490781589313 -49.801074343602522 0 -49.801074343602522 -60.810022501835192 0 0 0 0 -1.1446201573400256 0.37490618124425623 0 0.37490618124425623 6.0596173429330946 0 0 0 0 124.44965207101995 4.4127127293977537 0 4.4127127293977537 19.302360835688887 0 0 0 0 67.393019432414349 18.346799916427699 0 18.346799916427699 27.686774252237228 0 0 0 0 96.029033099594926 21.476896067746566 0 21.476896067746566 16.881140529862023 0 0 0 0 96.35990727857552 17.229054569485015 0 17.229054569485015 36.571196689874341 0 0 0 0 147.01325039548647 -20.971124495088588 0 -20.971124495088588 60.396317133796401 0 0 0 0 96.28985851743937 7.2023093873140169 0 7.2023093873140169 46.263081067154417 0 0 0 0 109.70084828135077 -14.084022377675865 0 -14.084022377675865 42.582521495864057 0 0 0 0 151.10833272365107 23.341310654752306 0 23.341310654752306 -14.422736643668031 0 0 0 0 87.028951914867775 12.452788263821276 0 12.452788263821276 31.102777264837641 0 0 0 0 112.55097308232735 6.2198755196150159 0 6.2198755196150159 24.008521294090315 0 0 0 0 97.629367370513677 13.373149226059468 0 13.373149226059468 24.031493200804107 0 0 0 0 88.266488349615599 37.615380286381878 0 37.615380286381878 21.354588804970263 0 0 0 0 103.69537073957963 3.8992453944520094 0 3.8992453944520094 31.845270236721262 0 0 0 0 134.66170267817256 -41.642238684318727 0 -41.642238684318727 54.601259462704547 0 0 0 0 118.17951880423561 10.006786446319893 0 10.006786446319893 31.590643044823082 0 0 0 0 106.67099384832602 -6.3337621776736341 0 -6.3337621776736341 28.750511007790919 0 0 0 0 133.69193944046947 -12.45673728013935 0 -12.45673728013935 29.077167051831566 0 0 0 0 94.243078964554343 -31.485980837351235 0 -31.485980837351235 58.39726705630892 0 0 0 0 202.77042640593879 9.8820899963211559 0 9.8820899963211559 29.777692078205291 0 0 0 0 70.182520119490277 31.779641380882822 0 31.779641380882822 55.674668007923174 0 0 0 0 143.42938388600982 91.264568148679245 0 91.264568148679245 103.89708169565711 0 0 0 0 41.808755695948165 118.38321216654549 0 118.38321216654549 74.482545717575704 0 0 0 0 -44.947416279315917 71.45904779763805 0 71.45904779763805 73.001214693780639 0 0 0 0 115.79131313132999 57.366755897270195 0 57.366755897270195 29.870264020661125 0 0 0 0 -269.64607990893961 89.553883126413439 0 89.553883126413439 102.24772216197744 0 0 0 0 -43.218827232999956 86.683441976820177 0 86.683441976820177 5.3311703287763521 0 0 0 0 -107.78384783641934 130.02842903742567 0 130.02842903742567 50.369441061455291 0 0 0 0 16.973287577289014 171.38831891430618 0 171.38831891430618 -16.756236336339498 0 0 0 0 -0.66211498076473307 19.835582105820762 0 19.835582105820762 68.596805557807443 0 0 0 0 -104.27947203744884 61.979294531840424 0 61.979294531840424 66.700790371905896 0 0 0 0 26.650094256746002 30.965090238692937 0 30.965090238692937 29.909666701394599 0 0 0 0 40.975074439928221 47.066420383329387 0 47.066420383329387 36.016561328069656 0 0 0 0 -9.2358824683649345 104.25300014612003 0 104.25300014612003 35.442507938380004 0 0 0 0 -7.6245828091828116 62.325361079900176 0 62.325361079900176 38.142204990930622 0 0 0 0 48.288427066768463 47.430250635821722 0 47.430250635821722 13.621635751791473 0 0 0 0 43.2761732672991 44.319964139998774 0 44.319964139998774 28.652246819430729 0 0 0 0 1.3459118999348119 22.804362537017667 0 22.804362537017667 67.724815130125933 0 0 0 0 32.90704812828767 39.301761939117569 0 39.301761939117569 6.2515019289276097 0 0 0 0 -39.187004293875361 92.001596598216565 0 92.001596598216565 26.325513705382036 0 0 0 0 -46.931043109266227 61.107126139058892 0 61.107126139058892 66.570656449941453 0 0 0 0 -24.247490824969049 30.58356193194777 0 30.58356193194777 -10.498023664287757 0 0 0 0 -98.576903221183898 -65.285768764093518 0 -65.285768764093518 22.147448145686212 0 0 0 0 -61.652886331598665 130.82114874637045 0 130.82114874637045 261.39092696814623 0 0 0 0 326.50500640756536 189.96187951015008 0 189.96187951015008 40.489842908325954 0 0 0 0 -69.569967086376892 78.188802754346398 0 78.188802754346398 -45.187816964215017 0 0 0 0 -160.81626819280325 261.26955088794693 0 261.26955088794693 121.85539949980739 0 0 0 0 60.318058221923025 43.641099900221889 0 43.641099900221889 35.659339657213422 0 0 0 0 13.090700603836012 2.0766938558299444 0 2.0766938558299444 37.709397588942011 0 0 0 0 0.43629346401723701 -5.2668044173452628 0 -5.2668044173452628 49.179991610844326 0 0 0 0 -219.79053766737252 -64.507429960827722 0 -64.507429960827722 165.19751936234752 0 0 0 0 -59.439395320945209 -75.307608397288277 0 -75.307608397288277 -9.5518209188303445 0 0 0 0 -8.5923486649782035 -119.67685769674972 0 -119.67685769674972 22.18227990604646 0 0 0 0 63.747179221151555 -8.7078865765870432 0 -8.7078865765870432 59.1525972886011 0 0 0 0 27.280478146958558 32.12418633303605 0 32.12418633303605 45.475148076380719 0 0 0 0 -188.80985571055743 23.07410896892543 0 23.07410896892543 152.07044866159413 0 0 0 0 -68.370332985961909 71.804966704570688 0 71.804966704570688 76.230359936213063 0 0 0 0 -3.0441525184873144 10.406551000715556 0 10.406551000715556 72.604800689707986 0 0 0 0 -6.3902027650178184 50.379360906810689 0 50.379360906810689 -1.9920336493669311 0 0 0 0 -11.959321778321625 3.0081737257396099 0 3.0081737257396099 70.23905585810661 0 0 0 0 -128.19010946779213 140.9829600088342 0 140.9829600088342 131.14591745497 0 0 0 0 -209.68088578994241 -3.4652911696539377 0 -3.4652911696539377 168.86924172964063 0 0 0 0 -80.66125040563702 -0.64447058814084812 0 -0.64447058814084812 44.735015110010863 0 0 0 0 -2.5808093088012369 8.3526794485151346 0 8.3526794485151346 58.600156326791819 0 0 0 0 -21.567819445302234 44.907037537133874 0 44.907037537133874 55.640848908004045 0 0 0 0 -195.56727471790913 80.12424153732718 0 80.12424153732718 103.8526024340099 0 0 0 0 -2.0035065297575834 15.431888457179497 0 15.431888457179497 75.076413846361049 0 0 0 0 -158.23737181613666 -30.411456377931245 0 -30.411456377931245 96.263942168676294 0 0 0 0 -71.587768406981752 6.5160744129898376 0 6.5160744129898376 83.78250012366334 0 0 0 0 -58.837971260695497 -48.699983592217905 0 -48.699983592217905 172.760242460874 0 0 0 0 -42.209513202291618 -65.46843462830293 0 -65.46843462830293 108.47122630491504 0 0 0 0 9.7782162627898828 -69.716793610583409 0 -69.716793610583409 108.71363571002439 0 0 0 0 -25.3587713063216 0.010557955622061854 0 0.010557955622061854 97.924151477054693 0 0 0 0 -86.716550891226007 -17.450352506697527 0 -17.450352506697527 105.36676915082353 0 0 0 0 -65.213264270196973 107.28908667731594 0 107.28908667731594 181.19320333472569 0 0 0 0 150.05779996589069 -63.98753853161179 0 -63.98753853161179 118.04665611812379 0 0 0 0 -44.630062300106658 -166.7567846644306 0 -166.7567846644306 162.78069014108041 0 0 0 0 -36.418780311947188 -53.815744273579185 0 -53.815744273579185 152.23448220285354 0 0 0 0 -20.046331675184433 -101.23653477155312 0 -101.23653477155312 284.86371482725372 0 0 0 0 -69.127911789390055 4.230003775912337 0 4.230003775912337 292.24902793796264 0 0 0 0 -58.451953544586743 13.525536269789882 0 13.525536269789882 193.65104780581896 0 0 0 0 -1.5598192376551308 -1.1804910191431759 0 -1.1804910191431759 10.558389012129389 0 0 0 0 -15.507142324085518 -5.0860665779347016 0 -5.0860665779347016 17.976909381734984 0 0 0 0 29.460733186848341 -78.400830047617092 0 -78.400830047617092 233.59887649636948 0 0 0 0 -155.8047342786499 -130.30119155894499 0 -130.30119155894499 225.15947676461656 0 0 0 0 30.356940213773044 54.026641862881661 0 54.026641862881661 126.92208509708871 0 0 0 0 16.616757377594134 -2.3802836579125142 0 -2.3802836579125142 11.238144338203711 0 0 0 0 -12.060489444856755 -41.586633238526701 0 -41.586633238526701 13.360109894623747 0 0 0 0 -0.78924012740812377 -6.5876246177621951 0 -6.5876246177621951 1.5146962764155205 0 0 0 0 137.4078869649253 -116.80572755276808 0 -116.80572755276808 37.885250361141516 0 0 0 0 -171.26238467963083 -101.12501217956014 0 -101.12501217956014 145.84928028020659 0 0 0 0 -25.048190169923373 -9.5980488307832275 0 -9.5980488307832275 66.160687871772097 0 0 0 0 -14.861080782978661 -14.383238500849984 0 -14.383238500849984 66.078484634315828 0 0 0 0 -7.0758639154372815 -9.0677708266850843 0 -9.0677708266850843 77.647427224145787 0 0 0 0 -18.163087308984359 -3.1653580781712662 0 -3.1653580781712662 70.027682671359798 0 0 0 0 -44.05264514501755 14.627918805685113 0 14.627918805685113 59.544676568970317 0 0 0 0 -10.109679002155046 7.944200526745135 0 7.944200526745135 53.193701396077643 0 0 0 0 -18.899691222743968 -0.35019631750037661 0 -0.35019631750037661 59.2765636141703 0 0 0 0 -2.9573053787053141 -5.0876688226417173 0 -5.0876688226417173 59.706290574640661 0 0 0 0 -87.232579113526299 -79.12352352077869 0 -79.12352352077869 -83.317031019498245 0 0 0 0 -9.0694634776258756 -7.2739995723804753 0 -7.2739995723804753 12.007820149313858 0 0 0 0 63.206755348915976 -197.51324049600225 0 -197.51324049600225 8.5797324741724879 0 0 0 0 -128.68158521564874 -38.216730776184704 0 -38.216730776184704 311.12089578082669 0 0 0 0 -355.2351537425991 134.34373199414486 0 134.34373199414486 370.3525743408245 0 0 0 0 -355.84251817832046 3.8030553423304809 0 3.8030553423304809 399.82929004370817 0 0 0 0 0.94187214159563437 -12.096529869444574 0 -12.096529869444574 -2.3005610996164592 0 0 0 0 488.12854656312265 -553.70968476403505 0 -553.70968476403505 715.49485894397367 0 0 0 0 -111.54108035590548 -155.53620570661496 0 -155.53620570661496 363.19272249125061 0 0 0 0 -24.975172346727049 -78.184352732350817 0 -78.184352732350817 -219.90387068293967 0 0 0 0 115.03959161939019 -391.42752918918995 0 -391.42752918918995 -248.3481912783609 0 0 0 0 -246.74972026599244 -167.29910488652968 0 -167.29910488652968 40.739160374025232 0 0 0 0 86.619821501824845 -238.78850402330499 0 -238.78850402330499 6.7638427832425805 0 0 0 0 -79.302953223024815 -113.16939874982381 0 -113.16939874982381 160.48976239749754 0 0 0 0 -50.283986997009379 -165.12239587111071 0 -165.12239587111071 40.716518547284068 0 0 0 0 200.54392943657695 -110.00599962986598 0 -110.00599962986598 -99.089248369524284 0 0 0 0 129.31800838902882 -318.73800358578956 0 -318.73800358578956 297.85411182949611 0 0 0 0 90.516662470730807 80.510225377016468 0 80.510225377016468 578.10124300679308 0 0 0 0 -174.41518874513349 -169.03738347209946 0 -169.03738347209946 486.69891505989654 0 0 0 0 206.36002105166244 -139.67757297693606 0 -139.67757297693606 135.87611356043635 0 0 0 0 -126.28964028361105 23.956498490796093 0 23.956498490796093 109.89314193143946 0 0 0 0 175.3467413461176 218.23049896455632 0 218.23049896455632 226.05978697561295 0 0 0 0 141.12405370235592 -55.197934390565933 0 -55.197934390565933 91.362027506555023 0 0 0 0 4.6331740676901667 -2.7625641439906303 0 -2.7625641439906303 13.024648344515739 0 0 0 0 -439.24816881153242 -189.46464562957408 0 -189.46464562957408 156.85896084328124 0 0 0 0 -125.49215799138074 22.958162152539444 0 22.958162152539444 -24.476502466161037 0 0 0 0 -241.20222166978965 -20.36483866078197 0 -20.36483866078197 28.377504526288249 0 0 0 0 -484.13995284934117 -19.502320798230357 0 -19.502320798230357 292.46496255864622 0 0 0 0 -248.25451174392219 -30.016890502218303 0 -30.016890502218303 224.97848737004097 0 0 0 0 -417.78819879399975 -166.33049878518796 0 -166.33049878518796 98.22794278152287 0 0 0 0 -0.72554859253950443 1.9638073785266776 0 1.9638073785266776 76.427088977199048 0 0 0 0 -71.944809627785617 -80.912188390741903 0 -80.912188390741903 -182.33173114896636 0 0 0 0 0.2406255279774463 -1.3162761005440657 0 -1.3162761005440657 3.8034471795579634 0 0 0 0 -303.95518930919116 22.611640565399284 0 22.611640565399284 406.93639340095979 0 0 0 0 -5.1707690991390347 -1.5103019629191259 0 -1.5103019629191259 92.946770106548513 0 0 0 0 -232.02007908880751 -166.56229761112627 0 -166.56229761112627 42.191320120720775 0 0 0 0 -199.88329700776012 -236.72710936045769 0 -236.72710936045769 185.17200624219913 0 0 0 0 -237.64716225065786 -182.19700753466896 0 -182.19700753466896 106.45401995778593 0 0 0 0 -229.03423142782594 -177.3030903591316 0 -177.3030903591316 65.932441998505965 0 0 0 0 -215.04283234676041 -192.49978162568004 0 -192.49978162568004 65.239672660681208 0 0 0 0 -177.50350487881224 -24.97241924633272 0 -24.97241924633272 307.54379646290181 0 0 0 0 -7.0354895199901719 -2.5457429513145087 0 -2.5457429513145087 28.944435585504536 0 0 0 0 -23.94065184211783 -46.406325065318214 0 -46.406325065318214 7.7148645829360802 0 0 0 0 -164.90324185259669 123.77962364745326 0 123.77962364745326 139.73719531542156 0 0 0 0 -184.42914835201009 -164.16516306436824 0 -164.16516306436824 -72.286089289238589 0 0 0 0 -186.66646720263998 -212.52101055484673 0 -212.52101055484673 -43.927759278973099 0 0 0 0 -217.63153568635244 -161.74296363118265 0 -161.74296363118265 -32.402114951357362 0 0 0 0 87.968039328142027 -96.278740604413542 0 -96.278740604413542 135.47814957074297 0 0 0 0 -23.212722426828133 -18.538346518225065 0 -18.538346518225065 94.36294415887096 0 0 0 0 43.286421403807253 89.415728080515692 0 89.415728080515692 -142.33553033136559 0 0 0 0 137.93021522649587 -91.712349950168573 0 -91.712349950168573 -79.326824737334391 0 0 0 0 -45.762666135755353 -76.638318328463356 0 -76.638318328463356 347.17469808226451 0 0 0 0 -126.10039244669952 20.786745881254319 0 20.786745881254319 19.730406047405268 0 0 0 0 -56.324570883958586 9.1262657318002312 0 9.1262657318002312 21.677913919666025 0 0 0 0 -453.73120127267748 182.47164197125676 0 182.47164197125676 103.03650678872509 0 0 0 0 -138.64508257368152 71.571455195007729 0 71.571455195007729 -126.02085460806848 0 0 0 0 -222.39745858743163 62.976646733543021 0 62.976646733543021 156.95064014021773 0 0 0 0 -324.83926456068139 192.137717535501 0 192.137717535501 239.80359525606036 0 0 0 0 115.8633726585972 326.5286232115759 0 326.5286232115759 237.89743230559179 0 0 0 0 -184.42409014471104 112.84738525524153 0 112.84738525524153 469.24665036182705 0 0 0 0 -178.61361999864675 163.98884624287894 0 163.98884624287894 255.73106353923504 0 0 0 0 -34.680222550713552 119.6301486891789 0 119.6301486891789 119.8840055456094 0 0 0 0 -278.67566664433025 48.585858084392385 0 48.585858084392385 102.70451454522481 0 0 0 0 -297.69865394348199 42.288100600235339 0 42.288100600235339 111.5944565649952 0 0 0 0 -0.53648107654633037 -1.9933173059371114 0 -1.9933173059371114 10.754730922056524 0 0 0 0 -303.83674926392592 -9.2265539709469522 0 -9.2265539709469522 280.13363112938532 0 0 0 0 -337.98224172487971 80.778184755894472 0 80.778184755894472 187.30108076814577 0 0 0 0 -313.7885910982327 -5.51878976343869 0 -5.51878976343869 212.76682609119598 0 0 0 0 -328.10695712825941 91.942863250542359 0 91.942863250542359 199.88378540895792 0 0 0 0 -2.2678533606099718 -0.41186774163178086 0 -0.41186774163178086 1.0991813778193205 0 0 0 0 -530.1949176832394 171.39510965834688 0 171.39510965834688 16.475773594662314 0 0 0 0 -514.20654621693893 96.722761202174297 0 96.722761202174297 182.49261257924809 0 0 0 0 -419.72184000573588 56.657542539051065 0 56.657542539051065 195.31310751248384 0 0 0 0 -446.5561275843728 20.719961104456161 0 20.719961104456161 25.900267663673731 0 0 0 0 -507.24449876887786 -9.5481840083748466 0 -9.5481840083748466 96.856617572979303 0 0 0 0 -363.85734063426798 99.973859552108479 0 99.973859552108479 22.868988065893063 0 0 0 0 -283.55918776220528 56.775457863339398 0 56.775457863339398 -187.22061738801131 0 0 0 0 -539.59427727605566 127.09649759098102 0 127.09649759098102 113.66006988937443 0 0 0 0 -598.18681873199841 -200.11461626118762 0 -200.11461626118762 249.86754287727672 0 0 0 0 -799.84636956416284 -24.354895283395308 0 -24.354895283395308 28.402205556332774 0 0 0 0 -446.90175330818602 316.70912638438676 0 316.70912638438676 -254.53003020053438 0 0 0 0 -5.5185309971378693 -0.81745749683753388 0 -0.81745749683753388 -2.9562992236171368 0 0 0 0 130.46439653487474 -1.1953496382448066 0 -1.1953496382448066 113.71261416541529 0 0 0 0 -132.13770985039628 200.09334091765049 0 200.09334091765049 353.77882305069943 0 0 0 0 -172.71294706392439 -66.808288304222515 0 -66.808288304222515 155.77280872582924 0 0 0 0 -30.627585054915048 -62.401565571438368 0 -62.401565571438368 95.721426662435988 0 0 0 0 -44.427415191877515 -8.3440546081692446 0 -8.3440546081692446 213.70833591411065 0 0 0 0 -130.43669606260022 -220.78801773903979 0 -220.78801773903979 152.86496316119883 0 0 0 0 -275.87391700798111 -74.538813452072645 0 -74.538813452072645 182.89785291071166 0 0 0 0 -271.17740685889254 -47.121702013349932 0 -47.121702013349932 200.78668390218809 0 0 0 0 -79.52063704767474 -61.416822587438219 0 -61.416822587438219 161.51894598990475 0 0 0 0 -103.24640945770003 -128.76834379737556 0 -128.76834379737556 122.01686959054132 0 0 0 0 -88.712599310109084 51.194169834362583 0 51.194169834362583 207.78656241127464 0 0 0 0 -304.37695114050723 -90.78000468313985 0 -90.78000468313985 187.22505764881498 0 0 0 0 -301.71933621874126 -66.986474267396261 0 -66.986474267396261 197.38971344472884 0 0 0 0 -406.20131557836231 -54.624114192884008 0 -54.624114192884008 243.07431297943253 0 0 0 0 -343.81108865189537 18.9517321354042 0 18.9517321354042 161.82614842230396 0 0 0 0 -334.62593909254298 -13.157507649768377 0 -13.157507649768377 207.06382288470923 0 0 0 0 -34.637504119223053 -48.106210787896998 0 -48.106210787896998 70.674453345607617 0 0 0 0 -23.892752654633462 1.8482661464313423 0 1.8482661464313423 -0.083569766298751347 0 0 0 0 -32.641117368000607 14.240454505081289 0 14.240454505081289 8.6185587150030187 0 0 0 0 -122.64441519484086 28.201154505415616 0 28.201154505415616 16.338821230026952 0 0 0 0 -114.13778491290714 1.6893019123162958 0 1.6893019123162958 39.626127575167629 0 0 0 0 -191.69486412255176 -60.21210331057955 0 -60.21210331057955 194.6060229715913 0 0 0 0 -170.02487876031466 7.5413372407620045 0 7.5413372407620045 159.90368919652246 0 0 0 0 -89.394297950594876 -109.28367438791611 0 -109.28367438791611 302.66242556358702 0 0 0 0 0.13383244316841289 -0.098508870998411879 0 -0.098508870998411879 2.59829758301845 0 0 0 0 51.570900445646828 -92.831200939308474 0 -92.831200939308474 102.81915106414817 0 0 0 0 36.637024889493887 98.704031093519006 0 98.704031093519006 147.37195588921895 0 0 0 0 33.613297519294861 -40.745493547583465 0 -40.745493547583465 158.06625706495834 0 0 0 0 52.905250154033276 54.6556551366657 0 54.6556551366657 29.111321552991285 0 0 0 0 -3.7257774484421873 4.0808586282655597 0 4.0808586282655597 -8.9636531391879544 0 0 0 0 -0.52504326963050152 -0.042637365216236844 0 -0.042637365216236844 0.06938377634577364 0 0 0 0 -0.39698031461277783 -0.17194594868439594 0 -0.17194594868439594 -0.47968957196346196 0 0 0 0 17.205894072637477 2.2316350353357848 0 2.2316350353357848 -0.50916335492729559 0 0 0 0 -23.291272723444479 -21.82440043760289 0 -21.82440043760289 -2.1385318495813408 0 0 0 0 35.441063217717954 -31.031486840871366 0 -31.031486840871366 -20.587332325143507 0 0 0 0 -0.92162193382733903 -2.3535181257175282 0 -2.3535181257175282 -1.099046777409967 0 0 0 0 -25.124280238453899 16.358711135531848 0 16.358711135531848 -5.2592500491009559 0 0 0 0 -0.71406409947985749 -0.3369008479512754 0 -0.3369008479512754 6.7081737472173018 0 0 0 0 -1.8983184088321419 -2.0397695918432106 0 -2.0397695918432106 0.24913626954074175 0 0 0 0 -1.2126839497366291 1.0687058497351245 0 1.0687058497351245 3.4631095922377426 0 0 0 0 -1.0665692072292756 0.6944966436358726 0 0.6944966436358726 -0.41011009630085482 0 0 0 0 6.5740716502861005 -0.032442207157146186 0 -0.032442207157146186 -0.65001388505334035 0 0 0 0 -1.2055042811768755 5.5105029572218385 0 5.5105029572218385 6.0255606836581137 0 0 0 0 4.6318735077852011 1.1779586279080831 0 1.1779586279080831 -1.3910946152172983 0 0 0 0 -5.7549087897816946 4.5233263063546474 0 4.5233263063546474 10.182774519897066 0 0 0 0 -14.817306502660927 2.6589781927286822 0 2.6589781927286822 10.780609574139817 0 0 0 0 -2.9821583099110285 -1.3268868861341616 0 -1.3268868861341616 3.167520304908976 0 0 0 0 -7.4694822376508228 -1.9162695902195992 0 -1.9162695902195992 6.85110527688812 0 0 0 0 -0.7635531265540384 -1.3692781621138366 0 -1.3692781621138366 4.1701950588380328 0 0 0 0 -2.1482533550645488 -0.70174590066618237 0 -0.70174590066618237 4.1967196767958512 0 0 0 0 -7.3823931048925715 -1.1881443750025937 0 -1.1881443750025937 5.1705336279628682 0 0 0 0 -1.6958571788504611 -0.21756686590623531 0 -0.21756686590623531 2.612599283991841 0 0 0 0 -79.896581621985803 65.329150807447149 0 65.329150807447149 9.1157357041229261 0 0 0 0 -0.46578235379055816 -0.29696745228572752 0 -0.29696745228572752 0.25556421156096576 0 0 0 0 -0.33352779145619138 -13.761221736102016 0 -13.761221736102016 9.8821321416762657 0 0 0 0 -60.823935692371755 42.567490475521481 0 42.567490475521481 -6.8397277608455624 0 0 0 0 -25.872155501301336 10.433274371767766 0 10.433274371767766 7.1770470883820963 0 0 0 0 -19.71142670380738 36.257351831122833 0 36.257351831122833 -23.925207558568218 0 0 0 0 -3.8952828080800028 14.050433344423254 0 14.050433344423254 -16.723671495987219 0 0 0 0 -283.44383671114969 62.156653748931262 0 62.156653748931262 32.205601739216945 0 0 0 0 -86.211674634933331 38.792502802585659 0 38.792502802585659 -98.549853237855132 0 0 0 0 -108.08127006740847 -49.925409651703376 0 -49.925409651703376 -84.747826913564495 0 0 0 0 -103.10236015947658 -29.476345461895107 0 -29.476345461895107 -10.363778536669997 0 0 0 0 11.869491978454107 43.809831338279764 0 43.809831338279764 63.881590623466764 0 0 0 0 0.58216104642065147 8.6289783110405551 0 8.6289783110405551 44.542189195577521 0 0 0 0 -3.7849659776975892 -1.1540377497356928 0 -1.1540377497356928 1.532298676427132 0 0 0 0 -8.9296334766064263 -27.882080349521857 0 -27.882080349521857 -4.4535085396782961 0 0 0 0 19.646608059692269 15.211391275428468 0 15.211391275428468 11.298714786054916 0 0 0 0 -31.531549497974538 -31.55506942779175 0 -31.55506942779175 124.42580191771413 0 0 0 0 -38.157731684714804 35.138503797294106 0 35.138503797294106 232.76744140517258 0 0 0 0 7.1275100053771894 -108.22961029277212 0 -108.22961029277212 253.25960749830119 0 0 0 0 -102.52211438333916 -62.132550645736046 0 -62.132550645736046 262.69171509725402 0 0 0 0 -106.76999460521688 9.6985011229844531 0 9.6985011229844531 272.02864305544063 0 0 0 0 -58.402387277937464 37.361848282060237 0 37.361848282060237 282.18349524268706 0 0 0 0 -100.79070600425837 -34.905189265195077 0 -34.905189265195077 310.04051732855442 0 0 0 0 -52.092944050183405 -58.963873440938187 0 -58.963873440938187 298.46179821649093 0 0 0 0 -115.83624672828432 -74.388391742853855 0 -74.388391742853855 220.74385785978666 0 0 0 0 -36.774014508773035 50.17771246060147 0 50.17771246060147 608.16471268571331 0 0 0 0 -1.2783713881212861 22.240662178926868 0 22.240662178926868 528.24947168177459 0 0 0 0 69.342190404638529 -137.38494713354157 0 -137.38494713354157 589.02090279309414 0 0 0 0 -26.023292547474512 40.011128426107462 0 40.011128426107462 411.27097111743024 0 0 0 0 -8.7071984782044183 -88.342588178536971 0 -88.342588178536971 427.26019093753075 0 0 0 0 -40.194955997288162 -32.907018178932049 0 -32.907018178932049 347.08233711459616 0 0 0 0 -35.645228304415582 -5.5075200320352451 0 -5.5075200320352451 323.79054599360097 0 0 0 0 5.2120088183190774 73.369715233216994 0 73.369715233216994 259.00638026222441 0 0 0 0 6.0193171295181855 61.948368660836422 0 61.948368660836422 343.99516328436584 0 0 0 0 45.003398385031915 116.79180210238701 0 116.79180210238701 196.55496725863486 0 0 0 0 11.211416796533911 48.497812089255603 0 48.497812089255603 338.97164186926966 0 0 0 0 24.255336924625453 45.847968472087814 0 45.847968472087814 414.04278171062469 0 0 0 0 12.416454156287458 122.37260399854858 0 122.37260399854858 400.4288339985651 0 0 0 0 18.837457659224761 -29.420751405194096 0 -29.420751405194096 102.76732272180379 0 0 0 0 -31.396182355397428 86.429184937687751 0 86.429184937687751 210.79793543439882 0 0 0 0 22.119899724368452 65.511189284312422 0 65.511189284312422 125.71469831708964 0 0 0 0 -34.333584925096574 17.938246014803553 0 17.938246014803553 203.23229151837586 0 0 0 0 0.077892387144289199 -1.1528834802941397 0 -1.1528834802941397 0.4147196917778615 0 0 0 0 18.220761459798268 -23.089409877353319 0 -23.089409877353319 16.450737191342341 0 0 0 0 -21.1611191569814 24.496239904389313 0 24.496239904389313 7.0069230723020155 0 0 0 0 0.76629857398428758 -2.6890596900089747 0 -2.6890596900089747 5.1907281196619408 0 0 0 0 -14.524206708175825 -12.259047098763403 0 -12.259047098763403 6.9935157434665598 0 0 0 0 -9.0790990743807924 -3.2387229078158271 0 -3.2387229078158271 6.1073191656614654 0 0 0 0 17.080771390938708 15.970371394432732 0 15.970371394432732 1.7090152743039653 0 0 0 0 -0.68105377871761497 0.99601472203157471 0 0.99601472203157471 -0.29082303489752803 0 0 0 0 -2.224459379226893 4.4096816163009862 0 4.4096816163009862 0.11682861417648382 0 0 0 0 -123.11956526523512 41.145462365668209 0 41.145462365668209 45.614363337284885 0 0 0 0 -25.551069840506614 -28.248000028179376 0 -28.248000028179376 28.77889823843725 0 0 0 0 -0.3810856791600426 0.17200111096594384 0 0.17200111096594384 1.8244491962273059 0 0 0 0 0.17315595123853034 0.15937107688219498 0 0.15937107688219498 -0.47968451468125295 0 0 0 0 19.897039591759238 -150.98892941959639 0 -150.98892941959639 78.581790284210001 0 0 0 0 73.275110294505268 77.683035589945575 0 77.683035589945575 77.057734063186217 0 0 0 0 99.589668466789732 -108.13810875492163 0 -108.13810875492163 67.527453773087473 0 0 0 0 17.741893114562757 -19.710373773557876 0 -19.710373773557876 58.476569194303011 0 0 0 0 64.453419610721468 -11.825049468097859 0 -11.825049468097859 -61.788402320409659 0 0 0 0 31.13343659377697 54.092110431623041 0 54.092110431623041 -43.480807973595802 0 0 0 0 39.670470590394871 15.319439409810002 0 15.319439409810002 7.6391563533306908 0 0 0 0 -248.7398600493816 -23.179303696728311 0 -23.179303696728311 105.26294480760407 0 0 0 0 -0.54403102556631922 0.036369041861433971 0 0.036369041861433971 0.6839362907493296 0 0 0 0 1.6747027556834917 -3.5507081117729911 0 -3.5507081117729911 5.2961394576485645 0 0 0 0 129.19013139068579 148.01527515596536 0 148.01527515596536 55.988618190225679 0 0 0 0 78.920540169608898 264.6945471301442 0 264.6945471301442 468.43259406453581 0 0 0 0 92.982847388223021 183.95601639644519 0 183.95601639644519 930.93403278850019 0 0 0 0 247.74583240362767 50.365413514882675 0 50.365413514882675 -322.62182538365596 0 0 0 0 199.58270021524891 4.7406833346976782 0 4.7406833346976782 100.53421874676133 0 0 0 0 15.81429668415133 -129.29453777103117 0 -129.29453777103117 353.57819568231935 0 0 0 0 248.41510631869517 -215.88855912152212 0 -215.88855912152212 269.16053598774306 0 0 0 0 60.359545438113422 -462.39655821682754 0 -462.39655821682754 721.31234839308308 0 0 0 0 1.2754894936672934 -1.7090333777732525 0 -1.7090333777732525 2.6195735316466084 0 0 0 0 142.4938341756436 -318.83280161992298 0 -318.83280161992298 -1.9553148412087467 0 0 0 0 92.873698645364016 -357.88784174848115 0 -357.88784174848115 297.96101140235987 0 0 0 0 168.09370852997949 -188.72746485129755 0 -188.72746485129755 1031.5511872189745 0 0 0 0 135.10162043882326 -121.81798266072292 0 -121.81798266072292 997.71275092149153 0 0 0 0 376.1368150984398 -78.730077601816447 0 -78.730077601816447 904.47794425490429 0 0 0 0 241.04408416723768 -215.50927265154314 0 -215.50927265154314 847.55606957728742 0 0 0 0 437.56532355169929 -202.96044767430794 0 -202.96044767430794 808.78168695850763 0 0 0 0 118.75118461141629 -224.76107121279347 0 -224.76107121279347 810.26598835928598 0 0 0 0 241.46030379555964 -234.80513330014946 0 -234.80513330014946 710.68022659278358 0 0 0 0 53.787807070396923 -164.43679323778633 0 -164.43679323778633 765.89600909489673 0 0 0 0 -0.0065133579443283907 84.37016923489864 0 84.37016923489864 528.39068642098573 0 0 0 0 25.197928141095304 -28.203608092226204 0 -28.203608092226204 805.83286071458133 0 0 0 0 80.063090942657865 -29.699308795730758 0 -29.699308795730758 746.27025735843927 0 0 0 0 146.71484748207456 -476.95600078004372 0 -476.95600078004372 1318.7305392153357 0 0 0 0 4.4092423066757505 -169.9870098711217 0 -169.9870098711217 855.45767615586374 0 0 0 0 208.24700288122403 -142.2558568999666 0 -142.2558568999666 960.61443149702973 0 0 0 0 277.69246186789633 -159.15353040222544 0 -159.15353040222544 853.10648315622529 0 0 0 0 165.79589459013926 -336.51945771194005 0 -336.51945771194005 713.64855885003635 0 0 0 0 110.73407465252717 -245.75761723118194 0 -245.75761723118194 661.67124863973004 0 0 0 0 286.09164506921576 -421.47255598573975 0 -421.47255598573975 533.53007703645562 0 0 0 0 -0.90822060224516132 -49.765741337640065 0 -49.765741337640065 225.78529152277042 0 0 0 0 156.45157636555214 -64.087148232443724 0 -64.087148232443724 99.520685466719442 0 0 0 0 86.77402493102602 -249.94210739953269 0 -249.94210739953269 497.01166345362071 0 0 0 0 123.811830695368 -130.55389013541071 0 -130.55389013541071 126.27069495974865 0 0 0 0 105.77958456939002 -19.635441150188853 0 -19.635441150188853 9.9799976022186456 0 0 0 0 44.333756784046116 -33.738924529956421 0 -33.738924529956421 93.868278957270377 0 0 0 0 0.38135514490010936 7.6367786857335886 0 7.6367786857335886 55.096664401702583 0 0 0 0 64.082646991550746 52.698146473179804 0 52.698146473179804 79.995353761409206 0 0 0 0 59.798961013068414 15.138253668454126 0 15.138253668454126 1.4058543366845697 0 0 0 0 61.858557114850086 8.5116515753852582 0 8.5116515753852582 -15.421913237441913 0 0 0 0 -15.18204600273674 5.9679115830804221 0 5.9679115830804221 6.3710647784464527 0 0 0 0 -32.124924491273028 38.205720390636998 0 38.205720390636998 19.794987575420237 0 0 0 0 5.680132473965557 4.4405596751530538 0 4.4405596751530538 -1.075589037645841 0 0 0 0 -5.3667178477704169 -0.0021216425375314429 0 -0.0021216425375314429 0.73532664368394762 0 0 0 0 -8.3248432299967021 9.1580976808763808 0 9.1580976808763808 3.0696510647394462 0 0 0 0 5.6963915956703097 13.032508822955151 0 13.032508822955151 4.0360306408547331 0 0 0 0 0.061195081390303191 0.44977095088173513 0 0.44977095088173513 2.0569633839751305 0 0 0 0 113.14190624488131 134.21184086413268 0 134.21184086413268 91.190489766930114 0 0 0 0 0.099590550988209056 0.28007475596855969 0 0.28007475596855969 0.93931357317990205 0 0 0 0 -12.278300867316062 -28.053822211673832 0 -28.053822211673832 81.696020686511474 0 0 0 0 12.345454362031319 14.27954734681407 0 14.27954734681407 3.4743115745222894 0 0 0 0 71.832596659675275 145.05482574049483 0 145.05482574049483 199.03616014664294 0 0 0 0 43.21524637992988 49.750495131909702 0 49.750495131909702 226.42141794160125 0 0 0 0 19.086639265986491 80.449488510319497 0 80.449488510319497 247.05689933640315 0 0 0 0 21.202739593754217 96.761965109333687 0 96.761965109333687 192.07498953338654 0 0 0 0 0.029221576272890896 57.265705953279394 0 57.265705953279394 227.56663595030841 0 0 0 0 -0.054062595729945304 45.925020419396411 0 45.925020419396411 133.45763244814589 0 0 0 0 -0.02258909412375202 -0.17083585441650939 0 -0.17083585441650939 36.128148159048578 0 0 0 0 5.6869903016247445 3.4372164283267921 0 3.4372164283267921 21.96549550711643 0 0 0 0 -3.4864036066315633 -2.9408435965870936 0 -2.9408435965870936 47.009301996171473 0 0 0 0 -8.8539488731166891 9.7249618111491145 0 9.7249618111491145 25.527235681736784 0 0 0 0 15.63732546624442 -28.747644570976263 0 -28.747644570976263 43.43012779494893 0 0 0 0 -11.620675882429168 -37.896019193293796 0 -37.896019193293796 62.884988576668547 0 0 0 0 189.5338060647689 -496.47815297522175 0 -496.47815297522175 581.23561819737006 0 0 0 0 -0.12309943390765099 -0.13562272486819893 0 -0.13562272486819893 -0.90415718348251062 0 0 0 0 8.1360152209576881 -94.833509332202084 0 -94.833509332202084 -157.12451425378822 0 0 0 0 272.93400919692613 -385.2659883360393 0 -385.2659883360393 309.03450951454579 0 0 0 0 198.13660782125342 -273.76423946971772 0 -273.76423946971772 454.96773009301978 0 0 0 0 221.81307895082409 -201.46376631023304 0 -201.46376631023304 203.01804485367757 0 0 0 0 2.459680205832262 -4.3239450228252849 0 -4.3239450228252849 5.9515253968333468 0 0 0 0 332.18166686590871 -264.19453622942092 0 -264.19453622942092 220.6234983260947 0 0 0 0 267.33098219358652 -317.15194378476372 0 -317.15194378476372 238.11256683059037 0 0 0 0 381.97864640056582 -370.06804082094459 0 -370.06804082094459 206.51424862713611 0 0 0 0 308.69061476543408 -432.98756812559805 0 -432.98756812559805 272.03411320775922 0 0 0 0 365.6744735474432 -359.92904839014591 0 -359.92904839014591 208.60076568058867 0 0 0 0 492.79507544672992 -254.34064871216106 0 -254.34064871216106 103.91446165046364 0 0 0 0 533.60091623585413 -302.84979517555257 0 -302.84979517555257 156.54011552722659 0 0 0 0 -2.332811233449406 -3.7994294805037043 0 -3.7994294805037043 34.065149994246894 0 0 0 0 212.97372427797927 -167.64620218996424 0 -167.64620218996424 154.62740201229462 0 0 0 0 1.4003792076925721 -3.399489482098943 0 -3.399489482098943 8.4626336859457183 0 0 0 0 -3.7334485292643556 -18.78643272904992 0 -18.78643272904992 67.23693076489144 0 0 0 0 -2.515979749348547 -3.8814274163712383 0 -3.8814274163712383 26.238555107925094 0 0 0 0 0.033590710300288783 1.4491135617427062 0 1.4491135617427062 30.65426362407743 0 0 0 0 -4.4015742072973225 -3.2500718192677596 0 -3.2500718192677596 25.777710626163753 0 0 0 0 -0.011616599565990253 -2.3406071478093509 0 -2.3406071478093509 21.166210246970877 0 0 0 0 505.61972919573782 -297.52672280396655 0 -297.52672280396655 173.54339567826537 0 0 0 0 861.42006700084278 -428.76728805172388 0 -428.76728805172388 215.39967016226728 0 0 0 0 -1.4759037933552115 -4.0733825661100127 0 -4.0733825661100127 17.425242222059524 0 0 0 0 -0.28292126553375962 -4.3284927401837194 0 -4.3284927401837194 14.946996180515271 0 0 0 0 924.13973022773939 -501.45454280146078 0 -501.45454280146078 291.36457104452711 0 0 0 0 0.0061798455800196918 -2.7237959041194699 0 -2.7237959041194699 12.052727398346178 0 0 0 0 1938.0070683642721 -1126.4720410658701 0 -1126.4720410658701 671.74588167133334 0 0 0 0 0.65012966831638663 -2.9790973501381544 0 -2.9790973501381544 6.7848234548628739 0 0 0 0 784.179807066173 -489.35365571640432 0 -489.35365571640432 320.28501079142006 0 0 0 0 780.11051856967981 -686.75106289962673 0 -686.75106289962673 671.44054578174837 0 0 0 0 498.79255053436265 -433.00999481139206 0 -433.00999481139206 843.13470544430311 0 0 0 0 341.12639309281292 -341.66834536916576 0 -341.66834536916576 1061.5615323508609 0 0 0 0 575.83746977792362 -947.31108615151743 0 -947.31108615151743 1471.0733317240229 0 0 0 0 292.93582299914038 -321.91059513365326 0 -321.91059513365326 576.93335175973334 0 0 0 0 159.98028827959928 -305.61591905620116 0 -305.61591905620116 715.92252326071321 0 0 0 0 177.45862060046579 -185.1501008819323 0 -185.1501008819323 679.62042848904093 0 0 0 0 320.52893781606554 -259.90365681851108 0 -259.90365681851108 736.9914377011446 0 0 0 0 336.02048541838201 -425.52401474036742 0 -425.52401474036742 825.73574885289054 0 0 0 0 393.89475301858613 -368.07447322694497 0 -368.07447322694497 806.92311345822236 0 0 0 0 297.23155258269469 -467.68201750364824 0 -467.68201750364824 692.10410585709178 0 0 0 0 242.13327636098296 -342.57087475377921 0 -342.57087475377921 421.42495089879958 0 0 0 0 211.32827133876231 -385.44134218997351 0 -385.44134218997351 460.1447630579496 0 0 0 0 480.40853783860575 -453.0115505702779 0 -453.0115505702779 370.30418134058709 0 0 0 0 470.48771965499236 -446.9170424283875 0 -446.9170424283875 490.86753482266067 0 0 0 0 375.16953714808574 -428.88255911732267 0 -428.88255911732267 374.4435213434117 0 0 0 0 571.02212542662664 -417.00791158583525 0 -417.00791158583525 216.23457836497982 0 0 0 0 374.83481213430321 -456.11062961599919 0 -456.11062961599919 322.16300493721792 0 0 0 0 261.05545533659421 -398.21085818047868 0 -398.21085818047868 293.52064560456347 0 0 0 0 260.9305644424864 -396.05502361260733 0 -396.05502361260733 260.10753748597926 0 0 0 0 163.04732385690545 -399.49932712421287 0 -399.49932712421287 324.70292634842917 0 0 0 0 111.19785178708253 -334.30415920602172 0 -334.30415920602172 265.88622123807727 0 0 0 0 55.6684197557978 -278.98023650600953 0 -278.98023650600953 376.19558109959326 0 0 0 0 172.36485140466618 -335.31459533161251 0 -335.31459533161251 284.80510937312647 0 0 0 0 212.32439222768829 -396.567513102269 0 -396.567513102269 372.89344956858258 0 0 0 0 193.91265413895513 -377.79068254868616 0 -377.79068254868616 498.64142856572289 0 0 0 0 104.772323426855 -299.39066463500785 0 -299.39066463500785 431.99011675664588 0 0 0 0 104.79431851297561 -301.84528678881452 0 -301.84528678881452 378.196929287893 0 0 0 0 -11.873941536453913 -164.37589230693266 0 -164.37589230693266 389.68686602645175 0 0 0 0 67.932531066036347 -230.77119235251303 0 -230.77119235251303 487.34801183975651 0 0 0 0 8.8849236597399113 -150.36971690891733 0 -150.36971690891733 381.9000242434704 0 0 0 0 59.43622029132348 -229.49795408356295 0 -229.49795408356295 569.3646065749017 0 0 0 0 10.86518459323878 -69.472637028899044 0 -69.472637028899044 445.45291957622976 0 0 0 0 13.227795806032589 -129.36187078324292 0 -129.36187078324292 625.78330563074269 0 0 0 0 139.48027143178774 -243.31816577137215 0 -243.31816577137215 555.76961719014798 0 0 0 0 -30.386610214400662 -111.78995385921735 0 -111.78995385921735 254.42304328541286 0 0 0 0 -76.111541804731132 -154.92310811060452 0 -154.92310811060452 320.35255905366648 0 0 0 0 47.999670716645227 -232.66753731705467 0 -232.66753731705467 218.37535443813249 0 0 0 0 -86.051705834978804 -110.19532060344591 0 -110.19532060344591 153.02474972250639 0 0 0 0 -11.842492069271859 -205.79443176646879 0 -205.79443176646879 118.0324662507046 0 0 0 0 -83.233921106214893 -253.59427928677178 0 -253.59427928677178 188.57530004577711 0 0 0 0 -12.534715525511501 -242.01668460995279 0 -242.01668460995279 264.03522275997966 0 0 0 0 105.26605625701995 -352.18925299412513 0 -352.18925299412513 211.96503678786394 0 0 0 0 35.937331523451803 -316.76522204738285 0 -316.76522204738285 111.30170448258286 0 0 0 0 21.31640979746453 -318.92433080414412 0 -318.92433080414412 240.69931780367915 0 0 0 0 129.20637234526021 -380.24258482395817 0 -380.24258482395817 285.93415674636344 0 0 0 0 34.450665296972005 -399.3197823383598 0 -399.3197823383598 285.23387277357688 0 0 0 0 118.31606027822204 -391.57038060611376 0 -391.57038060611376 279.87869474742911 0 0 0 0 125.18431895851654 -386.47406818837771 0 -386.47406818837771 187.99060799465587 0 0 0 0 192.45511648172607 -407.67982192460897 0 -407.67982192460897 283.86304012288747 0 0 0 0 192.54445831325398 -410.40053441780037 0 -410.40053441780037 250.95778477568274 0 0 0 0 271.67781104399444 -391.4656488207911 0 -391.4656488207911 264.34697986398533 0 0 0 0 201.3000841981418 -407.18664293712936 0 -407.18664293712936 286.1248706865299 0 0 0 0 201.42274751212369 -406.54946459587518 0 -406.54946459587518 263.61104820305263 0 0 0 0 227.3486972701985 -502.26316837227932 0 -502.26316837227932 381.44231006476184 0 0 0 0 278.76068333591104 -372.8074041179716 0 -372.8074041179716 299.18851375027589 0 0 0 0 203.96318711364168 -433.25903818875304 0 -433.25903818875304 192.20035081540118 0 0 0 0 149.2203541781048 -367.58191004086984 0 -367.58191004086984 255.21459461935956 0 0 0 0 259.954332234106 -296.57818350839807 0 -296.57818350839807 268.46735755103145 0 0 0 0 198.54112863716591 -286.86523218492584 0 -286.86523218492584 380.17088742843771 0 0 0 0 55.782978107306008 -377.81071555989183 0 -377.81071555989183 339.58380693043728 0 0 0 0 190.43604511251164 -415.61130960589435 0 -415.61130960589435 311.11230305755453 0 0 0 0 116.47406530319518 -402.41363960650779 0 -402.41363960650779 317.87122128484043 0 0 0 0 0.44363000729309299 -1.4042123880898316 0 -1.4042123880898316 0.40720850706426859 0 0 0 0 161.02985382817224 -240.79333919533383 0 -240.79333919533383 835.97678434592672 0 0 0 0 183.64092162271618 -225.36361161190143 0 -225.36361161190143 398.15228863991069 0 0 0 0 105.95269721915247 -244.8184730044668 0 -244.8184730044668 451.90591953333933 0 0 0 0 172.98578289881902 -239.02251371588136 0 -239.02251371588136 297.80599691960379 0 0 0 0 208.97019469259521 -149.21867760469468 0 -149.21867760469468 471.0798559091927 0 0 0 0 173.81398428962439 -4.4531708471040474 0 -4.4531708471040474 516.10211001858625 0 0 0 0 171.55236252464783 1.6307382832455914 0 1.6307382832455914 513.22051759127316 0 0 0 0 115.80789911511238 -85.509939692667103 0 -85.509939692667103 541.29841026313079 0 0 0 0 72.806453723344021 89.943172640138073 0 89.943172640138073 590.58328005232033 0 0 0 0 86.039664972367518 -45.221186403534375 0 -45.221186403534375 893.05679028779559 0 0 0 0 497.53116724805841 204.60644161815071 0 204.60644161815071 454.08330213476438 0 0 0 0 154.57734562044516 249.41745320666814 0 249.41745320666814 859.66485820998787 0 0 0 0 -64.488880551011562 159.42353936088512 0 159.42353936088512 890.6057482733595 0 0 0 0 -121.11051194753509 23.146674952098692 0 23.146674952098692 899.06832724260403 0 0 0 0 -68.256415991171707 -71.538151180931891 0 -71.538151180931891 1068.2959842136406 0 0 0 0 -294.13514818748695 13.044055910821044 0 13.044055910821044 259.16674015206809 0 0 0 0 -2.2561936393067157 -0.79239861461311989 0 -0.79239861461311989 6.4071771706694989 0 0 0 0 126.91107891110914 -213.2157880536397 0 -213.2157880536397 381.12925296946196 0 0 0 0 -164.21900725558112 -101.04278517258172 0 -101.04278517258172 -26.434851272351807 0 0 0 0 0.24528669001804815 -1.5918294329837579 0 -1.5918294329837579 3.7336523255459042 0 0 0 0 -47.579512679740219 109.1711400002896 0 109.1711400002896 121.46091544515002 0 0 0 0 -239.79716650755699 -344.66239770202083 0 -344.66239770202083 66.984683962953568 0 0 0 0 -132.97238302388405 -229.82063660521089 0 -229.82063660521089 186.39247320256254 0 0 0 0 -29.746624268401774 -359.70946936499968 0 -359.70946936499968 162.1497458233498 0 0 0 0 311.4176193887406 -368.82310090628744 0 -368.82310090628744 -496.13563792740024 0 0 0 0 -72.225771284076473 -393.74062259831408 0 -393.74062259831408 358.02915768244566 0 0 0 0 65.29522488447742 -320.35931769898889 0 -320.35931769898889 191.5749881266529 0 0 0 0 -71.364619064296676 -382.91307083022548 0 -382.91307083022548 169.57809282387461 0 0 0 0 -132.89503558264551 -278.21785281030316 0 -278.21785281030316 110.72063667290058 0 0 0 0 -51.211350347920416 -243.65140154577966 0 -243.65140154577966 111.90836466174369 0 0 0 0 -208.98703363873256 -130.24767375382726 0 -130.24767375382726 -75.972726500156568 0 0 0 0 -290.20639386726845 -149.45421717469117 0 -149.45421717469117 -39.092475554483826 0 0 0 0 -295.15878276200374 -123.45693357307755 0 -123.45693357307755 117.80472135212767 0 0 0 0 -103.33915687472563 -180.07704802592343 0 -180.07704802592343 13.385862506969715 0 0 0 0 -162.43921587356317 -142.92964706444764 0 -142.92964706444764 212.14048978158098 0 0 0 0 -162.53531952286164 -117.50066875099515 0 -117.50066875099515 62.302846458012937 0 0 0 0 -291.79760623224604 -77.681345752494053 0 -77.681345752494053 40.270495824850514 0 0 0 0 -287.07804558995394 -43.54668754812883 0 -43.54668754812883 170.01156884735246 0 0 0 0 -332.18703735286363 37.69809067807364 0 37.69809067807364 128.13028156779183 0 0 0 0 -236.97060477706367 -18.730954126316647 0 -18.730954126316647 126.08130317264295 0 0 0 0 -228.40882551959157 -72.311592942467541 0 -72.311592942467541 264.6750054459917 0 0 0 0 -356.63563812776465 -56.373445011937292 0 -56.373445011937292 1.7033340964990202 0 0 0 0 -518.47988586694146 -106.97688422780629 0 -106.97688422780629 90.71105881051335 0 0 0 0 -411.50114257547648 -15.530107500278973 0 -15.530107500278973 27.01784873217548 0 0 0 0 -326.68015556518435 -87.552018560629222 0 -87.552018560629222 78.91782212229009 0 0 0 0 -0.68130088546106382 -2.4014060875811722 0 -2.4014060875811722 13.093188070617259 0 0 0 0 -120.83734481866986 33.654398007285636 0 33.654398007285636 52.523348079572315 0 0 0 0 -199.56373861283544 -8.8956666389140082 0 -8.8956666389140082 59.512673556440859 0 0 0 0 -553.15230392853027 -166.08048741950915 0 -166.08048741950915 65.410395422775764 0 0 0 0 -0.29507908568621932 -2.4566179347185724 0 -2.4566179347185724 10.455324910359991 0 0 0 0 100.63769010824035 69.828010551747866 0 69.828010551747866 14.800399161009409 0 0 0 0 -104.86165936160558 60.62736526493245 0 60.62736526493245 52.41169961803098 0 0 0 0 -1.4230206683763447 6.922353239971347 0 6.922353239971347 44.654720434369437 0 0 0 0 -22.821626957478202 49.429373421215132 0 49.429373421215132 13.712747992765799 0 0 0 0 -174.39072023296285 21.252173471359129 0 21.252173471359129 69.852749324440083 0 0 0 0 -57.605481756892914 67.209929138221923 0 67.209929138221923 39.334999818629512 0 0 0 0 -291.36667429718386 83.466930545967898 0 83.466930545967898 88.07352452930354 0 0 0 0 37.551725749165143 32.729454837037338 0 32.729454837037338 -78.307897147697076 0 0 0 0 -1.4036766396715361 4.6660002295083061 0 4.6660002295083061 59.622663545113653 0 0 0 0 60.61692907072802 -10.246490799068852 0 -10.246490799068852 69.3857818317083 0 0 0 0 -41.355670673397981 129.06781917911576 0 129.06781917911576 60.066779219865566 0 0 0 0 -56.787031337339613 101.73745235656679 0 101.73745235656679 89.604254535199289 0 0 0 0 51.573468523458814 74.462404214365961 0 74.462404214365961 34.526830855073058 0 0 0 0 39.397787147030101 10.847766371751732 0 10.847766371751732 122.21303427462408 0 0 0 0 -17.623094634061545 65.544365522484441 0 65.544365522484441 77.597732569192885 0 0 0 0 -13.842895313123336 76.852982836866431 0 76.852982836866431 96.195463504307554 0 0 0 0 57.475690471003873 254.59952755369886 0 254.59952755369886 117.34128734673141 0 0 0 0 -256.44067835055148 147.03258151285263 0 147.03258151285263 190.34875501249189 0 0 0 0 -109.90153163839091 125.64346569882764 0 125.64346569882764 92.469025227146631 0 0 0 0 -273.70484792081032 14.452578767542946 0 14.452578767542946 92.566863692889456 0 0 0 0 -623.30178045791672 35.016798589094833 0 35.016798589094833 364.51597236884118 0 0 0 0 -465.56165235087155 -89.294556596156326 0 -89.294556596156326 35.11093875511142 0 0 0 0 -0.074939248323868668 -6.1841306040193054 0 -6.1841306040193054 143.7012021224337 0 0 0 0 -53.395697964245301 11.408158195499709 0 11.408158195499709 223.47588036901288 0 0 0 0 -395.36554547937521 124.31089041367522 0 124.31089041367522 405.71932662698964 0 0 0 0 -237.68697061296996 209.32786925386972 0 209.32786925386972 412.64657183313102 0 0 0 0 3.7591034197830275 0.1542979296388296 0 0.1542979296388296 5.0318550408366178 0 0 0 0 -2.0804079404979348 25.374804984883667 0 25.374804984883667 9.2054798271492473 0 0 0 0 -1.4485236843341573 7.4768119321375686 0 7.4768119321375686 30.619312343176546 0 0 0 0 -49.490206380440213 2.1720491526466503 0 2.1720491526466503 48.850779293868982 0 0 0 0 0.83482547940896179 -0.48140950152097517 0 -0.48140950152097517 7.4016311838665843 0 0 0 0 197.5701549100213 421.89825347030092 0 421.89825347030092 359.87322636251338 0 0 0 0 235.86132221884873 363.81540053398203 0 363.81540053398203 439.24482455664111 0 0 0 0 -144.12668005126761 27.342402729744208 0 27.342402729744208 501.57213823405618 0 0 0 0 108.8884964515164 102.07113511270654 0 102.07113511270654 231.91325422177033 0 0 0 0 90.635088037252899 58.124775965952722 0 58.124775965952722 1100.3418863341285 0 0 0 0 598.12158236187588 553.32020355978239 0 553.32020355978239 491.30953252402105 0 0 0 0 451.08412842516373 -178.79089248297532 0 -178.79089248297532 342.10604176959896 0 0 0 0 164.48502984420549 -67.291574960123626 0 -67.291574960123626 353.74909205133736 0 0 0 0 -76.774907461134717 -207.71480903896736 0 -207.71480903896736 516.34051520875801 0 0 0 0 171.43775760363678 -222.68278650935099 0 -222.68278650935099 183.04664290166693 0 0 0 0 -127.3979452582671 -73.721875788185571 0 -73.721875788185571 165.30500703385042 0 0 0 0 -238.69374781813985 -231.20360631324365 0 -231.20360631324365 82.971754446902196 0 0 0 0 -512.31412123989503 1.4985055983052007 0 1.4985055983052007 -53.362712349335197 0 0 0 0 -593.06173005509299 -347.87392013658246 0 -347.87392013658246 137.50219598788681 0 0 0 0 -2.7726402509239207 2.4023861141391762 0 2.4023861141391762 13.707166452859163 0 0 0 0 -402.74870014793123 282.56831552716903 0 282.56831552716903 -132.06672020213227 0 0 0 0 -685.02820287095165 -260.28323982670554 0 -260.28323982670554 84.790629716182593 0 0 0 0 -8.6514743231607554 16.040780810641081 0 16.040780810641081 38.46142528031487 0 0 0 0 -5.3274084658720744 26.772438129564357 0 26.772438129564357 55.445627909070481 0 0 0 0 118.94794343629883 116.29640959852622 0 116.29640959852622 48.726706012123032 0 0 0 0 -12.089735873435213 -8.7344907202007676 0 -8.7344907202007676 35.62894832542915 0 0 0 0 -980.56091860089873 -203.3173755864409 0 -203.3173755864409 182.10558925746591 0 0 0 0 -912.28947342053107 -139.53721992160717 0 -139.53721992160717 206.77716308803065 0 0 0 0 -875.73124030403415 12.502001187691349 0 12.502001187691349 45.672131398134297 0 0 0 0 -4.1702795513996813 -3.7116018161815187 0 -3.7116018161815187 149.07320853999909 0 0 0 0 -623.34442346891228 -333.39660550891131 0 -333.39660550891131 24.151075552479597 0 0 0 0 -684.95947512493285 16.513368233236179 0 16.513368233236179 207.51655075605959 0 0 0 0 -520.9094713093607 -169.37498833906284 0 -169.37498833906284 205.42708475748077 0 0 0 0 -162.34504914917216 127.44307777309587 0 127.44307777309587 116.23074629250914 0 0 0 0 -410.35078093446828 -90.93235387140885 0 -90.93235387140885 240.15234522076207 0 0 0 0 -466.04482862578516 67.968895042067743 0 67.968895042067743 256.17744493250211 0 0 0 0 -495.61144265569055 -129.89270245295484 0 -129.89270245295484 -70.072611202092958 0 0 0 0 -205.19791726108633 -167.92752235218359 0 -167.92752235218359 247.61180193668406 0 0 0 0 -227.52647055757598 -226.68106602171429 0 -226.68106602171429 168.00654409344133 0 0 0 0 -143.39235427759832 -195.81245222986945 0 -195.81245222986945 81.015781693073222 0 0 0 0 -133.7386433851625 -238.0383870072983 0 -238.0383870072983 160.2304789640184 0 0 0 0 -127.94966992128684 -156.03898363673943 0 -156.03898363673943 142.11503017500218 0 0 0 0 -84.456585847308816 -118.25123539015476 0 -118.25123539015476 84.622601302937255 0 0 0 0 -48.844165585433075 -58.137119818980864 0 -58.137119818980864 109.9396015613238 0 0 0 0 -73.293198889368796 -77.779765896426397 0 -77.779765896426397 99.483681983270799 0 0 0 0 -179.65330238216484 -131.41390306928952 0 -131.41390306928952 162.74357470664836 0 0 0 0 -151.57615346317107 -46.823740617066505 0 -46.823740617066505 168.57791007582273 0 0 0 0 -311.6689621824753 37.14696271441062 0 37.14696271441062 332.39017516185413 0 0 0 0 -77.588373433030938 -3.646162332224776 0 -3.646162332224776 187.2164922449374 0 0 0 0 100.63853286552603 108.25034740217052 0 108.25034740217052 67.471771714277565 0 0 0 0 0.41091979709476423 10.475456778956872 0 10.475456778956872 2.7170175360200801 0 0 0 0 -124.10658197087605 85.589454206039591 0 85.589454206039591 -21.048449406633154 0 0 0 0 -780.0545166980819 101.54869983409299 0 101.54869983409299 225.88375052047195 0 0 0 0 -475.43862176479161 -56.786561644956237 0 -56.786561644956237 301.65293613925314 0 0 0 0 -274.96134858592086 -210.00554430970806 0 -210.00554430970806 186.40901357828989 0 0 0 0 -403.59141723738048 -193.58560271332863 0 -193.58560271332863 246.67941339791287 0 0 0 0 -119.74582258753981 -297.35673873705673 0 -297.35673873705673 209.26217879576143 0 0 0 0 -285.2773961853909 -243.01699494327841 0 -243.01699494327841 237.32863001340593 0 0 0 0 -108.46191912728864 -353.55693758965936 0 -353.55693758965936 229.7733048723494 0 0 0 0 -42.882472601215341 -199.95062861553015 0 -199.95062861553015 253.10236762535351 0 0 0 0 7.135525927753406 -278.54753228196932 0 -278.54753228196932 174.29691756027751 0 0 0 0 167.86076685835542 -204.06721359356015 0 -204.06721359356015 217.87418354723195 0 0 0 0 15.813814781257861 -150.87520598070842 0 -150.87520598070842 218.28769281589484 0 0 0 0 230.31144753132094 -9.2704131536193017 0 -9.2704131536193017 231.54420232413395 0 0 0 0 39.078810702321789 -75.699582742490747 0 -75.699582742490747 241.95136050909059 0 0 0 0 121.43677043283924 -153.0189454691681 0 -153.0189454691681 131.17802181071602 0 0 0 0 -60.790035585392616 -190.47545972372973 0 -190.47545972372973 135.77662279541255 0 0 0 0 -46.083470265895812 -166.31871606915229 0 -166.31871606915229 66.740408161087544 0 0 0 0 71.628938438329442 -72.612176433103741 0 -72.612176433103741 96.114905381895369 0 0 0 0 -89.533650419601145 -222.09292707008717 0 -222.09292707008717 157.45739442030026 0 0 0 0 -52.179126686074596 -257.08864051893761 0 -257.08864051893761 72.657833098550327 0 0 0 0 -118.75710029602396 -225.49988209780713 0 -225.49988209780713 82.747149341943441 0 0 0 0 -118.20524739332541 -246.22583242015389 0 -246.22583242015389 156.75047448272153 0 0 0 0 -108.46775012940844 -249.60181791616992 0 -249.60181791616992 59.172415524109965 0 0 0 0 -101.91744666458726 -198.65497582551325 0 -198.65497582551325 -5.5026806010719156 0 0 0 0 -106.80674150014596 -205.71093891500732 0 -205.71093891500732 33.14910567397601 0 0 0 0 -102.36652039346154 -251.56705672544194 0 -251.56705672544194 -12.724388395814458 0 0 0 0 -122.57470097372789 -234.38674123883538 0 -234.38674123883538 -139.66387804174155 0 0 0 0 -104.39430239293142 -188.51751063803385 0 -188.51751063803385 -97.944511519977823 0 0 0 0 -106.7816027466306 -181.86874897789676 0 -181.86874897789676 -215.47790510571213 0 0 0 0 -96.524858443553512 -236.83477078363103 0 -236.83477078363103 -51.59793034469476 0 0 0 0 -75.822369631325273 -177.92054335847206 0 -177.92054335847206 -140.95357854638132 0 0 0 0 -38.242065352234931 -137.49322426162689 0 -137.49322426162689 -45.945543394220294 0 0 0 0 -79.61598278724523 -149.45606152046457 0 -149.45606152046457 83.317956428101752 0 0 0 0 -91.158201060250803 -181.40250763861422 0 -181.40250763861422 -65.752463734010234 0 0 0 0 -86.584178881816115 -231.28038658741571 0 -231.28038658741571 35.581467145122588 0 0 0 0 -134.20597282965537 -229.05937968046055 0 -229.05937968046055 -79.998637916170992 0 0 0 0 -86.637249323697688 -197.91137358629203 0 -197.91137358629203 -210.03062340887845 0 0 0 0 -124.63738445805575 -188.18068289673829 0 -188.18068289673829 -51.541314229347336 0 0 0 0 -69.117538101427272 -211.2099135751414 0 -211.2099135751414 -215.62816283659777 0 0 0 0 19.393481218259694 -358.23408243859012 0 -358.23408243859012 -694.12312256759469 0 0 0 0 1.2001393506900264 0.55806544090944499 0 0.55806544090944499 -1.2843418489571548 0 0 0 0 -190.79067891089653 208.62087343001622 0 208.62087343001622 -358.01602048544737 0 0 0 0 -62.124799741475726 -283.71808351440995 0 -283.71808351440995 -367.11589153148998 0 0 0 0 -104.6664831762746 -209.29345581529469 0 -209.29345581529469 -214.69640487513971 0 0 0 0 -97.719835247502488 -272.08451197165414 0 -272.08451197165414 -412.45649861855782 0 0 0 0 -133.97132358168892 -175.85961473110365 0 -175.85961473110365 -212.76064629862594 0 0 0 0 -122.74361198369024 -251.96469850329777 0 -251.96469850329777 -287.49613169149961 0 0 0 0 -28.743982919932023 -133.78394567711803 0 -133.78394567711803 -603.58997050735343 0 0 0 0 -175.12073575855175 -412.43930598882434 0 -412.43930598882434 -350.97702365068835 0 0 0 0 19.859859565650432 -26.274251534276857 0 -26.274251534276857 13.160135803150823 0 0 0 0 77.366294793613633 -145.23671042220667 0 -145.23671042220667 14.324463082899456 0 0 0 0 -150.98001661886065 68.43129164435959 0 68.43129164435959 1251.9090398310991 0 0 0 0 -53.315908489836147 -196.91131548804697 0 -196.91131548804697 -323.05669778604351 0 0 0 0 -0.64886824328247883 -3.1507327542399821 0 -3.1507327542399821 9.9456054916798564 0 0 0 0 -27.067153794969272 -188.18148234061664 0 -188.18148234061664 -322.59995383048954 0 0 0 0 -76.80909231370606 -160.31724629062956 0 -160.31724629062956 -260.05072097346419 0 0 0 0 -91.089716460168347 -209.40362581760564 0 -209.40362581760564 -160.06423956440995 0 0 0 0 -70.40603490063404 -206.01253718075895 0 -206.01253718075895 -255.95606185551151 0 0 0 0 -163.01950079916787 -90.026985509961378 0 -90.026985509961378 -374.11196029585699 0 0 0 0 -139.77526500574822 -195.01965998401283 0 -195.01965998401283 -278.16144413752772 0 0 0 0 60.922114309534663 180.63900056525017 0 180.63900056525017 1241.2661891957832 0 0 0 0 -279.82741086902007 112.33143480875879 0 112.33143480875879 1383.6844998768793 0 0 0 0 -353.83882095500803 23.70400090343901 0 23.70400090343901 1414.7578420866193 0 0 0 0 -310.37810186604975 25.132602089710417 0 25.132602089710417 1457.8799805764902 0 0 0 0 -439.34696358479528 151.94976548162231 0 151.94976548162231 1436.691372479203 0 0 0 0 -15.317266588342591 169.71561574401858 0 169.71561574401858 792.1226864244527 0 0 0 0 65.965220432318802 -359.8667514914705 0 -359.8667514914705 1115.2811591466016 0 0 0 0 -351.41683607017671 80.161787875505979 0 80.161787875505979 2006.1098526260466 0 0 0 0 -1211.3440922460559 -570.38094080281735 0 -570.38094080281735 471.86011245962436 0 0 0 0 12.656595798718627 -115.78216815368796 0 -115.78216815368796 -122.14833397045732 0 0 0 0 27.11465374472602 -34.697331810970553 0 -34.697331810970553 24.035785719347558 0 0 0 0 -21.058527349308861 -123.48125661964878 0 -123.48125661964878 -280.69323212707241 0 0 0 0 -27.18176100236451 -127.63974464568309 0 -127.63974464568309 -116.64158403816691 0 0 0 0 -47.050292676675781 -88.392046722161467 0 -88.392046722161467 -148.28386959151248 0 0 0 0 -34.992553725744074 -156.23695347810281 0 -156.23695347810281 -166.90564197290223 0 0 0 0 -77.955420092141367 -197.94249254334227 0 -197.94249254334227 -76.324318100058008 0 0 0 0 -70.129641878491384 -166.02419585068128 0 -166.02419585068128 -29.872598691406893 0 0 0 0 -56.573724164809391 -178.51109252762399 0 -178.51109252762399 -45.420354588302871 0 0 0 0 -31.867854337930112 -126.07041222699627 0 -126.07041222699627 -50.755443563801236 0 0 0 0 -40.097865345785976 -125.36204777909734 0 -125.36204777909734 -10.760861942719202 0 0 0 0 16.778062413545968 -70.512046886659391 0 -70.512046886659391 -14.412185360997682 0 0 0 0 -35.253919798418792 -140.04121933348506 0 -140.04121933348506 21.91878959274618 0 0 0 0 -92.125546961218788 -167.66521009492863 0 -167.66521009492863 21.890390803164337 0 0 0 0 -95.10901297390501 -219.68601338526059 0 -219.68601338526059 3.164081773313228 0 0 0 0 -96.199179775743687 -184.70974308947916 0 -184.70974308947916 79.614943922453676 0 0 0 0 14.473836288889288 -54.238297823198081 0 -54.238297823198081 50.648426683124853 0 0 0 0 -70.386852288298542 -130.23111683411116 0 -130.23111683411116 73.967696156847524 0 0 0 0 -17.359341986277286 -92.89449743811565 0 -92.89449743811565 32.51835811912315 0 0 0 0 -19.028181716118979 -88.133434934214165 0 -88.133434934214165 19.650131762464298 0 0 0 0 31.102620870479953 -31.480174100822211 0 -31.480174100822211 15.770080309014546 0 0 0 0 1195.4414011193403 -52.318166553654009 0 -52.318166553654009 -482.20864849554346 0 0 0 0 -15.6571530247802 -74.694878807262285 0 -74.694878807262285 27.211719612561865 0 0 0 0 207.27090819049818 -492.7706764783361 0 -492.7706764783361 674.3194536689407 0 0 0 0 2119.7563813404986 428.07822544497321 0 428.07822544497321 395.54305540722271 0 0 0 0 123.87768893515204 -1111.343315507751 0 -1111.343315507751 796.48508382961882 0 0 0 0 -238.24037510366179 -1096.8580434359901 0 -1096.8580434359901 2291.7943962684658 0 0 0 0 -130.65478434058332 -266.93802222124941 0 -266.93802222124941 1520.2826749411179 0 0 0 0 131.82377153853304 -61.726891152269673 0 -61.726891152269673 470.33392233293853 0 0 0 0 -332.06990852208901 -165.34184326529066 0 -165.34184326529066 2517.4585969915352 0 0 0 0 -0.12223786788965274 -6.4633319506506659 0 -6.4633319506506659 5.965079324683245 0 0 0 0 261.29025730090098 -568.10285630015278 0 -568.10285630015278 642.4128389652833 0 0 0 0 -1618.7781936482493 -216.51033127517439 0 -216.51033127517439 -288.59834056935506 0 0 0 0 958.88764244199729 -1037.621188154706 0 -1037.621188154706 665.96128134304308 0 0 0 0 632.2568191875913 -1217.5560638199386 0 -1217.5560638199386 1580.2362771480693 0 0 0 0 -1595.4734628751851 57.691291620580159 0 57.691291620580159 2899.3056162342837 0 0 0 0 448.19508965900627 -898.43073935550638 0 -898.43073935550638 1202.500001199558 0 0 0 0 905.83529193435788 -899.54668336198665 0 -899.54668336198665 169.22620372749225 0 0 0 0 953.09661913436412 -961.73190443800195 0 -961.73190443800195 247.2924810458062 0 0 0 0 460.29340791500999 1222.9304952833772 0 1222.9304952833772 1945.1828997392804 0 0 0 0 -0.63402439843747427 -3.1166562868456751 0 -3.1166562868456751 15.43670222326864 0 0 0 0 -249.881656858339 406.74121345100866 0 406.74121345100866 1601.5267015123463 0 0 0 0 -377.02268567696842 101.08302222997008 0 101.08302222997008 1457.3892588864837 0 0 0 0 -386.00954898690895 148.03350793803565 0 148.03350793803565 1765.0487358994433 0 0 0 0 -451.78765406537832 488.51130640920019 0 488.51130640920019 3376.7102564450397 0 0 0 0 -302.22930028969824 445.46440656014602 0 445.46440656014602 2179.0732131723489 0 0 0 0 -255.75323553607484 348.61404126644265 0 348.61404126644265 1770.275123607571 0 0 0 0 512.83762045934418 864.72445461680036 0 864.72445461680036 1100.5003877596755 0 0 0 0 -260.16149061655938 344.77456446303404 0 344.77456446303404 1369.0436552952742 0 0 0 0 -159.48674198884964 366.39639506717504 0 366.39639506717504 1371.7096938130853 0 0 0 0 -0.10840011849990949 -10.786991817413686 0 -10.786991817413686 40.52704833544189 0 0 0 0 -268.5928037685095 -151.2496186239805 0 -151.2496186239805 374.76869565661764 0 0 0 0 -236.52342600327631 -399.09978439966653 0 -399.09978439966653 148.40375769861384 0 0 0 0 304.07817442747967 349.84761097556111 0 349.84761097556111 -131.98603198636556 0 0 0 0 128.97236913368005 501.75712287286296 0 501.75712287286296 1050.8033941507456 0 0 0 0 -642.8264232244876 -441.86223539497223 0 -441.86223539497223 -236.59162433827805 0 0 0 0 -507.36807078858459 -220.66992654222486 0 -220.66992654222486 57.894879367479007 0 0 0 0 -0.81345788316217593 -8.9155636221467862 0 -8.9155636221467862 13.852395889363777 0 0 0 0 619.31412357871545 -517.94436629205302 0 -517.94436629205302 -180.27502350671057 0 0 0 0 -1017.5926126452182 -665.81561912623511 0 -665.81561912623511 -99.884125806413067 0 0 0 0 -91.856024661243509 -342.6891926285025 0 -342.6891926285025 -725.74075895293936 0 0 0 0 -303.74164886560277 284.01572426642815 0 284.01572426642815 -306.0585566930655 0 0 0 0 -797.34896577420636 -614.73886406365455 0 -614.73886406365455 -290.60399658304959 0 0 0 0 488.04137043668027 -1085.2474859453941 0 -1085.2474859453941 1507.280757653054 0 0 0 0 -1325.8512854626058 -258.72509175749292 0 -258.72509175749292 3485.4344831827693 0 0 0 0 -1155.5782195572722 -624.5942532778281 0 -624.5942532778281 1865.1008924484486 0 0 0 0 -1707.4664272426824 527.4007066567242 0 527.4007066567242 1457.2553128083673 0 0 0 0 -0.96525158084636054 -4.3383343797130101 0 -4.3383343797130101 7.7595929741699763 0 0 0 0 -1222.5377353963195 -436.99675205531821 0 -436.99675205531821 3295.1527002362855 0 0 0 0 7.1729372780027081 -18.568453308456924 0 -18.568453308456924 -11.403643828305803 0 0 0 0 20.088702943471617 -46.225524934707209 0 -46.225524934707209 -147.22999695743783 0 0 0 0 904.37999688931359 -1893.3871263038782 0 -1893.3871263038782 3497.710797806496 0 0 0 0 -71.523611728719516 -171.05477414975394 0 -171.05477414975394 -95.902569559111726 0 0 0 0 1657.1571599751833 -2119.252179071249 0 -2119.252179071249 2679.7761254219804 0 0 0 0 1.3036247120496331 -18.260778781148929 0 -18.260778781148929 49.931452032767879 0 0 0 0 10.580358033554756 -19.626591058160983 0 -19.626591058160983 -18.970967824462946 0 0 0 0 37.312846150953987 1401.0484477562568 0 1401.0484477562568 -633.99069789820351 0 0 0 0 10.879233360382516 -37.771158318646485 0 -37.771158318646485 3488.9253870993698 0 0 0 0 3.9898870244963396 -11.526828819979016 0 -11.526828819979016 31.073417995618286 0 0 0 0 87.328834192928298 -200.71407763904426 0 -200.71407763904426 -95.202803624910302 0 0 0 0 -82.105301424594245 77.746634923023521 0 77.746634923023521 192.79448080190195 0 0 0 0 143.21953694293552 -47.556901444142568 0 -47.556901444142568 -147.69623104055336 0 0 0 0 1.124985580120665 -149.76222358557425 0 -149.76222358557425 205.57943194743712 0 0 0 0 60.078814644703925 -280.79551987654122 0 -280.79551987654122 960.89607421711844 0 0 0 0 -2.3196858346450426 59.976252102882427 0 59.976252102882427 760.45922539371531 0 0 0 0 242.65455542879045 -24.462781631562393 0 -24.462781631562393 232.43562115074019 0 0 0 0 -26.546572785956243 267.33670996236378 0 267.33670996236378 1257.0996030402603 0 0 0 0 37.030095016643827 -69.929991925164359 0 -69.929991925164359 866.78929886424157 0 0 0 0 48.519335236532413 178.89927265525034 0 178.89927265525034 1301.2889430623327 0 0 0 0 20.41260473559214 -117.98569722894172 0 -117.98569722894172 463.56786938087316 0 0 0 0 -30.742440819537478 279.53321821428835 0 279.53321821428835 784.38114145069267 0 0 0 0 89.303720669639006 281.69681498935461 0 281.69681498935461 171.90566285621026 0 0 0 0 -71.994725116194559 228.36913474707399 0 228.36913474707399 1030.410836529918 0 0 0 0 -157.08328282722846 338.5866403389191 0 338.5866403389191 1057.6863372265943 0 0 0 0 -161.77792348242019 214.55541728962271 0 214.55541728962271 1331.9030764644849 0 0 0 0 -48.658298991012089 98.089471992221661 0 98.089471992221661 1091.4578348341747 0 0 0 0 -132.71487705061941 281.87042803533404 0 281.87042803533404 1250.7169617195614 0 0 0 0 26.028912977575601 185.21825408561563 0 185.21825408561563 1307.5190137845493 0 0 0 0 215.33467926028334 224.49440391802636 0 224.49440391802636 1250.8845446919731 0 0 0 0 69.068880978607922 267.42691267804184 0 267.42691267804184 1367.5778043894679 0 0 0 0 -143.18916975103639 155.49047038657591 0 155.49047038657591 1314.0042838017689 0 0 0 0 -128.7584987757964 239.45176787980017 0 239.45176787980017 1407.2433027935622 0 0 0 0 -150.41398069100501 192.41443778097164 0 192.41443778097164 1401.5098752662598 0 0 0 0 -234.32212585937168 267.4981989795051 0 267.4981989795051 1340.0705174707473 0 0 0 0 -223.92517297663198 179.00934095450793 0 179.00934095450793 1399.4158610298473 0 0 0 0 -243.70223849191825 152.10131548759819 0 152.10131548759819 1407.0975742191222 0 0 0 0 -327.90980644421643 162.06053305372188 0 162.06053305372188 1531.1315066440438 0 0 0 0 -257.64619275379437 285.86574866226874 0 285.86574866226874 1527.5198732454155 0 0 0 0 -39.754203611410048 -576.83193996033515 0 -576.83193996033515 -181.40163784530523 0 0 0 0 8.7355649913571085 -17.569542514825969 0 -17.569542514825969 13.717768179472159 0 0 0 0 -98.898210751778606 272.98174871333322 0 272.98174871333322 2037.4231195681932 0 0 0 0 29.716519072861047 695.48848990917759 0 695.48848990917759 2042.4630769524811 0 0 0 0 69.399322348044734 456.11215009048465 0 456.11215009048465 1731.0962897779245 0 0 0 0 145.07953217858721 134.55937677384645 0 134.55937677384645 1320.7264430801006 0 0 0 0 72.792804729729141 213.1644429286971 0 213.1644429286971 1286.0665009593649 0 0 0 0 42.332825160177151 376.71787867531111 0 376.71787867531111 1480.9772744573711 0 0 0 0 492.89342871819736 543.45497309297571 0 543.45497309297571 1363.2465312023414 0 0 0 0 -342.47056108414108 -454.33737708070839 0 -454.33737708070839 -199.78347618388943 0 0 0 0 -187.72680443893478 94.270408453026903 0 94.270408453026903 -622.62046595403808 0 0 0 0 539.49981115862465 585.36500207747304 0 585.36500207747304 1642.9999133717938 0 0 0 0 64.831460484504532 56.050152422576502 0 56.050152422576502 1814.7297356545823 0 0 0 0 3.6175733212625882 -4.887278943873838 0 -4.887278943873838 4.5572172179119832 0 0 0 0 -157.71677368034875 870.34475765463503 0 870.34475765463503 3016.2582124340115 0 0 0 0 362.02276360421729 -798.0807595991937 0 -798.0807595991937 -1026.422382193083 0 0 0 0 161.40904784980012 -439.97200607974082 0 -439.97200607974082 45.59879839970381 0 0 0 0 397.46098630369852 -131.97791730929748 0 -131.97791730929748 -117.94535065555829 0 0 0 0 204.45650100454077 -353.59660372354847 0 -353.59660372354847 -1028.1386615959564 0 0 0 0 216.99401036377913 -1051.4725486148236 0 -1051.4725486148236 -287.49956276926969 0 0 0 0 -373.21258213641477 -27.594282457641384 0 -27.594282457641384 2588.1373804363393 0 0 0 0 1157.1082743282927 -1009.4119810971024 0 -1009.4119810971024 1953.9628376236942 0 0 0 0 967.88468165141512 273.46933532669209 0 273.46933532669209 961.36490593822964 0 0 0 0 4.5166512483936909 0.61910529426852179 0 0.61910529426852179 2.6277450280162213 0 0 0 0 331.90267923596252 -148.2343466885286 0 -148.2343466885286 33.525929156574421 0 0 0 0 -184.90307390735143 -602.54043326107058 0 -602.54043326107058 1442.1299422210404 0 0 0 0 10.344351288978114 -4.0040189767273944 0 -4.0040189767273944 -5.9532375474117885 0 0 0 0 97.926046403412101 283.83788772939079 0 283.83788772939079 -55.606453737949778 0 0 0 0 709.02683284443219 -1286.0588709951408 0 -1286.0588709951408 2703.8902725085281 0 0 0 0 716.66244153714911 -1411.7670748812195 0 -1411.7670748812195 2198.7279744633997 0 0 0 0 462.32548327988184 -986.9674032984658 0 -986.9674032984658 2879.8251206511923 0 0 0 0 372.64388865679274 -1338.4776898322307 0 -1338.4776898322307 3499.7748902891544 0 0 0 0 685.64965079125784 -1482.369343068407 0 -1482.369343068407 2735.4761609096731 0 0 0 0 -66.616677963968826 -211.23949014762547 0 -211.23949014762547 2767.4499164290537 0 0 0 0 71.575913900619781 -595.66106578822655 0 -595.66106578822655 3499.2380358138907 0 0 0 0 435.56490785871733 -691.36974922828085 0 -691.36974922828085 2539.8056038389477 0 0 0 0 610.42256981844264 -495.49256897574378 0 -495.49256897574378 2360.7512654173152 0 0 0 0 598.41503665856021 -372.95253032648907 0 -372.95253032648907 2147.2547728213758 0 0 0 0 316.86157718307084 -350.02783619862748 0 -350.02783619862748 2195.6086621229406 0 0 0 0 624.72828462345387 -532.15464584860456 0 -532.15464584860456 1525.2756322920031 0 0 0 0 1395.6523698791443 -496.62765497760847 0 -496.62765497760847 1938.2299031836592 0 0 0 0 759.92459299190705 -780.00879020913999 0 -780.00879020913999 1452.9156744604406 0 0 0 0 598.56922706514297 -290.03954246467765 0 -290.03954246467765 2101.1510964898334 0 0 0 0 912.22342488024128 -132.08815673584468 0 -132.08815673584468 1666.5008220988384 0 0 0 0 303.61005645582463 -676.04048580554081 0 -676.04048580554081 1339.4166961599331 0 0 0 0 622.7428634440264 -488.12987926428468 0 -488.12987926428468 1262.3409095472307 0 0 0 0 817.0145439719854 -748.30802337654313 0 -748.30802337654313 411.8638316981087 0 0 0 0 573.66449295570146 -241.90011813103047 0 -241.90011813103047 304.00458406041798 0 0 0 0 483.93717140364907 -530.8589711111581 0 -530.8589711111581 1242.2613524560584 0 0 0 0 508.98951102243751 -385.65132048104715 0 -385.65132048104715 1409.9831999928138 0 0 0 0 729.93748640248259 -637.19376733688841 0 -637.19376733688841 816.2167073355813 0 0 0 0 608.04558069761424 -458.62027453217888 0 -458.62027453217888 805.94873441538584 0 0 0 0 664.41081059402234 -414.54320886044297 0 -414.54320886044297 590.1502085729735 0 0 0 0 686.68406629248966 -337.92443086844287 0 -337.92443086844287 392.4981058423873 0 0 0 0 629.31052873121644 -284.81361927652324 0 -284.81361927652324 481.28862586579635 0 0 0 0 589.6192016679878 -137.72640238283941 0 -137.72640238283941 211.56304422253743 0 0 0 0 592.6290687546134 -286.01366755246352 0 -286.01366755246352 334.89424167686957 0 0 0 0 579.97411923324808 -159.97813358191343 0 -159.97813358191343 180.21145142938258 0 0 0 0 469.27336935350104 -52.937330215529073 0 -52.937330215529073 144.9278870128619 0 0 0 0 546.91233673687111 -148.50685487674127 0 -148.50685487674127 182.28624923971074 0 0 0 0 372.74513359921639 43.240819117469073 0 43.240819117469073 92.275727554108016 0 0 0 0 443.24165680218539 -58.591553838359687 0 -58.591553838359687 176.67718531214632 0 0 0 0 510.43479359719868 -24.438834320499154 0 -24.438834320499154 94.982041664829012 0 0 0 0 414.40383838938988 -59.558570041961502 0 -59.558570041961502 127.25601890527469 0 0 0 0 273.47183879851309 36.201159360491147 0 36.201159360491147 116.31421706760739 0 0 0 0 495.57121348100804 -60.201130438825203 0 -60.201130438825203 3.7968232633429579 0 0 0 0 524.30622690378823 -162.76303477837064 0 -162.76303477837064 184.78316257858387 0 0 0 0 618.38394235866372 -133.12311086625232 0 -133.12311086625232 164.06592721180641 0 0 0 0 757.50337848125287 -395.37250128642336 0 -395.37250128642336 294.70601317184628 0 0 0 0 566.09416775042064 -321.83819477548968 0 -321.83819477548968 5.7303285418020096 0 0 0 0 319.93525006126129 -86.718614811339648 0 -86.718614811339648 114.52415462856152 0 0 0 0 311.14122757223777 -39.262132894713432 0 -39.262132894713432 -141.461241414916 0 0 0 0 63.496680389685935 -171.36813619521854 0 -171.36813619521854 -16.153198731146404 0 0 0 0 91.945562470218192 -213.52212185331882 0 -213.52212185331882 -383.51950645440957 0 0 0 0 59.747703595485291 -72.793374598244554 0 -72.793374598244554 -121.19325083347212 0 0 0 0 35.138952486769995 -6.9610394731862471 0 -6.9610394731862471 70.587446729943622 0 0 0 0 -532.55187835759989 -127.80964480130206 0 -127.80964480130206 -221.91677765524946 0 0 0 0 -260.84220367307171 -27.136244214896578 0 -27.136244214896578 -105.48921452289505 0 0 0 0 -139.37118997064681 -255.24680237601569 0 -255.24680237601569 -180.97278744212235 0 0 0 0 -37.471052794200659 -182.1739989126072 0 -182.1739989126072 -146.51473533987155 0 0 0 0 -205.76388227546886 -217.4030145368888 0 -217.4030145368888 -113.12670670547232 0 0 0 0 -121.03889847863184 -149.46694127333831 0 -149.46694127333831 -4.8663766508398112 0 0 0 0 -107.17636655077649 -77.874071793234179 0 -77.874071793234179 45.834281374234706 0 0 0 0 107.40578781218028 -44.794125470783911 0 -44.794125470783911 3.0654463749597198 0 0 0 0 -7.953084394900543 -22.607410715761944 0 -22.607410715761944 125.82324770961714 0 0 0 0 38.874770656833789 -104.967839117322 0 -104.967839117322 -23.387639334912819 0 0 0 0 263.27681404391842 -23.419577583947103 0 -23.419577583947103 -4.8247230268170824 0 0 0 0 84.822199290524168 6.0432048449456488 0 6.0432048449456488 129.49891490269511 0 0 0 0 228.73560492006254 56.661949428053049 0 56.661949428053049 92.516791033747722 0 0 0 0 268.98680421656854 61.815563302972805 0 61.815563302972805 186.11206693256099 0 0 0 0 264.6112867288889 -7.5484399475790269 0 -7.5484399475790269 204.82994207067532 0 0 0 0 128.14980700513206 44.50018814404757 0 44.50018814404757 204.7841832937047 0 0 0 0 120.9336672537479 -58.325954688240017 0 -58.325954688240017 130.62411659263307 0 0 0 0 97.786090976954256 -115.15811481543642 0 -115.15811481543642 147.98887037315581 0 0 0 0 181.26265867235998 -40.873905970423948 0 -40.873905970423948 345.83842464484042 0 0 0 0 223.91165422428821 100.07853621186223 0 100.07853621186223 335.16703553574916 0 0 0 0 194.49755956623903 -30.205596403939126 0 -30.205596403939126 276.22981728573359 0 0 0 0 259.84054174538824 -29.142316439538263 0 -29.142316439538263 314.16475123894634 0 0 0 0 304.82508978170699 -3.8120334865307086 0 -3.8120334865307086 305.74922487909498 0 0 0 0 266.92611345777766 -58.329817136612292 0 -58.329817136612292 326.98937050391396 0 0 0 0 324.0346401387859 -133.38817426408878 0 -133.38817426408878 226.43852367263753 0 0 0 0 338.2633655882787 -73.664032312502968 0 -73.664032312502968 285.85485519190115 0 0 0 0 415.67286365778045 -135.30605856338661 0 -135.30605856338661 216.1148836199136 0 0 0 0 406.58952797140881 -115.68289036588794 0 -115.68289036588794 187.67830261474592 0 0 0 0 434.36320318800938 -41.211773848443045 0 -41.211773848443045 163.64229645639716 0 0 0 0 308.4357078480698 -12.838449087386834 0 -12.838449087386834 217.12229996901442 0 0 0 0 315.32730795115833 -321.8434685678094 0 -321.8434685678094 150.99509794199548 0 0 0 0 382.47357673532474 -258.70509651015891 0 -258.70509651015891 166.56164537157929 0 0 0 0 401.07683626689095 -230.63025781713077 0 -230.63025781713077 201.69186707788322 0 0 0 0 356.81644999494193 -226.746777849723 0 -226.746777849723 220.32996125219506 0 0 0 0 256.32453895015374 -274.91804722949928 0 -274.91804722949928 222.73849358328152 0 0 0 0 333.95294592551784 -237.38678672140668 0 -237.38678672140668 238.84157958137803 0 0 0 0 285.75705784817319 -178.82345612564677 0 -178.82345612564677 329.76981241958856 0 0 0 0 208.7008656355751 -348.37771600255655 0 -348.37771600255655 220.10268070964958 0 0 0 0 201.38571864558807 -324.36258718098543 0 -324.36258718098543 158.17463395370942 0 0 0 0 98.716254591983102 -403.95043887916836 0 -403.95043887916836 138.42469745763083 0 0 0 0 4.6799435120569797 -223.17995252888431 0 -223.17995252888431 131.29180519334477 0 0 0 0 234.3755695020927 -343.42868729233942 0 -343.42868729233942 159.6967700055684 0 0 0 0 -79.392097926845281 -222.84857187752641 0 -222.84857187752641 252.90651624902603 0 0 0 0 -88.64540168114587 -170.71014744220793 0 -170.71014744220793 130.00365984090604 0 0 0 0 -109.01239979248658 -242.46188548447026 0 -242.46188548447026 262.06133609608514 0 0 0 0 209.6473715182965 -287.94678039467544 0 -287.94678039467544 236.00464946681313 0 0 0 0 47.233052443280258 -33.836294391010597 0 -33.836294391010597 386.23006965933382 0 0 0 0 219.10271155714017 -192.17317562046674 0 -192.17317562046674 385.20596731739352 0 0 0 0 245.26197321185077 -70.867739939007151 0 -70.867739939007151 623.44118769454144 0 0 0 0 429.48509225413153 -184.76415960968734 0 -184.76415960968734 393.48566568504611 0 0 0 0 360.69437727410559 -312.50060366996331 0 -312.50060366996331 480.09260469428409 0 0 0 0 224.54815581557497 -300.43456237042574 0 -300.43456237042574 255.4153033746843 0 0 0 0 393.41952960258192 -286.90612701921782 0 -286.90612701921782 222.194804137951 0 0 0 0 368.79853262481953 -265.19514432622782 0 -265.19514432622782 392.76959226588951 0 0 0 0 531.72091837273683 -259.97619972914254 0 -259.97619972914254 225.00084915813204 0 0 0 0 480.80536115954055 -164.04801476921421 0 -164.04801476921421 250.92894377691846 0 0 0 0 600.56678005059644 -225.52041255148652 0 -225.52041255148652 387.61707798438147 0 0 0 0 500.29570695421125 -336.21590153629222 0 -336.21590153629222 600.33595312881516 0 0 0 0 473.30694376758879 -266.85733271603749 0 -266.85733271603749 666.80006625970418 0 0 0 0 492.06985388338444 -276.21599853657244 0 -276.21599853657244 892.14063092070137 0 0 0 0 499.40963856599319 -428.04225849697832 0 -428.04225849697832 821.4671830097941 0 0 0 0 373.16945202035265 -312.82110254643339 0 -312.82110254643339 1178.8627624745423 0 0 0 0 280.48987712099108 -241.23802161878302 0 -241.23802161878302 905.68490493453282 0 0 0 0 350.83401985004798 -151.71491141123988 0 -151.71491141123988 762.52248099776625 0 0 0 0 144.27751996207473 42.025545448646881 0 42.025545448646881 1052.4205120233673 0 0 0 0 82.945444386241661 28.173558160975517 0 28.173558160975517 1629.3335185868527 0 0 0 0 153.24585680911022 -184.77958086281433 0 -184.77958086281433 1601.0076223840297 0 0 0 0 292.34320485958006 -241.99491957983264 0 -241.99491957983264 1651.7160340930786 0 0 0 0 332.21458510986588 -225.03920869610738 0 -225.03920869610738 1190.9264867075053 0 0 0 0 327.00933811131313 -289.10897395182656 0 -289.10897395182656 1673.9283913779946 0 0 0 0 -105.82716617924022 -10.204476647504634 0 -10.204476647504634 2376.5951919762374 0 0 0 0 61.08983872327002 -101.9397806956913 0 -101.9397806956913 2414.1340942581155 0 0 0 0 -109.72548691469871 61.138294312935614 0 61.138294312935614 2228.1305502660107 0 0 0 0 -454.56551498357419 456.77996334595446 0 456.77996334595446 2357.3390584585286 0 0 0 0 -410.43743635758079 49.218178227323733 0 49.218178227323733 3499.1029910010475 0 0 0 0 -519.99297956519592 1123.0160108051077 0 1123.0160108051077 1951.0078796132002 0 0 0 0 -663.14510488349595 1057.4512853715933 0 1057.4512853715933 3500.1395393106263 0 0 0 0 -445.20468294521123 535.48526868132035 0 535.48526868132035 2105.4087267880823 0 0 0 0 -223.24461520194905 534.44501854240661 0 534.44501854240661 2099.6207034823237 0 0 0 0 -68.827156801844581 680.89459285652265 0 680.89459285652265 949.65909236944572 0 0 0 0 -249.35680180503442 515.34108131174798 0 515.34108131174798 1153.7605727833725 0 0 0 0 70.106417894927745 24.591397226191475 0 24.591397226191475 1274.2014377993892 0 0 0 0 -177.06178219511099 333.19431227543464 0 333.19431227543464 1328.5025335024256 0 0 0 0 173.28684134159209 -195.65313859436901 0 -195.65313859436901 586.11841915175319 0 0 0 0 96.635740864189415 203.80287265424704 0 203.80287265424704 711.20285093976418 0 0 0 0 -67.44687021919276 58.643443973342073 0 58.643443973342073 857.64932009228596 0 0 0 0 -174.3668065942295 302.68362859702756 0 302.68362859702756 431.55704482276633 0 0 0 0 -661.74599385041483 -239.50527077876905 0 -239.50527077876905 140.25003863612983 0 0 0 0 -415.38706086598086 191.45922257930215 0 191.45922257930215 70.419590279583645 0 0 0 0 -244.32904564097743 98.86607752499549 0 98.86607752499549 0.99707167598535307 0 0 0 0 -704.90859160528976 -1.1145346309058368 0 -1.1145346309058368 -8.587950635512243 0 0 0 0 -1896.5513521995426 316.314085933147 0 316.314085933147 -69.40582186714164 0 0 0 0 -596.34899180702735 474.54556355875684 0 474.54556355875684 -210.1691454523243 0 0 0 0 -568.19833952826809 -99.369309897600033 0 -99.369309897600033 -482.80658192193368 0 0 0 0 -109.47018022949715 -35.540169264197175 0 -35.540169264197175 131.48463423983048 0 0 0 0 -2.8040587810991502 2.7006897507043615 0 2.7006897507043615 66.223056229708618 0 0 0 0 -5.3645520440870085 -26.539230757270303 0 -26.539230757270303 0.160961190561693 0 0 0 0 0.91069728759761714 -2.9830277060506631 0 -2.9830277060506631 3.5059295900526877 0 0 0 0 1.0758064880420686 -4.1582635278159117 0 -4.1582635278159117 0.74446095235498433 0 0 0 0 -1134.635298510118 112.14273837518704 0 112.14273837518704 6.0801099805394188 0 0 0 0 168.67480926052747 -192.44858335295066 0 -192.44858335295066 -40.409626536871656 0 0 0 0 -1067.8442343546462 460.9671279109607 0 460.9671279109607 609.66835382963473 0 0 0 0 -582.31219150256493 340.34579432581086 0 340.34579432581086 635.81866458794684 0 0 0 0 -626.41420479991029 40.500101187568362 0 40.500101187568362 659.08382276855991 0 0 0 0 -199.16924034991087 610.19430558903696 0 610.19430558903696 546.92002143861828 0 0 0 0 -207.22123384826216 1219.6428760445124 0 1219.6428760445124 1873.5382087404287 0 0 0 0 312.50586083325112 799.29860541279049 0 799.29860541279049 617.00322103264625 0 0 0 0 -43.924689602501871 307.12824102649756 0 307.12824102649756 455.50903912066133 0 0 0 0 0.80318440405841462 6.0096145270371526 0 6.0096145270371526 50.795227949960235 0 0 0 0 -244.06728813105383 214.98735757674876 0 214.98735757674876 704.63652363506117 0 0 0 0 2095.1011738089796 1921.215520624748 0 1921.215520624748 922.50173732777694 0 0 0 0 3.0755245657202837 2.8371526255808828 0 2.8371526255808828 20.35558113698329 0 0 0 0 -238.47242838849965 1865.0604914410615 0 1865.0604914410615 3494.5322117606847 0 0 0 0 -150.00488487394603 -769.97428214985484 0 -769.97428214985484 3489.2684471505868 0 0 0 0 0.89115746394228212 -123.22411340226245 0 -123.22411340226245 976.53485278368316 0 0 0 0 1301.0077881753 -960.68647614292559 0 -960.68647614292559 134.75097005395219 0 0 0 0 -272.00400537629025 -284.17882421710419 0 -284.17882421710419 963.87666432683181 0 0 0 0 346.82831755413099 -312.11035101135349 0 -312.11035101135349 253.35812406509649 0 0 0 0 228.75049302158072 150.34695154848305 0 150.34695154848305 17.06839029789262 0 0 0 0 14.052242049599826 124.83193876190489 0 124.83193876190489 -104.68373810639605 0 0 0 0 -262.58591095501924 127.61689654718521 0 127.61689654718521 157.21564501349349 0 0 0 0 -33.893408019921907 15.558485390902206 0 15.558485390902206 143.04004830854865 0 0 0 0 -0.0056614905895965789 61.692434586502529 0 61.692434586502529 -73.885317551481421 0 0 0 0 6.1911146461391304 15.330867447250057 0 15.330867447250057 149.06654728456488 0 0 0 0 0.082672069735383144 0.011037886985093337 0 0.011037886985093337 -0.24156354122195012 0 0 0 0 -0.05823387034860087 -0.027965442597633228 0 -0.027965442597633228 162.79073606243765 0 0 0 0 -24.541565164429208 23.344725861490588 0 23.344725861490588 147.1971360924872 0 0 0 0 -8.5794407834331139 65.391217238036916 0 65.391217238036916 250.22641810591449 0 0 0 0 65.532533386465943 118.60838168922055 0 118.60838168922055 155.57006822417316 0 0 0 0 0.14434636411265211 0.2718222043273677 0 0.2718222043273677 3.6513783301837748 0 0 0 0 -1.3031666077524022 115.39056434139638 0 115.39056434139638 361.78880888840649 0 0 0 0 5.0342837048385576 61.523686688800808 0 61.523686688800808 167.02783581076073 0 0 0 0 36.054562105209655 72.481128274870571 0 72.481128274870571 157.58354698029871 0 0 0 0 69.044264168583624 40.662708674994064 0 40.662708674994064 -5.4377743411750998 0 0 0 0 -1.1283556122308591 -2.5362967949255051 0 -2.5362967949255051 11.027864622978086 0 0 0 0 -24.196649555237844 -46.907522424263334 0 -46.907522424263334 7.8401500427571591 0 0 0 0 14.367425013883135 -11.177283740973508 0 -11.177283740973508 27.795414225052809 0 0 0 0 4.6466036581247003 -5.3827150734869065 0 -5.3827150734869065 34.379463300778298 0 0 0 0 -898.6058594341747 74.917437340161996 0 74.917437340161996 202.10426719022507 0 0 0 0 -96.857528769994815 -22.293422085727798 0 -22.293422085727798 85.190205784463615 0 0 0 0 71.869382328902958 -297.1944980059252 0 -297.1944980059252 3.0286405239603482 0 0 0 0 0.054254649689661268 -4.7052888386265881 0 -4.7052888386265881 13.29174382004544 0 0 0 0 -6.2527538624851271 -3.4748815427721667 0 -3.4748815427721667 51.804392176351826 0 0 0 0 -304.24892593030768 -29.145198594495014 0 -29.145198594495014 136.53595979927923 0 0 0 0 -414.11287255759385 -235.04927367535129 0 -235.04927367535129 251.88731083712628 0 0 0 0 -459.98240712521431 68.614478761596729 0 68.614478761596729 7.2861060891154921 0 0 0 0 -103.97853621939498 -317.3048260846117 0 -317.3048260846117 161.76437418427849 0 0 0 0 -449.98411858089526 -103.30323865259925 0 -103.30323865259925 156.5016228861241 0 0 0 0 210.30615542731988 259.89688145894615 0 259.89688145894615 -227.40326606450981 0 0 0 0 -250.96552430877173 75.096319371747086 0 75.096319371747086 767.95425493892981 0 0 0 0 -3.6560228204177987 -0.45262385804613814 0 -0.45262385804613814 56.643545336541877 0 0 0 0 -291.72556931798374 -85.569876510227914 0 -85.569876510227914 88.451714810536942 0 0 0 0 -35.050864650797166 -218.09397417018772 0 -218.09397417018772 -78.425919003944728 0 0 0 0 -70.177970385163462 -161.58165867119533 0 -161.58165867119533 93.890240866093336 0 0 0 0 -155.16485467106833 -84.879943389943946 0 -84.879943389943946 25.224471217254177 0 0 0 0 9.0248282701686033 1.4330489985368331 0 1.4330489985368331 23.149216199213697 0 0 0 0 -3.6286410603143411 -1.2504285909541863 0 -1.2504285909541863 53.706076490244641 0 0 0 0 -55.960801502810305 107.44025553201936 0 107.44025553201936 -99.684466497565154 0 0 0 0 4.3139225692160439 -2.5412945361094899 0 -2.5412945361094899 30.779151727358112 0 0 0 0 0.041432805843375095 1.7087702258322679 0 1.7087702258322679 26.974841516421293 0 0 0 0 -2.1741416585599738 -55.440659526393574 0 -55.440659526393574 26.002934723830549 0 0 0 0 -40.959042866028781 -82.193605547756306 0 -82.193605547756306 245.30013289845556 0 0 0 0 -46.152357278987054 -84.609922554416698 0 -84.609922554416698 465.60301825097849 0 0 0 0 149.66263186202943 -407.92788352810749 0 -407.92788352810749 -189.68862683959014 0 0 0 0 8.537583462177281 -129.22063376543701 0 -129.22063376543701 111.81345969244217 0 0 0 0 -13.554852179655427 -63.650191151435138 0 -63.650191151435138 120.72635398855891 0 0 0 0 89.688688484973682 12.985382974804452 0 12.985382974804452 179.3112857680444 0 0 0 0 -12.945286270343995 -5.3496339128274926 0 -5.3496339128274926 -3.7266829807496507 0 0 0 0 61.979362603749223 -106.71193625845831 0 -106.71193625845831 93.523659984835831 0 0 0 0 19.368404009395363 240.61827066784463 0 240.61827066784463 731.00895842732461 0 0 0 0 -159.08896275163534 -216.30683342343764 0 -216.30683342343764 410.24021152713431 0 0 0 0 -128.44181719534913 4.5535407824968388 0 4.5535407824968388 1347.5984811376038 0 0 0 0 82.158559574190804 110.96591687294858 0 110.96591687294858 80.447634068092157 0 0 0 0 1015.9073293897891 591.17028023843886 0 591.17028023843886 1543.8280935819275 0 0 0 0 -139.01172898926234 562.66702800801431 0 562.66702800801431 1075.9878790775892 0 0 0 0 -3.655831831479551 -1.3778129307829303 0 -1.3778129307829303 0.57286102681484152 0 0 0 0 -64.837005715304258 605.05388047027009 0 605.05388047027009 533.23718681189348 0 0 0 0 82.752920670065578 224.54616044064278 0 224.54616044064278 455.00607132695586 0 0 0 0 322.82633006758806 -624.95901623068858 0 -624.95901623068858 1512.3583008990026 0 0 0 0 413.31654279817769 -276.59658470423165 0 -276.59658470423165 714.47539040596894 0 0 0 0 -859.6718989642186 -1023.0306595152524 0 -1023.0306595152524 2140.8464439046911 0 0 0 0 3.2639777561483569 4.3232012659858441 0 4.3232012659858441 5.7815887156717807 0 0 0 0 52.993095293051738 208.30046035322539 0 208.30046035322539 908.41538271740137 0 0 0 0 118.99681543770021 -77.414983127735468 0 -77.414983127735468 862.62713361546776 0 0 0 0 302.20792408198076 61.644691593922289 0 61.644691593922289 385.62861792619515 0 0 0 0 177.55350049784283 -71.422452928902203 0 -71.422452928902203 611.61296270164894 0 0 0 0 227.84317687628891 -20.283762189321351 0 -20.283762189321351 124.25181987599353 0 0 0 0 131.85524831603925 -50.962811098534075 0 -50.962811098534075 350.43599336117768 0 0 0 0 62.528100945879032 -63.064404973482851 0 -63.064404973482851 131.23777323994727 0 0 0 0 230.3437598122764 -2.6067363339552685 0 -2.6067363339552685 211.37042037166975 0 0 0 0 79.470088131838565 -112.90186689937764 0 -112.90186689937764 257.10267224691688 0 0 0 0 20.916616322561822 -75.739736196588638 0 -75.739736196588638 35.502996068073116 0 0 0 0 63.23014743588601 -128.39144274790124 0 -128.39144274790124 92.78439267799331 0 0 0 0 114.17403364628535 -51.727492460743633 0 -51.727492460743633 18.195181361879804 0 0 0 0 75.394984695742096 -60.733222570943326 0 -60.733222570943326 125.07521276192267 0 0 0 0 155.80808885418901 -32.851129031494565 0 -32.851129031494565 14.735019532243314 0 0 0 0 13.786393760217834 -40.112912112170307 0 -40.112912112170307 14.364000959554687 0 0 0 0 61.261380779025785 24.168661024512403 0 24.168661024512403 -159.74185602708621 0 0 0 0 86.136849934132442 -50.512700689130725 0 -50.512700689130725 -138.37209292855732 0 0 0 0 10.680887547438033 -75.473659990086162 0 -75.473659990086162 -85.293025901200963 0 0 0 0 98.548985544313837 -26.906549493331113 0 -26.906549493331113 -67.253406388510484 0 0 0 0 55.31647448242984 -68.48204764170805 0 -68.48204764170805 14.204218861363188 0 0 0 0 41.834144982669386 -79.883963492433395 0 -79.883963492433395 16.562104793854814 0 0 0 0 35.51065596828812 -12.392650997608143 0 -12.392650997608143 -64.312653674187459 0 0 0 0 -23.165463432180331 -8.3412215213975287 0 -8.3412215213975287 -32.453176753613661 0 0 0 0 5.1108995298227455 -60.552269296891609 0 -60.552269296891609 25.970697637010744 0 0 0 0 23.305177130985612 -92.078036181253992 0 -92.078036181253992 41.260369316535616 0 0 0 0 14.581082774849165 -52.63960121152013 0 -52.63960121152013 32.128674255916849 0 0 0 0 22.422887156489196 -60.240749187843903 0 -60.240749187843903 27.471831741873757 0 0 0 0 4.7912641253324182 -79.288804158082712 0 -79.288804158082712 105.1138593605574 0 0 0 0 -24.716925377924781 -78.676439141423543 0 -78.676439141423543 105.52305177176095 0 0 0 0 15.792247619307091 -57.142527133470139 0 -57.142527133470139 90.519832817895804 0 0 0 0 5.3316434398930141 -68.207129022863228 0 -68.207129022863228 83.636380165513401 0 0 0 0 15.663221820981562 -61.20491993629912 0 -61.20491993629912 48.965748039328901 0 0 0 0 12.014337050869472 -54.849037656216751 0 -54.849037656216751 56.01166417861532 0 0 0 0 6.7165956880262456 -73.710066809818272 0 -73.710066809818272 56.445618904283037 0 0 0 0 13.447467103340387 -59.018413845107716 0 -59.018413845107716 53.011200967849618 0 0 0 0 19.610791113554278 -42.268500547895606 0 -42.268500547895606 61.698336271551234 0 0 0 0 -0.16648812090306819 -56.539304235896338 0 -56.539304235896338 31.500607493786532 0 0 0 0 2.4122995345765048 -60.835941456429282 0 -60.835941456429282 87.725499931213562 0 0 0 0 8.6529739367183538 -53.717439252853637 0 -53.717439252853637 30.998302493116626 0 0 0 0 -19.299540228770866 -15.19427704931104 0 -15.19427704931104 96.966570292497181 0 0 0 0 -94.339137189537155 -71.697612179878433 0 -71.697612179878433 56.740386023077917 0 0 0 0 -94.328606360573872 -73.845769121118792 0 -73.845769121118792 106.33162783634043 0 0 0 0 -125.85805293672743 -106.89236259873907 0 -106.89236259873907 75.420404665007482 0 0 0 0 -39.157677957173973 -107.79410857713594 0 -107.79410857713594 -1.540985549668676 0 0 0 0 -65.889063339408722 377.13220782811857 0 377.13220782811857 318.32102063372554 0 0 0 0 -0.052034620985523361 -65.247275322949122 0 -65.247275322949122 30.99860039201883 0 0 0 0 64.342261819678612 -44.297787652841635 0 -44.297787652841635 97.917045527791288 0 0 0 0 -7.6436271296971796 -14.218416269136055 0 -14.218416269136055 8.433653318460296 0 0 0 0 -4.0447349150210705 -6.0033446613284758 0 -6.0033446613284758 26.677849547663854 0 0 0 0 -148.9345850128974 -368.45389472878378 0 -368.45389472878378 129.14598701489717 0 0 0 0 -328.66009327070969 372.90432113767974 0 372.90432113767974 -38.461441989923514 0 0 0 0 -1.6107308130349338 -36.242548155918485 0 -36.242548155918485 64.394780060232733 0 0 0 0 -6.4523344700913823 -22.983100418806224 0 -22.983100418806224 67.107925202448172 0 0 0 0 8.5184532619462061 -74.543030584981807 0 -74.543030584981807 92.667872004825767 0 0 0 0 -23.609283979785786 -17.878584527265918 0 -17.878584527265918 12.14475594807157 0 0 0 0 -67.697469811708743 -93.265044091862364 0 -93.265044091862364 102.58278866304317 0 0 0 0 136.92839476811514 -259.4174941632582 0 -259.4174941632582 -183.99468075835711 0 0 0 0 -53.378917307062011 -585.42725032830322 0 -585.42725032830322 -385.78287053655094 0 0 0 0 137.7916229888815 -413.10586017937226 0 -413.10586017937226 -224.07042659649437 0 0 0 0 -3.3208476721708613 -2.8007324215401872 0 -2.8007324215401872 -0.10853461773287787 0 0 0 0 -481.59832827508535 86.838865292727178 0 86.838865292727178 -123.8634338534664 0 0 0 0 393.38766753364007 -258.13187878000599 0 -258.13187878000599 -75.795179846488281 0 0 0 0 44.661826412626397 -249.58432440069464 0 -249.58432440069464 -142.21157783324452 0 0 0 0 -512.70094537427531 -263.40578178808664 0 -263.40578178808664 -51.262396364895039 0 0 0 0 -56.770261793142708 -38.224964711725988 0 -38.224964711725988 -186.8633638031838 0 0 0 0 -108.84934125866857 -73.060397643420401 0 -73.060397643420401 -124.64790038404317 0 0 0 0 138.7333844145478 -26.257085399762218 0 -26.257085399762218 -115.51467739488135 0 0 0 0 -104.83977112411867 -55.464226874180895 0 -55.464226874180895 -63.61947265521485 0 0 0 0 148.03216185259282 433.66772285309344 0 433.66772285309344 -241.46688445967629 0 0 0 0 148.10315769450827 -136.39750851908343 0 -136.39750851908343 -9.3359273581736488 0 0 0 0 171.83630444586015 -547.51185731317673 0 -547.51185731317673 500.25535863438199 0 0 0 0 346.40672939415072 -146.38970211496598 0 -146.38970211496598 -104.19893073510684 0 0 0 0 499.42578416869765 -486.52774844653868 0 -486.52774844653868 74.06331514431713 0 0 0 0 180.3079146755299 -232.18310363680348 0 -232.18310363680348 18.752055526348386 0 0 0 0 143.01277650055761 -286.17051905432714 0 -286.17051905432714 -55.684235408116365 0 0 0 0 -102.78330640457239 -184.59540865137194 0 -184.59540865137194 -45.473588043909331 0 0 0 0 -53.702971126422199 -18.120049069484594 0 -18.120049069484594 -147.99315801136072 0 0 0 0 -10.068298047541703 -320.99158794367736 0 -320.99158794367736 1.7079378456464838 0 0 0 0 206.3057716972171 -444.49187615071548 0 -444.49187615071548 -14.577987325535105 0 0 0 0 246.30225096379581 -515.62883716924807 0 -515.62883716924807 266.26150644211975 0 0 0 0 89.613626730546457 -394.57880068615395 0 -394.57880068615395 226.59972631439541 0 0 0 0 74.492768208057896 -358.89228359240224 0 -358.89228359240224 333.26624956579326 0 0 0 0 157.2444549720185 -323.23908494721331 0 -323.23908494721331 20.908826379477432 0 0 0 0 136.73985888421885 -441.53878453070672 0 -441.53878453070672 44.738246215982144 0 0 0 0 -62.130976896925858 -190.99816658006239 0 -190.99816658006239 720.34774135655607 0 0 0 0 -81.20110916122394 -120.03644870898415 0 -120.03644870898415 460.04953822944117 0 0 0 0 5.1894863017573698 -363.2711614970583 0 -363.2711614970583 553.31411267524163 0 0 0 0 9.299387570095405 -361.57160407122376 0 -361.57160407122376 338.91108935862212 0 0 0 0 67.116528385984566 -546.23813370969037 0 -546.23813370969037 810.24541648654213 0 0 0 0 210.27289405324473 -462.83075385320353 0 -462.83075385320353 507.52502651570103 0 0 0 0 4.7433836670279561 -107.08973616827279 0 -107.08973616827279 825.35794583658264 0 0 0 0 6.9198296103538031 -4.0114793158414574 0 -4.0114793158414574 9.5119599594560107 0 0 0 0 -44.10667850160462 -633.87875455167 0 -633.87875455167 876.34528742078874 0 0 0 0 -80.295168343099704 -296.48829134242442 0 -296.48829134242442 1652.6564734252352 0 0 0 0 283.11500842645228 -887.46294473735725 0 -887.46294473735725 1314.1934772444947 0 0 0 0 898.76278508854921 -762.82385500656073 0 -762.82385500656073 319.34761411102318 0 0 0 0 752.46224868732065 -28.878224011156135 0 -28.878224011156135 -480.96547083802034 0 0 0 0 202.22528289105821 -1187.3966612943468 0 -1187.3966612943468 883.01224443077081 0 0 0 0 7.4503469651973706 -3.9214699482964157 0 -3.9214699482964157 0.38774643836015343 0 0 0 0 -191.60147360249584 -1091.8213724420002 0 -1091.8213724420002 1038.7268007195307 0 0 0 0 922.96045312817614 -272.96134153978801 0 -272.96134153978801 -138.83547866051595 0 0 0 0 521.74824500921841 301.50172986606503 0 301.50172986606503 -466.11814889641391 0 0 0 0 88.233755880084573 98.883625267678326 0 98.883625267678326 149.61768106853924 0 0 0 0 103.0249510914382 363.68589915297707 0 363.68589915297707 1289.2084632548831 0 0 0 0 -238.18814801835288 351.37668413883694 0 351.37668413883694 -66.55062125096083 0 0 0 0 112.37863740121975 278.67820480914088 0 278.67820480914088 570.25240603085376 0 0 0 0 -98.257506932218575 -133.98717308578125 0 -133.98717308578125 172.15596544975415 0 0 0 0 25.624407811986842 0.64285566519515669 0 0.64285566519515669 837.55616765588638 0 0 0 0 3.3289362842617636 8.7077131484441175 0 8.7077131484441175 40.672142551819221 0 0 0 0 -186.54210430595322 -0.080948772707415628 0 -0.080948772707415628 124.26998166350495 0 0 0 0 11.744429729512376 49.589487715518771 0 49.589487715518771 1202.7140529071221 0 0 0 0 5.5941164918832591 -451.28173004941425 0 -451.28173004941425 362.13038249233796 0 0 0 0 0.64199927901654519 -395.50145844302278 0 -395.50145844302278 1528.1459634733674 0 0 0 0 305.700140486838 -950.72644887646129 0 -950.72644887646129 74.508559867081203 0 0 0 0 547.95226898856436 -652.31599708420617 0 -652.31599708420617 426.51692221502617 0 0 0 0 3.0065267153708861 5.1446680614765619 0 5.1446680614765619 11.783194025651014 0 0 0 0 965.64900024623785 -1155.9953637883991 0 -1155.9953637883991 732.53028268224807 0 0 0 0 6.8182396422035367 329.32308145764 0 329.32308145764 166.47724555598023 0 0 0 0 83.493372601421697 -498.68342728887365 0 -498.68342728887365 1523.5987391628605 0 0 0 0 -21.185587912661504 -2.6630342203534383 0 -2.6630342203534383 385.00948417022846 0 0 0 0 213.48341391764373 269.86666896978409 0 269.86666896978409 4.4829133359344269 0 0 0 0 141.11644492574095 -18.774000752460097 0 -18.774000752460097 54.310500215160573 0 0 0 0 606.33023300254854 574.14565589013546 0 574.14565589013546 609.32633721840739 0 0 0 0 8.3867230006632525 -5.9278581899721381 0 -5.9278581899721381 15.562404456037083 0 0 0 0 -84.172432701324396 7.5796234381048748 0 7.5796234381048748 51.269657432196254 0 0 0 0 -321.95140002775497 -16.660373486517528 0 -16.660373486517528 67.414434210557374 0 0 0 0 -72.227630145742296 130.19852105825703 0 130.19852105825703 96.51051372976508 0 0 0 0 -339.90603704773639 -317.58833355340448 0 -317.58833355340448 168.1898162728794 0 0 0 0 184.06600173080005 72.192886375718444 0 72.192886375718444 -156.31999415137693 0 0 0 0 201.47213751939307 163.96623179419294 0 163.96623179419294 -30.851100125219091 0 0 0 0 1.5255997899723504 1.2185019674879065 0 1.2185019674879065 -6.9219909002907229 0 0 0 0 -294.41291161219237 8.9316914217806698 0 8.9316914217806698 28.497439505794318 0 0 0 0 -118.94216193138072 243.88193547369337 0 243.88193547369337 330.16991368198524 0 0 0 0 -4.014486530277102 14.804418392418267 0 14.804418392418267 -2.0896357374673258 0 0 0 0 -8.8556279735105861 17.693434302748589 0 17.693434302748589 41.538908147793023 0 0 0 0 -1.7067718691246583 3.3821196980042689 0 3.3821196980042689 26.865694748028289 0 0 0 0 -2.9800673901245318 41.523682828527399 0 41.523682828527399 65.459016744731343 0 0 0 0 20.346148271926722 -0.44802083252307057 0 -0.44802083252307057 13.98278268420836 0 0 0 0 3.5450809100311744 136.6758772616522 0 136.6758772616522 82.517504292030935 0 0 0 0 -9.6012355521347104 20.918152576045067 0 20.918152576045067 64.27570095127642 0 0 0 0 2.5585478548109677 13.460975838976992 0 13.460975838976992 46.887499198666774 0 0 0 0 1.0210158120130473 6.1093365942468836 0 6.1093365942468836 47.888204874837811 0 0 0 0 -0.78202710142050158 6.2065995357437735 0 6.2065995357437735 29.151256816414723 0 0 0 0 9.4816322100985708 16.322814855317379 0 16.322814855317379 26.626872523822975 0 0 0 0 -51.473423041025853 165.40127134330942 0 165.40127134330942 29.426675847637469 0 0 0 0 -126.48013358207763 -72.327118228609663 0 -72.327118228609663 338.79620115453508 0 0 0 0 7.4471109535240991 -8.5735358116015234 0 -8.5735358116015234 17.296702227315354 0 0 0 0 7.4746129055620258 12.243427277113369 0 12.243427277113369 46.651582597011384 0 0 0 0 453.47277099433722 49.831174403163459 0 49.831174403163459 -346.29531008312006 0 0 0 0 -57.253699197717197 -49.1647463921704 0 -49.1647463921704 142.91468560906287 0 0 0 0 4.9062765997184226 2.6804549998164866 0 2.6804549998164866 37.699870489639125 0 0 0 0 -60.954926361319735 137.88757715386782 0 137.88757715386782 -12.970830905916046 0 0 0 0 321.9575419803034 -251.45713742207499 0 -251.45713742207499 -392.5156070860794 0 0 0 0 -57.556562633011026 106.02203102544263 0 106.02203102544263 -74.93476963842113 0 0 0 0 19.754365752619194 8.0565371500503176 0 8.0565371500503176 0.027019580108341046 0 0 0 0 126.31233185099319 102.38149283342136 0 102.38149283342136 -342.00845003094582 0 0 0 0 53.254610389214577 -11.268165853442042 0 -11.268165853442042 -7.5166982850678323 0 0 0 0 -131.80324126609776 66.401712868766481 0 66.401712868766481 137.1120607232001 0 0 0 0 2.19826301387657 -0.90475914783224454 0 -0.90475914783224454 0.73963028141475462 0 0 0 0 34.552330528957555 33.770684671553227 0 33.770684671553227 31.350434312360449 0 0 0 0 34.963281381104935 24.035507741238689 0 24.035507741238689 -10.322577783728775 0 0 0 0 -31.456338364972908 27.313007282765284 0 27.313007282765284 14.031487191408814 0 0 0 0 1.2262091870920702 1.3355340271954699 0 1.3355340271954699 11.169867301383 0 0 0 0 -5.0060559650428331 49.856450313180176 0 49.856450313180176 16.270152234558736 0 0 0 0 351.68312947396726 130.74723648599866 0 130.74723648599866 -5.0666303988909931 0 0 0 0 251.32243845076118 74.029943148281745 0 74.029943148281745 156.8644869315608 0 0 0 0 321.78824965245803 155.87019685055202 0 155.87019685055202 8.7167821489456401 0 0 0 0 24.067782946149237 45.412889784231083 0 45.412889784231083 93.707867004792206 0 0 0 0 -73.368327222775406 -109.71781314168038 0 -109.71781314168038 -51.587504798022565 0 0 0 0 -10.04716438823432 -7.6487539766596626 0 -7.6487539766596626 15.586232852400464 0 0 0 0 -5.5323904956312617 -73.862418031891139 0 -73.862418031891139 -234.08839192675805 0 0 0 0 127.77602221299458 46.365643962548347 0 46.365643962548347 -28.928148172082729 0 0 0 0 30.657952063878838 92.201003793816199 0 92.201003793816199 7.7053678147130995 0 0 0 0 142.7022757477389 112.63592201331267 0 112.63592201331267 -26.860546335396066 0 0 0 0 251.42572338307946 75.778642280609347 0 75.778642280609347 -61.010005080759584 0 0 0 0 269.13594970830127 70.391126026204802 0 70.391126026204802 -30.680773348314688 0 0 0 0 355.81527977116457 116.55371073751667 0 116.55371073751667 -37.904795295245094 0 0 0 0 227.35844340207768 120.52843123748789 0 120.52843123748789 -57.808279079799831 0 0 0 0 -31.635421790803775 45.241075273415845 0 45.241075273415845 1.8605751600771328 0 0 0 0 65.222439246915201 -32.964582551869171 0 -32.964582551869171 10.184458577539772 0 0 0 0 91.63606323381282 -48.859600134470384 0 -48.859600134470384 89.559261971236992 0 0 0 0 295.8061246078023 -90.032801472319989 0 -90.032801472319989 63.908953894875594 0 0 0 0 272.19196838250355 -10.234546734416654 0 -10.234546734416654 -10.375719182942703 0 0 0 0 333.71733507603403 117.67150268432124 0 117.67150268432124 80.614260868125712 0 0 0 0 395.36566949396274 220.87225152415158 0 220.87225152415158 202.79149644298013 0 0 0 0 487.08063909643897 69.104930110053829 0 69.104930110053829 19.162899858615333 0 0 0 0 252.57658424095189 4.5831392970867455 0 4.5831392970867455 21.053256555518601 0 0 0 0 0.56122284690344593 -0.74681348689345128 0 -0.74681348689345128 3.2031808168251494 0 0 0 0 391.7499289812622 -86.091880370509898 0 -86.091880370509898 -40.046023927889109 0 0 0 0 355.09279537874136 81.183004424212413 0 81.183004424212413 89.406130185878283 0 0 0 0 150.79255981595634 104.26468560689318 0 104.26468560689318 147.40108721334582 0 0 0 0 14.887980755845964 5.8598943037351816 0 5.8598943037351816 -2.0593149806085354 0 0 0 0 4.7073088541219477 18.673056961410111 0 18.673056961410111 -8.3817129893741367 0 0 0 0 629.99619563572787 -406.06948884937509 0 -406.06948884937509 -50.796153955845512 0 0 0 0 2.7620587651542503 -0.33345960603950964 0 -0.33345960603950964 3.4201963570762786 0 0 0 0 -385.75192766469127 -258.8769383772833 0 -258.8769383772833 -49.549736902354198 0 0 0 0 163.74511009942057 6.4887873397669864 0 6.4887873397669864 63.533403966823244 0 0 0 0 184.41398587864933 2.6672506167124084 0 2.6672506167124084 53.387173959157735 0 0 0 0 432.71143628951722 -142.47477829553463 0 -142.47477829553463 136.41662483147957 0 0 0 0 112.26139886490455 -81.833351673178186 0 -81.833351673178186 372.69736849835681 0 0 0 0 360.32851297872912 30.729513901609607 0 30.729513901609607 -45.419597374715522 0 0 0 0 -90.947916612305562 140.67389220168116 0 140.67389220168116 1005.9837716475922 0 0 0 0 290.57813076060665 -369.11145515809585 0 -369.11145515809585 763.87145815049371 0 0 0 0 668.24041440942801 -298.39894209904196 0 -298.39894209904196 225.30800125132191 0 0 0 0 50.967785985138107 209.02175742903637 0 209.02175742903637 713.30938281416093 0 0 0 0 -869.82089313463575 -56.752489151358532 0 -56.752489151358532 1288.4525915106951 0 0 0 0 -131.95656777156137 247.27019176962131 0 247.27019176962131 1151.8094405533957 0 0 0 0 -0.10342344892142119 -0.30987247334091439 0 -0.30987247334091439 2.6008156318214759 0 0 0 0 -163.06035045122917 328.22765218338259 0 328.22765218338259 18.648000312681688 0 0 0 0 53.976183574175593 -257.70929823916231 0 -257.70929823916231 113.09492922659047 0 0 0 0 77.694743132999065 -1.0019287316263217 0 -1.0019287316263217 -325.26033587858069 0 0 0 0 27.336729930510046 606.80382531717623 0 606.80382531717623 -273.78589435454342 0 0 0 0 119.18498754305983 269.54677688060838 0 269.54677688060838 117.03457272013475 0 0 0 0 68.545491367713112 -61.242693410025822 0 -61.242693410025822 354.73601042400878 0 0 0 0 -51.20494926537549 -141.38646047528164 0 -141.38646047528164 345.38309082101841 0 0 0 0 -57.53054205922308 -124.69033757839497 0 -124.69033757839497 301.67128402318849 0 0 0 0 108.0679691803507 -125.47617007191911 0 -125.47617007191911 253.80162465258763 0 0 0 0 199.06070494685991 -36.04310214158977 0 -36.04310214158977 154.11589841802925 0 0 0 0 217.462512873805 -115.54157411814043 0 -115.54157411814043 -53.245536572896526 0 0 0 0 78.47565733995043 -184.58334594207099 0 -184.58334594207099 -72.101345254861371 0 0 0 0 201.00983714571873 69.173055963464208 0 69.173055963464208 17.647559900331544 0 0 0 0 11.945361375913173 -25.764576504409867 0 -25.764576504409867 19.000916230836289 0 0 0 0 -0.54010033361432974 -1.2576551787320653 0 -1.2576551787320653 4.8681630912204596 0 0 0 0 -45.380299296401063 41.073182773543522 0 41.073182773543522 74.06713669722194 0 0 0 0 -124.56260361425939 -64.861437064771962 0 -64.861437064771962 300.47025065426715 0 0 0 0 -25.223543020566467 136.89267942588958 0 136.89267942588958 -26.045072836928739 0 0 0 0 96.010638711770298 -8.0280795167791439 0 -8.0280795167791439 146.52129806875018 0 0 0 0 145.48102045204405 -112.60062765651674 0 -112.60062765651674 -131.4747735600431 0 0 0 0 -1.156732257004478 -116.38102296473517 0 -116.38102296473517 -65.048064937776871 0 0 0 0 21.43006297462307 -31.062829270924738 0 -31.062829270924738 29.617703827703533 0 0 0 0 72.645908366313051 -10.966560783428577 0 -10.966560783428577 -112.99664053054948 0 0 0 0 -39.490976743000488 -191.93325040189777 0 -191.93325040189777 -7.3286198192072334 0 0 0 0 9.3664352327652107 -7.805349756938007 0 -7.805349756938007 0.87843181081142063 0 0 0 0 -15.924211024492251 -111.67932057290454 0 -111.67932057290454 -61.265567669412121 0 0 0 0 29.894334774067829 -107.9933126193755 0 -107.9933126193755 -61.995402171130991 0 0 0 0 -26.811322057110374 -104.36861437646439 0 -104.36861437646439 -64.827542025161392 0 0 0 0 -1.6349800849202438 -107.53331612457987 0 -107.53331612457987 -67.414851927984273 0 0 0 0 22.086894639889579 -85.385873694995098 0 -85.385873694995098 -108.42914639246555 0 0 0 0 -4.7392392439505784 -77.909422562628606 0 -77.909422562628606 -44.477774309198139 0 0 0 0 -28.357464286073991 -85.202310117327215 0 -85.202310117327215 -46.509031120702275 0 0 0 0 26.655502974619594 -38.244431493341835 0 -38.244431493341835 -80.691847383706772 0 0 0 0 15.751721460426779 -59.176010800503718 0 -59.176010800503718 -39.768664769695533 0 0 0 0 29.744415914261481 -27.717355642893381 0 -27.717355642893381 5.1314795203620633 0 0 0 0 51.039474682429955 -17.783629739726166 0 -17.783629739726166 -44.601947480492527 0 0 0 0 -17.857891693259717 -51.366981126260725 0 -51.366981126260725 -44.69282247414958 0 0 0 0 -0.61046834015580131 -17.516208033699947 0 -17.516208033699947 20.731730651940758 0 0 0 0 15.197179985474577 -31.097919133182586 0 -31.097919133182586 -66.138668090303327 0 0 0 0 34.958281042270755 -10.497558298593503 0 -10.497558298593503 -55.30335521329107 0 0 0 0 31.203706168465033 -26.241676213139726 0 -26.241676213139726 -31.819934103052219 0 0 0 0 51.016143470437783 7.1685658113119644 0 7.1685658113119644 -9.4558368918224005 0 0 0 0 42.052208517968211 29.896800998962135 0 29.896800998962135 -14.5868176793374 0 0 0 0 31.076638242879199 35.012121481988288 0 35.012121481988288 -16.937429389130557 0 0 0 0 -11.626790734146653 19.693125889851217 0 19.693125889851217 -22.432414567545493 0 0 0 0 59.992814407057267 15.316882919925774 0 15.316882919925774 -45.019023538465262 0 0 0 0 45.708773445368024 -85.557657157077301 0 -85.557657157077301 -113.81608002794383 0 0 0 0 260.40053221722553 -36.569563474597089 0 -36.569563474597089 -137.39983786779339 0 0 0 0 39.709369120801568 66.089542947943983 0 66.089542947943983 -34.666535038908478 0 0 0 0 71.576497390836437 83.575836655407329 0 83.575836655407329 -25.072958124481374 0 0 0 0 -0.69887767884301866 80.269998129231681 0 80.269998129231681 -17.497216163339544 0 0 0 0 93.549821415102429 -228.13329808064736 0 -228.13329808064736 308.34749027404177 0 0 0 0 -0.1588529286951883 1.1615513566877738 0 1.1615513566877738 1.8489402482592823 0 0 0 0 112.37996572641896 -218.77392620057617 0 -218.77392620057617 264.28917485316197 0 0 0 0 108.38597711463126 -279.7995021601746 0 -279.7995021601746 279.30436546948476 0 0 0 0 95.29648430876432 -284.58680361168081 0 -284.58680361168081 379.06584081004257 0 0 0 0 27.256173084319016 -0.20868083698951523 0 -0.20868083698951523 -51.717010384538298 0 0 0 0 7.5148960834003447 9.6670765656854201 0 9.6670765656854201 -56.083314039418838 0 0 0 0 141.39972654817677 -421.59527688236631 0 -421.59527688236631 610.53906296903006 0 0 0 0 392.79367354520377 -119.86029970213349 0 -119.86029970213349 67.761914790513401 0 0 0 0 0.26903493858166883 0.31944522928138497 0 0.31944522928138497 9.804630831845671 0 0 0 0 4.5410316893812777 2.960878466832952 0 2.960878466832952 6.6569703193281953 0 0 0 0 94.355570022110442 -411.22108884712361 0 -411.22108884712361 1080.7808711624748 0 0 0 0 83.268804188879585 -266.53122228741267 0 -266.53122228741267 647.38682584445633 0 0 0 0 449.59515166628563 -188.81313261964578 0 -188.81313261964578 645.58722451915673 0 0 0 0 410.29351770002961 -548.9347208163781 0 -548.9347208163781 713.8485050368472 0 0 0 0 251.71461230112891 -414.31590565174702 0 -414.31590565174702 632.46216107323198 0 0 0 0 -43.050505555831478 -397.27853703883738 0 -397.27853703883738 917.50266041875147 0 0 0 0 -252.482008405307 -52.577044125193424 0 -52.577044125193424 650.80743767980312 0 0 0 0 -51.415561205661561 -327.98307101402861 0 -327.98307101402861 683.11084859799303 0 0 0 0 11.240327580861958 -218.61117871013266 0 -218.61117871013266 820.37949507484518 0 0 0 0 147.10216566004465 -189.91573586723098 0 -189.91573586723098 367.31923373260361 0 0 0 0 116.54417175296544 -324.08612836818065 0 -324.08612836818065 681.28352786681717 0 0 0 0 294.38112097668176 -446.83794792719891 0 -446.83794792719891 369.30149369108403 0 0 0 0 180.35122696853168 -162.06860486787855 0 -162.06860486787855 43.051648496206326 0 0 0 0 88.453089493059451 17.573539692202758 0 17.573539692202758 -54.930981085357416 0 0 0 0 31.038829634341425 86.517141518338576 0 86.517141518338576 84.104637901371461 0 0 0 0 8.0582481102383099 -29.265136731482926 0 -29.265136731482926 367.48495240054035 0 0 0 0 122.53874007302193 -103.05588867425831 0 -103.05588867425831 186.09376614875509 0 0 0 0 120.23666594155247 123.43183614989539 0 123.43183614989539 3.8329359196432051 0 0 0 0 1842.5452575777254 -321.10142617775273 0 -321.10142617775273 389.63316225486869 0 0 0 0 240.25798439421123 -404.57345388588146 0 -404.57345388588146 652.69948979709443 0 0 0 0 103.40982572796202 -132.85186323931703 0 -132.85186323931703 490.604217583219 0 0 0 0 122.00524054178868 -158.73537780599872 0 -158.73537780599872 432.70359569614811 0 0 0 0 -87.481778117822614 111.33570026799498 0 111.33570026799498 344.22216910991119 0 0 0 0 -19.706048922601894 -160.55381112673786 0 -160.55381112673786 584.21070499856432 0 0 0 0 2.2065539539789283 0.5358256335424656 0 0.5358256335424656 -0.38693252436419101 0 0 0 0 -71.876500314249824 -228.22194140402644 0 -228.22194140402644 428.57626498434547 0 0 0 0 114.36979924985917 -363.40399511031501 0 -363.40399511031501 845.33696720837906 0 0 0 0 242.7882359692112 -489.14807838077104 0 -489.14807838077104 698.08124679116008 0 0 0 0 407.44258877974062 -428.31949052214259 0 -428.31949052214259 480.60676923635765 0 0 0 0 138.35076133940129 -280.1697385728894 0 -280.1697385728894 923.38093503111122 0 0 0 0 6.2856160459468811 -205.8305030778065 0 -205.8305030778065 861.38507843308798 0 0 0 0 8.4869666061075151 13.307408909247549 0 13.307408909247549 15.049018821845266 0 0 0 0 192.37217387617784 -208.87203007245262 0 -208.87203007245262 850.91079453952989 0 0 0 0 -93.886542553326763 -87.338340882922239 0 -87.338340882922239 245.4122086722964 0 0 0 0 -121.23678546446649 10.382117442782146 0 10.382117442782146 68.60111221506304 0 0 0 0 13.131762985651129 18.710316036327967 0 18.710316036327967 24.612378527821768 0 0 0 0 192.08534123602203 -167.63224016539607 0 -167.63224016539607 445.38502999291813 0 0 0 0 247.56771670643866 -433.50004025891803 0 -433.50004025891803 612.63775187570718 0 0 0 0 47.067021819879074 -282.72608882403802 0 -282.72608882403802 772.62717453623191 0 0 0 0 -0.89838615219586315 -2.0141670964913825 0 -2.0141670964913825 132.30346542868693 0 0 0 0 -485.46339923061396 -4.5555537048076076 0 -4.5555537048076076 625.53921006950259 0 0 0 0 -153.27891741465305 -205.00337805175059 0 -205.00337805175059 100.47674608045781 0 0 0 0 -0.49734832223713843 -9.8270276943998383 0 -9.8270276943998383 120.44766100804091 0 0 0 0 104.0402028394019 -256.64756201145065 0 -256.64756201145065 60.99047169838741 0 0 0 0 99.362281275769746 -0.56996708135142171 0 -0.56996708135142171 -34.032463421011926 0 0 0 0 235.56802006649923 -303.25056270479399 0 -303.25056270479399 63.263919985901339 0 0 0 0 24.546679020089414 196.62012293754742 0 196.62012293754742 871.02801418771742 0 0 0 0 303.957630344515 -56.800923270775911 0 -56.800923270775911 -29.400493224951788 0 0 0 0 5.6153128256890312 -5.777630212898913 0 -5.777630212898913 -4.5597563965860104 0 0 0 0 19.980197110025415 -56.511302959518446 0 -56.511302959518446 336.73391025578894 0 0 0 0 11.663876909973496 -38.999458141826516 0 -38.999458141826516 -35.659844441944685 0 0 0 0 21.616162533087845 -141.49386053685157 0 -141.49386053685157 102.54257109464379 0 0 0 0 -25.991752387264569 -131.42189860755752 0 -131.42189860755752 101.62130463891663 0 0 0 0 38.01398086838708 -125.40686247433769 0 -125.40686247433769 97.036013404751429 0 0 0 0 -22.222606544060341 -66.93098635641627 0 -66.93098635641627 95.680313888879027 0 0 0 0 24.059693976449001 -51.447979489657556 0 -51.447979489657556 56.226922434887001 0 0 0 0 22.795039619290037 -69.546466426828374 0 -69.546466426828374 105.8404213515314 0 0 0 0 38.125020441358998 117.63894398781804 0 117.63894398781804 214.24338210155838 0 0 0 0 2.9245600504651748 -42.550641614587221 0 -42.550641614587221 49.64710694765381 0 0 0 0 -25.904487957770471 -74.141595103257714 0 -74.141595103257714 98.680485255419626 0 0 0 0 -28.207531440439197 -70.95074155178736 0 -70.95074155178736 105.86242449920974 0 0 0 0 -7.7336997169372133 -10.705093085062469 0 -10.705093085062469 80.776618408629304 0 0 0 0 65.779952493353875 -279.66820601746986 0 -279.66820601746986 1.0762071029166691 0 0 0 0 104.92001239857154 -96.064619806667906 0 -96.064619806667906 13.554076640022686 0 0 0 0 4.8548067512894084 -12.672123347538328 0 -12.672123347538328 0.5625240572976935 0 0 0 0 2.2977047568568283 -8.5604079742940229 0 -8.5604079742940229 11.649451299438866 0 0 0 0 -245.46601806359104 -627.22555441841541 0 -627.22555441841541 1180.3849472548172 0 0 0 0 -321.09784192968164 -421.57219912150322 0 -421.57219912150322 677.09396708562417 0 0 0 0 804.57888757558374 412.83230926113902 0 412.83230926113902 302.50593281866168 0 0 0 0 724.87053776530502 -295.30238023341371 0 -295.30238023341371 -104.48484566961997 0 0 0 0 0.12926973644737252 -1.7315859254846218 0 -1.7315859254846218 10.091814515666968 0 0 0 0 -307.59434979908519 111.18944761719104 0 111.18944761719104 524.97530434768851 0 0 0 0 -56.210781278574814 -195.63007854598618 0 -195.63007854598618 12.416748246012503 0 0 0 0 494.40022558012851 -699.93372492425442 0 -699.93372492425442 641.59978825103462 0 0 0 0 -423.89488328499874 102.3030354362345 0 102.3030354362345 1074.6786166875886 0 0 0 0 -314.02258685592307 -402.57139774741063 0 -402.57139774741063 1840.189233316356 0 0 0 0 -182.84036070566003 -119.70221444348499 0 -119.70221444348499 -27.690054420792876 0 0 0 0 -173.83340894626201 -6.6544599942608329 0 -6.6544599942608329 87.737931553758244 0 0 0 0 -3.9932850873300727 -3.7450333550163668 0 -3.7450333550163668 26.784666793267746 0 0 0 0 -89.758178040332268 -205.0261999267168 0 -205.0261999267168 -226.00864807887046 0 0 0 0 -63.605217775684778 77.300396320417207 0 77.300396320417207 168.96768035342393 0 0 0 0 -376.32457069463226 -151.4845116201468 0 -151.4845116201468 87.01956958752271 0 0 0 0 -248.06066329966688 14.426788683980703 0 14.426788683980703 923.39610929996525 0 0 0 0 -214.18023071754214 -159.29986334042769 0 -159.29986334042769 917.79910538676631 0 0 0 0 233.45276723174675 -274.40988914403169 0 -274.40988914403169 510.31833868415561 0 0 0 0 106.51337765577648 303.39942910374634 0 303.39942910374634 149.90378771548058 0 0 0 0 -63.218171782532409 295.47380977531247 0 295.47380977531247 -19.282089542411995 0 0 0 0 -50.760867619064811 206.60986891765606 0 206.60986891765606 100.58222871323414 0 0 0 0 -0.77825165228587201 -3.2619942119496983 0 -3.2619942119496983 138.79131488363777 0 0 0 0 155.64931336863043 20.25363965899669 0 20.25363965899669 69.577526195189421 0 0 0 0 -94.480212791884696 -123.71492483886323 0 -123.71492483886323 136.83487068634349 0 0 0 0 -88.047910988661897 -166.45480906714874 0 -166.45480906714874 -62.515661524193774 0 0 0 0 -354.16410177914918 58.204645392303064 0 58.204645392303064 113.14162004947138 0 0 0 0 -164.54491297185268 -54.366862077647966 0 -54.366862077647966 155.46448516072996 0 0 0 0 -199.82416035545657 53.847789769872179 0 53.847789769872179 26.927910827649612 0 0 0 0 -5.565767459600603 -0.28119356357572656 0 -0.28119356357572656 7.7151372833309182 0 0 0 0 -173.02735221552166 143.19439933558442 0 143.19439933558442 -83.68796099445899 0 0 0 0 -140.02767360270997 80.483584176950217 0 80.483584176950217 248.93547272338037 0 0 0 0 -3.4246405561951869 0.87983713289773213 0 0.87983713289773213 26.431491453544595 0 0 0 0 -96.180921806466358 62.367991026434538 0 62.367991026434538 1.2763053394737653 0 0 0 0 0.24111098375698181 1.6565989214399703 0 1.6565989214399703 9.9052866892195368 0 0 0 0 466.66635394919103 578.18035645481177 0 578.18035645481177 -5.2663227178127272 0 0 0 0 403.0833327804072 356.08818916638575 0 356.08818916638575 247.32589257314248 0 0 0 0 321.83772145798457 325.46251616254085 0 325.46251616254085 455.99287195655779 0 0 0 0 170.99072523167297 860.00743579312257 0 860.00743579312257 -123.39747266272752 0 0 0 0 0.15399271982481899 -3.9904237294625631 0 -3.9904237294625631 15.097200508585367 0 0 0 0 -517.0530988603482 -125.0717430848199 0 -125.0717430848199 610.12856118407217 0 0 0 0 509.72351910961243 304.61828277129825 0 304.61828277129825 5.1815854362685059 0 0 0 0 -217.65276694483236 -36.552905430587998 0 -36.552905430587998 382.42433100798371 0 0 0 0 -218.32044526219215 9.273490162435337 0 9.273490162435337 398.76051741762785 0 0 0 0 -197.43309846126203 5.3022643324293313 0 5.3022643324293313 348.54940827938117 0 0 0 0 -226.3642678363899 -64.857641893023356 0 -64.857641893023356 317.08768209666596 0 0 0 0 -183.19034581416253 -104.94175825986963 0 -104.94175825986963 219.99631513416534 0 0 0 0 -136.63619159400241 -13.797433232251933 0 -13.797433232251933 209.77282763116091 0 0 0 0 -174.46346013909806 -67.243437909055501 0 -67.243437909055501 223.01430892358258 0 0 0 0 -22.791528017284165 26.42483818712941 0 26.42483818712941 26.07182684636977 0 0 0 0 -201.31989125884252 -10.317559134098701 0 -10.317559134098701 287.27715753844677 0 0 0 0 -119.67590382072194 11.605748158883216 0 11.605748158883216 279.21470947281705 0 0 0 0 -120.37797516913724 -9.6604644224898948 0 -9.6604644224898948 279.95928448023187 0 0 0 0 35.447663901437409 10.252851916626241 0 10.252851916626241 237.77750032104814 0 0 0 0 -2.6252951263435094 23.820857083650964 0 23.820857083650964 61.326704396088381 0 0 0 0 -11.516954496673563 31.896743805430688 0 31.896743805430688 72.309915062991578 0 0 0 0 91.372566828238632 72.215251842295402 0 72.215251842295402 -27.184908562205237 0 0 0 0 53.563057535993721 -29.429820149616717 0 -29.429820149616717 192.94021658399288 0 0 0 0 61.793590019819021 -49.192435432603816 0 -49.192435432603816 166.92292247997102 0 0 0 0 91.12712863508068 -17.228369152120649 0 -17.228369152120649 166.88142390397843 0 0 0 0 -118.9092376971366 -50.415300158803234 0 -50.415300158803234 216.47027104176959 0 0 0 0 -4.2589310937892151 -52.923849529477593 0 -52.923849529477593 412.31628500088846 0 0 0 0 5.842457137969177 -54.903529777142012 0 -54.903529777142012 154.69134777407453 0 0 0 0 -61.350442918330828 -131.10924941978374 0 -131.10924941978374 330.91551707549388 0 0 0 0 -34.46194089216624 56.177617780422224 0 56.177617780422224 178.63414421222114 0 0 0 0 25.872970620691376 33.042748141509946 0 33.042748141509946 236.04975514039688 0 0 0 0 45.043549817316489 46.462051357399105 0 46.462051357399105 104.21520286692976 0 0 0 0 199.19061315366162 68.510938879451714 0 68.510938879451714 203.41605959968729 0 0 0 0 65.190669548125697 -15.585178913748678 0 -15.585178913748678 440.01549167331177 0 0 0 0 97.549153240247506 25.854441204974137 0 25.854441204974137 221.0192196202479 0 0 0 0 43.478895395351174 -102.93770624495301 0 -102.93770624495301 678.06975788027921 0 0 0 0 161.6265604237733 -28.597698243498598 0 -28.597698243498598 427.39835704564393 0 0 0 0 201.77000638127811 -150.51234978003049 0 -150.51234978003049 861.9304629013568 0 0 0 0 160.75891252328029 -250.41477003507862 0 -250.41477003507862 618.97362275220075 0 0 0 0 -14.823320917794945 -297.65565172070637 0 -297.65565172070637 511.80587497670786 0 0 0 0 55.123218459618784 -69.092059499157131 0 -69.092059499157131 393.13845132218557 0 0 0 0 -69.982178319930426 -142.41276686953643 0 -142.41276686953643 574.56193602261192 0 0 0 0 -72.121955501477373 -172.57034449177809 0 -172.57034449177809 321.93870302131836 0 0 0 0 -144.50480616245477 -214.52114306228395 0 -214.52114306228395 457.42285153415287 0 0 0 0 0.88649187329107848 -2.0939097736740351 0 -2.0939097736740351 10.821202509855425 0 0 0 0 -8.4403597154846466 1840.0652432312072 0 1840.0652432312072 561.59868899383389 0 0 0 0 -145.80499497296503 -242.70202753354442 0 -242.70202753354442 245.8329491919103 0 0 0 0 532.93908543963346 -4.0449066548535484 0 -4.0449066548535484 -9.4784127759376133 0 0 0 0 -6.7355549778024617 -0.031945145539580722 0 -0.031945145539580722 7.4687443806779186 0 0 0 0 322.10961631439795 105.61468966924076 0 105.61468966924076 -20.633885142046893 0 0 0 0 129.70754268891699 -95.844172049506597 0 -95.844172049506597 313.54012831337604 0 0 0 0 389.43829226263006 299.74896234491462 0 299.74896234491462 171.14577962440308 0 0 0 0 -84.002105123556248 82.597221494053883 0 82.597221494053883 -31.424750679264889 0 0 0 0 -50.6887026264219 16.03235316979044 0 16.03235316979044 98.608111067278514 0 0 0 0 -61.180722634139784 -132.80820464040517 0 -132.80820464040517 13.534495443163905 0 0 0 0 -16.024885240571166 72.426812794750731 0 72.426812794750731 8.9664275949289731 0 0 0 0 -42.4339308003714 78.982745883124153 0 78.982745883124153 10.447524837822129 0 0 0 0 -133.93224904242533 34.074980349176712 0 34.074980349176712 40.051419232000626 0 0 0 0 310.88943557053062 279.52211966838877 0 279.52211966838877 263.22291243088694 0 0 0 0 1.0405177553774654 -8.7702290640881522 0 -8.7702290640881522 33.17960636798334 0 0 0 0 -1.5230590071472088 0.68770291110493531 0 0.68770291110493531 45.633909975115643 0 0 0 0 -24.144056308341078 5.5232302607910242 0 5.5232302607910242 136.76655503417714 0 0 0 0 -1.5143624428108491 7.703646533189918 0 7.703646533189918 9.7053626271755995 0 0 0 0 -78.825551928283403 52.493179271228655 0 52.493179271228655 7.8422797603998333 0 0 0 0 44.174650227706934 -38.521454030425957 0 -38.521454030425957 110.26109238434947 0 0 0 0 31.352554675036572 9.2630689734378393 0 9.2630689734378393 88.059719555611082 0 0 0 0 2.3661511822848968 9.2625887183502655 0 9.2625887183502655 3.4710080095604319 0 0 0 0 61.40690226717561 33.108885209669097 0 33.108885209669097 -118.08832553113098 0 0 0 0 -32.547217620253832 28.528025067892258 0 28.528025067892258 -20.081831599076395 0 0 0 0 38.295172320188613 92.498488340970653 0 92.498488340970653 10.952886030507216 0 0 0 0 -5.5143137833385936 35.01449702036507 0 35.01449702036507 102.04130356256064 0 0 0 0 96.407998948221575 68.142924465064425 0 68.142924465064425 75.647232236904529 0 0 0 0 92.636374773777789 -12.058091622882785 0 -12.058091622882785 153.20246916603355 0 0 0 0 108.95422270696326 86.324651280650869 0 86.324651280650869 95.905862111896568 0 0 0 0 54.95887935617543 31.002945256374915 0 31.002945256374915 52.51436112200463 0 0 0 0 53.438074538344154 109.2111160692366 0 109.2111160692366 -33.849756073093886 0 0 0 0 62.649298864131197 10.082930288255739 0 10.082930288255739 18.039701360987237 0 0 0 0 85.413511631095844 46.035263566373942 0 46.035263566373942 -35.766604142612778 0 0 0 0 45.118486133308579 -25.017181687489938 0 -25.017181687489938 150.39876763362918 0 0 0 0 -89.55071234353727 48.215133260429866 0 48.215133260429866 -33.873777764198621 0 0 0 0 52.943191300827493 123.56930261256639 0 123.56930261256639 -168.09170742498645 0 0 0 0 -239.89659196373282 216.94797536161877 0 216.94797536161877 200.62432558522414 0 0 0 0 -2.248997210737798 -308.51955658119732 0 -308.51955658119732 531.11916426927201 0 0 0 0 -378.30697999312099 85.716751376206048 0 85.716751376206048 631.87352349670982 0 0 0 0 -173.82404267825177 -48.073530554707759 0 -48.073530554707759 192.63126162998378 0 0 0 0 -93.140650320397754 -220.29073981855345 0 -220.29073981855345 258.74430130375549 0 0 0 0 442.0495332571204 -249.58211892502004 0 -249.58211892502004 119.03182548537006 0 0 0 0 229.42085897078482 203.34840916436769 0 203.34840916436769 162.71775254419117 0 0 0 0 0.8417235399855415 -1.6331426593506837 0 -1.6331426593506837 6.9843072790493466 0 0 0 0 -113.22046731183173 199.0258275847591 0 199.0258275847591 411.06130874282826 0 0 0 0 418.25412256624259 -65.543568258006417 0 -65.543568258006417 -174.98834744541091 0 0 0 0 241.55762322211649 47.378440502368903 0 47.378440502368903 -214.34603017217523 0 0 0 0 -34.539301183076759 -3.6303214728268358 0 -3.6303214728268358 231.2289705573894 0 0 0 0 0.39533810374746459 -2.1759398536710677 0 -2.1759398536710677 5.4238789072331475 0 0 0 0 811.33912171800148 -492.02352759383939 0 -492.02352759383939 175.16894822004542 0 0 0 0 -120.26925406358441 -90.777450110491372 0 -90.777450110491372 101.6125207747973 0 0 0 0 4.1298390718802693 21.80739136099146 0 21.80739136099146 242.14369130431442 0 0 0 0 -151.01217859306507 -177.32121172355255 0 -177.32121172355255 -141.01908937483768 0 0 0 0 -5.4176557679632218 1.418629649320259 0 1.418629649320259 46.791474483145123 0 0 0 0 -138.01197603066976 -0.87857293021079386 0 -0.87857293021079386 169.08748929363628 0 0 0 0 -319.66851368754578 -89.779754634848359 0 -89.779754634848359 160.834535468166 0 0 0 0 -8.8970811963041232 -23.227286201961032 0 -23.227286201961032 101.01127524334336 0 0 0 0 -7.736077951691442 -13.472966148705382 0 -13.472966148705382 147.65715161653497 0 0 0 0 -76.926241814599052 -4.4506541804803419 0 -4.4506541804803419 162.06050893493375 0 0 0 0 -63.862390245245479 36.908405091431632 0 36.908405091431632 111.26430387685105 0 0 0 0 -2.9517193308651919 45.302644045858827 0 45.302644045858827 18.979765268698941 0 0 0 0 -76.679893274379339 15.833905913876833 0 15.833905913876833 70.930092545720981 0 0 0 0 -43.147126382575152 7.6360069199981808 0 7.6360069199981808 133.11280421488118 0 0 0 0 -244.83001678559049 -168.22242087751511 0 -168.22242087751511 -46.441495956860308 0 0 0 0 -172.72804379655827 -107.14130570791167 0 -107.14130570791167 168.33869836298254 0 0 0 0 -58.352128470738535 -22.452971757033083 0 -22.452971757033083 109.21062604179315 0 0 0 0 -26.787478419467107 98.005736560477089 0 98.005736560477089 271.13314497896499 0 0 0 0 -109.41247637446259 -126.24209579148373 0 -126.24209579148373 357.3126655925189 0 0 0 0 -116.79618306939801 12.16153352485162 0 12.16153352485162 190.20523531157232 0 0 0 0 32.558369172866151 74.707079165453251 0 74.707079165453251 124.07176089486165 0 0 0 0 -41.655687568110807 67.140513651105721 0 67.140513651105721 191.06740983966341 0 0 0 0 -62.421525707665751 19.030519012511832 0 19.030519012511832 134.16437100010808 0 0 0 0 -7.5345393611364671 20.353769808029028 0 20.353769808029028 132.82783137077422 0 0 0 0 -2.8431749049213977 19.856971739536675 0 19.856971739536675 60.43397525409091 0 0 0 0 -4.0548407126233528 -29.948611227233478 0 -29.948611227233478 108.65790874774402 0 0 0 0 -47.730075599028623 1.3852999070149963 0 1.3852999070149963 139.66127259998757 0 0 0 0 -29.188636377625016 -5.693994429497252 0 -5.693994429497252 142.34997954699793 0 0 0 0 -553.33500921388259 -224.94509713964362 0 -224.94509713964362 188.04941306445107 0 0 0 0 5.1510586150802737 3.3713001208889182 0 3.3713001208889182 51.530455951724434 0 0 0 0 0.63940006733917443 11.154474977101998 0 11.154474977101998 33.563688889709418 0 0 0 0 8.1069650989902584 8.7145768327609403 0 8.7145768327609403 46.682724356101971 0 0 0 0 -6.440696372941602 -2.9685956527428061 0 -2.9685956527428061 86.929460530856886 0 0 0 0 -6.3371090439177333 10.98230648145497 0 10.98230648145497 21.292601064676695 0 0 0 0 9.6792415765016813 20.640458667641724 0 20.640458667641724 57.454765563546971 0 0 0 0 -1.3941136356606747 -2.2474959591138663 0 -2.2474959591138663 21.15798482661917 0 0 0 0 41.702557261736615 -34.252022852446316 0 -34.252022852446316 45.625571177946767 0 0 0 0 -5.1497039484100924 11.243700679659014 0 11.243700679659014 69.961430188493978 0 0 0 0 -6.9227424722002979 -15.323043830081588 0 -15.323043830081588 42.876204790123666 0 0 0 0 -11.12897447449842 -31.269670627682217 0 -31.269670627682217 82.360389829445921 0 0 0 0 -13.457492177252561 -57.247010677756407 0 -57.247010677756407 76.894200069607905 0 0 0 0 7.160684310314025 -63.822464847380616 0 -63.822464847380616 25.256440933022532 0 0 0 0 127.86095648988936 -42.699277177854128 0 -42.699277177854128 22.794212202534254 0 0 0 0 39.714050116813155 35.801362118960242 0 35.801362118960242 22.931755319303193 0 0 0 0 -41.988986761120941 -32.520288669658839 0 -32.520288669658839 109.88833721389528 0 0 0 0 -1.7343021113138093 -30.042972601113433 0 -30.042972601113433 81.767357012227876 0 0 0 0 0.95364509968931088 -16.067630333316629 0 -16.067630333316629 97.142562804787303 0 0 0 0 -18.077946952977754 -6.2504316167123761 0 -6.2504316167123761 95.973747717915103 0 0 0 0 -18.188137311630271 -5.3753391963618924 0 -5.3753391963618924 126.07892721267854 0 0 0 0 -76.930102883520249 -4.0744767570777185 0 -4.0744767570777185 173.15540343480825 0 0 0 0 -16.135777589097415 33.01432648635091 0 33.01432648635091 107.09266534396738 0 0 0 0 -6.4347293603332218 53.443696427915711 0 53.443696427915711 129.51513556524878 0 0 0 0 10.34817846833721 102.9086264097059 0 102.9086264097059 203.96503524259606 0 0 0 0 6.1707133667065897 38.82665185308565 0 38.82665185308565 44.332607313148372 0 0 0 0 1.7619266368674289 0.10251101630274206 0 0.10251101630274206 85.360253259284946 0 0 0 0 -86.81753204314191 70.372237202307588 0 70.372237202307588 108.24268383515937 0 0 0 0 4.1032108013714605 -14.474493560162955 0 -14.474493560162955 97.89963705050468 0 0 0 0 19.908961933781029 -3.0623395016154973 0 -3.0623395016154973 85.490419153691619 0 0 0 0 29.36875708889329 -13.486338721679203 0 -13.486338721679203 89.499197526194621 0 0 0 0 -29.345919864239477 216.19599697885133 0 216.19599697885133 -2.9677688841875351 0 0 0 0 -2.3373991598670294 24.156949808994469 0 24.156949808994469 47.130313363584747 0 0 0 0 29.16309533495496 -12.047978405011236 0 -12.047978405011236 98.353308359379298 0 0 0 0 -17.812079155504762 -3.1293096960544062 0 -3.1293096960544062 140.80090840179037 0 0 0 0 -23.261800833224697 128.66607211162045 0 128.66607211162045 -49.426290971015987 0 0 0 0 -2.1432305338612423 -44.095790764595222 0 -44.095790764595222 47.180084930194425 0 0 0 0 -10.046152330304416 28.134551064842682 0 28.134551064842682 8.6640172319036886 0 0 0 0 -28.804350955300492 102.9080281227416 0 102.9080281227416 309.3444642979448 0 0 0 0 35.917846364748584 -39.635743459642981 0 -39.635743459642981 163.62520283047706 0 0 0 0 -7.469795446649492 15.88766083290006 0 15.88766083290006 18.291720956993032 0 0 0 0 86.513883722324863 169.42868903331691 0 169.42868903331691 228.02689277031095 0 0 0 0 134.76874380873414 -91.533723682783602 0 -91.533723682783602 -4.453784542856738 0 0 0 0 -203.10071909214093 -9.4287121150118764 0 -9.4287121150118764 340.37324878722575 0 0 0 0 99.381907969071108 314.53653926188417 0 314.53653926188417 104.97908402624307 0 0 0 0 -120.50953642114655 81.480868758393626 0 81.480868758393626 -75.170765608570946 0 0 0 0 62.897434210131905 -8.785505577303411 0 -8.785505577303411 -471.55309656886675 0 0 0 0 -226.00462393188627 146.13809530578146 0 146.13809530578146 -132.46697765975114 0 0 0 0 143.79471697118788 158.14802450608113 0 158.14802450608113 251.87202319133939 0 0 0 0 -727.30035275798764 -55.131776440277463 0 -55.131776440277463 1272.9524054395006 0 0 0 0 -3.6295380462074807 -2.3762715611089362 0 -2.3762715611089362 15.786434679183053 0 0 0 0 2175.3014877843489 -722.05350248513423 0 -722.05350248513423 337.80817984274472 0 0 0 0 -0.73136155964564509 -2.3712064928637204 0 -2.3712064928637204 11.323158026570667 0 0 0 0 -5.6468507750521582 -7.3212139279289232 0 -7.3212139279289232 32.844304337299917 0 0 0 0 -410.21392748296421 219.17661158718693 0 219.17661158718693 36.644168891200025 0 0 0 0 -415.49618717617523 0.21076055351295508 0 0.21076055351295508 70.774469650234096 0 0 0 0 956.99663624338154 900.87274309000713 0 900.87274309000713 15.457933078665519 0 0 0 0 -430.57649796580336 -65.462564298053621 0 -65.462564298053621 153.90725988755003 0 0 0 0 -10.273591682775532 -17.563485521939583 0 -17.563485521939583 34.562390997321927 0 0 0 0 7.659131962700922 -25.235037097988936 0 -25.235037097988936 73.270233199828169 0 0 0 0 36.582805208471655 -160.83188179434273 0 -160.83188179434273 -174.91519843910646 0 0 0 0 -435.65648007618074 24.878986338910181 0 24.878986338910181 267.16000528237873 0 0 0 0 -408.1300182158011 -62.271723214231315 0 -62.271723214231315 497.13599973032251 0 0 0 0 -361.89907104103622 -43.646929653226834 0 -43.646929653226834 252.24127900548046 0 0 0 0 -394.09662037907765 -135.05300689664728 0 -135.05300689664728 270.29576977273928 0 0 0 0 -430.53296200207478 -68.645750489173224 0 -68.645750489173224 160.75950501997431 0 0 0 0 -323.02929637246416 -75.125193667729036 0 -75.125193667729036 -79.587022303850972 0 0 0 0 -321.12188710681221 -175.37960548610135 0 -175.37960548610135 171.30870099636377 0 0 0 0 -168.26750685966999 -182.90520560737787 0 -182.90520560737787 288.37407415840426 0 0 0 0 -257.72023979877122 -70.048332001126255 0 -70.048332001126255 146.01788760113777 0 0 0 0 -226.93652991134627 -10.673769383887702 0 -10.673769383887702 391.69220225836034 0 0 0 0 -249.72216207029305 -120.9149270283815 0 -120.9149270283815 296.90316700193216 0 0 0 0 14.522514194938744 -27.906787491518585 0 -27.906787491518585 19.060787033473559 0 0 0 0 -1119.5373769456592 428.4547125530662 0 428.4547125530662 699.89021602544381 0 0 0 0 -329.78304792506469 -12.75063058888918 0 -12.75063058888918 778.75736340295407 0 0 0 0 27.232083690954823 -6.4483746785263065 0 -6.4483746785263065 100.89885688087088 0 0 0 0 -423.11646892420504 199.8083354520495 0 199.8083354520495 412.67787945722739 0 0 0 0 26.909788690849382 -3.4915337617130717 0 -3.4915337617130717 94.264938615164283 0 0 0 0 21.367403549093979 -15.909256047882081 0 -15.909256047882081 89.392041731902282 0 0 0 0 98.752566342512182 -189.62564382848359 0 -189.62564382848359 483.78105158732797 0 0 0 0 54.583666369978346 -52.743379258543428 0 -52.743379258543428 129.97547471632424 0 0 0 0 -14.015032296924801 61.149586721490778 0 61.149586721490778 410.18366256150148 0 0 0 0 43.846252338003978 -46.758039679476497 0 -46.758039679476497 241.01430113999231 0 0 0 0 381.97065379887079 213.44471784203961 0 213.44471784203961 367.65789223992033 0 0 0 0 37.702831964891118 -153.16872390089702 0 -153.16872390089702 1108.2643653587729 0 0 0 0 -41.540106991784342 -13.006006998148223 0 -13.006006998148223 944.74860054255441 0 0 0 0 -270.69237440661954 674.35177255068265 0 674.35177255068265 851.65099624816503 0 0 0 0 25.077754097608462 -28.55960725717344 0 -28.55960725717344 13.365037094509638 0 0 0 0 7.161271187273087 -16.446010505533195 0 -16.446010505533195 92.393053326915833 0 0 0 0 152.47205800805341 345.02430023324996 0 345.02430023324996 385.33193207290242 0 0 0 0 10.258695519354205 -16.459150053125086 0 -16.459150053125086 88.448380790825468 0 0 0 0 1377.9772547737928 -998.48433803174703 0 -998.48433803174703 -185.54420675360598 0 0 0 0 515.72126459492506 -655.12412604470592 0 -655.12412604470592 95.386001184138877 0 0 0 0 551.25731851911337 -708.96756719175937 0 -708.96756719175937 173.43166218037368 0 0 0 0 303.02353871374999 -509.88629297970328 0 -509.88629297970328 379.82674997251888 0 0 0 0 260.88996694162836 -571.41168772013771 0 -571.41168772013771 623.63783135422273 0 0 0 0 22.772915362708773 -30.173185166106123 0 -30.173185166106123 546.74106350014335 0 0 0 0 316.42260103726562 -492.96495822016004 0 -492.96495822016004 374.34420665241487 0 0 0 0 148.66112529709244 -315.2415589654338 0 -315.2415589654338 61.752038444676145 0 0 0 0 155.61371724452783 -293.07577400910304 0 -293.07577400910304 132.2027086988237 0 0 0 0 -96.837798968220341 -35.602933067792037 0 -35.602933067792037 303.92233789605962 0 0 0 0 -142.15473313500388 -192.30500565822331 0 -192.30500565822331 69.078364475397393 0 0 0 0 -104.68401976628274 -91.678007837377663 0 -91.678007837377663 -112.89324294785911 0 0 0 0 -208.30741894478933 -275.83544491166685 0 -275.83544491166685 55.342524213978322 0 0 0 0 0.56090737972862037 -11.166944355181265 0 -11.166944355181265 37.966007783504764 0 0 0 0 33.331329999979062 -478.1968647044705 0 -478.1968647044705 -58.930098495451603 0 0 0 0 -306.33209199619978 -526.18026678625756 0 -526.18026678625756 -41.348178846899827 0 0 0 0 -40.42735668131354 -315.69903490427896 0 -315.69903490427896 -414.27245199498429 0 0 0 0 598.80684160704845 -557.06129051877724 0 -557.06129051877724 -45.861105867894366 0 0 0 0 246.42518376570206 -280.05874534830946 0 -280.05874534830946 -60.769958168428275 0 0 0 0 351.4151101094003 -481.36747147473216 0 -481.36747147473216 -34.649473975316141 0 0 0 0 -3.6080990030250177 84.528349480639008 0 84.528349480639008 55.223829261136416 0 0 0 0 4.0014214888190738 -2.1075199958982012 0 -2.1075199958982012 16.690562973406614 0 0 0 0 -28.225591941230277 15.362541335854985 0 15.362541335854985 36.69098051081528 0 0 0 0 9.3764604135658374 53.183424405844562 0 53.183424405844562 -14.860560984016047 0 0 0 0 -510.55746910235393 -101.48404094086436 0 -101.48404094086436 94.439896439442236 0 0 0 0 -729.32962980632078 -422.25353396142509 0 -422.25353396142509 98.961079703381984 0 0 0 0 128.87800476013626 -6.4597976036711771 0 -6.4597976036711771 -46.274427999460386 0 0 0 0 -296.59175756375771 -101.62712608314905 0 -101.62712608314905 692.43082500803575 0 0 0 0 0.71766743914348119 -1.863679147746609 0 -1.863679147746609 4.6626895967940243 0 0 0 0 -623.55957597103225 40.938019303910551 0 40.938019303910551 -164.55176392952126 0 0 0 0 4.7478205087397782 -22.684872422770667 0 -22.684872422770667 58.305674650042022 0 0 0 0 -249.89935975614935 -93.927515150156978 0 -93.927515150156978 197.55346867401386 0 0 0 0 -363.36268061391092 -293.31590865275939 0 -293.31590865275939 96.446187582449056 0 0 0 0 -463.96153653311455 -472.47359134885619 0 -472.47359134885619 -22.483119870579685 0 0 0 0 -263.30640142291577 -309.81429954004125 0 -309.81429954004125 -198.01091669617745 0 0 0 0 96.449494731062259 -93.444389763455547 0 -93.444389763455547 84.955574622814311 0 0 0 0 72.235340558195276 -129.95351334743464 0 -129.95351334743464 297.10125526732008 0 0 0 0 528.05581862340659 511.92475706851837 0 511.92475706851837 -427.69667744397884 0 0 0 0 11.632773486904625 -12.525541167895426 0 -12.525541167895426 520.87653698635404 0 0 0 0 4.6260924128491752 179.50025158733479 0 179.50025158733479 517.61018993947073 0 0 0 0 25.788724660274056 52.704896065413777 0 52.704896065413777 -3.9977511624892941 0 0 0 0 15.321822609115998 164.24615629831169 0 164.24615629831169 311.58955273483298 0 0 0 0 13.347358813001961 -41.11659249744207 0 -41.11659249744207 226.00705700351682 0 0 0 0 -9.8392972387950977 -24.862165483415083 0 -24.862165483415083 132.49328814931505 0 0 0 0 36.292300865149173 -66.177919594081686 0 -66.177919594081686 131.01204094270361 0 0 0 0 5.3259825791774347 -69.348965957360633 0 -69.348965957360633 257.2894219910595 0 0 0 0 83.88244499121538 -94.897033381177607 0 -94.897033381177607 109.02496302072541 0 0 0 0 48.166413178334551 -51.799012772913557 0 -51.799012772913557 86.211153321470192 0 0 0 0 23.378891900526469 -0.36024810874005198 0 -0.36024810874005198 28.297318305332738 0 0 0 0 30.53653728896461 -7.6615585821637069 0 -7.6615585821637069 35.401846652741369 0 0 0 0 50.193210406685466 4.3404376607941231 0 4.3404376607941231 -17.503184173154295 0 0 0 0 109.68549672821337 -73.114366856352717 0 -73.114366856352717 45.569879417664197 0 0 0 0 44.226032383959591 0.64884667413207353 0 0.64884667413207353 19.511276720499154 0 0 0 0 30.146361784279179 10.102789921336807 0 10.102789921336807 14.440251217234618 0 0 0 0 -364.11603999630069 596.82273866277308 0 596.82273866277308 3077.2776268098969 0 0 0 0 -351.1403749023271 470.09664003819512 0 470.09664003819512 2594.5223094955363 0 0 0 0 12.332514593272975 1154.9024731998343 0 1154.9024731998343 3494.8477754559826 0 0 0 0 1069.0329088998701 1572.7096649616669 0 1572.7096649616669 2525.7644096579897 0 0 0 0 10.013692316605436 0.16653989967130656 0 0.16653989967130656 10.001029534318437 0 0 0 0 752.32807555261718 857.09279525481543 0 857.09279525481543 919.26026912233283 0 0 0 0 -2.1027588566626036 7.0037299918039935 0 7.0037299918039935 34.461190291207458 0 0 0 0 10.337912792554107 1.9950128123109607 0 1.9950128123109607 40.817945991351735 0 0 0 0 206.75940473477226 -83.59690743565443 0 -83.59690743565443 -62.03924770155254 0 0 0 0 1545.0395424193889 -320.58597348581679 0 -320.58597348581679 -82.822062589002599 0 0 0 0 -346.82798594348486 -90.851811959399129 0 -90.851811959399129 21.046840969735058 0 0 0 0 9.330390372622432 10.668350623527601 0 10.668350623527601 17.68423291989221 0 0 0 0 3.2364167482044355 5.5226422423225614 0 5.5226422423225614 8.7798576480747403 0 0 0 0 1309.288536890655 -162.85606531334633 0 -162.85606531334633 -613.84772346891987 0 0 0 0 541.72329615011358 275.13358480521856 0 275.13358480521856 -595.99893760211125 0 0 0 0 1619.9155673646801 -1029.86933977843 0 -1029.86933977843 493.90965173892619 0 0 0 0 1559.9940181549325 -548.90512702476917 0 -548.90512702476917 329.15140182153846 0 0 0 0 102.96848862823427 -538.73868346662493 0 -538.73868346662493 1402.3424714918365 0 0 0 0 5.2816461273007667 -4.6899657255357852 0 -4.6899657255357852 21.827931176078692 0 0 0 0 958.29570230132697 -1884.8450843223873 0 -1884.8450843223873 3463.2987477109418 0 0 0 0 1017.3372837026276 -1367.1036298604813 0 -1367.1036298604813 2155.2986527286957 0 0 0 0 -1045.0433038005056 -663.46548933890153 0 -663.46548933890153 3485.7383128175729 0 0 0 0 -0.69245226891162848 -4.4111017031143511 0 -4.4111017031143511 5.0771053064039791 0 0 0 0 -31.472244025514357 18.775093094355725 0 18.775093094355725 494.39798786195752 0 0 0 0 -36.524316330205579 113.64528054444963 0 113.64528054444963 83.492324207989441 0 0 0 0 -1.2144823149208051 -4.353100390702064 0 -4.353100390702064 5.0488361367514756 0 0 0 0 -223.18450181260516 -98.338200377625071 0 -98.338200377625071 263.99881831879611 0 0 0 0 1386.2176657685193 -850.69626064912882 0 -850.69626064912882 226.69884809228824 0 0 0 0 -247.99485496383065 -460.42883344099755 0 -460.42883344099755 -315.07234944640368 0 0 0 0 1798.7515401699304 -833.25183321624354 0 -833.25183321624354 -185.81298599090951 0 0 0 0 2.2447846144419787 -2.0776551429239731 0 -2.0776551429239731 71.222760668046249 0 0 0 0 -72.689101347031283 32.787193792051767 0 32.787193792051767 108.58296162043189 0 0 0 0 -48.975048695140686 5.5964831488308846 0 5.5964831488308846 68.172333098378658 0 0 0 0 187.60404556733556 39.89400094492521 0 39.89400094492521 142.81373631241149 0 0 0 0 -53.595375598651117 16.732764914693689 0 16.732764914693689 297.57069406162373 0 0 0 0 97.911687993960186 -25.974225067534462 0 -25.974225067534462 43.543556902994169 0 0 0 0 -6.0033000000266838 -12.528057164347047 0 -12.528057164347047 36.871257850700204 0 0 0 0 14.314458824876965 -103.87137530262953 0 -103.87137530262953 150.78812799480875 0 0 0 0 -4.7879158418213432 -9.4710226043817229 0 -9.4710226043817229 9.2613468147218754 0 0 0 0 -33.63521715791012 -38.321474936741652 0 -38.321474936741652 65.751117598440032 0 0 0 0 -12.123776760499368 -2.9325782323812746 0 -2.9325782323812746 88.498463178635575 0 0 0 0 -5.4778509774564936 -5.1415016940519855 0 -5.1415016940519855 78.533872686737396 0 0 0 0 -11.508608164778888 -15.264620450529534 0 -15.264620450529534 9.8448959254515138 0 0 0 0 -80.124035650089468 -60.12089759878495 0 -60.12089759878495 128.49534933346877 0 0 0 0 -8.8797034370336405 -0.47600548862828873 0 -0.47600548862828873 87.756786646845285 0 0 0 0 -3.2617758794699512 -0.98817962534485559 0 -0.98817962534485559 85.94164963773801 0 0 0 0 -3.2237146451578695 1.0824692735170061 0 1.0824692735170061 95.31629456646624 0 0 0 0 -8.1754846737194384 -14.704850940121105 0 -14.704850940121105 154.28500660061763 0 0 0 0 7.5612591961612452 45.611100978934701 0 45.611100978934701 124.02372566131817 0 0 0 0 -10.628138448126265 -0.89231608341287938 0 -0.89231608341287938 98.708330773682974 0 0 0 0 40.53267340148318 -32.199026343103469 0 -32.199026343103469 62.530700046154379 0 0 0 0 13.438088064495787 -25.820975279722916 0 -25.820975279722916 70.396086887922138 0 0 0 0 3.5635686933146644 -26.323661216007167 0 -26.323661216007167 105.20074943816508 0 0 0 0 19.033162406218253 -24.175524765945738 0 -24.175524765945738 74.138537087397708 0 0 0 0 -2.790862561614631 -14.620148417823657 0 -14.620148417823657 77.042075497280166 0 0 0 0 -0.68261102476481028 -15.619061604022136 0 -15.619061604022136 79.343924512933881 0 0 0 0 0.89327295036582655 -14.203190357166022 0 -14.203190357166022 74.823785113530903 0 0 0 0 6.6577375967808621 -13.734538171092936 0 -13.734538171092936 66.008462387566397 0 0 0 0 -24.177273470735443 -5.9736508318001142 0 -5.9736508318001142 2927.3400356865968 0 0 0 0 15.842244275894537 -5.0914368700895025 0 -5.0914368700895025 13.075879265660317 0 0 0 0 -199.19235552076532 -819.52205062367284 0 -819.52205062367284 4083.2758585056872 0 0 0 0 22.818459820635326 -12.01186656077698 0 -12.01186656077698 42.308434266324184 0 0 0 0 -74.99283062031742 293.39508493485118 0 293.39508493485118 2347.0603978417998 0 0 0 0 14.728642470526395 -1.7006330223386641 0 -1.7006330223386641 1.1777301080319162 0 0 0 0 -98.684508450546232 98.263231903009 0 98.263231903009 3232.2400065233523 0 0 0 0 -415.17365533937925 327.08326825570111 0 327.08326825570111 3500.6373102392608 0 0 0 0 -94.979831953998314 327.88088108200139 0 327.88088108200139 3334.4754962785373 0 0 0 0 -96.784042183678807 245.91298002066833 0 245.91298002066833 3161.8371145905821 0 0 0 0 69.611481080563323 127.81239017176267 0 127.81239017176267 3723.215180392559 0 0 0 0 165.97547992779954 66.469105790906724 0 66.469105790906724 3499.5135414109682 0 0 0 0 15.776393745529127 15.717301249308179 0 15.717301249308179 10.437052462542272 0 0 0 0 140.44384723680295 299.01411140026539 0 299.01411140026539 3452.3740331887966 0 0 0 0 -117.8734842098745 611.16128689027937 0 611.16128689027937 3945.7086582771663 0 0 0 0 4.3234880274235472 4.4319497645064443 0 4.4319497645064443 2.6744206263565928 0 0 0 0 7.6695844286882675 89.893963865339174 0 89.893963865339174 -6.8695774359766801 0 0 0 0 -107.46481440540401 84.249676822888432 0 84.249676822888432 147.37758545351971 0 0 0 0 121.98319800636244 159.20939213466409 0 159.20939213466409 3564.2783306178899 0 0 0 0 178.41072804050268 544.37515591550164 0 544.37515591550164 4309.5328466057053 0 0 0 0 135.09171357885202 158.28010077471754 0 158.28010077471754 3500.5927310577936 0 0 0 0 302.01765958652499 549.60680073538242 0 549.60680073538242 3241.7360307289091 0 0 0 0 72.415256909627203 973.95432234976943 0 973.95432234976943 2334.7731777789559 0 0 0 0 268.49779047192686 512.37034231627331 0 512.37034231627331 486.70828231691121 0 0 0 0 -9.31142782740028 -107.30567181301876 0 -107.30567181301876 153.55681824878047 0 0 0 0 5.8826161061998015 5.5538885885730984 0 5.5538885885730984 2.574039398243956 0 0 0 0 182.59203577498556 115.62368642549882 0 115.62368642549882 -205.95691885819008 0 0 0 0 6.8611405675993353 587.22978788078603 0 587.22978788078603 3542.0522502806489 0 0 0 0 -124.47914527742023 525.52647377540416 0 525.52647377540416 3500.0234349243797 0 0 0 0 9.1920873529908889 599.33276808871005 0 599.33276808871005 3417.1739410962364 0 0 0 0 -266.94124671909697 209.1175994073219 0 209.1175994073219 3038.6547902677285 0 0 0 0 41.684016821599087 -405.09746740206538 0 -405.09746740206538 2188.3675300879977 0 0 0 0 -281.6501533852242 342.31515289202252 0 342.31515289202252 3409.5204524781689 0 0 0 0 -234.58886231363527 598.48747054031037 0 598.48747054031037 2901.3532220103007 0 0 0 0 4.086351538131705 4.7669913984984902 0 4.7669913984984902 5.737907125467844 0 0 0 0 -176.87351356729533 -106.77476747584842 0 -106.77476747584842 4807.4271154452617 0 0 0 0 -63.290718978746725 657.61894299612231 0 657.61894299612231 3679.764014532233 0 0 0 0 -134.0368535118817 -417.08319887674224 0 -417.08319887674224 3443.5978892660492 0 0 0 0 265.06926063088656 473.6893467486384 0 473.6893467486384 3518.2227101263525 0 0 0 0 13.723802905450571 17.812654011183675 0 17.812654011183675 12.44429338759033 0 0 0 0 52.298431591808821 15.841103704565285 0 15.841103704565285 -17.509905179747875 0 0 0 0 -11.433109316943955 13.780065758402088 0 13.780065758402088 13.069273190539207 0 0 0 0 16.925540910428026 180.58269145674149 0 180.58269145674149 -207.4024525415586 0 0 0 0 -22.380128265483108 217.21591025272187 0 217.21591025272187 -90.678724193020116 0 0 0 0 98.554348114836387 328.72344442424583 0 328.72344442424583 1510.227471971144 0 0 0 0 -25.513506003076145 74.184499759767959 0 74.184499759767959 22.517398718082404 0 0 0 0 13.584593003171086 10.851290619741997 0 10.851290619741997 3.8750030241280413 0 0 0 0 -55.871898341924989 -230.1582067804211 0 -230.1582067804211 1123.5416594083945 0 0 0 0 -124.82966358627709 244.61731622849084 0 244.61731622849084 238.00420163430999 0 0 0 0 -66.245840384450275 121.50792864993173 0 121.50792864993173 18.774413409393219 0 0 0 0 -197.41004441294149 490.41683723103779 0 490.41683723103779 645.6507589118537 0 0 0 0 -103.45245395483926 328.46865607891414 0 328.46865607891414 -94.758978466711596 0 0 0 0 23.936700332480541 -20.605833169545804 0 -20.605833169545804 72.102241548951497 0 0 0 0 2.8920645763528228 10.090708015961354 0 10.090708015961354 166.76930661922597 0 0 0 0 15.90104715680809 61.30214386582702 0 61.30214386582702 342.48894644868869 0 0 0 0 2.5847168556883782 5.8907247963833829 0 5.8907247963833829 9.8584897733908434 0 0 0 0 1.8777332780009601 -125.41701665040819 0 -125.41701665040819 259.01984365621865 0 0 0 0 9.7972689877469747 -66.345625901940366 0 -66.345625901940366 162.35754557577457 0 0 0 0 -34.622089554762169 -55.762552505822896 0 -55.762552505822896 228.32211554014975 0 0 0 0 39.44134453096035 -154.27406539227013 0 -154.27406539227013 445.33154011270813 0 0 0 0 -33.365969532616873 -22.29800995003103 0 -22.29800995003103 261.05241884139468 0 0 0 0 442.58715206486022 138.95576582681679 0 138.95576582681679 155.69552156490681 0 0 0 0 150.18755115797694 103.92848421349845 0 103.92848421349845 83.986172203794922 0 0 0 0 -28.847018127868978 73.599222905370311 0 73.599222905370311 33.551232818799235 0 0 0 0 -1.031940484288717 4.5820228393689177 0 4.5820228393689177 13.762302379704074 0 0 0 0 31.087335427310148 32.591870214110592 0 32.591870214110592 16.67618780380684 0 0 0 0 -69.431384844902823 -131.16868313339364 0 -131.16868313339364 226.19405111182095 0 0 0 0 -13.595995827794468 40.99574408010767 0 40.99574408010767 100.08195073348315 0 0 0 0 38.581648220968418 26.707278361479212 0 26.707278361479212 76.908379035809048 0 0 0 0 -12.449296713595686 59.679699970642105 0 59.679699970642105 76.508061630077634 0 0 0 0 19.114829332309455 54.647134904551422 0 54.647134904551422 40.655366575269909 0 0 0 0 -46.620215826184904 82.864041922076012 0 82.864041922076012 82.424073179819061 0 0 0 0 -17.691522012679343 58.611922755930209 0 58.611922755930209 101.16760847249225 0 0 0 0 9.9612755867510714 29.748120457656796 0 29.748120457656796 105.4466376283317 0 0 0 0 -11.851286045980434 -16.238472067134779 0 -16.238472067134779 72.263697089956537 0 0 0 0 19.207212604639608 10.206963067203219 0 10.206963067203219 106.71478226146883 0 0 0 0 29.415455753617906 33.735299727820511 0 33.735299727820511 30.718188602199156 0 0 0 0 16.988063490392051 26.139582908597731 0 26.139582908597731 71.220481447780912 0 0 0 0 -17.985416451124877 -67.598774881592362 0 -67.598774881592362 87.400717186374095 0 0 0 0 -38.079537089014821 -21.768573825170279 0 -21.768573825170279 307.30219914943882 0 0 0 0 -75.973685427379678 -152.96633141267012 0 -152.96633141267012 -86.299169590128258 0 0 0 0 -0.41281493426851767 1.2389283639734998 0 1.2389283639734998 -2.2659376729198826 0 0 0 0 -25.690770734279795 -33.572782639339493 0 -33.572782639339493 185.48564775277191 0 0 0 0 -7.7082359360986565 -29.076561065823928 0 -29.076561065823928 82.919211568179605 0 0 0 0 -2.1173932149380974 3.513839712505316 0 3.513839712505316 27.308692290831331 0 0 0 0 -118.15399654376961 3.6108066934557428 0 3.6108066934557428 115.08383159154891 0 0 0 0 -14.189045566641653 52.194408002200817 0 52.194408002200817 100.69969792652449 0 0 0 0 -241.81946166208036 46.46748349237896 0 46.46748349237896 266.8003600004804 0 0 0 0 -120.39630129672787 12.056318414314489 0 12.056318414314489 215.14463925643577 0 0 0 0 -275.80177811128647 19.907544973160725 0 19.907544973160725 872.32452281111273 0 0 0 0 -82.937045037957432 -334.78426845390004 0 -334.78426845390004 488.46261873547064 0 0 0 0 -99.632282578786544 -95.369726877956055 0 -95.369726877956055 85.681665270132726 0 0 0 0 -164.00669649584688 -314.05551015324181 0 -314.05551015324181 -90.127477196324435 0 0 0 0 -133.96341028264487 -91.616965803780658 0 -91.616965803780658 143.07034320442972 0 0 0 0 -136.02235201484473 -83.173261949658354 0 -83.173261949658354 208.29025132239872 0 0 0 0 -10.29837387562975 -20.323013160772462 0 -20.323013160772462 79.26810349576408 0 0 0 0 26.038437701392468 -83.23936990317452 0 -83.23936990317452 182.71926496685774 0 0 0 0 -2.3033419465128429 -37.351615832748998 0 -37.351615832748998 87.247079013724999 0 0 0 0 -15.442170118009926 -41.219598988972848 0 -41.219598988972848 201.09728938280978 0 0 0 0 -3.0509681621915163 -2.811084771611327 0 -2.811084771611327 26.534115288904246 0 0 0 0 23.204287902633428 -45.438878990661301 0 -45.438878990661301 71.644459261918158 0 0 0 0 6.561758600045323 -96.038977630633326 0 -96.038977630633326 160.40748664016064 0 0 0 0 10.939845476161281 -50.559991624370014 0 -50.559991624370014 43.332169978411912 0 0 0 0 18.036224255816705 -44.353570196828514 0 -44.353570196828514 27.270608125711107 0 0 0 0 81.181237748015519 -108.34950092344479 0 -108.34950092344479 193.92932897019637 0 0 0 0 3.1223493635159301 2.6890596809890468 0 2.6890596809890468 22.24251024564516 0 0 0 0 19.693060325093938 -51.391257170434983 0 -51.391257170434983 15.834224970014475 0 0 0 0 -14.67569674137485 -31.63071528042201 0 -31.63071528042201 88.789746697183546 0 0 0 0 0.20487068957509891 0.86335086402265659 0 0.86335086402265659 0.59272584819240315 0 0 0 0 -53.678134725006203 -29.780519131825713 0 -29.780519131825713 293.7674717967202 0 0 0 0 57.65156427479269 -27.539219916765433 0 -27.539219916765433 213.08827245664543 0 0 0 0 2.0134505590084633 0.43032504988813258 0 0.43032504988813258 -0.49376994313183253 0 0 0 0 -28.726434597250318 -18.782205256945417 0 -18.782205256945417 256.69383214400295 0 0 0 0 3.6050106369835486 8.8089435781079501 0 8.8089435781079501 1.0272205474356113 0 0 0 0 -88.338603447088644 109.67488492995835 0 109.67488492995835 -34.383747334631153 0 0 0 0 10.980261098487972 8.438261250494179 0 8.438261250494179 64.898601233820955 0 0 0 0 -168.88073306527076 -39.099021393922158 0 -39.099021393922158 203.02054911223973 0 0 0 0 -49.323032920264268 9.5581587702945399 0 9.5581587702945399 68.717493861746334 0 0 0 0 -107.2598827793995 -29.167264397870895 0 -29.167264397870895 87.433526288266876 0 0 0 0 -22.112480570703156 -33.696674473012536 0 -33.696674473012536 54.177367100439369 0 0 0 0 -5.4722771913820907 -21.933055758503542 0 -21.933055758503542 61.537811443660758 0 0 0 0 -5.9962031158383979 -39.338939205616043 0 -39.338939205616043 73.216798934437975 0 0 0 0 -89.795134358950236 -405.76767832267888 0 -405.76767832267888 106.57638878223133 0 0 0 0 -64.789252755852431 -424.89783813811209 0 -424.89783813811209 -835.68330004640211 0 0 0 0 -853.93827355415215 58.837201072893549 0 58.837201072893549 16.457227937412426 0 0 0 0 89.190410016301939 -125.73910796440396 0 -125.73910796440396 -87.554868898155291 0 0 0 0 546.6116520587708 -45.10561913452193 0 -45.10561913452193 -277.24486591725417 0 0 0 0 460.73373368037062 -619.55506235842108 0 -619.55506235842108 -344.27866156628806 0 0 0 0 237.19962202747502 -317.71742643472624 0 -317.71742643472624 -346.54560734614688 0 0 0 0 -242.38670525455382 -301.376821774983 0 -301.376821774983 -296.79139964377396 0 0 0 0 -270.65794710027831 -603.01115706299356 0 -603.01115706299356 -20.225862135735952 0 0 0 0 -673.80624352570703 -871.72967148254565 0 -871.72967148254565 -198.60893497993993 0 0 0 0 -196.59862766928927 -504.44410611675539 0 -504.44410611675539 -153.23211755174134 0 0 0 0 -122.42508082541644 -115.09475591221053 0 -115.09475591221053 74.775087661566431 0 0 0 0 -354.06237060976628 -60.151339708931118 0 -60.151339708931118 334.90652141672399 0 0 0 0 -62.056223568251141 -79.738195449660225 0 -79.738195449660225 90.640654932125472 0 0 0 0 -152.00061222199139 -14.444280412679859 0 -14.444280412679859 116.5958145388513 0 0 0 0 56.170000011696629 40.824980267207593 0 40.824980267207593 111.91493763905237 0 0 0 0 -728.86828875509559 -339.24616875154817 0 -339.24616875154817 184.74000578100367 0 0 0 0 -26.43873738452686 -13.669580776396884 0 -13.669580776396884 27.379772490153822 0 0 0 0 17.775675618272544 -128.43063526937385 0 -128.43063526937385 182.40618827630306 0 0 0 0 -5.3472479526247128 -33.442411817789036 0 -33.442411817789036 87.258167334560312 0 0 0 0 113.51958332854247 -113.66180549965884 0 -113.66180549965884 117.43252720136752 0 0 0 0 -228.35382563373105 60.101570761679341 0 60.101570761679341 367.77065783822309 0 0 0 0 58.972104971319141 33.281453724352787 0 33.281453724352787 169.22065734720854 0 0 0 0 -54.048430153711706 -730.49594435966355 0 -730.49594435966355 -875.95399501990414 0 0 0 0 -0.77953015784269652 -2.7711989152050585 0 -2.7711989152050585 -2.1048571350070731 0 0 0 0 -9.9563234468252393 -1.2683005893971924 0 -1.2683005893971924 -1.9825353578825453 0 0 0 0 214.41321355963555 -615.61232890768952 0 -615.61232890768952 -798.91431951536924 0 0 0 0 -761.98644728334966 -912.23361245433807 0 -912.23361245433807 -499.6223744676945 0 0 0 0 -588.55019581242982 -482.14488599714696 0 -482.14488599714696 264.12935010865476 0 0 0 0 -534.54675377729609 -187.74948428629432 0 -187.74948428629432 790.08474353031306 0 0 0 0 -222.06563092517126 -113.48132919663021 0 -113.48132919663021 248.80259175735591 0 0 0 0 -432.06784510066382 -291.60358133335467 0 -291.60358133335467 408.91916024037528 0 0 0 0 58.045257247211339 -195.97259816585847 0 -195.97259816585847 -526.69454683276672 0 0 0 0 -177.04255611460187 -9.8531381449193702 0 -9.8531381449193702 141.72475926412881 0 0 0 0 217.89543406635221 -137.80200061482401 0 -137.80200061482401 159.98279124060286 0 0 0 0 93.729066392128971 335.00958993811355 0 335.00958993811355 705.79836137497591 0 0 0 0 -438.24270064594248 377.84854883835487 0 377.84854883835487 1522.5834624505997 0 0 0 0 -350.20437650009626 -164.37371015632925 0 -164.37371015632925 1956.9970174477235 0 0 0 0 -307.01433953767491 118.65908734324512 0 118.65908734324512 1155.0449938236461 0 0 0 0 -250.44646730425393 200.72321401446652 0 200.72321401446652 1213.1150091293212 0 0 0 0 -457.18127868330021 269.716480936685 0 269.716480936685 1270.0000471243711 0 0 0 0 -245.32830279624795 -547.95612943163201 0 -547.95612943163201 592.16883331684403 0 0 0 0 427.64816435006833 -828.63693723963002 0 -828.63693723963002 1361.6146804938326 0 0 0 0 -46.243385256178954 616.84365070373769 0 616.84365070373769 1863.1868820866646 0 0 0 0 162.52926097547152 434.92274424926973 0 434.92274424926973 361.8777825757852 0 0 0 0 -357.62936057306911 347.8394406296926 0 347.8394406296926 -1025.6792845478471 0 0 0 0 193.07409033537951 1372.475861008787 0 1372.475861008787 416.07166093100255 0 0 0 0 14.787783450948364 16.397067800317004 0 16.397067800317004 11.849757776454622 0 0 0 0 -14.163209032887153 722.80501855179773 0 722.80501855179773 -223.99773751519706 0 0 0 0 6.9662325368735312 6.7306928588873838 0 6.7306928588873838 4.7613401353282176 0 0 0 0 -7.7725168411798222 725.78133341556281 0 725.78133341556281 -1161.8870069210345 0 0 0 0 -9.7186045801790897 130.24887202707004 0 130.24887202707004 -947.62587436996205 0 0 0 0 4.4949170356337591 5.0665260784119113 0 5.0665260784119113 2.8026784723529765 0 0 0 0 -35.698238221180418 218.26089379012248 0 218.26089379012248 -638.09298842392957 0 0 0 0 11.612165333555968 12.077887172890975 0 12.077887172890975 2.1101398310978987 0 0 0 0 690.52953130903234 1071.4974925740262 0 1071.4974925740262 1600.5622552491932 0 0 0 0 17.631625354075027 49.653127628193374 0 49.653127628193374 -422.46828192241628 0 0 0 0 430.90344674450711 436.63496387227678 0 436.63496387227678 3511.0306319232682 0 0 0 0 402.31313570102998 757.13180485451539 0 757.13180485451539 3943.3984892005783 0 0 0 0 -373.21166051563807 90.361408735654095 0 90.361408735654095 3362.7318674233161 0 0 0 0 -150.7885481979753 502.51497387442168 0 502.51497387442168 4109.5617452318784 0 0 0 0 -11.978960548837643 538.57502199844623 0 538.57502199844623 3499.8742503331632 0 0 0 0 311.9603439859149 512.90803272590438 0 512.90803272590438 3499.9144390515639 0 0 0 0 126.03025603699037 418.01104487056045 0 418.01104487056045 3535.7416201197429 0 0 0 0 -297.00432342093262 -300.72220733224202 0 -300.72220733224202 1585.8810365409961 0 0 0 0 -96.169600962321056 760.14204348185467 0 760.14204348185467 3469.7798298188509 0 0 0 0 -209.15555912187156 431.4418865714465 0 431.4418865714465 3480.5131023944587 0 0 0 0 -330.22802805268736 523.61494503389508 0 523.61494503389508 3500.5809735911612 0 0 0 0 -503.48340250646379 170.55993741590095 0 170.55993741590095 4172.1080262333599 0 0 0 0 328.99548162634102 902.8089567599078 0 902.8089567599078 3591.8049541668902 0 0 0 0 578.28955437930802 585.04092485167541 0 585.04092485167541 3499.1872523733846 0 0 0 0 105.97078108235851 97.895279805357404 0 97.895279805357404 3084.2389530063656 0 0 0 0 -233.43768421649466 340.8981550386452 0 340.8981550386452 3499.945594737761 0 0 0 0 135.67060205757809 804.78584116527145 0 804.78584116527145 3012.328928787475 0 0 0 0 127.35423810204492 122.59594409402325 0 122.59594409402325 1920.3240366515329 0 0 0 0 561.5617401630999 -69.20857332808373 0 -69.20857332808373 1176.1989909757049 0 0 0 0 135.36852715799409 238.46005430301466 0 238.46005430301466 1858.788431823366 0 0 0 0 449.47432974471803 -127.80948882045413 0 -127.80948882045413 1148.249619814268 0 0 0 0 -263.81713836591427 -198.20253129847038 0 -198.20253129847038 866.34151755448966 0 0 0 0 460.99744398684243 -210.33606764729302 0 -210.33606764729302 -42.506902984541739 0 0 0 0 8.6237188945382339 8.546726680705742 0 8.546726680705742 8.2186225749749706 0 0 0 0 788.80688021004835 624.24985303725316 0 624.24985303725316 -385.27534388991717 0 0 0 0 911.21526818025859 1059.6848762765826 0 1059.6848762765826 802.737428290342 0 0 0 0 -181.22682785130036 -101.45989875990654 0 -101.45989875990654 2912.0970080544066 0 0 0 0 -214.19223286239136 -64.24451897979452 0 -64.24451897979452 3443.3988771056756 0 0 0 0 241.64380661911832 -294.07336151510208 0 -294.07336151510208 3500.0683655224111 0 0 0 0 -344.76867600854411 6.6070486150574652 0 6.6070486150574652 3499.9198325142061 0 0 0 0 -285.66330455015952 131.51460805277657 0 131.51460805277657 2874.3068334514096 0 0 0 0 94.544175609464816 319.77021004993787 0 319.77021004993787 2115.746732217156 0 0 0 0 -209.5009941053537 -63.935831163697912 0 -63.935831163697912 2769.0858584759885 0 0 0 0 23.404458655713881 -55.778873979168566 0 -55.778873979168566 2017.6381027075909 0 0 0 0 -215.33533023568424 97.888631868218937 0 97.888631868218937 2716.0691731745992 0 0 0 0 147.97061493938003 -365.48348243896453 0 -365.48348243896453 2004.5866933887028 0 0 0 0 32.493880443409665 -141.17556107199516 0 -141.17556107199516 2154.9751241728336 0 0 0 0 300.18840068537565 -491.92131920741849 0 -491.92131920741849 2466.3501168209132 0 0 0 0 255.51837889246019 -22.364170002885658 0 -22.364170002885658 472.08751655477681 0 0 0 0 56.667778420784941 73.861470863709656 0 73.861470863709656 1491.2816695952451 0 0 0 0 -111.57338052728363 -204.88803212116272 0 -204.88803212116272 1343.9716181581971 0 0 0 0 234.89009407760713 -193.15102624686733 0 -193.15102624686733 481.05082182270235 0 0 0 0 229.60555478824361 64.634375719101627 0 64.634375719101627 1157.856572844431 0 0 0 0 183.97506789921377 -192.13197177084294 0 -192.13197177084294 1266.2597955876699 0 0 0 0 281.19750440260293 -62.829999149713444 0 -62.829999149713444 705.54414158159489 0 0 0 0 277.32222647714627 -172.69425234231181 0 -172.69425234231181 60.898370113318379 0 0 0 0 68.056598049112921 85.762104438186725 0 85.762104438186725 -224.20240532679054 0 0 0 0 225.20941712746435 -4.8686526913143098 0 -4.8686526913143098 -155.62051565523689 0 0 0 0 290.67728405535684 207.18949188954377 0 207.18949188954377 66.863015491502665 0 0 0 0 2.735143631712837 0.70876128453057063 0 0.70876128453057063 1.0622692216557761 0 0 0 0 60.220768567854748 102.75592647628582 0 102.75592647628582 498.73427038234149 0 0 0 0 84.983108904131996 -3.3554833535172293 0 -3.3554833535172293 121.6299906843451 0 0 0 0 29.154611156679493 59.736622562115372 0 59.736622562115372 142.1936408247675 0 0 0 0 219.10883549139874 67.570655612042174 0 67.570655612042174 23.717080022686787 0 0 0 0 -84.624022994222742 45.36252437519579 0 45.36252437519579 130.64044811053645 0 0 0 0 43.046394433739579 57.683728737661113 0 57.683728737661113 22.039887763316074 0 0 0 0 -149.98906775588239 113.63893408106742 0 113.63893408106742 75.916445745831879 0 0 0 0 -106.81195329414948 213.13812130530414 0 213.13812130530414 -38.751987853589526 0 0 0 0 -205.15658217329837 92.673391127078503 0 92.673391127078503 -66.456168729419005 0 0 0 0 -7.7323363627784421 -1.0107914874326589 0 -1.0107914874326589 15.356431993725856 0 0 0 0 -48.124334162681407 45.25438146840861 0 45.25438146840861 -114.35685780557833 0 0 0 0 5.4823681443215708 0.7836855261116682 0 0.7836855261116682 -0.027945198027516938 0 0 0 0 -97.271536023449698 -22.263324335719517 0 -22.263324335719517 339.42551501551679 0 0 0 0 42.167294375694041 84.969549248537078 0 84.969549248537078 142.76361896861999 0 0 0 0 -181.22963068997706 14.229077763397981 0 14.229077763397981 1597.8839046734056 0 0 0 0 12.797412731559124 -9.4154462344400969 0 -9.4154462344400969 8.6335336286041731 0 0 0 0 1174.7977651090391 -146.88672589543512 0 -146.88672589543512 823.5705184604567 0 0 0 0 307.36615117673648 -536.83522558693721 0 -536.83522558693721 1466.1242071906836 0 0 0 0 -17.479608327820927 -212.15538262751534 0 -212.15538262751534 1244.5381707739052 0 0 0 0 219.77082320934943 -1.1970562915594201 0 -1.1970562915594201 1314.9143603009579 0 0 0 0 77.816647471919453 137.58635471418438 0 137.58635471418438 1261.3905554882626 0 0 0 0 171.72670191872882 -241.60685807897698 0 -241.60685807897698 1064.9485393523464 0 0 0 0 87.947606338874039 216.44292804635552 0 216.44292804635552 552.56347756700325 0 0 0 0 -25.730339976922664 -286.13604002595321 0 -286.13604002595321 247.99752821249967 0 0 0 0 167.42604830578617 87.336906216391526 0 87.336906216391526 33.06496959348442 0 0 0 0 45.348022265524051 -0.045640291043127945 0 -0.045640291043127945 689.6760912698287 0 0 0 0 148.66295466198386 -235.84487528144837 0 -235.84487528144837 -159.54633887357477 0 0 0 0 35.454204669742744 -26.496802069539012 0 -26.496802069539012 20.377045357439606 0 0 0 0 281.7329874170191 7.1083286168027371 0 7.1083286168027371 -26.550654272110819 0 0 0 0 297.96955451725876 -59.839857151508966 0 -59.839857151508966 -113.57515752830295 0 0 0 0 1327.1591033616287 191.50765131574883 0 191.50765131574883 -18.332373872528478 0 0 0 0 330.32207707844645 -14.091806571404049 0 -14.091806571404049 -50.483889448770697 0 0 0 0 274.77341582831104 -137.39532922081264 0 -137.39532922081264 -105.68306786897978 0 0 0 0 178.53568486764743 -216.15143920254059 0 -216.15143920254059 -4.5389981069242822 0 0 0 0 311.39289930651285 -196.32176177517835 0 -196.32176177517835 -148.89137144985884 0 0 0 0 186.30237637616483 -347.62622255844531 0 -347.62622255844531 -137.1311977031198 0 0 0 0 211.8846118351903 -139.18743397630544 0 -139.18743397630544 -42.344297635148109 0 0 0 0 186.4332348277876 -40.521885622499269 0 -40.521885622499269 -34.854213332810417 0 0 0 0 123.70718336528716 -168.66844734411427 0 -168.66844734411427 127.39601702990967 0 0 0 0 133.56006600992396 -147.37275548552634 0 -147.37275548552634 113.42863299856344 0 0 0 0 188.95044022405455 -255.54603711151663 0 -255.54603711151663 82.041981385132203 0 0 0 0 55.848651600315861 -199.39862329520383 0 -199.39862329520383 190.45725971587308 0 0 0 0 56.891482130409713 -233.4007991218632 0 -233.4007991218632 321.4540916990245 0 0 0 0 73.558024476922583 -332.29400088594502 0 -332.29400088594502 119.84264255363905 0 0 0 0 -53.817232522809718 -273.92409768372818 0 -273.92409768372818 550.61939367026389 0 0 0 0 -72.203467142804584 -208.48494442380593 0 -208.48494442380593 318.38568223840957 0 0 0 0 -108.50610841257003 -137.87488605748604 0 -137.87488605748604 448.40634292805407 0 0 0 0 -145.01335678319992 -47.473857109172968 0 -47.473857109172968 355.9196184330699 0 0 0 0 -33.168436556614324 -127.6480281836557 0 -127.6480281836557 308.48566169872265 0 0 0 0 -29.450207806123217 -150.01321093510978 0 -150.01321093510978 397.75796528034152 0 0 0 0 40.451218830134167 204.82179274570353 0 204.82179274570353 -34.27098276142533 0 0 0 0 21.648584034235682 -67.904761725387289 0 -67.904761725387289 310.77585972193174 0 0 0 0 106.00341608644521 -47.660474976366004 0 -47.660474976366004 286.41099743796804 0 0 0 0 61.811599802898854 -109.47876948072371 0 -109.47876948072371 283.70115116744273 0 0 0 0 50.260738521859821 -105.56699097520232 0 -105.56699097520232 274.23009101565549 0 0 0 0 203.85927234129485 -118.60559518637456 0 -118.60559518637456 123.20938944727914 0 0 0 0 -5.5218236943052634 9.9808650220049344 0 9.9808650220049344 -3.8146801656326659 0 0 0 0 -22.026983379875894 14.438684268302566 0 14.438684268302566 65.27541464791625 0 0 0 0 1.9497433880096651 31.782267261439301 0 31.782267261439301 122.25504938176982 0 0 0 0 -4.5863551733345957 -4.2003394527346245 0 -4.2003394527346245 71.17492070373919 0 0 0 0 -3.2891456454579107 1.6796232632509955 0 1.6796232632509955 21.589329497910779 0 0 0 0 25.500456485655377 -46.335294756044277 0 -46.335294756044277 146.20040389540372 0 0 0 0 3.3013909273595345 -44.063640196228334 0 -44.063640196228334 65.30985820998103 0 0 0 0 36.756000464180602 -16.935431497768604 0 -16.935431497768604 34.771077769401018 0 0 0 0 6.2269764384245718 -5.8752600539955893 0 -5.8752600539955893 58.228089190486344 0 0 0 0 17.886265883685155 -34.782171968628973 0 -34.782171968628973 100.1779344900724 0 0 0 0 4.2455882961475915 -12.999540963786719 0 -12.999540963786719 27.836250811456896 0 0 0 0 6.8067602801256726 -16.33897702336435 0 -16.33897702336435 107.44967650083072 0 0 0 0 -24.253041952753847 -35.59718393195908 0 -35.59718393195908 102.41035244687328 0 0 0 0 4.2993854139972427 -25.156572865588714 0 -25.156572865588714 99.262008568697638 0 0 0 0 -86.844200820170954 -31.350238919991625 0 -31.350238919991625 157.29862907842289 0 0 0 0 -69.610821001919248 -246.86818487058326 0 -246.86818487058326 312.5917110220671 0 0 0 0 -32.469518888836177 8.3551314293884094 0 8.3551314293884094 51.768437445216101 0 0 0 0 23.892944279865333 -66.049622230506429 0 -66.049622230506429 88.560717974243744 0 0 0 0 0.99574242422204406 -54.679832349258504 0 -54.679832349258504 93.749523519350987 0 0 0 0 -15.656649447056225 -59.243749194943121 0 -59.243749194943121 103.74534286621747 0 0 0 0 33.935046998994949 -80.701489336400144 0 -80.701489336400144 62.628238858547093 0 0 0 0 -3.7120813786195868 -63.928066060519996 0 -63.928066060519996 104.26443928569097 0 0 0 0 -23.579524466188786 40.451471045073049 0 40.451471045073049 99.582912332673004 0 0 0 0 -32.940743733447249 -8.2824883593138132 0 -8.2824883593138132 45.644427269912526 0 0 0 0 68.37318142361255 -101.7096171334714 0 -101.7096171334714 63.868323054661914 0 0 0 0 38.796481931076414 -103.85100449321476 0 -103.85100449321476 132.95653702094936 0 0 0 0 41.45875112675094 -82.608118581057568 0 -82.608118581057568 60.840987839753325 0 0 0 0 42.645640891723815 -102.02108051014729 0 -102.02108051014729 55.300135633176353 0 0 0 0 45.327661572604882 -41.532630395690617 0 -41.532630395690617 32.910853471837925 0 0 0 0 125.89191851729555 5.5142528159240101 0 5.5142528159240101 46.132488417140848 0 0 0 0 6.7688591699427114 -8.7808136620922603 0 -8.7808136620922603 7.5991147831439534 0 0 0 0 250.5021543992799 -95.141639970857796 0 -95.141639970857796 -79.899654013042891 0 0 0 0 166.14308394644104 -50.701865411776453 0 -50.701865411776453 -22.686031446561174 0 0 0 0 416.31082903423703 -149.89733364882886 0 -149.89733364882886 1.3838863618220785 0 0 0 0 7.5548066513379126 172.45971207565162 0 172.45971207565162 305.28510687680347 0 0 0 0 131.3413072585173 -243.97601169627978 0 -243.97601169627978 295.74168343283964 0 0 0 0 42.208882690408245 -119.23267362163642 0 -119.23267362163642 225.48211653809062 0 0 0 0 331.47740714876488 66.398650906672628 0 66.398650906672628 30.618208850787823 0 0 0 0 -12.603917144215757 3.9017052550079825 0 3.9017052550079825 212.59831776033934 0 0 0 0 -1.716865698756501 -3.1630858326405189 0 -3.1630858326405189 8.725062710748297 0 0 0 0 -105.03756022795937 33.127871853087527 0 33.127871853087527 39.124741829968116 0 0 0 0 -111.1830973173428 -55.838942857358234 0 -55.838942857358234 234.81598431132443 0 0 0 0 -82.795742888098403 171.42901268756214 0 171.42901268756214 -53.912867754261242 0 0 0 0 22.03834835375892 37.474316369531152 0 37.474316369531152 -35.939652777669835 0 0 0 0 3.7070208033383096 85.111342537204109 0 85.111342537204109 62.847122882263648 0 0 0 0 15.245001206043753 -10.658659101249214 0 -10.658659101249214 22.403329926277365 0 0 0 0 -42.247337210406386 3.1962234626989812 0 3.1962234626989812 19.130060913441412 0 0 0 0 118.67255683618686 -142.79041501464462 0 -142.79041501464462 61.613786958314449 0 0 0 0 -12.432185524952956 0.63781257009486581 0 0.63781257009486581 10.140601210867317 0 0 0 0 -210.41718166636451 -32.880268535292998 0 -32.880268535292998 109.87072994820119 0 0 0 0 -233.48798293138066 211.16484623584438 0 211.16484623584438 -95.310167893349899 0 0 0 0 -2.5575261243440215 -2.6931776727610526 0 -2.6931776727610526 12.624280749474028 0 0 0 0 -34.58080431773044 4.0767739264333613 0 4.0767739264333613 -15.956518618178961 0 0 0 0 -8.1345735777631489 41.170948065075208 0 41.170948065075208 48.631236029912543 0 0 0 0 -16.852970291211932 -1.0016642228802084 0 -1.0016642228802084 85.353085588723843 0 0 0 0 -3.3469539080992998 9.9823167842576979 0 9.9823167842576979 34.489782444270141 0 0 0 0 -0.0065704686971068682 11.425499208428143 0 11.425499208428143 17.339267523634149 0 0 0 0 14.944976280297169 -6.5763034069545938 0 -6.5763034069545938 54.722384732482169 0 0 0 0 -15.893671058167911 33.566618813496461 0 33.566618813496461 44.454690091810335 0 0 0 0 7.7021875126947634 33.711865877070522 0 33.711865877070522 50.165394202209882 0 0 0 0 74.688173492102578 74.358227143413387 0 74.358227143413387 157.14841013190016 0 0 0 0 4.0480310921925735 24.248681355757917 0 24.248681355757917 43.965394036207577 0 0 0 0 9.4706070216493572 83.000863603283506 0 83.000863603283506 -279.99814172383776 0 0 0 0 1.0560785367216852 0.34679360288865624 0 0.34679360288865624 -0.4008043560304273 0 0 0 0 -98.340736418956112 -281.07202636499414 0 -281.07202636499414 -142.48973627753003 0 0 0 0 25.966022491044669 0.77120367552015523 0 0.77120367552015523 37.284418325856677 0 0 0 0 -17.29052182342366 58.99580189990229 0 58.99580189990229 8.4212033445310226 0 0 0 0 -33.453959886566736 -3.5086455119653692 0 -3.5086455119653692 17.613373882821179 0 0 0 0 -53.406234804679968 57.426427098268505 0 57.426427098268505 46.484460758365458 0 0 0 0 13.934777696395258 -57.652586644293478 0 -57.652586644293478 93.860556858677228 0 0 0 0 -16.711705854249885 103.90115911235989 0 103.90115911235989 40.187556547546592 0 0 0 0 524.99773917492439 35.948300891488543 0 35.948300891488543 -27.65305098798126 0 0 0 0 3.6371999081093236 33.507068900180457 0 33.507068900180457 88.571910351283805 0 0 0 0 150.68863987402256 434.18584808006017 0 434.18584808006017 -234.83429188623609 0 0 0 0 21.045006586311956 276.72767565699178 0 276.72767565699178 304.3161022120712 0 0 0 0 5.0989791250552567 23.516240655885408 0 23.516240655885408 48.939705885623042 0 0 0 0 20.571431665267482 24.695308939073584 0 24.695308939073584 38.400821275672797 0 0 0 0 -124.0419863396296 -19.370478694071608 0 -19.370478694071608 67.117502672295814 0 0 0 0 19.933583574555541 25.569424715165951 0 25.569424715165951 -55.997463724855152 0 0 0 0 29.893625550649176 -65.820549467442106 0 -65.820549467442106 -25.281850915611358 0 0 0 0 99.238227467222487 -38.708154549002757 0 -38.708154549002757 -14.764683527515444 0 0 0 0 -9.6358411683072518 59.312096940177071 0 59.312096940177071 -21.335128001748672 0 0 0 0 5.8184312418454951 24.292545177855075 0 24.292545177855075 46.771921042292234 0 0 0 0 7.8238348417835368 24.741640773892868 0 24.741640773892868 41.14703740173718 0 0 0 0 2.4311743410925004 9.0254660655935268 0 9.0254660655935268 45.150811857525468 0 0 0 0 -2.5253410642289964 0.66701494662265759 0 0.66701494662265759 34.046946320304414 0 0 0 0 0.62914685479556809 8.5669214429671428 0 8.5669214429671428 64.343351571354631 0 0 0 0 -0.48347371015263718 17.656169819353558 0 17.656169819353558 26.023502608844069 0 0 0 0 -0.78706759326043851 1.3028778166189596 0 1.3028778166189596 17.92520212783289 0 0 0 0 25.469445539650224 31.031421961721207 0 31.031421961721207 77.1163591894001 0 0 0 0 17.629700413227511 14.282112847979079 0 14.282112847979079 67.944017349371279 0 0 0 0 9.7775200741747312 35.448886314456104 0 35.448886314456104 93.974578567729623 0 0 0 0 28.199461938765126 30.538971011446847 0 30.538971011446847 79.967809386063891 0 0 0 0 13.12131786196187 46.269652330298413 0 46.269652330298413 89.804331952986104 0 0 0 0 -6.8128595602113737 4.7528427934473356 0 4.7528427934473356 8.1599384636715513 0 0 0 0 4.0708963023919296 24.115490494763435 0 24.115490494763435 50.069618755547708 0 0 0 0 5.2360847752661357 42.194030930942972 0 42.194030930942972 95.141663611611875 0 0 0 0 -4.8639922803755802 5.894547273348131 0 5.894547273348131 14.693948190769888 0 0 0 0 0.2335525768980915 18.330159852823272 0 18.330159852823272 42.143772657887894 0 0 0 0 5.2758005767209397 22.77864028859949 0 22.77864028859949 96.671525807440048 0 0 0 0 -2.9200958665196595 26.307139758038829 0 26.307139758038829 50.767408300749594 0 0 0 0 -89.716372871669819 46.728698831846486 0 46.728698831846486 62.702056026195351 0 0 0 0 -27.855239103344957 25.83573783095926 0 25.83573783095926 67.337180530204932 0 0 0 0 -21.727389791032692 59.17818088408967 0 59.17818088408967 57.696910103608388 0 0 0 0 -0.69667308053931265 40.20177075986976 0 40.20177075986976 74.432699292083271 0 0 0 0 9.2044198425146533 29.838378319931508 0 29.838378319931508 39.808894318644889 0 0 0 0 9.140409652708513 31.475091881151457 0 31.475091881151457 57.659543631169072 0 0 0 0 3.1716493533349421 51.818157281039021 0 51.818157281039021 80.899773733366601 0 0 0 0 8.5105672881435339 28.708249908470862 0 28.708249908470862 60.36070366083004 0 0 0 0 -0.26673834216671821 55.606470128339424 0 55.606470128339424 99.147063234764573 0 0 0 0 -0.28351057666191082 18.950202769119642 0 18.950202769119642 61.397046791011235 0 0 0 0 -0.17567791229856944 0.80000406899966237 0 0.80000406899966237 4.5564252644358518 0 0 0 0 -3.4623574189895807 17.353791847657831 0 17.353791847657831 10.735867759114413 0 0 0 0 0.16738887317578977 18.082403126232606 0 18.082403126232606 -8.0370397421397826 0 0 0 0 -2.6359149215240905 0.13965109316632152 0 0.13965109316632152 22.808212401898345 0 0 0 0 7.9607517400818324 8.733315548452083 0 8.733315548452083 54.693771329257288 0 0 0 0 5.2258053711229877 44.175518015756097 0 44.175518015756097 116.02335900056642 0 0 0 0 0.88224110358318164 0.26001545533839021 0 0.26001545533839021 -6.7727085288547499 0 0 0 0 -2.5488507209520321 26.429055576852988 0 26.429055576852988 -58.685714679464581 0 0 0 0 -7.9503757393474954 18.402038745595078 0 18.402038745595078 33.583344867309258 0 0 0 0 -4.8532436909512553 -1.8049615522075158 0 -1.8049615522075158 18.355118125791449 0 0 0 0 5.5922087649237255 56.688102066678766 0 56.688102066678766 82.181184410459537 0 0 0 0 -29.949722550842353 50.572758119771606 0 50.572758119771606 85.443519790165738 0 0 0 0 -19.663402522909053 64.783724799555785 0 64.783724799555785 -44.74267544963368 0 0 0 0 -26.647878047294626 35.065788023614004 0 35.065788023614004 104.05870889342987 0 0 0 0 -7.5644321483763699 32.402071282363934 0 32.402071282363934 5.699970899864697 0 0 0 0 -10.795659688483852 35.281131968104546 0 35.281131968104546 104.05526808580544 0 0 0 0 20.410488187083899 51.950026353079011 0 51.950026353079011 -52.202158548396255 0 0 0 0 20.358465254249403 72.846002954094729 0 72.846002954094729 5.5105400433094474 0 0 0 0 -19.438030779202904 34.841473173204577 0 34.841473173204577 -24.251653697523579 0 0 0 0 0.79950868438902489 41.428053761173942 0 41.428053761173942 9.5412215346186713 0 0 0 0 -31.63321396883677 74.958336361709371 0 74.958336361709371 -6.6003035647590877 0 0 0 0 3.2771227478179981 53.199404909413715 0 53.199404909413715 -104.81433666055091 0 0 0 0 3.3611167480117956 58.247585454460932 0 58.247585454460932 -65.924633283466392 0 0 0 0 78.859531079404434 66.085404224220838 0 66.085404224220838 55.169753060161383 0 0 0 0 -22.623766126692189 48.59571154661171 0 48.59571154661171 52.193834371108096 0 0 0 0 -5.3075614938636004 26.576630091004247 0 26.576630091004247 21.047686904015478 0 0 0 0 -2.0041441179623689 19.631506142453873 0 19.631506142453873 41.488820664682862 0 0 0 0 -2.409885715061765 28.846871091968922 0 28.846871091968922 18.659446031898284 0 0 0 0 12.826359541817666 88.944113602717152 0 88.944113602717152 5.4267713254084811 0 0 0 0 -13.599876011906758 68.669235071068215 0 68.669235071068215 8.6301699915420613 0 0 0 0 4.7741113594338458 17.106505698939145 0 17.106505698939145 43.963249021584488 0 0 0 0 -32.745954514537857 48.507003639864706 0 48.507003639864706 85.486195784098527 0 0 0 0 -32.223771625321945 44.619417237888683 0 44.619417237888683 79.345023007903364 0 0 0 0 -24.303816059019482 27.006085969194828 0 27.006085969194828 97.377975664567202 0 0 0 0 -23.619392175600296 6.8902412995266786 0 6.8902412995266786 122.79571348112586 0 0 0 0 -4.4887520061338364 14.669170428172947 0 14.669170428172947 32.396936235774774 0 0 0 0 -10.626676910699189 23.46729039947968 0 23.46729039947968 34.721957923597074 0 0 0 0 -2.0409880143422683 8.9361865046202453 0 8.9361865046202453 43.024652076800706 0 0 0 0 15.902125208532198 25.706378809407397 0 25.706378809407397 52.882032104948848 0 0 0 0 -5.9804013706242376 -1.6446196948892187 0 -1.6446196948892187 20.190793681389593 0 0 0 0 -2.0157958537088234 10.742867149270751 0 10.742867149270751 36.590997488565336 0 0 0 0 -6.6759628780091589 21.351652336332336 0 21.351652336332336 29.108539637774811 0 0 0 0 26.338420101498741 18.89811792735054 0 18.89811792735054 49.864185022350284 0 0 0 0 1.0727209118701371 29.812041756928188 0 29.812041756928188 24.85673844981568 0 0 0 0 -5.2922783487929337 23.983144957514014 0 23.983144957514014 34.104971496359212 0 0 0 0 -7.4404725268780911 21.354639166972987 0 21.354639166972987 32.951996640490229 0 0 0 0 -30.199920586885128 -0.58051988817896927 0 -0.58051988817896927 73.367739176581381 0 0 0 0 -5.3748758078718168 7.3852569519632354 0 7.3852569519632354 44.883572156449944 0 0 0 0 -24.330285944503032 -8.5824528487493126 0 -8.5824528487493126 0.98475952664739452 0 0 0 0 19.173345534896669 15.898760895259215 0 15.898760895259215 54.072713951711194 0 0 0 0 -0.15152737261765747 22.439468751400099 0 22.439468751400099 42.582668209660063 0 0 0 0 0.51765285462269262 2.5416219533754045 0 2.5416219533754045 10.719579082708142 0 0 0 0 -33.77666771064105 -2.3844886434526416 0 -2.3844886434526416 48.279729296521509 0 0 0 0 -9.2790077002555336 28.340446265341598 0 28.340446265341598 80.032004165216676 0 0 0 0 -14.408745930593795 11.569377305551825 0 11.569377305551825 50.384858342817097 0 0 0 0 -12.203434274113533 -12.860046632130434 0 -12.860046632130434 -72.399158937088941 0 0 0 0 -2.1126726099081363 3.7336566995775327 0 3.7336566995775327 6.1710018752614602 0 0 0 0 -29.225489429850313 -10.079580654365145 0 -10.079580654365145 119.58736668528582 0 0 0 0 -21.9158153568751 -0.15167734908391139 0 -0.15167734908391139 28.351744432910436 0 0 0 0 -5.5805294483834409 10.423332807356804 0 10.423332807356804 28.514216930849543 0 0 0 0 -8.5334993902729437 15.925834148661318 0 15.925834148661318 37.044901359083369 0 0 0 0 -7.5703755402324351 2.4490701313600711 0 2.4490701313600711 37.072904588961187 0 0 0 0 -8.9035796169864625 -1.0026534129808624 0 -1.0026534129808624 40.563416497014941 0 0 0 0 -6.5482139009063758 1.0847918983163254 0 1.0847918983163254 40.731543997530025 0 0 0 0 0.3986001077187975 6.686845661840346 0 6.686845661840346 37.508698424893026 0 0 0 0 -8.3520705489381726 17.87773202891367 0 17.87773202891367 54.138138750432518 0 0 0 0 -1.8346656708518934 7.0123684303685199 0 7.0123684303685199 43.89292956264017 0 0 0 0 -31.068912865099264 7.6489136702693941 0 7.6489136702693941 62.988244507543641 0 0 0 0 8.6047321154210294 9.8284547694584035 0 9.8284547694584035 35.130730202929044 0 0 0 0 1.2882290814932276 7.2823233377521319 0 7.2823233377521319 68.484444104085924 0 0 0 0 -8.5873485894135229 8.6974315092575125 0 8.6974315092575125 39.133236487396061 0 0 0 0 -3.8137103710435625 -2.8848610586047485 0 -2.8848610586047485 23.731020644298212 0 0 0 0 3.8011980446434208 13.709627074417746 0 13.709627074417746 8.816515786541018 0 0 0 0 -1.5775570019025849 8.0321021802945687 0 8.0321021802945687 38.078564248986794 0 0 0 0 7.1879289444559618 14.206154478211829 0 14.206154478211829 61.880313123207088 0 0 0 0 -4.1641568588383961 24.021919639024418 0 24.021919639024418 49.474589066039698 0 0 0 0 0.19572213358394208 2.6993162885878128 0 2.6993162885878128 42.413205011615752 0 0 0 0 -6.4516513029448106 4.1770168789589661 0 4.1770168789589661 19.572864725907493 0 0 0 0 -5.2877499843034457 -4.6796111873427435 0 -4.6796111873427435 9.4124432307471579 0 0 0 0 -2.6662580620201632 3.4385697710020384 0 3.4385697710020384 22.186057659929492 0 0 0 0 -1.1311702634995626 10.749988167132194 0 10.749988167132194 25.635183818002954 0 0 0 0 -14.286640945689612 9.4833343387309981 0 9.4833343387309981 42.445820053122588 0 0 0 0 -6.8718716742878314 8.0996575933022541 0 8.0996575933022541 54.446389460724959 0 0 0 0 -3.7976727525210663 10.01344056119035 0 10.01344056119035 49.767354412209443 0 0 0 0 -10.406984390167054 4.6305250507248275 0 4.6305250507248275 33.355768395458654 0 0 0 0 -5.7438647116278787 4.9662023453153292 0 4.9662023453153292 40.610618456837791 0 0 0 0 -7.2194371837997551 6.1760054585845126 0 6.1760054585845126 34.034986447979463 0 0 0 0 -7.6349673986324014 -0.94731477930909946 0 -0.94731477930909946 44.191451180618536 0 0 0 0 -1.5561585823658532 9.7960482028196143 0 9.7960482028196143 47.215707269572867 0 0 0 0 -9.0372746988523431 7.7042426720731783 0 7.7042426720731783 38.796122244082653 0 0 0 0 -6.100487019078173 6.4339493747247616 0 6.4339493747247616 53.973613752019446 0 0 0 0 7.5592105823889142 -18.085081724600968 0 -18.085081724600968 -34.654599320925627 0 0 0 0 -2.0246528067801357 18.517596128458319 0 18.517596128458319 45.938204661174602 0 0 0 0 -1.5814947579541112 3.4960903068994877 0 3.4960903068994877 37.936124749428963 0 0 0 0 -1.0680132059836573 9.8959288135798058 0 9.8959288135798058 39.675059400187052 0 0 0 0 -6.0237393024942776 10.544333087975929 0 10.544333087975929 86.662628508856869 0 0 0 0 1.5764227794861654 30.603518760020961 0 30.603518760020961 103.51091563615773 0 0 0 0 3.4626212198891153 19.375520748366398 0 19.375520748366398 72.75475632843154 0 0 0 0 -5.481446723715635 16.823882096463421 0 16.823882096463421 72.210852032970251 0 0 0 0 11.062928719326749 36.182773046308654 0 36.182773046308654 71.026393533145892 0 0 0 0 -5.9220020852699236 21.738173951165663 0 21.738173951165663 98.478328338987922 0 0 0 0 -0.62826248781457394 -2.0933868289478319 0 -2.0933868289478319 0.084789036717857869 0 0 0 0 -7.2190647482593704 11.494238093528111 0 11.494238093528111 88.619671829525032 0 0 0 0 -2.2143183070893429 9.1625158276096954 0 9.1625158276096954 86.423385518224677 0 0 0 0 9.5819868409753326 1.4984663639133942 0 1.4984663639133942 71.994017241151596 0 0 0 0 -1.0446932487703897 -7.335906279218829 0 -7.335906279218829 17.893880591866008 0 0 0 0 7.7032265028409768 23.533094201951599 0 23.533094201951599 36.019819521958198 0 0 0 0 7.2254277271973173 14.807311467281224 0 14.807311467281224 12.219581533125561 0 0 0 0 10.966924303393171 23.174224260230403 0 23.174224260230403 110.85112904190555 0 0 0 0 -2.8920978602142213 25.70875475072944 0 25.70875475072944 38.416331030610309 0 0 0 0 1.915948287941923 16.355650667798404 0 16.355650667798404 33.783196076425227 0 0 0 0 6.1462620125648755 11.775866287166536 0 11.775866287166536 35.17015255824117 0 0 0 0 -0.95411827950965744 13.579227319322854 0 13.579227319322854 55.847036405073595 0 0 0 0 8.6885487206245671 9.8258087589947536 0 9.8258087589947536 31.438220680355244 0 0 0 0 7.233919631425124 0.53783172504336108 0 0.53783172504336108 39.54993509134647 0 0 0 0 -26.055090859026677 7.3566480387598858 0 7.3566480387598858 47.86915059875173 0 0 0 0 -35.59286879692263 73.817650579057954 0 73.817650579057954 -25.257701689848545 0 0 0 0 -1.2679824822906518 1.8542455016086734 0 1.8542455016086734 -1.4611022841976649 0 0 0 0 -29.423843423026351 15.130534918876904 0 15.130534918876904 -4.6600954492938769 0 0 0 0 -33.329776495724218 59.040640039274876 0 59.040640039274876 33.190884864714462 0 0 0 0 -18.32682444840168 29.747260098200059 0 29.747260098200059 28.361599253694294 0 0 0 0 -13.53170287733883 6.6676111334818415 0 6.6676111334818415 18.773693442315562 0 0 0 0 -9.5081505886168998 26.834777678794126 0 26.834777678794126 -1.326546571450308 0 0 0 0 -32.980259308709719 -3.6086947065196 0 -3.6086947065196 36.968177741830004 0 0 0 0 -79.418236247047389 40.688288861092587 0 40.688288861092587 34.054419492778834 0 0 0 0 9.5882081947042934 -14.510494788185497 0 -14.510494788185497 80.23082705422712 0 0 0 0 4.0051624181155194 11.764018985815731 0 11.764018985815731 17.289799987660786 0 0 0 0 -48.491270731371742 9.7767293641281867 0 9.7767293641281867 40.561642408400076 0 0 0 0 -34.891142141232194 42.118100388121093 0 42.118100388121093 6.4140684576705098 0 0 0 0 -52.055876239126519 24.317730137081526 0 24.317730137081526 25.832206547282112 0 0 0 0 -22.495134562679596 9.081411496612418 0 9.081411496612418 33.232341035705758 0 0 0 0 -21.230131093464706 3.7418619461368507 0 3.7418619461368507 33.562201212000218 0 0 0 0 -4.8266951488176346 11.839573247889348 0 11.839573247889348 32.47442202536331 0 0 0 0 -31.931893650565712 96.24346172402602 0 96.24346172402602 56.005731607117923 0 0 0 0 157.26606102220194 137.10914465643145 0 137.10914465643145 38.596875691888272 0 0 0 0 95.844409979558165 242.28338471612915 0 242.28338471612915 66.390537813538685 0 0 0 0 29.705633495779239 214.90686198932599 0 214.90686198932599 185.34273292068247 0 0 0 0 21.803071414891747 73.967602259595878 0 73.967602259595878 -30.693940434306569 0 0 0 0 -55.334646116708427 19.793834666794282 0 19.793834666794282 73.666732416211744 0 0 0 0 -2.350157044149455 40.27496989446081 0 40.27496989446081 79.330898905403046 0 0 0 0 -85.238167689406964 -37.090882029995555 0 -37.090882029995555 24.833491738339944 0 0 0 0 -17.228221965201218 8.4663141479105661 0 8.4663141479105661 -4.0656881247119543 0 0 0 0 -145.01727695154159 48.539617667564016 0 48.539617667564016 117.17678714326212 0 0 0 0 -38.84932868347434 214.23646578784974 0 214.23646578784974 315.41170006839093 0 0 0 0 -6.4021987103320486 2.2612884360281242 0 2.2612884360281242 -0.39679649101324799 0 0 0 0 -4.355383083172228 8.7729908288820297 0 8.7729908288820297 75.819621301569896 0 0 0 0 -6.8171607933131781 16.141987113427604 0 16.141987113427604 55.327052270753484 0 0 0 0 -33.470165153001744 2.9669490252927062 0 2.9669490252927062 49.291448959669651 0 0 0 0 -3.2698022865952154 29.281627258468234 0 29.281627258468234 32.405863626278006 0 0 0 0 -36.987001729907661 26.13479829710559 0 26.13479829710559 40.11068695737049 0 0 0 0 -36.334999199793657 24.20768966117339 0 24.20768966117339 -18.700160532505834 0 0 0 0 -76.272133568678328 61.359333680818963 0 61.359333680818963 11.807377959557925 0 0 0 0 -86.519764966324146 23.552339271358505 0 23.552339271358505 30.99675962512265 0 0 0 0 -47.393714868735742 23.395725819560539 0 23.395725819560539 33.915678894190933 0 0 0 0 -68.817725271622749 11.052618834619352 0 11.052618834619352 30.810650425206404 0 0 0 0 -59.3419003973504 -2.2765874963442911 0 -2.2765874963442911 43.082191949946719 0 0 0 0 -97.336557431914116 -11.089774108579149 0 -11.089774108579149 19.864180868949916 0 0 0 0 -97.634992422459391 8.1375828703967272 0 8.1375828703967272 34.077069363447663 0 0 0 0 -71.537643577576546 21.319866095509497 0 21.319866095509497 17.211205566141871 0 0 0 0 -56.743339898284376 0.29583658171759453 0 0.29583658171759453 0.86084053599915933 0 0 0 0 -62.216336146162575 27.271837729800609 0 27.271837729800609 19.126344982651062 0 0 0 0 9.3197494732555697 52.478480922722156 0 52.478480922722156 -72.494749549907283 0 0 0 0 -1.1733348477591561 -0.83730657355101101 0 -0.83730657355101101 4.0551086442371513 0 0 0 0 -11.627055689662029 12.242375632235053 0 12.242375632235053 10.432082272251137 0 0 0 0 -3.5194491544864377 12.550452223682441 0 12.550452223682441 -25.059976194548653 0 0 0 0 -4.9758773662007805 9.0013878645114005 0 9.0013878645114005 -1.8905334238343698 0 0 0 0 -12.126439553164516 -16.913745458153244 0 -16.913745458153244 59.139751048642211 0 0 0 0 -11.662049581476836 11.717419959630661 0 11.717419959630661 11.865739592787577 0 0 0 0 -1.8411488014968267 -0.25158483075239602 0 -0.25158483075239602 15.347338056637227 0 0 0 0 -3.4658099594338383 3.3834731032921894 0 3.3834731032921894 9.4900797532200727 0 0 0 0 -25.499031471031685 43.323706239854801 0 43.323706239854801 -8.7063037262632861 0 0 0 0 -15.074674971745026 2.8904924868766102 0 2.8904924868766102 -5.1959925894479966 0 0 0 0 -83.226138871957502 -17.285446182197575 0 -17.285446182197575 27.34588180440187 0 0 0 0 -3.5501183207718272 -0.093731358314173008 0 -0.093731358314173008 7.4435757448491131 0 0 0 0 -79.565578633804307 41.077024669615639 0 41.077024669615639 8.9004833528597374 0 0 0 0 47.837331204778252 48.162420844761073 0 48.162420844761073 29.603516872831278 0 0 0 0 -15.00335860268342 -3.9899815647804644 0 -3.9899815647804644 47.057684441634137 0 0 0 0 12.003877140928353 45.671610079090897 0 45.671610079090897 18.608377210068284 0 0 0 0 26.807428320197516 10.459445286094706 0 10.459445286094706 64.13269219436188 0 0 0 0 -10.197032980881886 14.748825293172558 0 14.748825293172558 -23.16742340898054 0 0 0 0 -1.4338388353953921 8.173339912298129 0 8.173339912298129 0.78141511066297653 0 0 0 0 27.671657897958767 10.912149566818698 0 10.912149566818698 -24.76371405529062 0 0 0 0 -22.640353529542153 0.62580578910274198 0 0.62580578910274198 47.005046448204666 0 0 0 0 10.783957646042268 37.822081968886778 0 37.822081968886778 32.315349538490409 0 0 0 0 -22.126558425642258 34.900068054717849 0 34.900068054717849 -18.635952101354633 0 0 0 0 38.050785106432116 21.232765470576851 0 21.232765470576851 -16.486978448258014 0 0 0 0 19.228883889157487 14.640469116824534 0 14.640469116824534 -45.743033595361339 0 0 0 0 -18.793708529625974 9.3590934970961825 0 9.3590934970961825 101.07492170065598 0 0 0 0 -6.6624588969329261 30.962315024408298 0 30.962315024408298 10.737735942844301 0 0 0 0 -1.1613134568312944 1.3913995990815238 0 1.3913995990815238 66.630895374080865 0 0 0 0 2.9124755663556243 30.271182889820921 0 30.271182889820921 68.065545603101782 0 0 0 0 -24.651671776533476 18.294977836019825 0 18.294977836019825 12.458574173506349 0 0 0 0 -10.390235850909601 16.164861306669081 0 16.164861306669081 19.902121013806997 0 0 0 0 -7.8581275347778501 25.355002985917963 0 25.355002985917963 -9.5071828986838227 0 0 0 0 -11.504464673199436 21.259634506379371 0 21.259634506379371 13.351858636198813 0 0 0 0 -10.016516562248398 19.763153903535567 0 19.763153903535567 14.587427638820373 0 0 0 0 -15.294001383155011 14.506724046337055 0 14.506724046337055 13.939441212994467 0 0 0 0 -13.550070542440608 19.322647049793886 0 19.322647049793886 16.843114860908827 0 0 0 0 -12.609002911876319 14.984298142383233 0 14.984298142383233 38.920561106442904 0 0 0 0 -12.421666362130964 17.730390886456007 0 17.730390886456007 18.297156647604425 0 0 0 0 -11.061364984912043 16.584847041252075 0 16.584847041252075 36.090546881532902 0 0 0 0 -10.147242810417765 25.082180201734445 0 25.082180201734445 56.344429893964843 0 0 0 0 -6.1011714133207988 13.690568078411161 0 13.690568078411161 44.05541441886453 0 0 0 0 -4.8479871449109506 9.8180345849449733 0 9.8180345849449733 41.106469931943636 0 0 0 0 -0.48458739252600935 15.80882288272187 0 15.80882288272187 33.700654358864995 0 0 0 0 -5.3583945023028718 23.984285518092292 0 23.984285518092292 62.116350549345952 0 0 0 0 -5.4879377957728472 -1.6410576912790233 0 -1.6410576912790233 -0.34840341045165246 0 0 0 0 -32.884025565064803 -19.415907257978688 0 -19.415907257978688 -5.5292001560155768 0 0 0 0 -7.934486005161034 19.893485737680749 0 19.893485737680749 67.404920091750682 0 0 0 0 -6.3171112840109345 2.9093487855425337 0 2.9093487855425337 60.018009097575487 0 0 0 0 -0.37733275720519988 4.7809954194047464 0 4.7809954194047464 9.8413323683687963 0 0 0 0 -62.078715066171753 -28.091954735730724 0 -28.091954735730724 15.658428310947784 0 0 0 0 -0.87007343943266413 0.091402196423686632 0 0.091402196423686632 0.18361579340063372 0 0 0 0 -13.05501997220199 21.834157097251591 0 21.834157097251591 53.489768058338086 0 0 0 0 -6.317383821513431 7.3542087594832992 0 7.3542087594832992 37.738107333541848 0 0 0 0 -15.932063643360584 10.80175300300462 0 10.80175300300462 8.4835183346717962 0 0 0 0 -51.962598150856138 15.182998022246466 0 15.182998022246466 49.938239531096769 0 0 0 0 -19.51163353560635 6.6836922193221966 0 6.6836922193221966 18.347881736859691 0 0 0 0 -11.351714886573973 9.6683356100402307 0 9.6683356100402307 18.554625167884296 0 0 0 0 -23.670077006795047 14.258855626864033 0 14.258855626864033 9.7787073400973803 0 0 0 0 -19.172675792944094 14.714335233524153 0 14.714335233524153 16.71200008553356 0 0 0 0 -67.746093947186637 11.662661965063307 0 11.662661965063307 60.093797422061471 0 0 0 0 -15.505280741731895 4.1661442930417252 0 4.1661442930417252 32.965687710689963 0 0 0 0 -12.163468938976166 8.1682409407767409 0 8.1682409407767409 19.670442794158589 0 0 0 0 -17.455366466104646 12.424584467182328 0 12.424584467182328 14.350355885436187 0 0 0 0 -12.716072152803463 14.841847408431931 0 14.841847408431931 13.940279390113574 0 0 0 0 -14.977640907023753 6.1289333307995264 0 6.1289333307995264 14.686099255257517 0 0 0 0 -5.2469047859618971 14.196674108625515 0 14.196674108625515 2.8742191268107682 0 0 0 0 -7.7255220199127166 23.401680090903028 0 23.401680090903028 18.749414679579786 0 0 0 0 -12.857493766658536 15.906092850163986 0 15.906092850163986 8.8408365609502653 0 0 0 0 -8.7902758662294218 32.051122924283845 0 32.051122924283845 11.505637117195874 0 0 0 0 -11.138070601240475 19.12130050392156 0 19.12130050392156 10.210721809460694 0 0 0 0 -0.2858063983511161 1.8827201187538094 0 1.8827201187538094 1.8916087489369033 0 0 0 0 -13.59090655144921 11.846422597625605 0 11.846422597625605 8.5854482540291031 0 0 0 0 -16.898261705931873 39.208171789076005 0 39.208171789076005 40.161565670256095 0 0 0 0 -6.1470156993187857 17.827638449989536 0 17.827638449989536 19.811706991269602 0 0 0 0 -12.357962360394595 28.344003084126598 0 28.344003084126598 42.1969041320408 0 0 0 0 -63.715063874702537 37.357622624047508 0 37.357622624047508 43.98065448160196 0 0 0 0 23.961878258080105 50.354653630214671 0 50.354653630214671 40.938782554163481 0 0 0 0 -19.906030546319016 13.556461111180397 0 13.556461111180397 62.591445641312021 0 0 0 0 -65.536887087605919 10.165562200611021 0 10.165562200611021 46.94199317379389 0 0 0 0 -18.52370534444708 10.620383841425792 0 10.620383841425792 12.778271680836042 0 0 0 0 -45.385535566121689 39.256356283236528 0 39.256356283236528 38.58037588546722 0 0 0 0 13.480893471234594 -0.054240941746684257 0 -0.054240941746684257 18.897868842163007 0 0 0 0 -1.5537299690338031 2.0604515763907116 0 2.0604515763907116 9.0741954052688811 0 0 0 0 -60.255780335846794 -9.9751789638758055 0 -9.9751789638758055 34.954107784213193 0 0 0 0 4.441437810239222 15.050205722254759 0 15.050205722254759 1.4595650025585201 0 0 0 0 -33.180930282760528 13.550782645899744 0 13.550782645899744 78.124085973897309 0 0 0 0 -31.794234875509574 36.459083780580841 0 36.459083780580841 5.0603432879870525 0 0 0 0 -23.282851018609108 25.987545774276441 0 25.987545774276441 64.276838081088499 0 0 0 0 -4.4653475731247454 78.13000483707583 0 78.13000483707583 -17.508684218584676 0 0 0 0 -32.469028961249933 50.043645931917126 0 50.043645931917126 90.260228077197098 0 0 0 0 -27.946171709137161 18.891927123924688 0 18.891927123924688 48.966544011576843 0 0 0 0 -1.4025461163534807 10.237612790841617 0 10.237612790841617 19.547879435338572 0 0 0 0 -26.63296861554727 20.279672305405256 0 20.279672305405256 38.177523954611388 0 0 0 0 -4.8040224190490335 7.3806748173283268 0 7.3806748173283268 26.461302001560398 0 0 0 0 -20.798263610689901 47.239487465594721 0 47.239487465594721 -0.62292769087798661 0 0 0 0 -5.7810675722685119 5.4935893817455508 0 5.4935893817455508 23.143036258370557 0 0 0 0 -2.1909194456612688 7.6561664134908511 0 7.6561664134908511 12.740167012717819 0 0 0 0 -25.361061190141072 28.10501545365787 0 28.10501545365787 -26.422965964651667 0 0 0 0 -22.189135502363115 66.498482438371866 0 66.498482438371866 34.054533138755687 0 0 0 0 15.90419034555498 65.575737070143077 0 65.575737070143077 33.389073085585551 0 0 0 0 -4.4713097227195249 38.072765155833622 0 38.072765155833622 31.559150698943995 0 0 0 0 22.251694000418411 22.928208816858387 0 22.928208816858387 39.06113211158663 0 0 0 0 -24.271117494688781 39.290958313195461 0 39.290958313195461 35.207498424773803 0 0 0 0 -7.8487105894996603 36.016602941519523 0 36.016602941519523 30.352339375451265 0 0 0 0 -29.7023705120464 14.891073096056061 0 14.891073096056061 30.710704916953546 0 0 0 0 -4.9720614095343549 15.870772465274854 0 15.870772465274854 34.246860942046624 0 0 0 0 -18.20965642590636 27.388130312931025 0 27.388130312931025 26.869205926370341 0 0 0 0 -7.6252868292869138 2.0301911890084483 0 2.0301911890084483 9.3267634346341595 0 0 0 0 -42.413119615583582 21.286886128724291 0 21.286886128724291 35.726605264771933 0 0 0 0 -1.0448182040307175 9.8121542838001972 0 9.8121542838001972 22.106493477923891 0 0 0 0 -40.541534146788536 24.56886216512612 0 24.56886216512612 35.565858873167599 0 0 0 0 -3.0387931708160068 11.870012860905263 0 11.870012860905263 17.96789476788399 0 0 0 0 -90.652609752523176 -7.5384350377717055 0 -7.5384350377717055 33.572375306641334 0 0 0 0 -47.984957581292065 35.995402214144633 0 35.995402214144633 34.778627809122554 0 0 0 0 -34.069876109263078 47.783477588305686 0 47.783477588305686 41.800503217410778 0 0 0 0 -44.587431189192557 37.633054773239564 0 37.633054773239564 42.209151991643012 0 0 0 0 -55.886863027390518 50.525583880229533 0 50.525583880229533 27.659334885305725 0 0 0 0 -26.228487229177063 47.098820808412711 0 47.098820808412711 35.661131339511485 0 0 0 0 -32.730612048721014 43.712146352925629 0 43.712146352925629 53.669885893854371 0 0 0 0 -15.390891364164418 11.127347991860006 0 11.127347991860006 26.965725051726622 0 0 0 0 -41.461725747703895 24.168936394191405 0 24.168936394191405 51.972191398646828 0 0 0 0 -41.536522424467371 19.281951972053776 0 19.281951972053776 3.0119570111419307 0 0 0 0 -81.278456195558647 14.552580226918508 0 14.552580226918508 28.051850240975909 0 0 0 0 -38.973306213096976 22.736187487183997 0 22.736187487183997 43.385403984968434 0 0 0 0 -60.089838303635133 1.5705672307158238 0 1.5705672307158238 30.173839720868273 0 0 0 0 -64.436999256167155 18.292589993658112 0 18.292589993658112 35.856696922623087 0 0 0 0 -9.5448347771526745 12.108234747596994 0 12.108234747596994 18.010616557432527 0 0 0 0 -20.429577836253202 6.1770359144686608 0 6.1770359144686608 24.972236036781396 0 0 0 0 -70.313741069194975 28.3582449953592 0 28.3582449953592 18.923498165939236 0 0 0 0 -101.23026878811379 52.70629837326851 0 52.70629837326851 0.72314595500938594 0 0 0 0 -2.1221150725195304 7.1426284566245073 0 7.1426284566245073 5.6220066495314214 0 0 0 0 -19.8473459577867 7.1173345813722548 0 7.1173345813722548 14.681544292388423 0 0 0 0 -68.378718833089806 -41.911338799043733 0 -41.911338799043733 -1.9185457920139015 0 0 0 0 -101.2872933578692 9.5087779842506279 0 9.5087779842506279 57.406361888977699 0 0 0 0 -26.905649736392661 3.9371768309865729 0 3.9371768309865729 21.391899164089409 0 0 0 0 -21.92799590753998 8.6044755762753695 0 8.6044755762753695 17.743015926266196 0 0 0 0 -26.773617834638813 15.604435031674925 0 15.604435031674925 21.324692657337209 0 0 0 0 -44.475599340172266 1.5919829490449047 0 1.5919829490449047 1.8770622514202842 0 0 0 0 -58.618295903800117 20.44646483980614 0 20.44646483980614 25.821242933001486 0 0 0 0 -41.632630206825979 49.944044353074787 0 49.944044353074787 64.278302849801548 0 0 0 0 -58.145223204165021 13.706282284602253 0 13.706282284602253 50.926905071217334 0 0 0 0 -22.141332711453238 4.5461361890430325 0 4.5461361890430325 19.309176971130796 0 0 0 0 -47.212824664204845 -3.653362469154672 0 -3.653362469154672 39.022050061961636 0 0 0 0 -26.216456291927898 17.086928273871308 0 17.086928273871308 23.082376717065927 0 0 0 0 -6.626183013023013 16.746097918342333 0 16.746097918342333 42.126994890170621 0 0 0 0 -59.003620202341153 0.32618014573563414 0 0.32618014573563414 59.408595870580029 0 0 0 0 84.208713012745648 -6.5766994864225126 0 -6.5766994864225126 -146.46042993931042 0 0 0 0 -2.4903246185976968 -2.5544067362825444 0 -2.5544067362825444 12.466821305853955 0 0 0 0 -3.575673784830137 -5.146147678633568 0 -5.146147678633568 2.4375820805940087 0 0 0 0 -67.176801463936044 -40.807227458352827 0 -40.807227458352827 44.524671328617842 0 0 0 0 -5.0731999208084524 -3.3255411111961237 0 -3.3255411111961237 10.040538951834876 0 0 0 0 -7.3833049155392274 7.3667163188055866 0 7.3667163188055866 8.9183671505544595 0 0 0 0 -11.916965350645114 11.417734725728224 0 11.417734725728224 26.226045162928131 0 0 0 0 -16.170071057619928 -4.5760126319500287 0 -4.5760126319500287 14.410695971383475 0 0 0 0 -41.005763080383986 -106.45810000747224 0 -106.45810000747224 -54.794071375974454 0 0 0 0 -38.094676936430915 9.2417177974130027 0 9.2417177974130027 3.6966678397038777 0 0 0 0 -78.110639660091692 -47.600465186020301 0 -47.600465186020301 102.35381365065405 0 0 0 0 -40.260043043837868 -46.379281380875909 0 -46.379281380875909 172.70573010224325 0 0 0 0 -12.98993462321414 15.470729513887818 0 15.470729513887818 48.487931287869287 0 0 0 0 -8.6357310704097472 -73.169353015004162 0 -73.169353015004162 235.56795349861204 0 0 0 0 15.280079355830821 -111.23917106275985 0 -111.23917106275985 52.491282737933943 0 0 0 0 44.279075685997668 220.57281709015297 0 220.57281709015297 114.59575927795049 0 0 0 0 60.2974778747448 63.986048992854194 0 63.986048992854194 200.0509908624299 0 0 0 0 189.58464727910541 6.8571389359494788 0 6.8571389359494788 224.60269436470116 0 0 0 0 341.47541527599242 84.769046741515922 0 84.769046741515922 167.26618469931418 0 0 0 0 2.2766490344226806 -1.9235739178006241 0 -1.9235739178006241 -3.1890839898877488 0 0 0 0 125.26303231857173 202.15909758533417 0 202.15909758533417 457.37749975982297 0 0 0 0 515.43515610446138 614.08280337970427 0 614.08280337970427 396.29797553434582 0 0 0 0 135.40558974514965 251.01947282266019 0 251.01947282266019 299.60102218500106 0 0 0 0 5.677422611473137 0.23817609806647511 0 0.23817609806647511 0.47263528908290198 0 0 0 0 92.899368378542135 -21.471491725885699 0 -21.471491725885699 -7.2006001856716466 0 0 0 0 -85.493471236093683 556.51712993780347 0 556.51712993780347 518.99732025590492 0 0 0 0 37.118344862935942 -503.3495375654793 0 -503.3495375654793 99.380969508143608 0 0 0 0 252.91758673984259 -0.86514643736882135 0 -0.86514643736882135 269.7671769351291 0 0 0 0 -78.891936618183536 104.37969363292359 0 104.37969363292359 48.027846929704538 0 0 0 0 -25.072555824644951 160.86826309081516 0 160.86826309081516 -330.94357210672206 0 0 0 0 -0.028189613695182913 2.2595426930147511 0 2.2595426930147511 4.1496384184542023 0 0 0 0 58.739987288902739 -22.832192765043146 0 -22.832192765043146 -176.59486596455099 0 0 0 0 -108.81790224745419 -81.850286268330819 0 -81.850286268330819 30.925816834492707 0 0 0 0 -2.2407818747613675 1.6111636318778366 0 1.6111636318778366 2.9465218176962225 0 0 0 0 -122.49258798665869 -156.237609062915 0 -156.237609062915 213.41608780576098 0 0 0 0 33.09026659337178 -211.65268915546039 0 -211.65268915546039 -172.58828909130534 0 0 0 0 3.969188577050371 4.0091832484311425 0 4.0091832484311425 4.269653023577348 0 0 0 0 124.18040826937852 126.26929718341216 0 126.26929718341216 144.70144652639283 0 0 0 0 123.15269824957011 113.02220930015096 0 113.02220930015096 44.169039062326192 0 0 0 0 212.18902841859199 89.127310191011929 0 89.127310191011929 47.577209312054038 0 0 0 0 108.91706654363929 37.918977943820664 0 37.918977943820664 -51.749199365673121 0 0 0 0 120.71286074647469 114.42136622929502 0 114.42136622929502 47.777277771820081 0 0 0 0 191.14105407401439 123.74895859599928 0 123.74895859599928 7.8859341034021782 0 0 0 0 52.877531003910008 73.556608133214468 0 73.556608133214468 18.353596350498265 0 0 0 0 -7.6732348215409729 -40.479679037296592 0 -40.479679037296592 -30.686418498749845 0 0 0 0 76.732970858374756 34.153759535227437 0 34.153759535227437 6.2326879995234776 0 0 0 0 -93.528103887343605 -1.8794439880002756 0 -1.8794439880002756 41.819658097854699 0 0 0 0 -25.842569745045694 25.033382317728865 0 25.033382317728865 158.10967711574631 0 0 0 0 4.0682115642648569 123.7833148067275 0 123.7833148067275 165.37639329647936 0 0 0 0 198.35077438859116 187.99575802693289 0 187.99575802693289 -104.2109239915535 0 0 0 0 312.06108157646997 321.93064983624208 0 321.93064983624208 36.564680944327847 0 0 0 0 246.27454097176923 311.28484366148405 0 311.28484366148405 88.364348701572453 0 0 0 0 112.79357568708338 183.03702453004371 0 183.03702453004371 39.52688948179275 0 0 0 0 286.39194775574288 241.01255413523177 0 241.01255413523177 56.532080994438729 0 0 0 0 166.27325533241401 131.42003776647107 0 131.42003776647107 43.580925676062179 0 0 0 0 251.2992931870649 176.20166229795723 0 176.20166229795723 59.313591950878617 0 0 0 0 254.46302307480863 77.606510180406588 0 77.606510180406588 44.130258977704216 0 0 0 0 393.40677502634662 121.51089870305441 0 121.51089870305441 45.792504522331001 0 0 0 0 402.3996461121119 286.67162264447688 0 286.67162264447688 55.249163352404139 0 0 0 0 390.20563492636143 274.6977622828872 0 274.6977622828872 82.104686401944491 0 0 0 0 331.81638336473134 241.72986839918303 0 241.72986839918303 26.805282971617999 0 0 0 0 333.12926333407853 339.80049960895042 0 339.80049960895042 51.703481462420314 0 0 0 0 429.93464533832014 332.30316921748272 0 332.30316921748272 51.968498298519989 0 0 0 0 404.63590445774452 386.86468603726507 0 386.86468603726507 244.02327283403429 0 0 0 0 425.47103574122673 295.9936351219003 0 295.9936351219003 460.59741567687161 0 0 0 0 637.69461354443638 484.66281699291358 0 484.66281699291358 216.8312627943742 0 0 0 0 4.1095452140799438 -0.78651523197065387 0 -0.78651523197065387 -0.37739559818955115 0 0 0 0 575.39574714210448 -219.76234321451193 0 -219.76234321451193 -623.073895999245 0 0 0 0 805.19727361137666 114.44825539449084 0 114.44825539449084 -138.41782564951791 0 0 0 0 906.95331931599367 298.27094864126411 0 298.27094864126411 318.15721878520708 0 0 0 0 682.14013553016594 385.7037286986706 0 385.7037286986706 306.49018782166513 0 0 0 0 513.76841704916296 590.48383729359193 0 590.48383729359193 598.54747349304489 0 0 0 0 697.97523773879357 430.35013417372829 0 430.35013417372829 403.55259149474296 0 0 0 0 437.1219262642428 430.78192868999759 0 430.78192868999759 513.60258702305873 0 0 0 0 468.8191189827246 377.33875480828829 0 377.33875480828829 503.59185165615781 0 0 0 0 -68.503881931054366 114.57786656689132 0 114.57786656689132 714.95043350267224 0 0 0 0 332.63206737060551 645.48241240498828 0 645.48241240498828 1351.0478730528739 0 0 0 0 812.87662667569884 -27.231336824537266 0 -27.231336824537266 1695.9506648576426 0 0 0 0 1014.8156951051299 521.96542423983556 0 521.96542423983556 784.04078584333911 0 0 0 0 588.74448134764566 568.04199005170085 0 568.04199005170085 801.46965456522321 0 0 0 0 823.97582357482952 441.33563274648986 0 441.33563274648986 404.47850776321866 0 0 0 0 512.99119492727277 401.24589160874166 0 401.24589160874166 505.67974413263255 0 0 0 0 364.3975067406277 128.1594790353447 0 128.1594790353447 518.51010682352353 0 0 0 0 345.29964235175885 386.28340405669587 0 386.28340405669587 796.34573190687297 0 0 0 0 582.68753788411095 253.28326948238464 0 253.28326948238464 783.51758759997028 0 0 0 0 173.47958306445435 119.35492890565365 0 119.35492890565365 342.25507621967699 0 0 0 0 115.70741170859947 124.75586821100296 0 124.75586821100296 516.63108482778625 0 0 0 0 137.04452683875115 19.67030385054386 0 19.67030385054386 398.2568259051186 0 0 0 0 292.36038297209416 246.88034963055543 0 246.88034963055543 348.54462006736139 0 0 0 0 439.56349723837229 176.10635249854022 0 176.10635249854022 464.43120054942301 0 0 0 0 176.90138612671763 117.52525532136497 0 117.52525532136497 625.69178870863834 0 0 0 0 385.60546131115007 771.4900744468905 0 771.4900744468905 1544.2966405724655 0 0 0 0 366.94841147920124 574.03421380990767 0 574.03421380990767 792.35813341559697 0 0 0 0 540.42806463453235 566.8186882016671 0 566.8186882016671 623.72635780148266 0 0 0 0 590.76396701151407 514.62937304580919 0 514.62937304580919 916.06892443418656 0 0 0 0 556.18886845320594 214.36188604942799 0 214.36188604942799 930.80968899597792 0 0 0 0 325.74465936922343 1056.1734998102529 0 1056.1734998102529 2279.0913730869988 0 0 0 0 4.3242476418100146 -6.6308806057356264 0 -6.6308806057356264 11.011994575585305 0 0 0 0 426.84812083218549 985.73713142999532 0 985.73713142999532 1312.85365053633 0 0 0 0 361.2183100103357 1019.5072847749179 0 1019.5072847749179 1647.0898816340195 0 0 0 0 519.58978145328547 1171.8800169477545 0 1171.8800169477545 1135.0157379819775 0 0 0 0 15.74048078298377 -19.717425148347804 0 -19.717425148347804 23.107833270204715 0 0 0 0 200.93899342370887 75.519408402253248 0 75.519408402253248 147.63733066813438 0 0 0 0 41.253977157748523 52.810053861014239 0 52.810053861014239 1198.6975031335232 0 0 0 0 146.37331333710637 185.97306730910896 0 185.97306730910896 208.35377105117004 0 0 0 0 101.52463930878463 160.87580243249613 0 160.87580243249613 214.70779594178384 0 0 0 0 187.75110497033245 154.02728604950244 0 154.02728604950244 107.36827942632226 0 0 0 0 -352.27757495631397 -24.529600792702695 0 -24.529600792702695 160.38347344408248 0 0 0 0 4.8177360362971342 -311.52181490137991 0 -311.52181490137991 388.60685281213591 0 0 0 0 123.38631876530388 -438.5639621070768 0 -438.5639621070768 1288.9291653498331 0 0 0 0 -1.730156516888087 97.748299008571848 0 97.748299008571848 389.45889930061821 0 0 0 0 423.5171854632157 30.015297170677513 0 30.015297170677513 214.53456255008859 0 0 0 0 70.183177037043606 -28.991842287216059 0 -28.991842287216059 79.196958367494517 0 0 0 0 85.414926843500325 94.75434992706505 0 94.75434992706505 -12.685453886772848 0 0 0 0 23.572459591004417 151.80600676978429 0 151.80600676978429 -20.369721217193728 0 0 0 0 -67.512003139852823 22.958251123884111 0 22.958251123884111 127.85323540341051 0 0 0 0 -34.753846738364018 157.84798553265455 0 157.84798553265455 -10.443840159481624 0 0 0 0 -167.03755849404752 99.303083511611476 0 99.303083511611476 97.188196714663718 0 0 0 0 -155.53359113424085 209.71473388276354 0 209.71473388276354 28.17952097619127 0 0 0 0 -45.085120940488196 111.42499218983357 0 111.42499218983357 -216.04814293886011 0 0 0 0 -292.62048214621609 340.24217807421519 0 340.24217807421519 183.29741347371601 0 0 0 0 33.056037781335029 43.741470000501579 0 43.741470000501579 45.56513119521928 0 0 0 0 0.13212447225594559 3.18577429121504 0 3.18577429121504 8.065066217749596 0 0 0 0 -30.882113956361959 0.54831959552726062 0 0.54831959552726062 54.010120579733893 0 0 0 0 -50.993439607682376 -28.333568297264719 0 -28.333568297264719 -62.252643412430189 0 0 0 0 -57.905001918647031 -14.677641161033534 0 -14.677641161033534 25.099950367584825 0 0 0 0 -31.740939195050004 1.9156097246997064 0 1.9156097246997064 37.958714960084819 0 0 0 0 -21.12402329309969 -4.5208992206903815 0 -4.5208992206903815 22.025226580560471 0 0 0 0 -240.23113799542625 95.883362523883989 0 95.883362523883989 120.75825862691272 0 0 0 0 -101.29372657723502 318.1258190390497 0 318.1258190390497 227.8469707594777 0 0 0 0 139.6148540650247 -139.07154454610281 0 -139.07154454610281 87.356735583569389 0 0 0 0 -228.10909332073061 -123.79307417529344 0 -123.79307417529344 523.89489171818423 0 0 0 0 -3.6477369616435649 1.3108260034165866 0 1.3108260034165866 0.80214803527803724 0 0 0 0 -34.18032183263432 -6.38689753460703 0 -6.38689753460703 15.909636205300956 0 0 0 0 -68.089930377635028 -34.63472953719247 0 -34.63472953719247 44.539815984084271 0 0 0 0 -35.12750145668906 88.928108776792214 0 88.928108776792214 -23.355309743565158 0 0 0 0 -0.52554688717496134 3.5203460041728647 0 3.5203460041728647 1.7534147722313946 0 0 0 0 -114.854192127185 -226.66957632539624 0 -226.66957632539624 519.52308957932109 0 0 0 0 90.035761286307888 -221.57844638603387 0 -221.57844638603387 479.99381839166745 0 0 0 0 294.42918580639162 372.94240180563065 0 372.94240180563065 -284.72597256795052 0 0 0 0 -46.121877332686836 56.693198961409507 0 56.693198961409507 160.4559971450326 0 0 0 0 31.364044246049573 32.462577084688007 0 32.462577084688007 31.106562335044899 0 0 0 0 -463.05202040184849 -99.264852803614303 0 -99.264852803614303 511.56923456091317 0 0 0 0 -167.12517615691104 535.180473232027 0 535.180473232027 -210.42575415132342 0 0 0 0 -275.64811696879406 173.72127857632222 0 173.72127857632222 -279.17360521056253 0 0 0 0 -337.77619357746062 -144.36252575842536 0 -144.36252575842536 77.217203671039897 0 0 0 0 -732.7113273916766 175.59540094479598 0 175.59540094479598 18.495613220069572 0 0 0 0 -494.04950947319594 302.93930547470518 0 302.93930547470518 103.21673507519881 0 0 0 0 -158.40905052947346 104.33581298263016 0 104.33581298263016 104.475324338208 0 0 0 0 -335.73582776022522 -15.768574610843643 0 -15.768574610843643 389.56780453590909 0 0 0 0 -97.845068433336564 -37.958039246430417 0 -37.958039246430417 374.35408054589061 0 0 0 0 -228.14429687488519 81.796259898015705 0 81.796259898015705 507.38683368602869 0 0 0 0 -18.558630748022551 138.4352612639741 0 138.4352612639741 97.310243248162465 0 0 0 0 -78.18576607083196 150.79354016202524 0 150.79354016202524 430.47485144158418 0 0 0 0 -82.421011656682822 79.426448483558488 0 79.426448483558488 171.90357486480571 0 0 0 0 -144.348279730586 -0.42665658787700522 0 -0.42665658787700522 390.20571341441246 0 0 0 0 -76.593090805075917 60.436184248133941 0 60.436184248133941 397.02446538786353 0 0 0 0 21.819366254279885 56.699685184976261 0 56.699685184976261 232.87054172089984 0 0 0 0 -71.685478015357148 19.712422686792706 0 19.712422686792706 402.79037714215519 0 0 0 0 78.965814994840912 -30.972583632572423 0 -30.972583632572423 366.50202534822165 0 0 0 0 192.44330742213606 144.26360312022371 0 144.26360312022371 415.42874588045379 0 0 0 0 19.38387420631625 -33.84996724875964 0 -33.84996724875964 343.29602818958665 0 0 0 0 59.667386231973069 141.39299382935133 0 141.39299382935133 399.01261985384008 0 0 0 0 14.955670629973611 -4.1912270498869475 0 -4.1912270498869475 113.38219759272033 0 0 0 0 314.56339483531792 185.65456469107994 0 185.65456469107994 132.06496870522824 0 0 0 0 983.35382623226178 853.84157048891211 0 853.84157048891211 353.34113277225697 0 0 0 0 483.29693506147623 993.46382424480453 0 993.46382424480453 455.36245341989707 0 0 0 0 225.45597155052565 -67.629885499967713 0 -67.629885499967713 -539.09804213750613 0 0 0 0 1323.2966443241021 1094.67222049971 0 1094.67222049971 -194.73764057419612 0 0 0 0 1138.0728630052799 2007.3538526938319 0 2007.3538526938319 1478.3654469698777 0 0 0 0 -104.92887165163484 123.44124230159105 0 123.44124230159105 3638.5896562299149 0 0 0 0 594.96326602676936 1690.9655809107389 0 1690.9655809107389 2468.1943038592144 0 0 0 0 1616.9106162821799 1304.2697726025572 0 1304.2697726025572 211.2021560626381 0 0 0 0 -159.20179678006389 193.15148629080795 0 193.15148629080795 -95.817288749400177 0 0 0 0 -140.34284630550246 -98.976139827451334 0 -98.976139827451334 3281.0606737044191 0 0 0 0 -139.80353838832161 -102.39435524283726 0 -102.39435524283726 1075.516019581999 0 0 0 0 13.164685844716708 13.309068251013613 0 13.309068251013613 14.585446386523785 0 0 0 0 -4.2064640145867074 10.044328117072418 0 10.044328117072418 13.313001873908503 0 0 0 0 -392.70296055387735 603.68509894720228 0 603.68509894720228 -1142.6568088762142 0 0 0 0 56.748165674156553 -203.12241812896173 0 -203.12241812896173 906.73812040466873 0 0 0 0 195.88171594629625 156.87741672194716 0 156.87741672194716 510.24770765361973 0 0 0 0 2.2472154768375958 3.5101347063213666 0 3.5101347063213666 7.9359329142272745 0 0 0 0 -175.44154018723475 146.65872440660314 0 146.65872440660314 1817.9259766511532 0 0 0 0 18.606875744764693 287.75113077689457 0 287.75113077689457 1064.2466241086986 0 0 0 0 16.206978632918183 153.6972821851561 0 153.6972821851561 1143.074634282224 0 0 0 0 538.55322720168851 -257.99099043519527 0 -257.99099043519527 1255.4319224067485 0 0 0 0 516.73209242395001 336.4006178403697 0 336.4006178403697 1196.4644772020602 0 0 0 0 -68.337038237366869 -29.619893157107072 0 -29.619893157107072 1170.6973247753922 0 0 0 0 -32.191044011369513 340.87298081314111 0 340.87298081314111 924.60409856698971 0 0 0 0 293.01133996301223 590.07918651245109 0 590.07918651245109 923.23973545275112 0 0 0 0 1383.3389072808309 -495.69555581932036 0 -495.69555581932036 732.16267589036124 0 0 0 0 195.16418262234413 -480.3495330792739 0 -480.3495330792739 3866.4655774772691 0 0 0 0 9.782735938888365 -8.4537811854794782 0 -8.4537811854794782 10.860905520822804 0 0 0 0 -81.733331546909653 445.32071675315774 0 445.32071675315774 3773.3392258294771 0 0 0 0 157.00198901062777 714.44292921238593 0 714.44292921238593 1383.1758207815465 0 0 0 0 120.21901434326082 531.94422213213147 0 531.94422213213147 980.93295451245649 0 0 0 0 20.970081583618661 -21.746958830028404 0 -21.746958830028404 22.804378705089782 0 0 0 0 179.33435815316892 -53.890571127099975 0 -53.890571127099975 979.58473685866556 0 0 0 0 857.71552182175401 -68.309750789035206 0 -68.309750789035206 -304.11298193284892 0 0 0 0 187.18001400413596 85.010679820843507 0 85.010679820843507 996.08989605211264 0 0 0 0 87.079712273567878 104.32980117284023 0 104.32980117284023 1823.9646656467667 0 0 0 0 -198.54694221554985 -630.38623318175451 0 -630.38623318175451 2763.2334363966293 0 0 0 0 -245.18560834753274 -930.09934528254234 0 -930.09934528254234 2594.945851248589 0 0 0 0 -182.25115944673735 -594.02511441195384 0 -594.02511441195384 3500.0355604792385 0 0 0 0 405.2218446601799 -1029.107910024291 0 -1029.107910024291 3195.9300227009317 0 0 0 0 961.31221242386709 -426.7368477348582 0 -426.7368477348582 3498.9464489679613 0 0 0 0 509.38716656845259 171.41246648926881 0 171.41246648926881 3121.0298144215158 0 0 0 0 -253.08539656093598 -481.12497177796104 0 -481.12497177796104 -141.78535720886794 0 0 0 0 -412.02240877712069 -472.01350774154707 0 -472.01350774154707 -188.85865129603735 0 0 0 0 -118.27929751754911 -346.86625002402116 0 -346.86625002402116 -368.87126751010874 0 0 0 0 -65.989846984651138 -32.177846794401603 0 -32.177846794401603 144.95515059321042 0 0 0 0 29.999996853893492 -35.023220889310323 0 -35.023220889310323 71.700278538102339 0 0 0 0 1.2753765125329437 81.354473742401751 0 81.354473742401751 405.70652161616454 0 0 0 0 55.959362164734188 280.62847122038465 0 280.62847122038465 543.06753940980707 0 0 0 0 217.98971531297929 -108.79449569799181 0 -108.79449569799181 787.62673734542841 0 0 0 0 65.596960434829185 -93.852727024186606 0 -93.852727024186606 1229.5304390100137 0 0 0 0 144.77224996296167 -104.02819600165276 0 -104.02819600165276 272.16499689847842 0 0 0 0 -71.264507483676198 -84.005098247902424 0 -84.005098247902424 568.70409691987879 0 0 0 0 -157.96676058808529 -1246.1561430483198 0 -1246.1561430483198 2493.3564364531849 0 0 0 0 7.2945022679093086 -1421.0985722201203 0 -1421.0985722201203 114.72607857820549 0 0 0 0 -89.778591831020435 -739.16464231854115 0 -739.16464231854115 1192.6113487662915 0 0 0 0 -307.48226358933624 -750.00892210562961 0 -750.00892210562961 2717.6917323719863 0 0 0 0 47.448597157698806 -1389.5309710693145 0 -1389.5309710693145 3499.721773386882 0 0 0 0 146.58820115049053 -721.66650768943509 0 -721.66650768943509 5419.1108674058487 0 0 0 0 240.39009607935145 -1006.0995285811932 0 -1006.0995285811932 -1528.4621523738133 0 0 0 0 -224.48977441673628 -241.9079994686781 0 -241.9079994686781 -488.34913060400868 0 0 0 0 0.96814871521150025 -9.4866098837522941 0 -9.4866098837522941 5.314391475527632 0 0 0 0 -297.17280669440976 -359.86307933978514 0 -359.86307933978514 -121.05058707996795 0 0 0 0 309.70401508086462 141.05795298956036 0 141.05795298956036 3501.6921948461168 0 0 0 0 204.93058750625545 126.28240121220915 0 126.28240121220915 3779.7904746930944 0 0 0 0 58.633654619968084 329.27043369234525 0 329.27043369234525 3499.8561281088291 0 0 0 0 15.51981730121588 -7.0406566331748763 0 -7.0406566331748763 26.654911930982053 0 0 0 0 -311.26576982030485 -299.05015084525803 0 -299.05015084525803 -220.87321591338969 0 0 0 0 1.6805289548337297 -26.131710865117753 0 -26.131710865117753 8.9341508446935816 0 0 0 0 -397.3039147909048 -291.15984566359111 0 -291.15984566359111 129.01707837685171 0 0 0 0 -19.364235769375721 69.199216410051122 0 69.199216410051122 399.77229951592381 0 0 0 0 -178.06329775379413 -280.60020323305434 0 -280.60020323305434 -107.84204578349454 0 0 0 0 -128.81797484543085 -464.04298694605677 0 -464.04298694605677 -1020.6757832351786 0 0 0 0 -5.3689469246913815 -1.4778151251121159 0 -1.4778151251121159 0.3384170387332226 0 0 0 0 -53.928159861458141 -10.202732092418955 0 -10.202732092418955 172.54211257142015 0 0 0 0 -24.065016137653995 2.7731614786019492 0 2.7731614786019492 24.323887299640056 0 0 0 0 -42.065315926069388 20.408160931023303 0 20.408160931023303 293.83847178721226 0 0 0 0 -92.665216109200628 -274.75425737789556 0 -274.75425737789556 -351.45040129799054 0 0 0 0 -15.695327045823575 -2.9970018313159699 0 -2.9970018313159699 -0.41039757540028887 0 0 0 0 -57.174953473613698 -106.42340361355082 0 -106.42340361355082 136.1530842504726 0 0 0 0 -4.4854201861311367 -23.013219579741417 0 -23.013219579741417 78.333720454917056 0 0 0 0 -42.363462465455882 -80.241770096577966 0 -80.241770096577966 85.636297696707516 0 0 0 0 14.986830969674429 -5.0023409053574142 0 -5.0023409053574142 65.022081068134867 0 0 0 0 -5.3601380649979209 -21.140411890102691 0 -21.140411890102691 65.073380357487792 0 0 0 0 2.4909366430799764 -20.513133475144969 0 -20.513133475144969 69.729922092468769 0 0 0 0 12.57870101357911 -3.5335467261607789 0 -3.5335467261607789 29.940091847056618 0 0 0 0 19.617210780806033 373.08855701555149 0 373.08855701555149 3172.3536392981041 0 0 0 0 27.734635185941215 919.65002013616322 0 919.65002013616322 4046.8365489150456 0 0 0 0 -10.485197858003598 420.83204813097836 0 420.83204813097836 3192.2485946832021 0 0 0 0 -23.058710469195972 377.22490831286268 0 377.22490831286268 3355.571104519302 0 0 0 0 12.820527817307607 -54.978513599868165 0 -54.978513599868165 3438.076006989686 0 0 0 0 2.1672493906648849 -34.738193010596596 0 -34.738193010596596 19.26341074541731 0 0 0 0 47.411742333368863 -39.23560453789014 0 -39.23560453789014 49.341795071828528 0 0 0 0 10.168875821705731 -7.1865202198713547 0 -7.1865202198713547 -12.078116377205447 0 0 0 0 76.826985019204329 331.1571933541054 0 331.1571933541054 3442.0662485319262 0 0 0 0 98.727244233343981 295.56283066356264 0 295.56283066356264 3499.8806309288484 0 0 0 0 -50.976584729214586 163.25125607608607 0 163.25125607608607 3321.5083361896104 0 0 0 0 -54.453488276095051 169.9279722808642 0 169.9279722808642 3458.3869919951067 0 0 0 0 -41.44208305253737 154.09535060080088 0 154.09535060080088 3201.6811604291288 0 0 0 0 -242.54384079336143 160.41115960238312 0 160.41115960238312 3499.843680921716 0 0 0 0 -310.89918094422137 -48.677836038858004 0 -48.677836038858004 3108.80454264742 0 0 0 0 -17.050916637679279 141.36992292648756 0 141.36992292648756 2720.3743375286431 0 0 0 0 12.703013255121256 24.638804292380911 0 24.638804292380911 1.0957065025384622 0 0 0 0 -15.177732217011595 346.48134966328507 0 346.48134966328507 3232.6898300522298 0 0 0 0 -0.38608869636976806 321.56216266769479 0 321.56216266769479 3183.7276346441649 0 0 0 0 -324.71889479261768 -45.601218748863175 0 -45.601218748863175 3500.1764549609047 0 0 0 0 -204.79528794929493 -432.13543899714932 0 -432.13543899714932 2247.6542031443023 0 0 0 0 11.778012658714601 5.2927149686474877 0 5.2927149686474877 102.14512059795379 0 0 0 0 8.531383305321425 19.659189401842184 0 19.659189401842184 -3.3390564787372412 0 0 0 0 -21.666508799134817 48.060457769079221 0 48.060457769079221 173.55157407007937 0 0 0 0 31.369057745135478 40.211008985035733 0 40.211008985035733 108.7999278215575 0 0 0 0 -12.102556390976588 -3.6463659903383814 0 -3.6463659903383814 94.663013037205019 0 0 0 0 9.6007249487250874 39.50593837649194 0 39.50593837649194 36.918022307181673 0 0 0 0 -6.1890686666049533 -16.73030633367307 0 -16.73030633367307 80.523046893402352 0 0 0 0 -1.604700947632796 -4.9822559785416942 0 -4.9822559785416942 74.64243421536122 0 0 0 0 8.7314948053494845 -2.0484132782803499 0 -2.0484132782803499 92.916194950608769 0 0 0 0 -10.151891014769717 27.455987234025088 0 27.455987234025088 127.78671117967133 0 0 0 0 -33.937129538021509 6.6636149458572618 0 6.6636149458572618 91.354995569003222 0 0 0 0 11.456948169846555 -2.3116545040284109 0 -2.3116545040284109 56.387938956009748 0 0 0 0 -4.5746568034301163 3.1020989828539314 0 3.1020989828539314 75.065247813490714 0 0 0 0 -9.2099768995876161 -20.885190327204853 0 -20.885190327204853 76.811368283007596 0 0 0 0 -11.383809383676407 -12.204836854059977 0 -12.204836854059977 98.462021685729269 0 0 0 0 -6.5225824989909835 -2.6060505885399579 0 -2.6060505885399579 72.947673156554089 0 0 0 0 -7.9104112500746755 12.47302101364329 0 12.47302101364329 124.88005503278157 0 0 0 0 -102.13235967482478 -62.997511766903699 0 -62.997511766903699 122.60601939892513 0 0 0 0 -15.757803496720054 -4.009020023597806 0 -4.009020023597806 109.16390584654708 0 0 0 0 -3.1807220101100029 2.7562490124837495 0 2.7562490124837495 71.11470939683386 0 0 0 0 -10.535166157675887 -9.1363269287277902 0 -9.1363269287277902 90.755845690427321 0 0 0 0 -10.58204449548362 20.450858673247495 0 20.450858673247495 11.831181895931806 0 0 0 0 -53.648646214764881 44.646261333713483 0 44.646261333713483 207.50596846118424 0 0 0 0 0.62354144398146971 21.238763907791935 0 21.238763907791935 28.665267441669698 0 0 0 0 -259.87293771493398 5.903831173243816 0 5.903831173243816 520.48872084461618 0 0 0 0 -12.922221586272935 -13.036883117799647 0 -13.036883117799647 185.85674412619582 0 0 0 0 -102.15867117904074 -89.304684278096829 0 -89.304684278096829 190.8533317318288 0 0 0 0 -185.50968586656472 -147.4174625349533 0 -147.4174625349533 157.51552694867132 0 0 0 0 -9.2649864444205825 18.199253762623641 0 18.199253762623641 -8.2589348179883899 0 0 0 0 -6.9907199631717276 53.382641124833754 0 53.382641124833754 276.46814841807645 0 0 0 0 -16.110422754038837 1.9242417162022321 0 1.9242417162022321 149.21354187442921 0 0 0 0 -75.032368006619208 -32.710722720337799 0 -32.710722720337799 307.86671159138496 0 0 0 0 3.2131209369297835 37.430830294801126 0 37.430830294801126 213.76783010424697 0 0 0 0 -4.6248610040673839 36.771652853916748 0 36.771652853916748 249.46702690642269 0 0 0 0 -6.84224465428494 30.849962554043259 0 30.849962554043259 253.64521889991011 0 0 0 0 -54.71698940757139 109.75840371852973 0 109.75840371852973 394.51798850447813 0 0 0 0 -7.9900597143437402 63.53964780819615 0 63.53964780819615 173.80750175766298 0 0 0 0 -69.498841279211263 -140.40925988964955 0 -140.40925988964955 431.52343830162135 0 0 0 0 -137.19529424897866 156.12987513957705 0 156.12987513957705 27.305587488488527 0 0 0 0 -76.812296548255631 -191.22468374499294 0 -191.22468374499294 83.693889431886419 0 0 0 0 -8.155704434921903 -13.923849107733915 0 -13.923849107733915 24.281853282617817 0 0 0 0 -134.27126191831451 128.45250338315964 0 128.45250338315964 178.53685081431468 0 0 0 0 -49.641223817040327 51.908804258004238 0 51.908804258004238 232.09931269843582 0 0 0 0 -193.6096937657735 -88.798687562394662 0 -88.798687562394662 234.45217586982471 0 0 0 0 -170.89824954432743 -63.409882737694716 0 -63.409882737694716 186.84730222616781 0 0 0 0 -109.29513705695501 221.62407836729108 0 221.62407836729108 234.01283896029054 0 0 0 0 -218.13838938753906 37.175855233868788 0 37.175855233868788 187.96468853874831 0 0 0 0 -9.0558924556959575 -1.0825361346075226 0 -1.0825361346075226 183.00259128332422 0 0 0 0 -151.17883468596301 -7.1776732913149317 0 -7.1776732913149317 214.07978432260825 0 0 0 0 -208.44871677757965 6.2762501439538028 0 6.2762501439538028 253.47427110591525 0 0 0 0 -225.93196049062317 5.4855484238942154 0 5.4855484238942154 319.29767390078996 0 0 0 0 -208.65717105440899 15.362604447428566 0 15.362604447428566 267.22062865050975 0 0 0 0 -231.95446178567238 -55.732011166614939 0 -55.732011166614939 412.70089786370227 0 0 0 0 -239.20234328229071 -87.368554812517687 0 -87.368554812517687 274.74253185074667 0 0 0 0 -275.3802103851126 -192.20494799460175 0 -192.20494799460175 299.70721028344087 0 0 0 0 -196.83250363775096 57.205424603704159 0 57.205424603704159 414.53901103078897 0 0 0 0 -208.71050322606152 -7.9287267979707394 0 -7.9287267979707394 359.99161208452642 0 0 0 0 -203.94005780971685 72.283127479243376 0 72.283127479243376 527.51888466628589 0 0 0 0 -50.879737398242469 154.99170078582029 0 154.99170078582029 420.22831094470894 0 0 0 0 -106.30729290499653 116.67282633658033 0 116.67282633658033 569.68513863990665 0 0 0 0 6.3322293688579521 287.79329085794598 0 287.79329085794598 649.31673757045064 0 0 0 0 103.6639810183691 393.8382724320436 0 393.8382724320436 880.42740840582701 0 0 0 0 -309.28934990828748 -66.505457939934786 0 -66.505457939934786 622.34172683072393 0 0 0 0 -95.872315588004312 113.48761788901174 0 113.48761788901174 530.64933899973039 0 0 0 0 -249.60174360083067 -163.57250080525409 0 -163.57250080525409 990.73087609176036 0 0 0 0 -141.1552427804738 -149.9820466670426 0 -149.9820466670426 374.62419969523398 0 0 0 0 -435.43957124603742 -626.56261940104264 0 -626.56261940104264 -142.41717743210756 0 0 0 0 -484.93752784673688 -247.14604704563681 0 -247.14604704563681 429.23349821852025 0 0 0 0 -177.24188304573272 -281.76798678669365 0 -281.76798678669365 -107.79171448695706 0 0 0 0 -90.752622532773785 -109.57124738877974 0 -109.57124738877974 -75.157745768756286 0 0 0 0 -197.54535938105641 -308.88158105294269 0 -308.88158105294269 91.750021855492378 0 0 0 0 -96.837233239172747 -116.4826500124509 0 -116.4826500124509 25.44239398371792 0 0 0 0 -187.63595955414439 -145.76753451539662 0 -145.76753451539662 244.70571917828966 0 0 0 0 -0.015869190065705335 11.496641495716176 0 11.496641495716176 33.347598162183203 0 0 0 0 0.138950640788507 1.8844062596184017 0 1.8844062596184017 20.40508687311636 0 0 0 0 -4.4173568101466572 -34.282225589253358 0 -34.282225589253358 31.33372209884692 0 0 0 0 -24.584504745631193 44.136570248687349 0 44.136570248687349 119.79467603148805 0 0 0 0 -4.2676542082112698 -20.75496385333625 0 -20.75496385333625 18.72616785508427 0 0 0 0 -3.1218716562125279 -1.3564486423107525 0 -1.3564486423107525 1.3231679342698044 0 0 0 0 359.29364716606858 -133.78691828631418 0 -133.78691828631418 -2.8010957878577756 0 0 0 0 -0.24111580137010513 -1.8623698671048459 0 -1.8623698671048459 7.8374613202422552 0 0 0 0 -0.0064905644971359703 1.3852677983522881 0 1.3852677983522881 27.929277256581372 0 0 0 0 37.881000627790762 -554.94374461464031 0 -554.94374461464031 1738.4740633460315 0 0 0 0 -173.72348687090255 455.8373702767276 0 455.8373702767276 2480.5905742618997 0 0 0 0 -570.18949848010323 472.62061767585692 0 472.62061767585692 3498.8263048919544 0 0 0 0 0.85424753136716591 238.70780176721078 0 238.70780176721078 2691.0820471834595 0 0 0 0 -341.74977495043663 169.02817732133553 0 169.02817732133553 2403.5145310372754 0 0 0 0 -79.473113195696158 347.4513119628682 0 347.4513119628682 1343.4816585603257 0 0 0 0 197.8750903025674 820.04840091767983 0 820.04840091767983 706.2081006863591 0 0 0 0 -230.48711784745939 586.01767087651388 0 586.01767087651388 2244.1366263194213 0 0 0 0 -521.07853546233162 960.53759415507375 0 960.53759415507375 3059.4789697400302 0 0 0 0 -74.034846617924359 1082.7282093227695 0 1082.7282093227695 2174.141233951008 0 0 0 0 963.82401865557858 1769.5770451621065 0 1769.5770451621065 3327.5143164270412 0 0 0 0 -44.172479586529036 785.12080554438444 0 785.12080554438444 2373.6450881393102 0 0 0 0 1165.0683001942421 446.57504618594612 0 446.57504618594612 254.10192732769065 0 0 0 0 156.64915235640933 1328.9245929609315 0 1328.9245929609315 2001.8867589501388 0 0 0 0 -145.02749926461547 -49.145726143171487 0 -49.145726143171487 208.82551195628184 0 0 0 0 -25.736801903891767 18.069053579015986 0 18.069053579015986 3.037680346948946 0 0 0 0 -135.06330719037101 -79.275670272465504 0 -79.275670272465504 888.99805500217735 0 0 0 0 13.035600704066113 -36.825313368311996 0 -36.825313368311996 53.440760716579774 0 0 0 0 -207.549759856631 297.34429992945661 0 297.34429992945661 1360.0876304317026 0 0 0 0 12.40674588074171 73.039940550253959 0 73.039940550253959 152.48959732778894 0 0 0 0 6.5476483168891662 48.110428081247846 0 48.110428081247846 117.97780129151943 0 0 0 0 -22.779684795246283 37.782910309830186 0 37.782910309830186 127.34070583757421 0 0 0 0 -2.6403036081821938 38.766938632848905 0 38.766938632848905 89.468295114307693 0 0 0 0 7.7098826652859884 51.451899561008759 0 51.451899561008759 86.0432454290858 0 0 0 0 -24.447728105604213 42.645199270440571 0 42.645199270440571 149.77482707684248 0 0 0 0 -125.27235869283095 111.80622012692947 0 111.80622012692947 269.54667615220387 0 0 0 0 -11.632815936303697 19.046213841494222 0 19.046213841494222 -4.9934832455281146 0 0 0 0 72.336395089205325 27.858383051319834 0 27.858383051319834 48.605960347573273 0 0 0 0 10.680016942750953 -23.106305303116301 0 -23.106305303116301 40.452726843782898 0 0 0 0 -345.8494288806869 -228.99333962557284 0 -228.99333962557284 55.977541911178378 0 0 0 0 1091.0618104771768 2013.2837644398096 0 2013.2837644398096 3498.3789086856414 0 0 0 0 1.8685677111324468 0.049771752562548954 0 0.049771752562548954 11.440206102580703 0 0 0 0 3.3605692446834716 1.8395351972812222 0 1.8395351972812222 4.5451589284009799 0 0 0 0 492.76542173660283 -440.68676585313005 0 -440.68676585313005 -424.66538094311909 0 0 0 0 21.853668905245641 -10.375648474844638 0 -10.375648474844638 3488.9412310560874 0 0 0 0 8.5645020941745997 -6.0179871358473918 0 -6.0179871358473918 9.9571677301828032 0 0 0 0 86.702855450515699 94.832915691888047 0 94.832915691888047 174.58636098750867 0 0 0 0 -222.71491529703331 99.396682173762201 0 99.396682173762201 277.54012932872865 0 0 0 0 -214.92360148816758 -361.21644250831014 0 -361.21644250831014 1751.1085074961738 0 0 0 0 21.339135397893187 -3.3117677116060804 0 -3.3117677116060804 670.54018724081607 0 0 0 0 890.22008314543882 -1121.3084719650142 0 -1121.3084719650142 677.04949647311457 0 0 0 0 42.629974485420547 -1474.8021006781892 0 -1474.8021006781892 3493.205142776671 0 0 0 0 -8.5066827244994556 58.1901169586381 0 58.1901169586381 97.616998288911418 0 0 0 0 0.82452502887240664 17.237329521494132 0 17.237329521494132 -3.1292202314611117 0 0 0 0 577.58491366150042 -461.72195997633753 0 -461.72195997633753 699.38954128201294 0 0 0 0 -15.2842121937814 26.201712868292816 0 26.201712868292816 163.04858784371027 0 0 0 0 -7.768582172255492 19.106845735292211 0 19.106845735292211 -6.202017969812907 0 0 0 0 16.997307056667317 22.874164117791224 0 22.874164117791224 25.477152428109548 0 0 0 0 -23.011009249235713 60.892534399099532 0 60.892534399099532 327.33070269451127 0 0 0 0 -1.0300058657768432 66.092466809655889 0 66.092466809655889 287.57474699016893 0 0 0 0 -25.672126895678502 56.02622616685403 0 56.02622616685403 221.93286896577047 0 0 0 0 -12.660880640403775 21.480195518379332 0 21.480195518379332 244.60433374881541 0 0 0 0 -11.816165033835432 90.679855667513038 0 90.679855667513038 141.78803469237755 0 0 0 0 31.413655008586147 36.051783832655929 0 36.051783832655929 198.65513349856337 0 0 0 0 -17.755394529784553 37.384617723639167 0 37.384617723639167 299.01026153110433 0 0 0 0 -8.6388287594168105 25.36758718429337 0 25.36758718429337 250.24632649957493 0 0 0 0 -25.079095315837776 -21.264891176571837 0 -21.264891176571837 229.45609355159104 0 0 0 0 -7.7920830712769202 44.959641640722111 0 44.959641640722111 285.70762371965975 0 0 0 0 31.054202091669595 29.840557056821126 0 29.840557056821126 158.48640258026717 0 0 0 0 2.864081328850034 -52.180968178792682 0 -52.180968178792682 122.83281849440391 0 0 0 0 2.6182040880587465 51.161334661384899 0 51.161334661384899 251.32929137883184 0 0 0 0 -59.925273285019557 15.313369293377036 0 15.313369293377036 358.87684713315684 0 0 0 0 46.026532439966104 148.49876721421606 0 148.49876721421606 225.73942901651026 0 0 0 0 18.564088182034993 59.215356656975928 0 59.215356656975928 368.38327302629477 0 0 0 0 -6.7603742605968007 19.904538359512799 0 19.904538359512799 -3.5261022841863863 0 0 0 0 -15.05522749441576 96.129796597831046 0 96.129796597831046 510.20445822839974 0 0 0 0 0.19195860459841363 1.2686534052769787 0 1.2686534052769787 -7.3899744426883025 0 0 0 0 3.9079390771769908 27.954515713456203 0 27.954515713456203 300.90741830105253 0 0 0 0 -14.748224810096417 48.035681546316482 0 48.035681546316482 296.99294959008876 0 0 0 0 -14.895459663269321 49.841853064128372 0 49.841853064128372 331.20349822484422 0 0 0 0 -22.845594999601254 34.384287342974858 0 34.384287342974858 89.67826697476994 0 0 0 0 -18.970058287114057 22.699327503723907 0 22.699327503723907 91.738395815561489 0 0 0 0 4.9899764525108026 30.848982499133854 0 30.848982499133854 30.790279894812556 0 0 0 0 -3.1432473585394973 20.943830808279017 0 20.943830808279017 18.683054523840838 0 0 0 0 -14.511246705666508 25.020734347483085 0 25.020734347483085 144.59418211781849 0 0 0 0 -16.905157670480548 0.6964101192788803 0 0.6964101192788803 104.53216644604254 0 0 0 0 -1.130685380077125 10.718515589212984 0 10.718515589212984 24.802171191215166 0 0 0 0 58.621863582605727 80.607526452280581 0 80.607526452280581 216.35580890665005 0 0 0 0 13.525610345658151 169.79568625291722 0 169.79568625291722 456.63750377070392 0 0 0 0 -24.911647629996878 117.62631204099307 0 117.62631204099307 402.46544198621268 0 0 0 0 -2.7329656622739087 5.9676828419256651 0 5.9676828419256651 2.3795580028306844 0 0 0 0 -2.1666738364818094 15.43122909636719 0 15.43122909636719 -4.2845520096712342 0 0 0 0 -1.7454916354172383 10.451815957030703 0 10.451815957030703 28.725491425764631 0 0 0 0 -100.68215831478187 36.110607229456946 0 36.110607229456946 494.47822157845076 0 0 0 0 -26.590304197812429 43.399112286453601 0 43.399112286453601 320.46085193293402 0 0 0 0 -81.031828258655878 -53.054036784487835 0 -53.054036784487835 301.79494424265977 0 0 0 0 134.99202343241541 -18.022847338892461 0 -18.022847338892461 -21.897727433679393 0 0 0 0 -72.726239374990712 -7.8769558462281566 0 -7.8769558462281566 344.21630193429883 0 0 0 0 6.5878587578648826 5.932082994131946 0 5.932082994131946 4.5073556870016773 0 0 0 0 -119.98988548921767 -79.899221499001214 0 -79.899221499001214 990.32982779847225 0 0 0 0 -119.32361427059368 -46.068865976951201 0 -46.068865976951201 359.94607626760626 0 0 0 0 -0.912384878248099 2.0943849289424108 0 2.0943849289424108 4.440214419831193 0 0 0 0 -14.145454212329277 13.793584322345851 0 13.793584322345851 116.47215928220976 0 0 0 0 226.72755234885926 419.31893497610872 0 419.31893497610872 535.48484146500414 0 0 0 0 -27.770632880819903 -240.03700885971193 0 -240.03700885971193 1000.1778906293621 0 0 0 0 106.72366822892408 209.12927752221185 0 209.12927752221185 1261.4420297909237 0 0 0 0 267.73250699073151 -586.03309517324669 0 -586.03309517324669 335.56984702884802 0 0 0 0 49.195601685083346 -37.62653817149112 0 -37.62653817149112 30.6038573840342 0 0 0 0 4.0144255910946214 -31.688778717514651 0 -31.688778717514651 156.56655128805141 0 0 0 0 43.507320330181294 29.821028059159289 0 29.821028059159289 -7.0028479868378781 0 0 0 0 -0.098016122061988509 19.410627732839203 0 19.410627732839203 65.324114631584962 0 0 0 0 -173.87522244961949 -11.188980624356191 0 -11.188980624356191 1155.9273787983257 0 0 0 0 2.7419049326440401 3.3393080796921879 0 3.3393080796921879 3.6703519679978456 0 0 0 0 -1.6995827630311564 751.52913246580283 0 751.52913246580283 1047.3899292331407 0 0 0 0 -6.1466873636453982 26.068105628284684 0 26.068105628284684 52.428744240911328 0 0 0 0 -2.7234521890511858 2.1952666388021385 0 2.1952666388021385 3.3174028292940534 0 0 0 0 7.6943200693889535 24.37510754030518 0 24.37510754030518 16.97139147798589 0 0 0 0 134.16208822233375 -110.92664967606834 0 -110.92664967606834 159.54919130453345 0 0 0 0 0.013930010761641326 33.674852867217851 0 33.674852867217851 34.838523762315162 0 0 0 0 -0.85556356757519936 14.806636625627959 0 14.806636625627959 10.587411430331095 0 0 0 0 -0.82742478617001325 12.407780451845611 0 12.407780451845611 23.111361753290112 0 0 0 0 -2.5039097611496137 7.4517662067297863 0 7.4517662067297863 2.2628982336241137 0 0 0 0 3.08369327369752 10.96081923271413 0 10.96081923271413 38.802397261184524 0 0 0 0 1.6486763580100781 13.108530526434478 0 13.108530526434478 17.290389942623165 0 0 0 0 17.97976930633331 7.1601626650117396 0 7.1601626650117396 26.626950869627763 0 0 0 0 0.53003984777270674 11.089107639642869 0 11.089107639642869 51.91251240971917 0 0 0 0 -0.30708698755637148 1.1358923694208443 0 1.1358923694208443 12.518710295849289 0 0 0 0 -5.0264067395550756 15.005401241032814 0 15.005401241032814 59.008613209080067 0 0 0 0 -34.936012061187917 137.97419851461746 0 137.97419851461746 362.56429888274579 0 0 0 0 149.48175281985488 -218.41129749266838 0 -218.41129749266838 351.30509696083391 0 0 0 0 0.19572292855924089 -0.66692327728539169 0 -0.66692327728539169 2.7218968489115696 0 0 0 0 -55.692098129439387 23.419560671827639 0 23.419560671827639 538.54320756558445 0 0 0 0 139.81473961623266 73.156456474289371 0 73.156456474289371 395.40795488296135 0 0 0 0 -0.22060595315018683 -61.794644013389188 0 -61.794644013389188 510.37068642086524 0 0 0 0 166.89412069577509 -57.764656331722108 0 -57.764656331722108 330.84679040170158 0 0 0 0 -31.296900588090182 -10.02437298050063 0 -10.02437298050063 299.6404520895012 0 0 0 0 0.19287411908599977 17.223666257883984 0 17.223666257883984 164.87992860110535 0 0 0 0 -27.146276645496357 31.516179277990886 0 31.516179277990886 386.43507043234422 0 0 0 0 82.268762052968853 -70.49250516651955 0 -70.49250516651955 329.49504555273234 0 0 0 0 -17.128108248383995 35.351106513655395 0 35.351106513655395 327.71517416472489 0 0 0 0 67.289271451478641 13.664641446928727 0 13.664641446928727 115.78126835892181 0 0 0 0 -9.1549795060612951 -54.920119906018954 0 -54.920119906018954 262.71938554595545 0 0 0 0 -8.7599787477378275 -16.310105846832641 0 -16.310105846832641 273.62447730345593 0 0 0 0 -71.965977073434203 -19.421246207912191 0 -19.421246207912191 434.85629892277939 0 0 0 0 -77.572126590155278 2.3540983073762618 0 2.3540983073762618 406.68437694271415 0 0 0 0 -47.220005171649376 -7.6851664395726402 0 -7.6851664395726402 360.00408528161643 0 0 0 0 4.8999207462537697 -99.364616395767371 0 -99.364616395767371 391.09137590987302 0 0 0 0 -5.2400084666037117 -27.045406019220536 0 -27.045406019220536 168.79209085102775 0 0 0 0 -70.862902715727159 25.406926439925883 0 25.406926439925883 384.40722130560607 0 0 0 0 -40.608067291771476 -37.48724593569932 0 -37.48724593569932 413.99778985184093 0 0 0 0 0.24768388080404835 -0.57129528630974136 0 -0.57129528630974136 1.6468966091903781 0 0 0 0 -8.5732038097976329 112.6995648218799 0 112.6995648218799 227.76023202393844 0 0 0 0 38.565382457944906 -53.721961378636479 0 -53.721961378636479 373.02559404333624 0 0 0 0 135.14405425554992 117.79844903229241 0 117.79844903229241 498.71078439932899 0 0 0 0 121.02259116115695 23.3859224934331 0 23.3859224934331 357.40991325542564 0 0 0 0 122.43985594894905 -14.607673636016784 0 -14.607673636016784 390.16791493301571 0 0 0 0 -26.212721229825092 1.9435783217195421 0 1.9435783217195421 419.69051158599905 0 0 0 0 14.795423869817228 -114.72457412951189 0 -114.72457412951189 371.14092031707696 0 0 0 0 5.2312798218975818 4.7428985541922657 0 4.7428985541922657 3.7441013069693838 0 0 0 0 -34.353045220010245 54.98063854501379 0 54.98063854501379 71.510560595728748 0 0 0 0 108.13394490706469 81.587309205788188 0 81.587309205788188 -42.729963232282898 0 0 0 0 -3.2429514968605133 -45.020661040505729 0 -45.020661040505729 96.242296180513222 0 0 0 0 20.493601464689448 -74.904005341967604 0 -74.904005341967604 626.37694613622443 0 0 0 0 2.0452579426309212 1.7772859943498247 0 1.7772859943498247 1.7299516099231766 0 0 0 0 122.49849617482467 164.01807150968989 0 164.01807150968989 170.23664091384853 0 0 0 0 -75.80712277713792 116.71730539585405 0 116.71730539585405 369.85222142383282 0 0 0 0 -90.20125849412716 -34.082240911717236 0 -34.082240911717236 377.63318846829407 0 0 0 0 -93.506172647812832 -4.5680939904041225 0 -4.5680939904041225 219.51840705709765 0 0 0 0 151.46453135772026 -43.422783744055778 0 -43.422783744055778 234.41114396706689 0 0 0 0 58.960510444713464 -135.11687807118869 0 -135.11687807118869 233.91859892196953 0 0 0 0 86.524564192131606 -110.66085982551886 0 -110.66085982551886 177.39661630200862 0 0 0 0 -35.610675934413166 -41.412294959762221 0 -41.412294959762221 174.4356658111501 0 0 0 0 -8.9605144088209272 -103.85338385559589 0 -103.85338385559589 291.85178686117433 0 0 0 0 -76.246919260776849 -123.06080667790957 0 -123.06080667790957 262.27106771038234 0 0 0 0 -22.766759856050157 -63.053290679119527 0 -63.053290679119527 291.6802634857595 0 0 0 0 474.39124309956492 -40.11427618865855 0 -40.11427618865855 -505.72136410009989 0 0 0 0 -312.6950128051887 23.333954215846461 0 23.333954215846461 622.96640580223175 0 0 0 0 -300.14576312704588 -94.395836297278947 0 -94.395836297278947 561.8691892515053 0 0 0 0 -136.15490023793137 94.201239167477979 0 94.201239167477979 582.20310760848224 0 0 0 0 90.679266417841063 56.788810471814941 0 56.788810471814941 378.84075948465033 0 0 0 0 -128.8896601448514 -45.987954240001272 0 -45.987954240001272 449.48015146912076 0 0 0 0 -154.10099019422319 -59.270405951245266 0 -59.270405951245266 445.76535052031977 0 0 0 0 116.82327541559957 -84.547658457761827 0 -84.547658457761827 171.01761559199076 0 0 0 0 77.840287738822099 -137.22163781155541 0 -137.22163781155541 114.3919620699271 0 0 0 0 52.312489740689387 -69.353343999966455 0 -69.353343999966455 149.17546493178816 0 0 0 0 87.163332095468604 -75.282124304649187 0 -75.282124304649187 64.469546848908067 0 0 0 0 1.0113020160623591 -83.091967059794115 0 -83.091967059794115 146.02931457047816 0 0 0 0 38.462591873778365 -146.98933867769665 0 -146.98933867769665 113.01508455676594 0 0 0 0 3.1442457384992033 -2.1860989039432042 0 -2.1860989039432042 2.074707691721585 0 0 0 0 219.25355878758592 137.22101921061403 0 137.22101921061403 -114.46691735007335 0 0 0 0 -14.060123088861019 -116.15846597499331 0 -116.15846597499331 95.548743021223345 0 0 0 0 -70.643939124535336 15.975406152036157 0 15.975406152036157 26.218911161384312 0 0 0 0 -67.58009941196724 13.11676138069015 0 13.11676138069015 28.841474646498682 0 0 0 0 -33.076346552136329 45.584281530638691 0 45.584281530638691 -79.301170751976315 0 0 0 0 -312.22756771695981 -24.423969519266393 0 -24.423969519266393 312.08097651801654 0 0 0 0 19.94838905611995 -16.10578710861104 0 -16.10578710861104 12.692767686952067 0 0 0 0 -121.19130278213925 -149.28506087660207 0 -149.28506087660207 -57.668845569598489 0 0 0 0 71.987587015551071 -204.39663231410668 0 -204.39663231410668 -207.07221838837722 0 0 0 0 -71.238152939657084 -119.12998514428909 0 -119.12998514428909 -93.21379704408173 0 0 0 0 -81.267782862378226 -89.648220316754305 0 -89.648220316754305 -34.801450569188091 0 0 0 0 -148.94521078884463 -132.51421036318061 0 -132.51421036318061 -31.448803751263767 0 0 0 0 -176.3327627729177 -73.290789653590764 0 -73.290789653590764 -28.066813408164307 0 0 0 0 -146.27777987832292 -57.359185503126355 0 -57.359185503126355 -139.67008767765947 0 0 0 0 -110.58872939254707 -91.793627042010485 0 -91.793627042010485 39.045705504307989 0 0 0 0 -103.03030019299695 -107.55068720169947 0 -107.55068720169947 -25.751983934504096 0 0 0 0 -58.764211293496942 -45.91843065471403 0 -45.91843065471403 49.513829822484695 0 0 0 0 -59.817886299287238 -68.315329778180967 0 -68.315329778180967 0.17505756573518738 0 0 0 0 -68.075792220261064 -27.681336988083785 0 -27.681336988083785 20.713623881714739 0 0 0 0 -45.048932248330857 -6.4434226445519016 0 -6.4434226445519016 84.635820038158272 0 0 0 0 -93.612667046481874 -1.1785479934642353 0 -1.1785479934642353 55.212435832610936 0 0 0 0 -25.152217166977486 -1.8997084313553358 0 -1.8997084313553358 34.299595782793062 0 0 0 0 -49.646959566007354 -32.652488714589708 0 -32.652488714589708 62.993949620446074 0 0 0 0 -25.968422005153514 -6.6151086158893406 0 -6.6151086158893406 10.442641386030175 0 0 0 0 -19.794616585961194 -37.253266036932473 0 -37.253266036932473 40.944682848581579 0 0 0 0 -16.126986824654296 -72.538103171915282 0 -72.538103171915282 18.11813840038667 0 0 0 0 91.831549987237395 -60.142689611278911 0 -60.142689611278911 -138.16042163962265 0 0 0 0 -38.088440508776785 -70.009984067000914 0 -70.009984067000914 18.396855349696125 0 0 0 0 20.663958675661451 -25.428336706381018 0 -25.428336706381018 16.710860738695089 0 0 0 0 -65.44123124581165 -61.547003867424792 0 -61.547003867424792 34.340244960570999 0 0 0 0 -44.127444123412715 -48.005842640704941 0 -48.005842640704941 -38.367793806653935 0 0 0 0 -48.651869726313635 -45.039449057949241 0 -45.039449057949241 -1.8368662652210332 0 0 0 0 -4.3224014784609608 -20.802071941347094 0 -20.802071941347094 -17.326345997164026 0 0 0 0 8.7728039473824673 -10.456690216009406 0 -10.456690216009406 2.3153077528698702 0 0 0 0 4.7388496750523359 -28.233184218646784 0 -28.233184218646784 -37.102912680362351 0 0 0 0 17.674188892051234 -39.545497560844524 0 -39.545497560844524 -70.410717116348678 0 0 0 0 7.2327529446501764 -35.461624035756742 0 -35.461624035756742 29.399671566426861 0 0 0 0 -8.1744874845776394 -10.119950425134448 0 -10.119950425134448 -34.291226058587199 0 0 0 0 -22.83560010347178 -18.766343323772247 0 -18.766343323772247 6.3399925888037671 0 0 0 0 -23.273202533995345 -40.195713305518439 0 -40.195713305518439 -14.826755980175221 0 0 0 0 -8.6292324400288933 -66.327010713900762 0 -66.327010713900762 -67.504687988926889 0 0 0 0 3.366628956434873 -14.82495296045866 0 -14.82495296045866 10.605501109361313 0 0 0 0 59.797481010005868 -29.558597123104846 0 -29.558597123104846 -63.008523104392225 0 0 0 0 20.899699601044631 -18.150102427069214 0 -18.150102427069214 -64.620553478831425 0 0 0 0 26.192072898315018 -8.7477180442219833 0 -8.7477180442219833 -36.390055724259582 0 0 0 0 -11.093017966896696 -24.941255021381949 0 -24.941255021381949 13.740689443497104 0 0 0 0 7.7588241879873969 -12.365641925941588 0 -12.365641925941588 8.5038248921325703 0 0 0 0 -18.750985748261883 -40.76019144966267 0 -40.76019144966267 -23.731644523853902 0 0 0 0 3.6279401599113044 -8.3423158182813495 0 -8.3423158182813495 3.8534606289758813 0 0 0 0 -70.514535853553753 -23.718449673673604 0 -23.718449673673604 -24.821437263919506 0 0 0 0 3.6158119886445093 -13.369903874292504 0 -13.369903874292504 10.815025926422095 0 0 0 0 8.8198707020100073 -12.203748895219178 0 -12.203748895219178 4.1403028227214236 0 0 0 0 1.3378137558500944 -8.2380262566871068 0 -8.2380262566871068 1.7257582581969757 0 0 0 0 4.6404116573388086 -9.8575221675515863 0 -9.8575221675515863 13.12559205866512 0 0 0 0 13.12927524585632 3.828842035807611 0 3.828842035807611 -9.892624957326916 0 0 0 0 1.1510188843033147 -1.845584559921889 0 -1.845584559921889 3.4301495319313062 0 0 0 0 -5.1419971209653852 -20.544192734527314 0 -20.544192734527314 -27.258606867253548 0 0 0 0 11.641181820420229 9.7884592779810191 0 9.7884592779810191 19.360903970547952 0 0 0 0 32.71846131681923 -24.431114914928912 0 -24.431114914928912 -4.8031560454401188 0 0 0 0 32.561453850403268 27.502609729155665 0 27.502609729155665 -28.020268479041988 0 0 0 0 130.87271239319887 -116.79684144885323 0 -116.79684144885323 90.241106634988682 0 0 0 0 29.945906425028284 30.435032736511857 0 30.435032736511857 33.973120587252197 0 0 0 0 -57.895768178172489 16.606774599087657 0 16.606774599087657 147.52807051235141 0 0 0 0 27.587429958434598 -55.737133443559287 0 -55.737133443559287 -3.0532061639387393 0 0 0 0 -33.556710821598585 -50.685421519243391 0 -50.685421519243391 -0.32270953558327165 0 0 0 0 59.797247735076226 11.276894930658273 0 11.276894930658273 11.116945854155347 0 0 0 0 62.708380978955297 -18.273969478696017 0 -18.273969478696017 -55.851257517919294 0 0 0 0 -30.314539862535412 0.97322467688354664 0 0.97322467688354664 10.934884580943617 0 0 0 0 -0.16604871413863664 -1.5301108615219903 0 -1.5301108615219903 1.6071221224852366 0 0 0 0 -6.1541406731769257 -11.95821031666128 0 -11.95821031666128 15.826929062317504 0 0 0 0 -16.807783014172514 -12.70653648856387 0 -12.70653648856387 23.045128980229492 0 0 0 0 1.3980298901265371 -23.101260419036407 0 -23.101260419036407 23.590826463565463 0 0 0 0 2.0649161273428716 -13.500988115519014 0 -13.500988115519014 22.331309340136443 0 0 0 0 6.2419368880732691 -19.623203654249664 0 -19.623203654249664 10.375566640810575 0 0 0 0 6.008269144994995 -8.7922738856827323 0 -8.7922738856827323 -1.6700855167001123 0 0 0 0 4.1531002635455394 -22.370491691617644 0 -22.370491691617644 21.309026801332948 0 0 0 0 40.146258097121716 -35.275555375366821 0 -35.275555375366821 24.510589578843792 0 0 0 0 4.3884722838044574 -5.139875582997675 0 -5.139875582997675 -1.1384854743742494 0 0 0 0 37.511476448432859 -23.044026378149283 0 -23.044026378149283 9.6036491342820227 0 0 0 0 17.652246565357359 -16.585243785812054 0 -16.585243785812054 28.931141903434764 0 0 0 0 -1.3059938824003154 -33.599062155408319 0 -33.599062155408319 16.518047670106171 0 0 0 0 23.630168764225573 -23.916059539915295 0 -23.916059539915295 10.272350248254952 0 0 0 0 23.526224503545901 -24.128642989242508 0 -24.128642989242508 10.027536561043235 0 0 0 0 38.336063017903825 -16.145112849291763 0 -16.145112849291763 12.750094047674793 0 0 0 0 32.630956496086014 -4.8505262243270408 0 -4.8505262243270408 -5.7867416298540775 0 0 0 0 1.1496270350997799 -0.80738583819557874 0 -0.80738583819557874 -0.18546984696581603 0 0 0 0 6.0256486631739961 3.8178045524346089 0 3.8178045524346089 4.8452555120456964 0 0 0 0 24.851373928347925 -28.633579065135564 0 -28.633579065135564 28.799586594308494 0 0 0 0 30.599051858243001 -30.487126180112682 0 -30.487126180112682 25.88451269021607 0 0 0 0 5.4478148470228804 -6.1708802191550092 0 -6.1708802191550092 2.9197219277315298 0 0 0 0 12.235994814188373 -6.7458174951289038 0 -6.7458174951289038 15.319879467846476 0 0 0 0 -3.2654166928834911 -1.6637581231916556 0 -1.6637581231916556 14.053583683766192 0 0 0 0 -0.10424888484404882 0.22238077546730395 0 0.22238077546730395 3.8154590885874882 0 0 0 0 -0.099047316497523297 -0.32194683355555753 0 -0.32194683355555753 7.0110872011246101 0 0 0 0 -6.2844216492994178 -0.40000206096010515 0 -0.40000206096010515 14.070133651155629 0 0 0 0 -0.21282318442719117 0.3711835589367638 0 0.3711835589367638 9.0001392856894427 0 0 0 0 9.261105688175121 -12.542343659166363 0 -12.542343659166363 26.515861972948187 0 0 0 0 0.086441552314713233 -0.73657103348875808 0 -0.73657103348875808 4.0297854222676079 0 0 0 0 -0.055163410935611883 -1.6575119366832389 0 -1.6575119366832389 9.3967694059865039 0 0 0 0 -8.7991080270351389 -6.9896783764124848 0 -6.9896783764124848 6.3284130363208533 0 0 0 0 -0.068980837434104353 -11.403492207432109 0 -11.403492207432109 0.47587267003837042 0 0 0 0 -37.642960319387001 -19.059195794259722 0 -19.059195794259722 7.0019041655905312 0 0 0 0 0.35358536653308159 -1.5984825371945171 0 -1.5984825371945171 6.7617551463982863 0 0 0 0 54.391650204460689 -0.6655775331746554 0 -0.6655775331746554 -4.9833454046711267 0 0 0 0 44.611474067983352 -8.5152147728949785 0 -8.5152147728949785 14.131580056011444 0 0 0 0 52.353093932255206 -15.349379382518237 0 -15.349379382518237 -23.038519927074958 0 0 0 0 35.751382037967403 -29.160677011655935 0 -29.160677011655935 -13.759959333372535 0 0 0 0 62.159234209272768 -18.53239970366667 0 -18.53239970366667 52.446439213948906 0 0 0 0 37.726346986692135 -0.20370095610269345 0 -0.20370095610269345 52.268697869090829 0 0 0 0 0.1380316403193978 -39.105343412258662 0 -39.105343412258662 14.465769571572309 0 0 0 0 202.99308024414495 239.6825592756868 0 239.6825592756868 -34.789062851654307 0 0 0 0 -44.863350947054641 169.32688065679031 0 169.32688065679031 132.32886573158248 0 0 0 0 -196.24489396028639 87.755185574624193 0 87.755185574624193 -23.590254665570683 0 0 0 0 -46.47428037323516 187.04523124340631 0 187.04523124340631 35.166759116193134 0 0 0 0 7.0945289563606195 11.878260807261455 0 11.878260807261455 20.908208955110354 0 0 0 0 -76.8646850488376 301.21799390781234 0 301.21799390781234 -111.16924620302871 0 0 0 0 -41.590640872515905 211.2384104830362 0 211.2384104830362 6.3008077565827989 0 0 0 0 308.81062489413188 356.12160226854758 0 356.12160226854758 -31.613217659662041 0 0 0 0 261.16935816704881 315.87237925571026 0 315.87237925571026 87.181175125360824 0 0 0 0 207.20885608524304 311.5473261718289 0 311.5473261718289 88.690311992304487 0 0 0 0 78.050593690606661 265.13535767823078 0 265.13535767823078 270.43500999467506 0 0 0 0 286.9050966613836 380.11849829518724 0 380.11849829518724 245.05956633354072 0 0 0 0 314.04588336693462 302.48205909318676 0 302.48205909318676 432.99747767253575 0 0 0 0 171.69491922111706 332.19039987894575 0 332.19039987894575 447.46538207661069 0 0 0 0 -65.797874862479318 200.52720169168424 0 200.52720169168424 466.07704605733306 0 0 0 0 149.84569637218647 262.58058920350959 0 262.58058920350959 259.46801225576201 0 0 0 0 -98.848262414759347 105.10169319848956 0 105.10169319848956 280.03238985699136 0 0 0 0 65.634804876329099 213.31379683432669 0 213.31379683432669 146.56460295824218 0 0 0 0 -125.31200008758515 125.52881022007932 0 125.52881022007932 305.02047946174571 0 0 0 0 -202.44774409862293 94.231636403368611 0 94.231636403368611 182.21577517461265 0 0 0 0 -130.10863110773198 100.58562057041399 0 100.58562057041399 175.37802178615675 0 0 0 0 -222.30631124258525 46.787429721363878 0 46.787429721363878 294.75558500478655 0 0 0 0 -217.44343926835609 76.037175147719836 0 76.037175147719836 177.02300209126406 0 0 0 0 -226.41467344708735 47.070714728508392 0 47.070714728508392 192.41422994645109 0 0 0 0 -20.18699967106204 -121.50018459899911 0 -121.50018459899911 137.14102921538142 0 0 0 0 6.6502187554857635 11.914235826063269 0 11.914235826063269 62.631382502899271 0 0 0 0 -216.28325940946524 33.874618110181473 0 33.874618110181473 131.4372541555058 0 0 0 0 -184.92078748625454 155.66327334035168 0 155.66327334035168 -2.0955185289276415 0 0 0 0 -137.48448777803287 -9.2798397099832073 0 -9.2798397099832073 176.83563569890498 0 0 0 0 -130.25950050001234 -27.226583963194571 0 -27.226583963194571 88.442784087357722 0 0 0 0 -0.80410120791107076 -6.7055565517594857 0 -6.7055565517594857 123.4710317668129 0 0 0 0 -536.01050923680862 57.046038534983381 0 57.046038534983381 763.92988973559113 0 0 0 0 -139.76683236667589 -28.223631947643298 0 -28.223631947643298 252.01468202096294 0 0 0 0 -80.019409613461718 51.071523720629557 0 51.071523720629557 240.21674887507106 0 0 0 0 -214.86313411805259 -60.090695185121149 0 -60.090695185121149 239.1444080376823 0 0 0 0 -241.59948739889705 23.65337827843905 0 23.65337827843905 311.75292872545833 0 0 0 0 -557.80457944274679 99.483496991135326 0 99.483496991135326 274.42725607004832 0 0 0 0 -382.90582548894599 -83.206338737756596 0 -83.206338737756596 297.0600910724097 0 0 0 0 -159.33800671879453 -36.871993437074707 0 -36.871993437074707 214.90807222665171 0 0 0 0 -43.339740232723216 -60.376423001260264 0 -60.376423001260264 127.92695059301332 0 0 0 0 -214.57921086738725 9.6641065821168013 0 9.6641065821168013 177.62098384479759 0 0 0 0 -252.24430356940456 84.662053729822219 0 84.662053729822219 213.88447323333821 0 0 0 0 -1.6892684857908049 -10.765918442972769 0 -10.765918442972769 4.3077902191184876 0 0 0 0 167.76318285650109 -274.73391030552739 0 -274.73391030552739 -273.14439545380446 0 0 0 0 -169.01860696949757 -55.658849838217066 0 -55.658849838217066 200.06008902323083 0 0 0 0 -2.8832529601484902 -4.4186698119829657 0 -4.4186698119829657 123.39931377426143 0 0 0 0 -42.978708234038095 -28.350234849316621 0 -28.350234849316621 138.65278357839634 0 0 0 0 -7.7284249606235251 22.989366300869612 0 22.989366300869612 9.9461093010421564 0 0 0 0 -269.98913949193548 250.43620495824871 0 250.43620495824871 -104.83054754664772 0 0 0 0 -91.470356040741081 -247.73664572147391 0 -247.73664572147391 365.84850737047964 0 0 0 0 77.461665912922399 -240.60495299898321 0 -240.60495299898321 -341.4825056567206 0 0 0 0 -2498.0042102860971 1030.2866621270368 0 1030.2866621270368 558.83607526961714 0 0 0 0 -170.16041240869072 -118.09008942604123 0 -118.09008942604123 424.7937973257358 0 0 0 0 -163.73148080547708 -108.72953958931612 0 -108.72953958931612 349.93885240599047 0 0 0 0 -96.244169261750358 -107.18228346854448 0 -107.18228346854448 343.76328424442909 0 0 0 0 -78.550831447480959 -172.58120765413332 0 -172.58120765413332 82.813642618246377 0 0 0 0 -104.3952951695619 30.270309779778472 0 30.270309779778472 20.148119875666453 0 0 0 0 11.653942188801414 20.1279724384346 0 20.1279724384346 28.937102269182219 0 0 0 0 -324.25547016857854 236.86931165327042 0 236.86931165327042 48.146590369378828 0 0 0 0 4.7025955478029573 4.3134290634916397 0 4.3134290634916397 114.34668475707349 0 0 0 0 202.48954691519612 -189.52332803042555 0 -189.52332803042555 159.59051491317223 0 0 0 0 -49.760127973354003 -109.91111876902255 0 -109.91111876902255 216.23747250879387 0 0 0 0 201.72548073163398 -119.93784059602694 0 -119.93784059602694 151.55416667342797 0 0 0 0 217.28042689473398 -76.521159062784591 0 -76.521159062784591 187.74606167354068 0 0 0 0 -221.11485128746335 -194.97335798398126 0 -194.97335798398126 171.05762199421588 0 0 0 0 -367.97465014402314 21.37953985770946 0 21.37953985770946 318.41214403770937 0 0 0 0 202.88557393176779 -142.36142863113491 0 -142.36142863113491 -51.276823552489077 0 0 0 0 -225.97503962457358 -134.15349439825513 0 -134.15349439825513 455.65252538048662 0 0 0 0 8.4304356491670198 -6.506935532149555 0 -6.506935532149555 3.9308274126402409 0 0 0 0 -147.28110232602489 -256.47304866203922 0 -256.47304866203922 -123.02478024084121 0 0 0 0 -449.86684654326882 -270.37564909845241 0 -270.37564909845241 58.606632317590993 0 0 0 0 -109.54129805647267 -154.89530598810234 0 -154.89530598810234 -137.35218246025033 0 0 0 0 -82.796885174521776 -135.33804794013849 0 -135.33804794013849 -207.52721446457144 0 0 0 0 273.83481194593685 -941.69078747732419 0 -941.69078747732419 308.85348264368713 0 0 0 0 -141.68116177694162 -109.48818029581889 0 -109.48818029581889 140.12519536905165 0 0 0 0 -409.06481867301636 6.3811078798898961 0 6.3811078798898961 156.17281106481096 0 0 0 0 -2.8803306293740345 -5.3863677890550079 0 -5.3863677890550079 122.58880766395208 0 0 0 0 -166.04643643232475 -5.3884797691716813 0 -5.3884797691716813 182.37381597067724 0 0 0 0 -198.20443850672621 37.757913914130313 0 37.757913914130313 135.87915504153352 0 0 0 0 -42.698428981364486 82.704940245363105 0 82.704940245363105 146.23323705885105 0 0 0 0 -3.7284458674665988 -3.1378727426350324 0 -3.1378727426350324 96.355063724731849 0 0 0 0 -4.5356394166088343 5.4827301504444392 0 5.4827301504444392 7.4565434479857231 0 0 0 0 -338.5461776439779 -316.15136179417823 0 -316.15136179417823 0.2398455424408894 0 0 0 0 12.200336553315537 -40.564261910389178 0 -40.564261910389178 17.824374493196956 0 0 0 0 -37.421598528124036 11.229472858227382 0 11.229472858227382 -4.3362594095306122 0 0 0 0 -115.78793923006029 -35.451989572575258 0 -35.451989572575258 1.4229210930352565 0 0 0 0 -72.5211174375479 -86.770290185966587 0 -86.770290185966587 60.179335298744263 0 0 0 0 -150.98062869449768 -112.82405709018349 0 -112.82405709018349 7.1525210852560122 0 0 0 0 -48.454970438556416 27.444588966500305 0 27.444588966500305 168.73409049264592 0 0 0 0 -30.324279404683466 9.0692179569232394 0 9.0692179569232394 47.763114004366798 0 0 0 0 -15.456069416036826 -10.026327508434605 0 -10.026327508434605 51.04886891387153 0 0 0 0 -148.37533694318881 13.321403773592465 0 13.321403773592465 -37.777516525515239 0 0 0 0 -228.7037851288178 104.05566998663926 0 104.05566998663926 204.21333678176597 0 0 0 0 -2.4696544164248371 -4.4459653075469596 0 -4.4459653075469596 4.2039492820570388 0 0 0 0 -246.92464169428968 66.131853806771687 0 66.131853806771687 310.41355588358419 0 0 0 0 53.197622047280674 -79.714895163033361 0 -79.714895163033361 19.347053869088995 0 0 0 0 -86.833627610772623 -46.010382157722688 0 -46.010382157722688 202.89332993350399 0 0 0 0 55.603316668019033 138.04505602219069 0 138.04505602219069 173.75909528321426 0 0 0 0 124.48593983521732 18.883121868451781 0 18.883121868451781 377.42875315800484 0 0 0 0 -215.64172122603668 -42.991237526770419 0 -42.991237526770419 297.22684326297167 0 0 0 0 -200.93189125749814 151.20152102449356 0 151.20152102449356 341.83997293489301 0 0 0 0 -7.0267876891393826 148.29350395946676 0 148.29350395946676 247.64284797413711 0 0 0 0 338.436313942585 256.48468152084388 0 256.48468152084388 355.16689011142535 0 0 0 0 507.67682658789568 401.31962476675835 0 401.31962476675835 619.67064954012312 0 0 0 0 963.35875590815976 220.4856354003532 0 220.4856354003532 97.579273165238192 0 0 0 0 864.93511056116631 396.25105109123615 0 396.25105109123615 190.00746980238182 0 0 0 0 303.26591899619143 -275.44108506109114 0 -275.44108506109114 547.9864847521153 0 0 0 0 797.08235205673191 517.10645373545049 0 517.10645373545049 -20.044064730631362 0 0 0 0 4.6443159610232385 4.9178611333752116 0 4.9178611333752116 5.8689456625845935 0 0 0 0 292.61745375036594 215.62357678286207 0 215.62357678286207 -125.64512572145759 0 0 0 0 286.37314127248101 -296.00387343135026 0 -296.00387343135026 156.0285532204507 0 0 0 0 183.20024416211237 410.15344093358908 0 410.15344093358908 277.65672472916776 0 0 0 0 387.13131000924045 449.82958161228453 0 449.82958161228453 30.07026809704621 0 0 0 0 96.627170603517698 467.50314444987998 0 467.50314444987998 805.04760379962681 0 0 0 0 19.345297561842926 245.09998229922348 0 245.09998229922348 179.63917400146602 0 0 0 0 700.88511099227276 -21.523243288029335 0 -21.523243288029335 323.23894992791247 0 0 0 0 -69.647922321683552 368.84263641193684 0 368.84263641193684 252.91373869526433 0 0 0 0 -273.14708645805644 -264.35819282174998 0 -264.35819282174998 -8.4146723491830926 0 0 0 0 441.34716663030781 -60.263867910340196 0 -60.263867910340196 -115.40115947904269 0 0 0 0 146.62991723263315 -140.37512465347027 0 -140.37512465347027 340.5105911932842 0 0 0 0 -214.63588541789801 -209.43425142449996 0 -209.43425142449996 534.81194746242545 0 0 0 0 -289.99188025657065 23.190229441685915 0 23.190229441685915 361.57409033090516 0 0 0 0 -151.23298756070471 -130.38472331603043 0 -130.38472331603043 450.39277142344872 0 0 0 0 -65.054310546889425 -186.4076343591837 0 -186.4076343591837 291.21228361500107 0 0 0 0 -63.027502300472406 -205.5343116654185 0 -205.5343116654185 436.91526562131548 0 0 0 0 119.34141716944009 -208.98631430625392 0 -208.98631430625392 138.04585425805999 0 0 0 0 -71.611770982687403 -98.853101725868328 0 -98.853101725868328 225.56253853763337 0 0 0 0 642.11008535108613 325.33928376621407 0 325.33928376621407 105.38673915671825 0 0 0 0 680.4110309630654 407.09030923277896 0 407.09030923277896 -219.9381920526539 0 0 0 0 508.08110392189894 565.02558028578642 0 565.02558028578642 -73.28901569275331 0 0 0 0 1.1664168809812956 2.5502512349070301 0 2.5502512349070301 6.5427874191215096 0 0 0 0 94.079696928375824 -244.3781134893743 0 -244.3781134893743 444.08423259501433 0 0 0 0 331.88673154845549 509.99970164630577 0 509.99970164630577 400.13328316934349 0 0 0 0 2.1548128416931114 -2.8704058869063545 0 -2.8704058869063545 4.5720014511957459 0 0 0 0 867.29632323223893 -59.708362013118403 0 -59.708362013118403 68.893249105341965 0 0 0 0 875.79261010129369 35.382034076927084 0 35.382034076927084 301.11162612187036 0 0 0 0 172.15752555645699 77.991482667370747 0 77.991482667370747 706.49074956940603 0 0 0 0 482.70938969986275 214.6811222265942 0 214.6811222265942 605.92412595928181 0 0 0 0 237.81506317143067 318.49536483032352 0 318.49536483032352 743.18345089919785 0 0 0 0 664.03013567231187 -60.205370227877211 0 -60.205370227877211 563.27439654383488 0 0 0 0 229.40098506333561 398.9804364866759 0 398.9804364866759 372.04843639736646 0 0 0 0 -12.342335451734471 168.54912156403589 0 168.54912156403589 555.63008350758901 0 0 0 0 -64.458949409312027 135.08486294408249 0 135.08486294408249 267.36303178525122 0 0 0 0 144.10172116868489 462.60828024488728 0 462.60828024488728 275.57140574071605 0 0 0 0 -374.85410066461827 48.703935479061329 0 48.703935479061329 498.56636691402628 0 0 0 0 -31.001937586738677 519.42197494640277 0 519.42197494640277 297.29439156204171 0 0 0 0 137.38912193634496 940.16766651116632 0 940.16766651116632 759.13700527085894 0 0 0 0 24.100701482022941 348.45503041419397 0 348.45503041419397 470.10801011561125 0 0 0 0 183.5710138486611 232.44530420888987 0 232.44530420888987 -345.24871760837414 0 0 0 0 -4.0574278875513485 3.0622766716072789 0 3.0622766716072789 9.1409376217237011 0 0 0 0 -126.1801826801584 104.42892748866143 0 104.42892748866143 206.69359236166929 0 0 0 0 -393.88897303228987 47.396630577044562 0 47.396630577044562 318.03440008214056 0 0 0 0 -124.03050651691956 -80.48674505672534 0 -80.48674505672534 18.946717260449077 0 0 0 0 205.96739208722806 243.77650653425189 0 243.77650653425189 -213.61300926997501 0 0 0 0 -308.45967774192104 208.26992983315722 0 208.26992983315722 36.005259023848339 0 0 0 0 532.53180288246404 426.76771757235838 0 426.76771757235838 -59.373426480091439 0 0 0 0 205.61057042492553 -731.18463410981076 0 -731.18463410981076 2107.7053894313576 0 0 0 0 5.5088612620655262 4.8958977493357168 0 4.8958977493357168 5.6705742631714884 0 0 0 0 -63.734539902285178 34.012792099543731 0 34.012792099543731 85.054271323722787 0 0 0 0 32.873562432030212 -347.81009660206473 0 -347.81009660206473 926.47810020345787 0 0 0 0 14.618669669536388 16.078424251900671 0 16.078424251900671 15.630991210416255 0 0 0 0 301.4909757490168 -429.18160088209697 0 -429.18160088209697 926.88407897330762 0 0 0 0 -701.79369168711855 24.518720855012361 0 24.518720855012361 655.2782074600982 0 0 0 0 -72.931204944484307 -63.577363339925796 0 -63.577363339925796 575.9200692075683 0 0 0 0 -189.97704810620962 -21.228528705476492 0 -21.228528705476492 1200.3543574352807 0 0 0 0 1342.1275656591911 243.15954018316188 0 243.15954018316188 -166.05204401382071 0 0 0 0 748.15608027197504 -444.0110732920275 0 -444.0110732920275 -144.71288839173212 0 0 0 0 379.00108153776455 -225.48155177028093 0 -225.48155177028093 353.58914645078767 0 0 0 0 561.97377748120925 395.19365420169925 0 395.19365420169925 1734.9045369738888 0 0 0 0 466.18178792595518 53.954077882764977 0 53.954077882764977 254.33204851695882 0 0 0 0 -272.9378621368387 199.25836132946279 0 199.25836132946279 630.33384791582648 0 0 0 0 768.0207313989431 888.52438059083943 0 888.52438059083943 -382.38499982268695 0 0 0 0 3.7789021158284264 -4.1109071153900487 0 -4.1109071153900487 4.4545383754613965 0 0 0 0 118.55434981799272 -491.29871847547474 0 -491.29871847547474 -582.30340210585564 0 0 0 0 222.61524591774628 -72.94443977476476 0 -72.94443977476476 34.468725785111019 0 0 0 0 107.44723662728677 157.97165307233263 0 157.97165307233263 65.541681002199766 0 0 0 0 5.3323150421734518 -7.3634226643596037 0 -7.3634226643596037 9.0070082661421793 0 0 0 0 -480.20913623705746 313.68152008621109 0 313.68152008621109 1452.7029887143217 0 0 0 0 160.54034790974242 -10.160230296298323 0 -10.160230296298323 94.12825187969429 0 0 0 0 21.903093674148295 -180.61175678024847 0 -180.61175678024847 414.47230987083458 0 0 0 0 368.81734037077763 -155.96493804477723 0 -155.96493804477723 62.142231800185982 0 0 0 0 771.3585024274812 256.32545695584849 0 256.32545695584849 69.398280835387141 0 0 0 0 1191.9291688879632 -34.257836671669793 0 -34.257836671669793 17.707432696906835 0 0 0 0 296.7101822367672 -481.62335609353249 0 -481.62335609353249 -2.3494364508587751 0 0 0 0 -592.65805791589992 -344.57360175922076 0 -344.57360175922076 374.02438718979283 0 0 0 0 9.7654471897557169 8.608540328058595 0 8.608540328058595 7.9561001712171446 0 0 0 0 9.3540437025894789 -184.80281171693787 0 -184.80281171693787 1876.7578813587916 0 0 0 0 23.795017296455057 1029.7106929087113 0 1029.7106929087113 1608.1378676124004 0 0 0 0 292.18727658526768 840.60325449181983 0 840.60325449181983 110.28169866325334 0 0 0 0 -96.193376708452092 46.602647940727365 0 46.602647940727365 338.21367296634708 0 0 0 0 -299.48879580098856 -0.12870088480121922 0 -0.12870088480121922 486.19660378764092 0 0 0 0 -133.73964861102058 -37.140350090856373 0 -37.140350090856373 279.13144459025352 0 0 0 0 19.379838652874724 21.737514151025565 0 21.737514151025565 19.53019575758583 0 0 0 0 -812.77771759522511 93.308010684799228 0 93.308010684799228 623.09767464131937 0 0 0 0 54.221414000163122 -258.74911716646056 0 -258.74911716646056 931.831580162514 0 0 0 0 -12.350887237522784 -14.675576626177644 0 -14.675576626177644 355.32541904902428 0 0 0 0 -204.86704091127399 -64.628045095694688 0 -64.628045095694688 718.63666745094815 0 0 0 0 -103.1607173235343 112.00501088432429 0 112.00501088432429 693.52365025065228 0 0 0 0 23.417896783808374 202.77176962609519 0 202.77176962609519 607.16446311015261 0 0 0 0 40.54708940461046 387.5220786026548 0 387.5220786026548 1039.971207916923 0 0 0 0 -100.96761171440608 137.94701363718559 0 137.94701363718559 602.48943057672295 0 0 0 0 226.26100382550862 213.56322308888048 0 213.56322308888048 313.17478148388182 0 0 0 0 139.91778603057264 64.307968542772869 0 64.307968542772869 271.98229893243479 0 0 0 0 -19.820299985428278 94.571463426953414 0 94.571463426953414 445.5833271623269 0 0 0 0 47.855573067493879 44.887872670828074 0 44.887872670828074 416.96054012453897 0 0 0 0 235.29904994727218 -547.89056119771658 0 -547.89056119771658 -400.14809930711635 0 0 0 0 1197.1264925557675 791.73993314754716 0 791.73993314754716 -87.8450623415265 0 0 0 0 1079.1155071124986 195.91361307874013 0 195.91361307874013 -735.80340646496916 0 0 0 0 454.27307904303359 872.18827058202442 0 872.18827058202442 1647.4434139386303 0 0 0 0 309.35943812911137 371.7124906459394 0 371.7124906459394 454.95704139134614 0 0 0 0 245.73518073884384 264.17247538510128 0 264.17247538510128 441.14042048218926 0 0 0 0 548.83315941241926 94.477565795958071 0 94.477565795958071 -6.0594220000493806 0 0 0 0 290.06094162753129 -0.88388619753095554 0 -0.88388619753095554 126.10268072888175 0 0 0 0 -519.0144123160145 -99.891800247703941 0 -99.891800247703941 107.91626765243564 0 0 0 0 0.12039764988315649 5.6227555035165011 0 5.6227555035165011 24.161066903137026 0 0 0 0 -528.10790990527926 365.31290457934301 0 365.31290457934301 -5.8117451551952399 0 0 0 0 -242.21691195625482 465.6176801379479 0 465.6176801379479 -89.189465255782125 0 0 0 0 205.02339324420922 -850.76188878504763 0 -850.76188878504763 788.01750150680527 0 0 0 0 -451.96278969587087 135.58758320181732 0 135.58758320181732 -48.063491886859993 0 0 0 0 0.28252855499944168 2.0978294352498779 0 2.0978294352498779 8.8694054020762394 0 0 0 0 -205.62166424859686 180.98454152064642 0 180.98454152064642 -113.2047350754583 0 0 0 0 461.13261022952815 -130.54320389414352 0 -130.54320389414352 70.49172259408806 0 0 0 0 201.58235293646987 -403.62927345498974 0 -403.62927345498974 600.16267544090806 0 0 0 0 442.47295912052164 -354.70967593783644 0 -354.70967593783644 157.42805730011605 0 0 0 0 -117.49606585071524 -7.1272658935449726 0 -7.1272658935449726 896.3713360034526 0 0 0 0 356.81526179879131 -424.21573177867504 0 -424.21573177867504 996.2817205342435 0 0 0 0 -2.1230031726125844 -600.70381124524283 0 -600.70381124524283 920.33367236104095 0 0 0 0 -0.1243316321426009 1.0973841823184927 0 1.0973841823184927 7.8740532190632848 0 0 0 0 13.047001391841377 -4.513733913514443 0 -4.513733913514443 57.489958141719399 0 0 0 0 -21.076050371793713 321.15070259199183 0 321.15070259199183 281.08609137182793 0 0 0 0 -55.987915681612833 -111.57384081169585 0 -111.57384081169585 196.90449877930951 0 0 0 0 0.41631595017021628 3.9431946094386987 0 3.9431946094386987 14.28450560556675 0 0 0 0 -140.50086983379288 22.786342799474369 0 22.786342799474369 78.672732547568557 0 0 0 0 -36.963896188813905 -148.09795379491334 0 -148.09795379491334 341.01030894412543 0 0 0 0 -507.41754846084899 313.65831918033473 0 313.65831918033473 438.74648456619616 0 0 0 0 299.84642372538406 453.25689315986529 0 453.25689315986529 1412.4376716831903 0 0 0 0 1186.7765925471761 626.43662657087589 0 626.43662657087589 262.6334792937123 0 0 0 0 179.53335975754192 -680.05147329861938 0 -680.05147329861938 1047.7642061167608 0 0 0 0 326.73570862663007 -732.73891310283489 0 -732.73891310283489 900.81928343628533 0 0 0 0 130.72967116714159 -732.67231029839604 0 -732.67231029839604 991.02766535175033 0 0 0 0 1.0376513689836337 3.773616446921281 0 3.773616446921281 13.736518716676301 0 0 0 0 391.58796102957854 -371.95502945185945 0 -371.95502945185945 172.96059068054456 0 0 0 0 0.02534431334456233 0.21092591067343136 0 0.21092591067343136 3.6651191574339919 0 0 0 0 17.834421143545931 -305.11662960873218 0 -305.11662960873218 285.75268101700931 0 0 0 0 -0.45051049895202533 -116.53823656782333 0 -116.53823656782333 221.44867403554963 0 0 0 0 143.49533610849983 -169.33190203662525 0 -169.33190203662525 216.30901978390466 0 0 0 0 150.34840402407843 126.55373954909737 0 126.55373954909737 -15.719870030283346 0 0 0 0 -51.383233971373556 199.61160795448814 0 199.61160795448814 83.727592382059811 0 0 0 0 -340.00094552583869 53.095209557926864 0 53.095209557926864 631.10627100302372 0 0 0 0 -219.18407473282264 58.969299313517695 0 58.969299313517695 129.35042952057847 0 0 0 0 -3.3739678455538158 -10.526558440653204 0 -10.526558440653204 68.982537557698663 0 0 0 0 -153.61698869261863 -170.52247334826825 0 -170.52247334826825 217.0554337692447 0 0 0 0 -5.8731588138774669 -23.241455935269187 0 -23.241455935269187 31.336808705425938 0 0 0 0 -17.796468731728055 16.663909634342417 0 16.663909634342417 40.944914833959047 0 0 0 0 23.530390434130837 -57.001830203425925 0 -57.001830203425925 88.845642006432172 0 0 0 0 47.361493924474757 63.139965992530051 0 63.139965992530051 -76.041029046951735 0 0 0 0 -21.354676073794209 -36.648085430311767 0 -36.648085430311767 39.705851210979745 0 0 0 0 0.26125360973341505 5.4457710981805576 0 5.4457710981805576 -7.2949557236279361 0 0 0 0 0.028369205643526574 0.0062656705118939726 0 0.0062656705118939726 1.072861571590181 0 0 0 0 -0.13753387483431778 -0.22162499138658376 0 -0.22162499138658376 10.051468012800456 0 0 0 0 7.0145632006130825 28.948879201076124 0 28.948879201076124 4.7372054888692219 0 0 0 0 -3.4533163583132009 6.1071088888129452 0 6.1071088888129452 -3.5008482464181725 0 0 0 0 20.406531782933371 -12.510893777893216 0 -12.510893777893216 6.1328715337440372 0 0 0 0 -17.021646355565395 -18.83090402714879 0 -18.83090402714879 21.258970319875516 0 0 0 0 3.6584577708624049 -8.3535068399373316 0 -8.3535068399373316 21.946773630583493 0 0 0 0 -0.21532198745106967 -1.4950273363805771 0 -1.4950273363805771 14.896819465595399 0 0 0 0 5.4221773111657967 -28.613170838092628 0 -28.613170838092628 13.10334076291474 0 0 0 0 -15.927726329270968 17.602004780746938 0 17.602004780746938 36.221841984166531 0 0 0 0 -17.460165541784249 15.98323925947625 0 15.98323925947625 36.70328064498608 0 0 0 0 1.6040495733228635 -9.4962955446680297 0 -9.4962955446680297 47.476437009536539 0 0 0 0 -15.626191739785099 17.002517928354791 0 17.002517928354791 31.745873641644721 0 0 0 0 -91.315308540948479 -89.999661411164197 0 -89.999661411164197 38.323639846945298 0 0 0 0 25.02880424255779 -14.567633671775752 0 -14.567633671775752 8.7514105201989878 0 0 0 0 25.289363097582736 -25.844014292466454 0 -25.844014292466454 6.9195496175670996 0 0 0 0 -1.4545572930401818 -25.628345830848957 0 -25.628345830848957 9.9266370981495129 0 0 0 0 14.596826545722706 -27.688773779809708 0 -27.688773779809708 6.6168487393006217 0 0 0 0 12.107603622956724 -15.339411465395642 0 -15.339411465395642 8.762307530734688 0 0 0 0 -5.7555786966368032 -36.317034868483461 0 -36.317034868483461 -13.206217429309618 0 0 0 0 9.9653528446290505 -16.121821087067232 0 -16.121821087067232 1.4578370136020453 0 0 0 0 7.7842014716443373 -17.903454655315727 0 -17.903454655315727 8.028039902470482 0 0 0 0 508.56968862464055 -661.15759417160007 0 -661.15759417160007 232.96744578663493 0 0 0 0 0.37441100297897911 -11.979000397608658 0 -11.979000397608658 25.44663516196934 0 0 0 0 91.119851416309757 -54.734981755627814 0 -54.734981755627814 132.51129019857035 0 0 0 0 -333.23529771667859 6.3701379167141567 0 6.3701379167141567 97.038071380826295 0 0 0 0 233.46810995523492 132.81600997546775 0 132.81600997546775 -424.37131266813958 0 0 0 0 -49.327978277246984 23.405859194994264 0 23.405859194994264 15.143774420314003 0 0 0 0 2.4649901039019699 -8.4150378301037136 0 -8.4150378301037136 17.748570936672138 0 0 0 0 3.6346785648408977 -4.3255154950009143 0 -4.3255154950009143 5.8585862433290004 0 0 0 0 -162.06203528577862 268.33342565118801 0 268.33342565118801 21.161091022091568 0 0 0 0 -4.4742061366923735 117.95439232262288 0 117.95439232262288 -2.2401757276093122 0 0 0 0 76.850258336172828 190.47499888078892 0 190.47499888078892 381.82663172745379 0 0 0 0 194.31907803250078 268.8490825457593 0 268.8490825457593 44.518556648370577 0 0 0 0 74.088286136778152 131.49417623197223 0 131.49417623197223 49.19512180302263 0 0 0 0 58.786428042295256 0.22492831915224087 0 0.22492831915224087 -46.38193869292445 0 0 0 0 64.485607807790075 39.51449112087721 0 39.51449112087721 -52.389892235485604 0 0 0 0 63.430545346335975 25.088683231116192 0 25.088683231116192 5.5332232215441763 0 0 0 0 79.116810671411258 -116.61597103707027 0 -116.61597103707027 106.62363413130515 0 0 0 0 0.32650968795314572 -1.4489391904301314 0 -1.4489391904301314 7.3178320009115509 0 0 0 0 52.595823648956866 -19.49466362799285 0 -19.49466362799285 -27.304846633749548 0 0 0 0 344.41580340254382 215.86822949697671 0 215.86822949697671 -435.73589344207721 0 0 0 0 4.4958298085258672 -1.7863485192505806 0 -1.7863485192505806 -1.4967159647798667 0 0 0 0 51.162333036498239 13.597696764860302 0 13.597696764860302 149.06010953674559 0 0 0 0 -9.5648863127025834 -71.143473198637366 0 -71.143473198637366 221.38949071563547 0 0 0 0 17.097786337287289 -91.372383618392632 0 -91.372383618392632 142.94749272323679 0 0 0 0 50.566337630578346 -123.81952795636607 0 -123.81952795636607 172.31436934243538 0 0 0 0 -64.58817920533329 -94.275042224704521 0 -94.275042224704521 213.64001698372158 0 0 0 0 47.444652127776862 -83.462093966372777 0 -83.462093966372777 77.175831116939662 0 0 0 0 62.749063076516904 -64.331221916421782 0 -64.331221916421782 156.27219388325466 0 0 0 0 -706.43814525539392 -258.3943661149533 0 -258.3943661149533 1201.8457711934025 0 0 0 0 -16.731925639329841 0.80088424267046321 0 0.80088424267046321 21.079027469282629 0 0 0 0 -30.07282326073846 -473.24687789942254 0 -473.24687789942254 -261.66066978411982 0 0 0 0 -76.794933058652532 -191.19675168827234 0 -191.19675168827234 171.25108299707063 0 0 0 0 568.82463020556497 492.9510063577618 0 492.9510063577618 -507.83124338113703 0 0 0 0 43.898837737064241 -174.21803166262544 0 -174.21803166262544 160.09058900506352 0 0 0 0 -35.048937643652607 -149.50230427969655 0 -149.50230427969655 167.05300411756616 0 0 0 0 -1.0235065553753167 -1.6681747142165193 0 -1.6681747142165193 -0.87247250290752731 0 0 0 0 14.759609622601602 -291.35118530388354 0 -291.35118530388354 70.75653438163863 0 0 0 0 1303.8545802704939 64.515146412843023 0 64.515146412843023 -599.93216981075602 0 0 0 0 411.80287892009551 173.91374171931602 0 173.91374171931602 574.66896185441874 0 0 0 0 346.91043957239162 -83.877158940864319 0 -83.877158940864319 193.36333798117994 0 0 0 0 356.16385481845373 517.60890837856277 0 517.60890837856277 54.780675085588882 0 0 0 0 155.09873237265037 253.16346190932381 0 253.16346190932381 244.41479375326526 0 0 0 0 639.53283410202766 808.25169295517844 0 808.25169295517844 722.14006188722124 0 0 0 0 16.617851421588966 520.68105703804031 0 520.68105703804031 409.11543331158464 0 0 0 0 116.49165263284658 406.68157431618692 0 406.68157431618692 12.176642687685671 0 0 0 0 160.30299241809564 559.25539622321958 0 559.25539622321958 -638.1448539746707 0 0 0 0 5.2947356429889609 9.0670705451913705 0 9.0670705451913705 9.7421513483909621 0 0 0 0 -81.403307386704455 1013.9694563117464 0 1013.9694563117464 -476.73986852172675 0 0 0 0 229.45943259814339 543.45138392202352 0 543.45138392202352 -90.401180459492025 0 0 0 0 620.39575206956306 272.38215507018322 0 272.38215507018322 -55.592968836252112 0 0 0 0 261.27836972037767 409.81288586874143 0 409.81288586874143 90.302588165912312 0 0 0 0 189.35480298316907 305.69388650252949 0 305.69388650252949 -57.52868859985665 0 0 0 0 36.779169923831432 257.49885352314232 0 257.49885352314232 271.43315294152126 0 0 0 0 65.654291063960045 220.31813273089938 0 220.31813273089938 140.74947217578301 0 0 0 0 223.66135887101336 -187.16873477199988 0 -187.16873477199988 -35.220821535331197 0 0 0 0 339.63478345623298 -526.84903558339283 0 -526.84903558339283 128.67897815745528 0 0 0 0 -10.903634986094403 158.53017138445284 0 158.53017138445284 208.01888833938574 0 0 0 0 -94.21505963006075 130.65359864482161 0 130.65359864482161 338.80120409879601 0 0 0 0 -65.103803366858301 -49.798677392998798 0 -49.798677392998798 1397.3826051623037 0 0 0 0 -38.67888105944985 75.336234954957035 0 75.336234954957035 374.91868616764259 0 0 0 0 58.709966266183983 36.242155963322148 0 36.242155963322148 -2.6601215038826922 0 0 0 0 62.856856956648699 75.129030164738651 0 75.129030164738651 300.58895688402117 0 0 0 0 -257.07710459287864 195.3992731752478 0 195.3992731752478 -3.1846391672297614 0 0 0 0 4.4180125742017715 0.64943507303499359 0 0.64943507303499359 0.24844838469176089 0 0 0 0 -128.92803024399109 -34.743814038134587 0 -34.743814038134587 197.79051083906234 0 0 0 0 -77.02709165125998 -129.33585501209018 0 -129.33585501209018 -21.829150834993925 0 0 0 0 -48.99955737364121 -42.965529666944349 0 -42.965529666944349 9.0547729798418004 0 0 0 0 -33.32530164774289 -41.677497083757771 0 -41.677497083757771 -16.981631928734714 0 0 0 0 12.660821176166792 -123.27081282100698 0 -123.27081282100698 -36.372706581269085 0 0 0 0 -29.60307579156688 -55.743039913329994 0 -55.743039913329994 0.20225703212145163 0 0 0 0 2.3667016781729533 -8.0589128843364506 0 -8.0589128843364506 16.79827112010102 0 0 0 0 10.98362969130036 -10.866843273049057 0 -10.866843273049057 1.6735090113850219 0 0 0 0 -31.891767871533261 12.376012930821162 0 12.376012930821162 217.83349421109597 0 0 0 0 5.5004385711407622 1.6849038888146026 0 1.6849038888146026 -0.070951146142533617 0 0 0 0 24.223941684574129 -3.3916503320506308 0 -3.3916503320506308 28.888357432089833 0 0 0 0 13.51614042237361 2.5809515240325709 0 2.5809515240325709 27.641968496754998 0 0 0 0 9.3732365205942187 -61.93284161920019 0 -61.93284161920019 -7.6916817734309006 0 0 0 0 116.49844890836266 -44.360810009253328 0 -44.360810009253328 -1.6794562820505234 0 0 0 0 77.415746807586004 89.555151198417661 0 89.555151198417661 99.921824792196276 0 0 0 0 251.98602893315297 350.62921395299054 0 350.62921395299054 581.07523754878639 0 0 0 0 -197.86953299787615 -239.30654369526383 0 -239.30654369526383 1853.3249724980724 0 0 0 0 349.50094535044809 -834.34987745214312 0 -834.34987745214312 635.68129141555983 0 0 0 0 -42.499785950101796 1004.5406324864307 0 1004.5406324864307 1260.6781541545352 0 0 0 0 -204.98429235152798 733.90217650900013 0 733.90217650900013 497.54217931070889 0 0 0 0 48.48740132650596 -325.13969243402971 0 -325.13969243402971 915.7874991255303 0 0 0 0 -158.92218010714373 -89.050963044071977 0 -89.050963044071977 1149.5632768858777 0 0 0 0 3.2600289402216731 -72.320781722432002 0 -72.320781722432002 142.67709748378547 0 0 0 0 105.67605868441547 -85.133205218113289 0 -85.133205218113289 -30.452395969710778 0 0 0 0 -23.705589374315423 55.110455397916667 0 55.110455397916667 13.880903656507144 0 0 0 0 -59.808601749594004 20.019175096473191 0 20.019175096473191 19.735029147763271 0 0 0 0 -13.58790335914 -8.6053578952996759 0 -8.6053578952996759 34.238510006020078 0 0 0 0 25.479239517159947 42.420150572520015 0 42.420150572520015 71.778138485649833 0 0 0 0 -47.570266290735731 97.00312587073131 0 97.00312587073131 117.74477043377465 0 0 0 0 -0.46042699915176977 4.7545674201963379 0 4.7545674201963379 9.1108669264759587 0 0 0 0 4.8358150170292902 13.521208070698776 0 13.521208070698776 69.989966770430328 0 0 0 0 -108.94493404247078 124.9221637781593 0 124.9221637781593 38.425787054904504 0 0 0 0 -2.1881314828658507 3.25147793993753 0 3.25147793993753 8.3869195093095072 0 0 0 0 14.650304640364627 27.214263820218505 0 27.214263820218505 27.72421093549849 0 0 0 0 57.075238817223166 -123.05049332909766 0 -123.05049332909766 859.15670699838665 0 0 0 0 -134.775600278306 -70.768902977462858 0 -70.768902977462858 898.39729194580877 0 0 0 0 -144.22224410074648 -67.340413045707464 0 -67.340413045707464 909.97654593156767 0 0 0 0 -189.99378523789437 -27.247930507379351 0 -27.247930507379351 891.37230244580132 0 0 0 0 -189.8625672552339 -166.82208924708539 0 -166.82208924708539 875.27154252317996 0 0 0 0 -307.97603521219401 417.44249975490675 0 417.44249975490675 213.8160545185965 0 0 0 0 38.608542606824813 35.041716258212546 0 35.041716258212546 189.81915636314079 0 0 0 0 -313.81113943116679 96.830419626599905 0 96.830419626599905 770.37046567141078 0 0 0 0 27.741587835080963 -220.13995016979607 0 -220.13995016979607 526.69909076287877 0 0 0 0 -539.54195148473787 355.30155043427294 0 355.30155043427294 261.64669004791358 0 0 0 0 -293.27301651395373 33.359139593500004 0 33.359139593500004 -156.43051617001038 0 0 0 0 -291.56151445064461 479.61073061203933 0 479.61073061203933 -228.47073510482733 0 0 0 0 15.555898593945875 21.851173015688488 0 21.851173015688488 20.893659761581631 0 0 0 0 -131.11681426497444 19.627973119924718 0 19.627973119924718 -54.206544686239795 0 0 0 0 -307.41642318869344 23.012736351920466 0 23.012736351920466 275.60502406319483 0 0 0 0 -310.49029992975102 186.98717533563467 0 186.98717533563467 314.80544320587069 0 0 0 0 -386.16823634354023 180.76635196659117 0 180.76635196659117 593.03441978227784 0 0 0 0 -272.47569947087504 -136.0567117647297 0 -136.0567117647297 691.29222837515408 0 0 0 0 -238.97300608156411 -193.77919147537978 0 -193.77919147537978 694.85600064642495 0 0 0 0 -243.06989381466883 -154.04818394946051 0 -154.04818394946051 655.0554613923814 0 0 0 0 -204.69254180341431 -176.32369057130563 0 -176.32369057130563 666.85892844741466 0 0 0 0 -235.00224199972399 43.143168093811255 0 43.143168093811255 498.04808386593686 0 0 0 0 -361.5145583589765 -76.610325413912506 0 -76.610325413912506 675.34398442409292 0 0 0 0 -232.60531705309222 -96.758592854836024 0 -96.758592854836024 638.04497937866836 0 0 0 0 -142.85804482711683 -67.946876707454066 0 -67.946876707454066 606.5670399266528 0 0 0 0 -185.95383028393826 17.223428719695221 0 17.223428719695221 587.16993533818459 0 0 0 0 -33.918604519833934 -27.515335671436333 0 -27.515335671436333 452.6195182256597 0 0 0 0 -11.442424095959723 -81.681609472092532 0 -81.681609472092532 360.26580648472321 0 0 0 0 -83.072361172631645 -109.42316146136727 0 -109.42316146136727 434.24658714648831 0 0 0 0 -82.012199459015903 -168.66507322305631 0 -168.66507322305631 360.49683735644794 0 0 0 0 71.260674290940187 -230.51945624603832 0 -230.51945624603832 329.86592067027959 0 0 0 0 -20.353736301673052 -318.4223966844911 0 -318.4223966844911 616.70478496553551 0 0 0 0 4.2834570826908021 153.70279977861719 0 153.70279977861719 191.57921150007132 0 0 0 0 -2.9150053179386042 8.5088595542396988 0 8.5088595542396988 10.503467640860578 0 0 0 0 56.25408119614076 -250.65609676697204 0 -250.65609676697204 310.00704232752832 0 0 0 0 0.81298595775749938 13.154225498009652 0 13.154225498009652 57.107587948101639 0 0 0 0 -2077.6504172440436 638.55702813251992 0 638.55702813251992 913.43083033699077 0 0 0 0 -57.312398239650975 -95.926092737834551 0 -95.926092737834551 317.70872832470923 0 0 0 0 130.22596263578293 -359.92034512566715 0 -359.92034512566715 538.24179150094278 0 0 0 0 210.71809826594654 -119.26834898360539 0 -119.26834898360539 180.23964254658495 0 0 0 0 419.38847813135362 -372.72346552395175 0 -372.72346552395175 303.81497138255509 0 0 0 0 834.50109571121811 -1155.6997060544709 0 -1155.6997060544709 1749.679531482936 0 0 0 0 372.01322281634441 -593.44199039702744 0 -593.44199039702744 507.3092539680365 0 0 0 0 -121.15357685419895 -475.57880148927507 0 -475.57880148927507 1303.3956326137122 0 0 0 0 -259.01129291498364 -180.01091716616793 0 -180.01091716616793 686.83827962286159 0 0 0 0 -237.22329821706717 -39.535366416246688 0 -39.535366416246688 675.51016479212558 0 0 0 0 -129.48573749358957 172.1016439479572 0 172.1016439479572 988.78350810354459 0 0 0 0 -6.8833221710892758 -31.193707508969965 0 -31.193707508969965 1297.3224674590019 0 0 0 0 114.57713287444858 494.75754576173495 0 494.75754576173495 3133.6630888111104 0 0 0 0 1859.0428813554572 1215.7371291843956 0 1215.7371291843956 1057.5577336394635 0 0 0 0 -109.9878733781452 484.34726885444252 0 484.34726885444252 406.8822642685991 0 0 0 0 1637.9679502690874 -283.66324645588429 0 -283.66324645588429 721.87908954371233 0 0 0 0 -180.04129532472473 -7.326769462088123 0 -7.326769462088123 2026.3236179915548 0 0 0 0 -87.513371097644722 78.086021657181846 0 78.086021657181846 127.02052349100268 0 0 0 0 -503.05598614003026 -493.66472238532879 0 -493.66472238532879 644.18206917203497 0 0 0 0 -125.80162007124977 424.92408635856555 0 424.92408635856555 1047.1769975548195 0 0 0 0 306.3993067497068 1501.2519471341839 0 1501.2519471341839 815.1369508751086 0 0 0 0 2.0404782643775565 6.6786001103049699 0 6.6786001103049699 21.912856192418246 0 0 0 0 -50.98271478744482 1638.9159271505341 0 1638.9159271505341 12.404860970535083 0 0 0 0 -146.18003445920567 1371.9745967448835 0 1371.9745967448835 1761.3486208371296 0 0 0 0 -1658.3024136357999 -103.17656741933024 0 -103.17656741933024 51.320522430151868 0 0 0 0 -15.912010546705233 638.0426991832428 0 638.0426991832428 372.68350684156758 0 0 0 0 -1.0945965157577575 -2.9394098375134661 0 -2.9394098375134661 3.3606367557953547 0 0 0 0 -1432.6517290904653 797.94359588162479 0 797.94359588162479 3.1176165321230656 0 0 0 0 -992.17493814829686 93.021191880507104 0 93.021191880507104 1007.7100544887653 0 0 0 0 -791.79239797794526 -59.275585297516955 0 -59.275585297516955 481.10230435010453 0 0 0 0 -813.29718994569612 -180.49903137768706 0 -180.49903137768706 121.63245782163085 0 0 0 0 217.00263973667245 252.0520932473537 0 252.0520932473537 468.73541713615123 0 0 0 0 -7.008852157144247 -303.60499398046522 0 -303.60499398046522 377.95631833991501 0 0 0 0 -95.800970428911228 546.96624010578671 0 546.96624010578671 1038.5900158652221 0 0 0 0 2213.9558965832557 1648.3867953178706 0 1648.3867953178706 742.65563762326201 0 0 0 0 734.27767887827986 1522.3085376122181 0 1522.3085376122181 2183.73022529023 0 0 0 0 0.15875620611559449 4.3520030523792848 0 4.3520030523792848 22.944493201235559 0 0 0 0 3.9660846809401278 -2.934875722315951 0 -2.934875722315951 4.2736591754438678 0 0 0 0 153.35778962458699 -786.09184730076231 0 -786.09184730076231 1917.6681348540606 0 0 0 0 -50.984406325186001 261.74496066470601 0 261.74496066470601 1216.8028550092131 0 0 0 0 223.35951297374322 289.78990673222143 0 289.78990673222143 875.73301619224367 0 0 0 0 19.237898541856339 491.98738118354231 0 491.98738118354231 1510.6800233490794 0 0 0 0 4.6158672528030991 -0.32324318463523127 0 -0.32324318463523127 3.4191827121926224 0 0 0 0 958.79085791061038 1456.6958034441086 0 1456.6958034441086 949.96586395186023 0 0 0 0 -934.1824785751794 -190.17475965800986 0 -190.17475965800986 793.81505678156827 0 0 0 0 -1.2708434540584097 1032.3007789245348 0 1032.3007789245348 2086.377034764133 0 0 0 0 0.42135545641356453 493.38462539992543 0 493.38462539992543 53.879562874415569 0 0 0 0 1008.8689591719149 574.09810766443843 0 574.09810766443843 146.78973376320209 0 0 0 0 -68.538611617930201 304.08107222166655 0 304.08107222166655 645.38269245281117 0 0 0 0 -6.1663289076425771 4.0090710573596624 0 4.0090710573596624 60.982217085407171 0 0 0 0 -236.15473011354345 254.93891239809 0 254.93891239809 -181.79398327102535 0 0 0 0 -3.9423918902632522 1.699795740833224 0 1.699795740833224 14.062192328880386 0 0 0 0 524.93788385833511 -279.07043639812036 0 -279.07043639812036 33.376067042805516 0 0 0 0 -140.51639250678642 -261.73786856247898 0 -261.73786856247898 -122.82144015232188 0 0 0 0 -137.78371553823905 -258.92849551377003 0 -258.92849551377003 -309.7991681653366 0 0 0 0 -65.156780415358241 -360.76514591639079 0 -360.76514591639079 -126.10147290534223 0 0 0 0 0.0650655791551569 -307.6022545527303 0 -307.6022545527303 -107.85975822824912 0 0 0 0 215.19899634632486 -1.0942632907172083 0 -1.0942632907172083 214.91560684745491 0 0 0 0 -20.212382150942062 144.12711935119296 0 144.12711935119296 1369.453364254663 0 0 0 0 0.51121710783224183 -275.63210153479326 0 -275.63210153479326 659.12672366441984 0 0 0 0 55.993623693146901 -25.463390765296936 0 -25.463390765296936 376.75101969973184 0 0 0 0 -68.913323099578975 -205.7920224180707 0 -205.7920224180707 729.84545907037682 0 0 0 0 -153.96960465784241 -299.87796827483908 0 -299.87796827483908 312.60487068115617 0 0 0 0 -113.00870682269374 -165.93577730649849 0 -165.93577730649849 199.96294890939316 0 0 0 0 -288.83361683277462 -139.71738605152495 0 -139.71738605152495 149.7132211969365 0 0 0 0 -384.56665262000888 -441.0365333014779 0 -441.0365333014779 105.70400291522674 0 0 0 0 -227.40120634179038 -300.8721819335733 0 -300.8721819335733 215.51322993860231 0 0 0 0 -350.84135873064633 -192.30797966769023 0 -192.30797966769023 657.38546704296823 0 0 0 0 -718.90849801977765 -217.47694145710557 0 -217.47694145710557 281.42988866637461 0 0 0 0 -665.19984456365148 -188.90855359536363 0 -188.90855359536363 -115.64885068245349 0 0 0 0 -664.75032846938279 -611.11180069292459 0 -611.11180069292459 -220.57823013708457 0 0 0 0 -540.36051599328061 -272.22455828644888 0 -272.22455828644888 -96.013240579221019 0 0 0 0 98.182676278962902 255.88173478378303 0 255.88173478378303 126.13987169787288 0 0 0 0 -4.8552545944979029 -0.06640450244495355 0 -0.06640450244495355 8.0640123897669582 0 0 0 0 71.256552853900757 68.477331610734382 0 68.477331610734382 -31.100209989628638 0 0 0 0 -5.9505964272124956 14.211956780784135 0 14.211956780784135 9.6907340505404136 0 0 0 0 -100.476375955045 161.51370014055647 0 161.51370014055647 90.350003134808503 0 0 0 0 -4.4556863698905378 8.3727006180569816 0 8.3727006180569816 86.652481577091606 0 0 0 0 -143.5734922346553 -14.993816713413253 0 -14.993816713413253 89.439334874230553 0 0 0 0 -866.79688539165841 -377.05565614514126 0 -377.05565614514126 129.75876539159799 0 0 0 0 -10.037518580955634 10.007229275365134 0 10.007229275365134 20.664916701490142 0 0 0 0 -40.110967004070744 96.839780216490908 0 96.839780216490908 116.75105106486626 0 0 0 0 -3.2174500411134712 14.874130623655432 0 14.874130623655432 75.357524210627759 0 0 0 0 -706.5435802140131 -283.82484702196325 0 -283.82484702196325 15.839261859597173 0 0 0 0 -1197.1491234475106 -14.903388777140208 0 -14.903388777140208 205.28957812643785 0 0 0 0 170.10103823852296 176.44224078255502 0 176.44224078255502 42.252362317645748 0 0 0 0 -178.48970963936381 -210.87918233859818 0 -210.87918233859818 349.16840296218288 0 0 0 0 -99.008717631155832 127.14917400973718 0 127.14917400973718 88.136274946315098 0 0 0 0 -4.3233005346786282 10.101883150216466 0 10.101883150216466 12.734158044656141 0 0 0 0 -5.0224503050541909 6.3660118036098865 0 6.3660118036098865 73.083969259662581 0 0 0 0 -12.569244922910912 108.51571839794633 0 108.51571839794633 52.737350826984766 0 0 0 0 -109.05623629178308 59.279955289430291 0 59.279955289430291 79.505055234170868 0 0 0 0 -58.132868098979543 7.8952680644179054 0 7.8952680644179054 411.38219376797497 0 0 0 0 1.9281427231053128 -2.7514721967650644 0 -2.7514721967650644 -0.50164846804420904 0 0 0 0 -159.10737430205631 -150.07716382697072 0 -150.07716382697072 169.14298596415028 0 0 0 0 -21.533236012079556 -66.522701887174662 0 -66.522701887174662 286.27411660001962 0 0 0 0 0.2930867418915164 -0.71981446977941843 0 -0.71981446977941843 1.1809354880330716 0 0 0 0 30.661108986614181 64.798903144641372 0 64.798903144641372 34.610547947740997 0 0 0 0 67.236758454095252 153.43130421056048 0 153.43130421056048 247.21307029607124 0 0 0 0 -13.040589563275717 58.227632901842298 0 58.227632901842298 38.519456009104033 0 0 0 0 -14.224690825399193 41.503976744090323 0 41.503976744090323 80.788150755364768 0 0 0 0 -22.509304297901508 73.216254560004018 0 73.216254560004018 79.593478100614448 0 0 0 0 42.95604617722347 18.196227401589567 0 18.196227401589567 44.849600245590409 0 0 0 0 -85.452121831557633 17.294908967305673 0 17.294908967305673 63.977745393074656 0 0 0 0 0.12317386844124023 -0.88585204739719181 0 -0.88585204739719181 2.6888855344543003 0 0 0 0 -4.3083972484931543 9.7813392548633971 0 9.7813392548633971 94.288587648315541 0 0 0 0 5.8823699089316506 -86.070553300833126 0 -86.070553300833126 4.6261367117404006 0 0 0 0 -112.84762781387826 58.293863927530765 0 58.293863927530765 35.629541906142549 0 0 0 0 -306.17297143287635 118.47417654747551 0 118.47417654747551 164.67178549891105 0 0 0 0 0.1806007951661357 -0.78086569124496563 0 -0.78086569124496563 1.2732913799414121 0 0 0 0 4.4506116637722926 75.50866981051513 0 75.50866981051513 113.81452670868021 0 0 0 0 -79.031868644369752 -46.739530706745427 0 -46.739530706745427 69.95949522506271 0 0 0 0 -33.223708903286024 15.486915461089666 0 15.486915461089666 237.77365223984816 0 0 0 0 -66.632198198330627 -68.532583205778337 0 -68.532583205778337 151.80486285116058 0 0 0 0 -74.948124937458942 85.219045865545922 0 85.219045865545922 264.11165376690042 0 0 0 0 -29.534294891946956 -14.258055100915954 0 -14.258055100915954 37.740674686749117 0 0 0 0 -94.766563989008887 19.580696893666754 0 19.580696893666754 89.097646362417436 0 0 0 0 -149.41635058378517 -37.654303202005394 0 -37.654303202005394 105.1086322455958 0 0 0 0 -4.3076443341780308 10.712307064337573 0 10.712307064337573 99.52670885662954 0 0 0 0 -201.96241823079635 28.401163493843342 0 28.401163493843342 137.64408134252881 0 0 0 0 -65.827474679887985 -61.83599308077828 0 -61.83599308077828 151.28820230234123 0 0 0 0 -106.051866777974 3.2125483678100863 0 3.2125483678100863 116.35165490982763 0 0 0 0 -82.126686221749551 -51.24952075636611 0 -51.24952075636611 136.76841887072078 0 0 0 0 -82.23470952436287 -65.690318370448949 0 -65.690318370448949 93.754028834127894 0 0 0 0 10.103121326460666 -82.371472608490876 0 -82.371472608490876 36.301473768260621 0 0 0 0 -86.909801055222289 -30.032264170131384 0 -30.032264170131384 328.94932203378994 0 0 0 0 0.15651027467274847 -0.45709790131564887 0 -0.45709790131564887 0.26248007906537296 0 0 0 0 -113.79505536941772 -5.4187007728651224 0 -5.4187007728651224 273.80080688917951 0 0 0 0 6.4195534632015097 -9.0467319168674294 0 -9.0467319168674294 222.90590025815618 0 0 0 0 -121.19832814266147 53.887592805069289 0 53.887592805069289 200.728713139928 0 0 0 0 -90.748002695433684 64.144596969032136 0 64.144596969032136 162.01656777938479 0 0 0 0 -160.42408776292814 -35.732677681538917 0 -35.732677681538917 117.04998492068262 0 0 0 0 288.89619459640949 273.97798645985677 0 273.97798645985677 43.916287219733931 0 0 0 0 -28.712313790333667 182.07876460867556 0 182.07876460867556 241.34273534623208 0 0 0 0 165.46199375998071 73.693800428678514 0 73.693800428678514 -51.648667623550864 0 0 0 0 -56.076444286310902 193.13755710638361 0 193.13755710638361 115.26648045965703 0 0 0 0 -442.48075745799281 -99.46414733176789 0 -99.46414733176789 128.34765953870374 0 0 0 0 0.62388039962362618 -0.95729617158019664 0 -0.95729617158019664 -1.2907371379426422 0 0 0 0 63.730559760779727 -2.3959616129068309 0 -2.3959616129068309 97.726291818645223 0 0 0 0 -1.9743384858828124 0.42630509618230406 0 0.42630509618230406 3.937057044445794 0 0 0 0 -518.83607571233915 -507.10252071452487 0 -507.10252071452487 -157.66822485104785 0 0 0 0 313.97091407968702 273.00387202907223 0 273.00387202907223 269.37140468598227 0 0 0 0 4.3816690262619886 2.2157526831433643 0 2.2157526831433643 407.21304798958772 0 0 0 0 7.1887645684309689 -52.656180943835352 0 -52.656180943835352 174.30200585986313 0 0 0 0 -34.573097315636574 -71.819996249731048 0 -71.819996249731048 220.27699068299262 0 0 0 0 -100.41957095492899 19.573744908368099 0 19.573744908368099 437.91676804856979 0 0 0 0 0.62450346449389071 -0.91635953699577044 0 -0.91635953699577044 0.39467899393504879 0 0 0 0 28.257319650746609 -62.980398412277282 0 -62.980398412277282 276.79376400666661 0 0 0 0 86.198168043182463 -126.76487249018828 0 -126.76487249018828 444.15235724426748 0 0 0 0 24.353490009309475 -38.084887360464563 0 -38.084887360464563 139.07580493345449 0 0 0 0 -186.79890349367503 -2.6684800075945532 0 -2.6684800075945532 261.91212011908647 0 0 0 0 0.026797012239848317 -0.68489343102013223 0 -0.68489343102013223 2.3707871039154043 0 0 0 0 118.41965532968322 -221.82863979550893 0 -221.82863979550893 182.37690272599866 0 0 0 0 0.037440513379293924 -102.71009087105267 0 -102.71009087105267 212.37763229402481 0 0 0 0 -153.86087314438802 -122.40028117091424 0 -122.40028117091424 463.11247493363771 0 0 0 0 -78.466707459153866 -104.84714596853883 0 -104.84714596853883 107.41710050539041 0 0 0 0 0.50549987464157697 -0.75945433032097753 0 -0.75945433032097753 0.47583753468757806 0 0 0 0 -0.087229959224474712 -132.61063018912682 0 -132.61063018912682 104.56789717094216 0 0 0 0 -122.00791524161615 -287.72207171333139 0 -287.72207171333139 -84.892921105682035 0 0 0 0 -192.81891133340088 -143.37836315282038 0 -143.37836315282038 223.14666707615106 0 0 0 0 -0.056462642086352571 -221.02084223981365 0 -221.02084223981365 -165.30840565850667 0 0 0 0 232.78409101748764 -206.63724505442588 0 -206.63724505442588 171.72598072805704 0 0 0 0 0.170042019196842 0.75371386741448987 0 0.75371386741448987 4.8374606044256439 0 0 0 0 89.142942386400321 -148.39244160401043 0 -148.39244160401043 86.050019156115013 0 0 0 0 89.513774381723238 -78.684200782772677 0 -78.684200782772677 57.55945719434385 0 0 0 0 71.283333401962494 -100.55317766051121 0 -100.55317766051121 183.15173820150085 0 0 0 0 56.086409299711761 -89.763168289340683 0 -89.763168289340683 343.57750427762949 0 0 0 0 -233.76050956157843 111.55210084132705 0 111.55210084132705 433.35089305814472 0 0 0 0 -190.01699842408567 87.959986604364531 0 87.959986604364531 -195.36709163421619 0 0 0 0 -409.41551435837943 323.59413400503399 0 323.59413400503399 85.557175642043148 0 0 0 0 35.810587619859348 151.16784236211242 0 151.16784236211242 298.79893257639196 0 0 0 0 1.0883166314576092 9.6061533381240238 0 9.6061533381240238 30.885837226330949 0 0 0 0 -34.264667541700277 91.249082864875163 0 91.249082864875163 -83.056734126148513 0 0 0 0 -308.92023072021192 56.596209475261276 0 56.596209475261276 -17.231531136705598 0 0 0 0 -266.72781968208278 216.92824790687155 0 216.92824790687155 -121.99183246912071 0 0 0 0 192.8208882754069 -297.34006944336579 0 -297.34006944336579 67.983431662389194 0 0 0 0 243.01572383207645 -308.96559852175756 0 -308.96559852175756 -8.5643477846751921 0 0 0 0 184.12213284119645 -282.7490454748222 0 -282.7490454748222 47.028072501867427 0 0 0 0 245.11108952689088 -234.30208388348763 0 -234.30208388348763 85.50738334581547 0 0 0 0 1.0463887775474325 6.9577129069221115 0 6.9577129069221115 22.574922229604425 0 0 0 0 -341.98054216415358 222.34651813523305 0 222.34651813523305 -86.479935089242645 0 0 0 0 164.89335002416823 -142.07450506057285 0 -142.07450506057285 103.88609486639325 0 0 0 0 -316.6949983441059 151.42570622950461 0 151.42570622950461 -73.09446628850128 0 0 0 0 0.17142900209916612 3.1906779385962309 0 3.1906779385962309 14.788711266965834 0 0 0 0 -229.67564760144683 156.07914137009175 0 156.07914137009175 -116.18995031836675 0 0 0 0 -28.885183237908109 -77.565070675624156 0 -77.565070675624156 83.108783153948025 0 0 0 0 85.244978083186766 -95.057242951050284 0 -95.057242951050284 -17.048115167192009 0 0 0 0 25.885633004864417 -142.58992051582027 0 -142.58992051582027 47.384744838156621 0 0 0 0 91.746185306341886 -71.64725822417131 0 -71.64725822417131 67.246463205214241 0 0 0 0 230.69821731610239 -74.705437061471457 0 -74.705437061471457 44.384423120682186 0 0 0 0 146.33972509222622 -113.57296072255849 0 -113.57296072255849 61.769683377693582 0 0 0 0 87.082954618102804 -121.04522526663641 0 -121.04522526663641 91.319709813757072 0 0 0 0 131.78576138633878 -86.166005014318216 0 -86.166005014318216 109.01326524405158 0 0 0 0 65.798622591515027 -103.89866346522831 0 -103.89866346522831 71.050932400321472 0 0 0 0 104.7967825281421 -133.12132013832888 0 -133.12132013832888 54.722013263983172 0 0 0 0 116.59645674657918 32.744320618756319 0 32.744320618756319 232.07941013977688 0 0 0 0 163.32708011687737 56.569311272833147 0 56.569311272833147 201.12510752933667 0 0 0 0 188.84107316785577 82.808500185667981 0 82.808500185667981 227.77316209256242 0 0 0 0 58.124497653087474 -35.113310613374779 0 -35.113310613374779 174.53314536517246 0 0 0 0 30.845413775199518 -104.75512117397284 0 -104.75512117397284 48.225385685938818 0 0 0 0 64.679731773798494 -37.839316396055438 0 -37.839316396055438 71.932030916170334 0 0 0 0 -61.328164774858863 -26.25125115753417 0 -26.25125115753417 34.410157049846021 0 0 0 0 20.961964117455864 31.92795150391612 0 31.92795150391612 29.916711066880907 0 0 0 0 86.674443007148966 -129.23824594872349 0 -129.23824594872349 133.09822911366064 0 0 0 0 128.63899714945592 -90.703872133868572 0 -90.703872133868572 62.580519835813902 0 0 0 0 52.415168510494368 -42.980515057675802 0 -42.980515057675802 79.257689909089095 0 0 0 0 55.615512441030432 -73.679552608511585 0 -73.679552608511585 139.56594810393699 0 0 0 0 64.16306227064797 -73.521098668526975 0 -73.521098668526975 119.44160417004605 0 0 0 0 24.673343643996759 -15.840365556505276 0 -15.840365556505276 134.6650519865243 0 0 0 0 38.156736050504946 3.5207724606316333 0 3.5207724606316333 72.272816868528025 0 0 0 0 2.574446678527238 8.6393175377743319 0 8.6393175377743319 79.488856903037231 0 0 0 0 2.2312796594544011 4.6682502729236148 0 4.6682502729236148 98.239072555887105 0 0 0 0 48.79141118314152 -24.916975923246355 0 -24.916975923246355 104.49064301534236 0 0 0 0 17.455853064854637 60.401089197621332 0 60.401089197621332 15.481882011488779 0 0 0 0 22.022946841045723 20.98962844478956 0 20.98962844478956 56.493629858367058 0 0 0 0 1.9294641561541539 24.21006885060342 0 24.21006885060342 86.395775522127224 0 0 0 0 9.459721359358582 28.072918231340736 0 28.072918231340736 76.911477852379903 0 0 0 0 9.9873979984245125 34.549566186000447 0 34.549566186000447 100.31931898362382 0 0 0 0 23.080302982704097 -37.982914391708618 0 -37.982914391708618 130.18580604341696 0 0 0 0 -32.863698775719513 10.555892170617881 0 10.555892170617881 88.097030827862909 0 0 0 0 20.634652354099671 -2.5329077003443672 0 -2.5329077003443672 58.874752913765406 0 0 0 0 17.934587020757363 19.28408621536073 0 19.28408621536073 9.0301762974268058 0 0 0 0 10.071273453952131 -26.709769974953815 0 -26.709769974953815 295.70974971148826 0 0 0 0 0.87942889047856632 0.068198476004283748 0 0.068198476004283748 0.19140785972420815 0 0 0 0 80.274851841076497 13.370370664986694 0 13.370370664986694 106.81231106305495 0 0 0 0 -35.569613907973689 -40.746735370325041 0 -40.746735370325041 170.5893343812786 0 0 0 0 14.48602216337008 19.562528355214454 0 19.562528355214454 -2.1149273382179672 0 0 0 0 17.928532741026288 -9.241828659462044 0 -9.241828659462044 41.073250276065664 0 0 0 0 -1.3612007622332385 14.544953859844099 0 14.544953859844099 73.248244319591322 0 0 0 0 24.484322735157946 4.7245097582990638 0 4.7245097582990638 211.46129371074494 0 0 0 0 -57.215865522391596 -27.245508732903545 0 -27.245508732903545 207.36067524067039 0 0 0 0 -83.442603451625928 -28.131713727263559 0 -28.131713727263559 244.62016828212654 0 0 0 0 2.4039436254721345 -0.6846011680124775 0 -0.6846011680124775 0.32024642787022017 0 0 0 0 13.983804777520163 -31.997231687822932 0 -31.997231687822932 -36.644033701726585 0 0 0 0 3.1052039963883602 -0.89606524957117983 0 -0.89606524957117983 0.15188318058106987 0 0 0 0 254.06257813420598 -133.749688677839 0 -133.749688677839 -26.969899890289526 0 0 0 0 89.488594765409971 -167.68119770075282 0 -167.68119770075282 171.18530954890593 0 0 0 0 112.36000263632423 -66.238368445272499 0 -66.238368445272499 155.99357312075153 0 0 0 0 91.928937284153506 -83.30942973065612 0 -83.30942973065612 297.33706290515693 0 0 0 0 0.16109596222347156 0.054851308804842347 0 0.054851308804842347 0.39608333259990047 0 0 0 0 97.642418259085161 -137.23086014487762 0 -137.23086014487762 276.54336839835742 0 0 0 0 -185.75713417564799 -64.658108165654994 0 -64.658108165654994 -29.718661736937065 0 0 0 0 12.001089746467756 -82.292732477031223 0 -82.292732477031223 223.62825556124881 0 0 0 0 -1.8982666941124506 3.3146762627957287 0 3.3146762627957287 77.191248962917598 0 0 0 0 42.095579909430171 -24.76255773101002 0 -24.76255773101002 7.3596419448458619 0 0 0 0 -10.259331155532436 -13.828642358195793 0 -13.828642358195793 62.123386461345945 0 0 0 0 43.350954837772861 -65.087430707048043 0 -65.087430707048043 105.86235847806529 0 0 0 0 54.760366930106102 -13.007489667957998 0 -13.007489667957998 62.074723908702708 0 0 0 0 57.008824990141349 -71.420286216878594 0 -71.420286216878594 88.744614051662211 0 0 0 0 125.32824086537275 -57.430692199843179 0 -57.430692199843179 83.58845460179873 0 0 0 0 197.2615845253664 39.199686657662824 0 39.199686657662824 192.29600453695093 0 0 0 0 45.963572236696962 -2.9825763016669953 0 -2.9825763016669953 192.44287800914026 0 0 0 0 -57.214183589255555 19.149744167824792 0 19.149744167824792 -39.733390756773588 0 0 0 0 -406.08647547673019 170.04719415699947 0 170.04719415699947 167.53388638887554 0 0 0 0 -93.671167988653622 -84.95777605468902 0 -84.95777605468902 94.681275044684298 0 0 0 0 210.69369616399194 -169.01183030930042 0 -169.01183030930042 50.424850821989821 0 0 0 0 131.27982881436066 -156.80125003101421 0 -156.80125003101421 40.566139196196673 0 0 0 0 120.2221725219545 -141.16205395894394 0 -141.16205395894394 143.62378979573259 0 0 0 0 -70.717794490718802 -56.83945052625495 0 -56.83945052625495 124.70036874655125 0 0 0 0 19.11614470800049 -1.6027708825167792 0 -1.6027708825167792 45.966785716082086 0 0 0 0 1.5826303243335189 -0.1368609388196802 0 -0.1368609388196802 -0.0042842512285332646 0 0 0 0 93.194625121254376 -2.0445539287393331 0 -2.0445539287393331 -212.000416658002 0 0 0 0 117.34262955942678 -82.000835536935483 0 -82.000835536935483 29.786895066063153 0 0 0 0 49.803780645066865 -117.97297498780972 0 -117.97297498780972 87.326872760779224 0 0 0 0 -29.339322050342162 -72.099911389588669 0 -72.099911389588669 65.607656731885072 0 0 0 0 -58.204729623436151 -39.324302032699052 0 -39.324302032699052 44.372381780216529 0 0 0 0 -23.09009402251192 -23.400072160433865 0 -23.400072160433865 45.860249586388818 0 0 0 0 -93.270022153765694 -8.9760157033379073 0 -8.9760157033379073 65.65118745995278 0 0 0 0 -4.828737585028577 0.46031251920484806 0 0.46031251920484806 24.788952480115967 0 0 0 0 -86.443229157298219 34.660923868173995 0 34.660923868173995 41.719875206845245 0 0 0 0 -16.408709845094108 -2.6639602546420065 0 -2.6639602546420065 53.829290531993138 0 0 0 0 -62.362076391250525 22.614032839657739 0 22.614032839657739 0.99502141154516721 0 0 0 0 -44.142665378042693 3.0239685258784448 0 3.0239685258784448 43.916302266035927 0 0 0 0 -23.542333459952715 7.3365803261804103 0 7.3365803261804103 43.578420088000712 0 0 0 0 -11.201247133903621 -10.321181446999617 0 -10.321181446999617 37.629923237058392 0 0 0 0 -8.725761863891119 2.971649691208647 0 2.971649691208647 28.94005418749083 0 0 0 0 -18.673927194841099 -3.1675947975891177 0 -3.1675947975891177 60.019366197277122 0 0 0 0 -19.752119022176203 1.869499481164894 0 1.869499481164894 59.506711547270243 0 0 0 0 1.8515935096780161 -6.4704645947552706 0 -6.4704645947552706 14.683195278455173 0 0 0 0 -17.535750155682877 2.3779589821351692 0 2.3779589821351692 53.110722357356281 0 0 0 0 -16.960248089980695 -0.84792793413658529 0 -0.84792793413658529 35.42251155298257 0 0 0 0 27.915822536939459 -77.442893381561589 0 -77.442893381561589 33.756823404975876 0 0 0 0 4.1830100079616273 -73.517214253404745 0 -73.517214253404745 33.205239797091053 0 0 0 0 25.288753475818233 -52.462851699549489 0 -52.462851699549489 80.217512839191869 0 0 0 0 19.169972242196351 -49.950870040867812 0 -49.950870040867812 23.104645078637986 0 0 0 0 39.756628395980336 -52.212699170828273 0 -52.212699170828273 23.338911419166834 0 0 0 0 6.7403999975093711 -58.449238158158551 0 -58.449238158158551 73.100604099949123 0 0 0 0 55.569447474448964 -57.655037559630728 0 -57.655037559630728 72.301116668669238 0 0 0 0 29.252081118607407 -44.11349657896244 0 -44.11349657896244 65.904660710337339 0 0 0 0 -124.69768631545389 -62.995452807284892 0 -62.995452807284892 39.552123798406683 0 0 0 0 -226.33584948384441 63.344036777616566 0 63.344036777616566 59.051734193162702 0 0 0 0 31.205211986023627 -27.774201612795878 0 -27.774201612795878 -0.16401667292666389 0 0 0 0 -1.6141354285334837 5.9787636518511604 0 5.9787636518511604 28.311296954854157 0 0 0 0 30.72814389754457 -2.7077085570472263 0 -2.7077085570472263 26.379144280443143 0 0 0 0 76.509245058169114 -41.413892542619578 0 -41.413892542619578 51.151021589077573 0 0 0 0 0.07805706353445907 8.8087313250728414 0 8.8087313250728414 32.482001957393436 0 0 0 0 21.851241996467024 28.295895438963271 0 28.295895438963271 45.430238121531147 0 0 0 0 134.37991821293554 -35.284343863935646 0 -35.284343863935646 -10.350435503682093 0 0 0 0 184.95052981384379 -314.91695494736996 0 -314.91695494736996 260.90648498211522 0 0 0 0 -13.916882471014162 -48.714660549005202 0 -48.714660549005202 353.95442740431463 0 0 0 0 33.540694111185303 -41.4025829031998 0 -41.4025829031998 102.92432771305175 0 0 0 0 127.92651314723526 -159.42360743751613 0 -159.42360743751613 169.4725143756441 0 0 0 0 14.080379294318618 -71.237072712956433 0 -71.237072712956433 158.42600318380573 0 0 0 0 -14.812747450294466 -3.9116785746555252 0 -3.9116785746555252 264.88802860670694 0 0 0 0 -17.696514584636816 -20.246624857732968 0 -20.246624857732968 181.01632964227611 0 0 0 0 -16.671400173425582 -62.445719975170505 0 -62.445719975170505 285.5074883161069 0 0 0 0 -33.848554726718056 -10.33756000548783 0 -10.33756000548783 273.21011167168763 0 0 0 0 12.726840535638786 -9.944881764906313 0 -9.944881764906313 262.20324338152932 0 0 0 0 -24.970686308422444 16.886312670283132 0 16.886312670283132 166.54001362970303 0 0 0 0 -86.171971082162372 -203.50132525988738 0 -203.50132525988738 -151.53261784290225 0 0 0 0 6.6330442723004825 -7.3797967354239233 0 -7.3797967354239233 5.5008694596847505 0 0 0 0 -191.24525542517654 -107.17757964787597 0 -107.17757964787597 142.78479120968404 0 0 0 0 177.26666518769144 -328.39466663422354 0 -328.39466663422354 36.310008526357706 0 0 0 0 -38.982472348002858 8.1916006000865309 0 8.1916006000865309 810.74352796929452 0 0 0 0 157.90821454322975 -212.80955709583395 0 -212.80955709583395 -404.36968083438842 0 0 0 0 2.756730374226398 -2.8070669824965933 0 -2.8070669824965933 2.2183747864201422 0 0 0 0 16.76870226885076 5.6316292596675339 0 5.6316292596675339 312.40521004765833 0 0 0 0 39.562576933139098 187.03798738422483 0 187.03798738422483 349.21917727922846 0 0 0 0 0.99009837554133995 -2.2416732754795561 0 -2.2416732754795561 5.9703982155207029 0 0 0 0 152.21685206567543 175.29552447463357 0 175.29552447463357 326.50373641953047 0 0 0 0 20.149786682944775 -11.290624271518809 0 -11.290624271518809 8.5160945203885206 0 0 0 0 -51.256310879402008 -175.09339098545752 0 -175.09339098545752 -217.93979642128215 0 0 0 0 -22.198684629762283 -233.08964925506734 0 -233.08964925506734 -224.74830758209646 0 0 0 0 98.614966902935294 -112.05178463270568 0 -112.05178463270568 169.7132489769283 0 0 0 0 -45.8853037607023 -202.72468429432047 0 -202.72468429432047 -145.04712551890407 0 0 0 0 6.3595251762170699 -1.3970252744482607 0 -1.3970252744482607 -0.84876279038721236 0 0 0 0 -2.8718815642100708 305.55917374845012 0 305.55917374845012 589.52058182971086 0 0 0 0 86.520493491347679 -27.743199496311718 0 -27.743199496311718 580.17998555657482 0 0 0 0 196.01218496575211 254.55532377538839 0 254.55532377538839 562.98579689822509 0 0 0 0 133.89341436217524 43.836684258902096 0 43.836684258902096 214.2020315878035 0 0 0 0 -69.054786203917956 156.78624633404252 0 156.78624633404252 486.46641331974388 0 0 0 0 224.83774713016373 398.04302315672976 0 398.04302315672976 587.48662018620234 0 0 0 0 -67.295984408089225 -21.656203889360768 0 -21.656203889360768 226.16815884581592 0 0 0 0 -105.19386906916748 44.25398188960753 0 44.25398188960753 161.49570993175439 0 0 0 0 -79.673618031869864 -124.70117576409029 0 -124.70117576409029 66.868806000329641 0 0 0 0 -71.569074579759445 -25.020420967382961 0 -25.020420967382961 272.52499090748461 0 0 0 0 0.10237611801926505 119.71763295788696 0 119.71763295788696 303.40895793776872 0 0 0 0 72.876719287405194 108.49731767248159 0 108.49731767248159 293.35132602466911 0 0 0 0 1.004229749525499 -0.25552226546676593 0 -0.25552226546676593 0.3645900907902444 0 0 0 0 0.11473103450316557 68.897046852320273 0 68.897046852320273 138.36553306580754 0 0 0 0 13.723675176107008 127.61163269200915 0 127.61163269200915 314.67388252819001 0 0 0 0 80.159611192489592 16.287412041558127 0 16.287412041558127 260.71485608936018 0 0 0 0 69.503457337528062 20.464299635163115 0 20.464299635163115 85.670953731132613 0 0 0 0 -287.87307813545431 -240.47528574105309 0 -240.47528574105309 19.13405863809021 0 0 0 0 -30.688713426923186 -123.53112639279061 0 -123.53112639279061 88.471006140132886 0 0 0 0 22.864353735514285 -33.732111781725777 0 -33.732111781725777 47.413266358308462 0 0 0 0 -201.84577050882427 -220.14936469733755 0 -220.14936469733755 -21.632682177783863 0 0 0 0 -204.89461344711162 -124.89256777726041 0 -124.89256777726041 67.657719404869567 0 0 0 0 -149.53832220027107 -196.63404346069728 0 -196.63404346069728 -8.6246571262418001 0 0 0 0 -155.68208581618637 -177.97020534961212 0 -177.97020534961212 67.418196491271374 0 0 0 0 -226.10948147497311 -126.5725116714475 0 -126.5725116714475 -72.31988320331584 0 0 0 0 -159.61770407815919 -177.89029999112643 0 -177.89029999112643 -110.0435718473309 0 0 0 0 -162.35348556337885 -254.44707035159081 0 -254.44707035159081 -103.45485791388637 0 0 0 0 20.307403639936076 -23.05595404834121 0 -23.05595404834121 27.999023312823567 0 0 0 0 -62.96406691847551 -33.517900233477121 0 -33.517900233477121 72.303145266465435 0 0 0 0 -10.479724692529544 -184.08752589025971 0 -184.08752589025971 -154.32380894065864 0 0 0 0 -82.671824548817312 -252.361772995504 0 -252.361772995504 -39.906586624994816 0 0 0 0 -36.15305875215563 -236.32051175582092 0 -236.32051175582092 68.749936405081826 0 0 0 0 -81.772688037901389 -162.76246588853246 0 -162.76246588853246 -32.698602612494597 0 0 0 0 -114.09065589415513 -151.50356381928577 0 -151.50356381928577 182.56737061567401 0 0 0 0 -116.57254914099212 -176.5053386205982 0 -176.5053386205982 46.860649771799217 0 0 0 0 -72.602004794256118 -134.22686548900674 0 -134.22686548900674 245.48870685882866 0 0 0 0 -84.437581033174865 -96.749278162609698 0 -96.749278162609698 153.2650389124974 0 0 0 0 -98.501268108037493 -8.6208067571733409 0 -8.6208067571733409 310.91250827738986 0 0 0 0 -129.8743256510661 -28.179812868584122 0 -28.179812868584122 209.31063485033337 0 0 0 0 -120.29663382993567 -130.13654796283117 0 -130.13654796283117 175.38988493751822 0 0 0 0 -146.62995187958768 -98.366368841965595 0 -98.366368841965595 138.07658745687877 0 0 0 0 -151.34962816340703 -136.11327307588726 0 -136.11327307588726 54.1171914194274 0 0 0 0 -160.99916066933474 -58.764720388135174 0 -58.764720388135174 152.80082712355579 0 0 0 0 -166.70326878387004 -18.796632840252641 0 -18.796632840252641 195.54812049018801 0 0 0 0 -148.49776092805132 -65.683523084827357 0 -65.683523084827357 155.78199134942406 0 0 0 0 -147.9266890831459 3.9714825345872669 0 3.9714825345872669 209.84970993409661 0 0 0 0 -107.2696742633816 16.536649587662396 0 16.536649587662396 185.69638458767804 0 0 0 0 -90.297983928976464 46.427537518324243 0 46.427537518324243 242.94808304174921 0 0 0 0 -90.76602252851518 48.344894305578009 0 48.344894305578009 337.95864635639009 0 0 0 0 -122.70109103603045 -50.039412676534994 0 -50.039412676534994 260.27624662320159 0 0 0 0 -2.3348343841066708 -100.22459166446788 0 -100.22459166446788 21.637304834777751 0 0 0 0 31.454879897413537 -43.725005845351305 0 -43.725005845351305 61.005583333829946 0 0 0 0 -152.95121206283852 -123.24528552776383 0 -123.24528552776383 9.7427308454134618 0 0 0 0 -205.14945247090145 -119.66810461832938 0 -119.66810461832938 86.258808846094325 0 0 0 0 -98.248337842678666 -72.439736963446194 0 -72.439736963446194 76.292435735640993 0 0 0 0 -80.742315626655909 -33.186527512410976 0 -33.186527512410976 124.48867326369509 0 0 0 0 -55.313164923215844 10.388606538923455 0 10.388606538923455 46.805857270886122 0 0 0 0 -106.58574287261217 -72.80894479669405 0 -72.80894479669405 153.98142847728741 0 0 0 0 -63.393513246055591 -85.987802969561017 0 -85.987802969561017 156.88605101860094 0 0 0 0 -81.726665425669125 17.981297863677355 0 17.981297863677355 155.64162849953573 0 0 0 0 -23.497485824746036 -49.725800681786495 0 -49.725800681786495 128.06402377031918 0 0 0 0 -34.376407067383212 31.905581328085688 0 31.905581328085688 42.953854756022977 0 0 0 0 -66.41300822417179 24.475323684473551 0 24.475323684473551 153.24923665202368 0 0 0 0 -45.490197583219754 8.8928290701769583 0 8.8928290701769583 46.408537762858032 0 0 0 0 -41.851047616349788 7.9320653636559655 0 7.9320653636559655 46.638837071426678 0 0 0 0 -83.937530403065466 63.328641940977832 0 63.328641940977832 195.69029200324076 0 0 0 0 -75.773214756147354 85.355950604878672 0 85.355950604878672 220.00018879088748 0 0 0 0 -48.774058405744654 79.943181641174306 0 79.943181641174306 173.42320395164279 0 0 0 0 -114.49064863084277 28.694544208743537 0 28.694544208743537 235.9917828583857 0 0 0 0 -129.08304413893529 -5.8092951501857897 0 -5.8092951501857897 172.26458734300104 0 0 0 0 -82.50403316187294 24.500955122999585 0 24.500955122999585 183.24473297192344 0 0 0 0 -95.904897609758336 40.261168749071658 0 40.261168749071658 164.72934890296528 0 0 0 0 -64.936508743816375 55.766989296313113 0 55.766989296313113 165.43410247691645 0 0 0 0 -52.13674833893856 29.836669943790184 0 29.836669943790184 129.19914465278998 0 0 0 0 -54.081843393618328 57.78283254156122 0 57.78283254156122 92.890397175808175 0 0 0 0 -44.496460363960068 23.584137162579282 0 23.584137162579282 61.820922073558904 0 0 0 0 -52.596463884458899 62.877484861146513 0 62.877484861146513 147.20454788037023 0 0 0 0 -38.325487496537789 88.312784419660602 0 88.312784419660602 147.1152695055207 0 0 0 0 -17.830057478312483 73.449978903339797 0 73.449978903339797 78.827803584455978 0 0 0 0 -17.756171902750111 76.288626986713098 0 76.288626986713098 103.84944326976984 0 0 0 0 2.7803997383134629 109.12650435030082 0 109.12650435030082 81.920879365374276 0 0 0 0 49.19277125757435 104.77346628829764 0 104.77346628829764 86.638094366251607 0 0 0 0 58.34456619832963 141.87030657298237 0 141.87030657298237 191.78845607775111 0 0 0 0 17.362626065132503 81.414935735030667 0 81.414935735030667 111.47234256721276 0 0 0 0 15.329922437532332 117.79148688501664 0 117.79148688501664 146.01787672709543 0 0 0 0 -47.457593692393857 87.306171830633502 0 87.306171830633502 214.5926424096906 0 0 0 0 46.385449689926645 116.62500660537626 0 116.62500660537626 197.56540834728366 0 0 0 0 -21.349181402904833 124.44675962580732 0 124.44675962580732 306.97698244632193 0 0 0 0 -34.635217152234873 58.575236044143821 0 58.575236044143821 317.90571787495264 0 0 0 0 -34.655832563604235 55.901936599206238 0 55.901936599206238 256.33951856123076 0 0 0 0 -22.42617425096978 115.241858509944 0 115.241858509944 239.82129236066248 0 0 0 0 77.332510886705535 111.45044870569473 0 111.45044870569473 493.55089904629494 0 0 0 0 177.45680712525427 309.33648587376956 0 309.33648587376956 270.20980919689464 0 0 0 0 68.388677643128005 174.54802016267058 0 174.54802016267058 347.53121318014746 0 0 0 0 43.062086861248645 128.34152129444556 0 128.34152129444556 320.23269066347711 0 0 0 0 139.48325223364895 192.22841364888882 0 192.22841364888882 183.73885005821649 0 0 0 0 130.00235870860661 136.08164606288983 0 136.08164606288983 138.86456981381343 0 0 0 0 112.32053588321303 25.54408758450063 0 25.54408758450063 -47.064252206473611 0 0 0 0 63.795405663108795 93.29191626498141 0 93.29191626498141 131.14152844154887 0 0 0 0 106.02164846324627 105.32717294690519 0 105.32717294690519 80.547450647511141 0 0 0 0 59.39708510090081 47.680169733740968 0 47.680169733740968 17.130468339259096 0 0 0 0 38.402806427490304 17.885602390859276 0 17.885602390859276 30.933785124478163 0 0 0 0 -4.5685423923068811 -85.534923916332446 0 -85.534923916332446 -16.962418196890212 0 0 0 0 0.066148258937754889 -7.4054751244261556 0 -7.4054751244261556 37.213179410585418 0 0 0 0 -1186.712799432747 363.51808271978462 0 363.51808271978462 75.836874056591114 0 0 0 0 1382.0892722366616 -83.326803820689747 0 -83.326803820689747 -438.33250541680547 0 0 0 0 -86.582281419542596 1410.2519467871998 0 1410.2519467871998 -1244.115629714659 0 0 0 0 776.96420384706107 -616.86126576628794 0 -616.86126576628794 227.80519229099446 0 0 0 0 -457.91668360018548 -2363.9727109192554 0 -2363.9727109192554 3074.8431683419949 0 0 0 0 1408.0159408787304 -2301.3986739457241 0 -2301.3986739457241 3369.5384563671614 0 0 0 0 803.55172859951654 -915.42033435312987 0 -915.42033435312987 324.31218162968798 0 0 0 0 3724.9223217525232 -565.11852764115702 0 -565.11852764115702 -2121.0601271388987 0 0 0 0 237.92680797999856 467.51817619860958 0 467.51817619860958 2936.6352364172835 0 0 0 0 719.38389730434938 728.54651310385452 0 728.54651310385452 1946.0296728516187 0 0 0 0 308.06971273831368 221.33397354610133 0 221.33397354610133 1958.4908165502711 0 0 0 0 286.07924633937319 307.39045345526483 0 307.39045345526483 786.47514666577626 0 0 0 0 2.4625372892841444 -8.8202373491691262 0 -8.8202373491691262 19.902283252300791 0 0 0 0 220.13155407801366 -26.322272774649264 0 -26.322272774649264 -227.52710331941489 0 0 0 0 201.32393776190065 151.09884872052862 0 151.09884872052862 104.337954934359 0 0 0 0 349.95939667807579 309.37187831545089 0 309.37187831545089 37.4939523171779 0 0 0 0 222.89837514201281 221.40737349790288 0 221.40737349790288 537.26997961568486 0 0 0 0 162.09112458935124 282.90598042684724 0 282.90598042684724 524.8113088850514 0 0 0 0 96.49774773783804 131.38400420636117 0 131.38400420636117 693.98108946543653 0 0 0 0 74.407735434761889 247.68360220577597 0 247.68360220577597 998.94371556270926 0 0 0 0 221.42240840012437 26.914566656117131 0 26.914566656117131 1559.8499098062603 0 0 0 0 154.51647149593737 280.49542811296487 0 280.49542811296487 723.53392033727869 0 0 0 0 412.86738172504192 -846.79539357279646 0 -846.79539357279646 2397.7610435872339 0 0 0 0 162.38959409766676 -283.77169030231016 0 -283.77169030231016 1147.9483416614094 0 0 0 0 117.85172005625981 -96.443613115194239 0 -96.443613115194239 624.55784136632428 0 0 0 0 188.43186602374863 -275.67241698561702 0 -275.67241698561702 1072.3970184230702 0 0 0 0 0.6098518053094204 -3.4604587798937985 0 -3.4604587798937985 31.360011008883269 0 0 0 0 950.94650469520002 592.47656490019381 0 592.47656490019381 742.26927009646897 0 0 0 0 -39.916788631372583 -950.40004143055194 0 -950.40004143055194 650.51911836804356 0 0 0 0 503.68313518922332 420.05628857695046 0 420.05628857695046 525.95823578072486 0 0 0 0 756.63186197005052 664.77943103483631 0 664.77943103483631 698.1180168754363 0 0 0 0 2634.1281045269207 -2189.9888249487558 0 -2189.9888249487558 1229.775117990328 0 0 0 0 3960.3658284213925 -220.37491183012753 0 -220.37491183012753 -1944.5206725205935 0 0 0 0 1071.687205784845 -711.49328825894918 0 -711.49328825894918 624.96553769578895 0 0 0 0 2027.3939603042018 1041.5625468536018 0 1041.5625468536018 -1133.0492312811039 0 0 0 0 206.22319709302246 -217.66489608692609 0 -217.66489608692609 -277.83836440135383 0 0 0 0 886.44459197590186 272.5708099545227 0 272.5708099545227 -285.60937847897003 0 0 0 0 791.12795940573869 528.10246416135215 0 528.10246416135215 -1.5726334156206576 0 0 0 0 704.87137397137485 17.796807292226731 0 17.796807292226731 -465.60446662406684 0 0 0 0 516.09759983265212 188.36858477918031 0 188.36858477918031 -211.4641553093752 0 0 0 0 493.95991961877462 256.08118969373027 0 256.08118969373027 -12.764267029313487 0 0 0 0 -408.58430142686484 419.69235541236048 0 419.69235541236048 290.35766732830962 0 0 0 0 -1.1180051193405838 -3.6854641981505356 0 -3.6854641981505356 74.489235255600349 0 0 0 0 -179.05007548802405 -50.197598581939928 0 -50.197598581939928 147.87988502269582 0 0 0 0 173.41807005801434 142.11099220154074 0 142.11099220154074 0.2795021544516203 0 0 0 0 247.98403312325536 240.8208184157229 0 240.8208184157229 130.94186121343591 0 0 0 0 104.27487257516623 -333.82542963415472 0 -333.82542963415472 440.8903388769686 0 0 0 0 -29.867325607511702 92.269573979117922 0 92.269573979117922 181.80273260671675 0 0 0 0 3.5680160434426504 3.1577257736827988 0 3.1577257736827988 19.288608880731619 0 0 0 0 344.33143491845999 -395.3806183744673 0 -395.3806183744673 303.14525469671935 0 0 0 0 402.76862306407907 -368.81133846512421 0 -368.81133846512421 638.70792336874729 0 0 0 0 445.92149733222982 -366.99945985865452 0 -366.99945985865452 296.85099328451179 0 0 0 0 641.54822805893309 -166.55803509934412 0 -166.55803509934412 -56.982353065468487 0 0 0 0 606.33714561331544 -698.83164276359821 0 -698.83164276359821 868.85718503432508 0 0 0 0 143.51128243791163 -171.77175797175369 0 -171.77175797175369 494.86134774219681 0 0 0 0 268.30726135360294 -123.10177340683367 0 -123.10177340683367 394.34913117206088 0 0 0 0 161.73440582711675 -199.99488852253853 0 -199.99488852253853 508.53156189505535 0 0 0 0 43.176069938829642 -83.636269478472968 0 -83.636269478472968 406.12093753975114 0 0 0 0 122.28324643513861 -243.75933297069059 0 -243.75933297069059 366.65413948442711 0 0 0 0 -60.810233289566895 -97.2960061515696 0 -97.2960061515696 343.93823565250204 0 0 0 0 77.199073772980682 -156.48080337925057 0 -156.48080337925057 202.58957116712554 0 0 0 0 23.901076269170971 -129.97960101186982 0 -129.97960101186982 343.20630378576607 0 0 0 0 15.167570588991111 -28.632964031559823 0 -28.632964031559823 401.81963540502329 0 0 0 0 -53.496751346172459 3.1108003203444241 0 3.1108003203444241 406.86138106862563 0 0 0 0 -58.159210197480206 -20.907508931599295 0 -20.907508931599295 286.03333794179343 0 0 0 0 -15.864358746059224 105.61553777028894 0 105.61553777028894 394.92187095971167 0 0 0 0 74.155502599716868 16.636204440001165 0 16.636204440001165 481.22209890138038 0 0 0 0 9.0957392438679534 45.968561091849551 0 45.968561091849551 512.90025643631088 0 0 0 0 85.517681212565606 -73.008341928365553 0 -73.008341928365553 722.90432721279285 0 0 0 0 89.615891302927892 177.47969292082007 0 177.47969292082007 591.04071158386068 0 0 0 0 12.019626409632238 -8.2857558546147629 0 -8.2857558546147629 559.34162659135472 0 0 0 0 -151.6895853329579 -244.30004226629308 0 -244.30004226629308 -126.2074885217371 0 0 0 0 -346.31054523429725 51.107005116468372 0 51.107005116468372 39.625786246640928 0 0 0 0 -273.86043422490366 72.72397581023688 0 72.72397581023688 -47.553797924705577 0 0 0 0 1.8669363047987453 -8.8496474235670135 0 -8.8496474235670135 27.184318913936984 0 0 0 0 373.86197491487997 -275.49495962698393 0 -275.49495962698393 -510.7061950426214 0 0 0 0 262.41882769116319 807.91377266866675 0 807.91377266866675 1061.4438189524553 0 0 0 0 1249.5755698432363 818.03083127968512 0 818.03083127968512 -996.71154779152312 0 0 0 0 -337.08494566793684 86.225240569680409 0 86.225240569680409 62.000786957629316 0 0 0 0 -134.79643201326689 11.236117609798384 0 11.236117609798384 -199.45755559271129 0 0 0 0 -91.304252554131381 -134.66672474360166 0 -134.66672474360166 130.25496564789501 0 0 0 0 -59.184679317788323 -248.31211756309131 0 -248.31211756309131 -68.858963297090668 0 0 0 0 -14.235933519709306 -381.53610370099523 0 -381.53610370099523 242.97961559983378 0 0 0 0 -52.126158171318821 -172.86413681960039 0 -172.86413681960039 28.217941805854935 0 0 0 0 5.984268121700552 -302.25220884913961 0 -302.25220884913961 231.95834794455004 0 0 0 0 38.866169250630264 -260.63656506286679 0 -260.63656506286679 284.26371674941765 0 0 0 0 -143.6475623356082 -89.492249565672864 0 -89.492249565672864 183.17758294957457 0 0 0 0 -153.22625661023721 35.427974617260588 0 35.427974617260588 61.734566249364434 0 0 0 0 -239.54322786823832 -17.382678375135583 0 -17.382678375135583 134.98740824783454 0 0 0 0 -94.567165973142437 -41.626864413177827 0 -41.626864413177827 26.982792401786355 0 0 0 0 -303.6793542154046 135.09743361240362 0 135.09743361240362 106.88211876825608 0 0 0 0 -219.94657306141289 83.827004263132039 0 83.827004263132039 326.319489222838 0 0 0 0 -60.130861413455932 -13.775520851460897 0 -13.775520851460897 532.14301901106501 0 0 0 0 -103.17168607708118 -90.143798944224727 0 -90.143798944224727 415.33423449109978 0 0 0 0 -52.639912169032414 -201.35129640866307 0 -201.35129640866307 453.66267707882798 0 0 0 0 83.37300985791444 -338.90711929400095 0 -338.90711929400095 580.29436688497663 0 0 0 0 -43.085253329662009 -236.29461131108474 0 -236.29461131108474 336.84618918626074 0 0 0 0 -12.301690819918804 -169.13275652233278 0 -169.13275652233278 250.98032394380789 0 0 0 0 20.525985561564994 -249.21944867057755 0 -249.21944867057755 259.59162098380693 0 0 0 0 104.0047625793195 -362.9361619719466 0 -362.9361619719466 295.67072197940433 0 0 0 0 176.0691900900074 -321.71892050162387 0 -321.71892050162387 301.31733647730562 0 0 0 0 215.13774924906829 -403.42602571615998 0 -403.42602571615998 294.50255334219037 0 0 0 0 138.44907190041704 -400.56979236447296 0 -400.56979236447296 436.87155313317999 0 0 0 0 193.24229720653602 -393.9474317460481 0 -393.9474317460481 293.34522516802053 0 0 0 0 351.52294553086631 -612.13685264852211 0 -612.13685264852211 593.45371874644115 0 0 0 0 443.18075291161767 -341.55197429193686 0 -341.55197429193686 177.90690144333257 0 0 0 0 417.44969441312787 -229.74589463707707 0 -229.74589463707707 -60.169954806788155 0 0 0 0 673.03239749616841 -473.11403161316048 0 -473.11403161316048 71.180451601328969 0 0 0 0 190.54856694205318 -611.25779888185207 0 -611.25779888185207 1963.6645903983263 0 0 0 0 142.38162607044615 -353.70337366154672 0 -353.70337366154672 687.97133037391541 0 0 0 0 96.529390531544777 -309.33379244679963 0 -309.33379244679963 646.20039402792645 0 0 0 0 -24.265353606519056 -153.38796191248366 0 -153.38796191248366 1075.5914511392475 0 0 0 0 295.07309889376756 327.11811341000384 0 327.11811341000384 1097.478114298945 0 0 0 0 528.20365453597719 609.85859378792907 0 609.85859378792907 447.3383417474688 0 0 0 0 185.69680205244731 205.04091970188165 0 205.04091970188165 973.07944062476599 0 0 0 0 63.111465808344292 217.53893234390853 0 217.53893234390853 506.6474617100248 0 0 0 0 179.58673830573019 333.31332399184993 0 333.31332399184993 607.27555803187352 0 0 0 0 189.56844351929203 448.28964556587925 0 448.28964556587925 -237.5442778733086 0 0 0 0 332.6813361554432 479.44842133065686 0 479.44842133065686 135.46907160387673 0 0 0 0 89.957187465754032 386.79122263671889 0 386.79122263671889 103.94173567835242 0 0 0 0 305.54892437502167 316.48636691720458 0 316.48636691720458 188.65306124335984 0 0 0 0 434.36692499086712 390.94835167128258 0 390.94835167128258 32.854696340004011 0 0 0 0 219.12081551345909 304.21824631804338 0 304.21824631804338 -1.4813607514315663 0 0 0 0 703.87595417114426 189.43184833471605 0 189.43184833471605 406.63479348451892 0 0 0 0 275.71838239397312 414.13269039336956 0 414.13269039336956 -40.198133319165208 0 0 0 0 -49.166503844724502 273.30914299213509 0 273.30914299213509 434.71367879261743 0 0 0 0 -95.686910688416901 464.8296003535761 0 464.8296003535761 134.88035073396895 0 0 0 0 -98.388150858133244 729.9142404144452 0 729.9142404144452 -72.158960897482757 0 0 0 0 1.1792880305424625 3.7081972527091533 0 3.7081972527091533 2.9670181860894722 0 0 0 0 -510.16122144364817 -109.68053093557137 0 -109.68053093557137 1522.0708992316486 0 0 0 0 97.797521462993245 713.92338769526032 0 713.92338769526032 -500.9225413134991 0 0 0 0 -28.446811821270003 -79.342090598119569 0 -79.342090598119569 1187.0268058971142 0 0 0 0 12.560639300279036 174.42636231500046 0 174.42636231500046 -545.01307338606421 0 0 0 0 4.2481638298477264 329.99956340185418 0 329.99956340185418 162.13960959415272 0 0 0 0 70.967775544444294 307.79011948514477 0 307.79011948514477 123.05513756925939 0 0 0 0 -404.13515658507913 80.987459867399593 0 80.987459867399593 92.064218035164231 0 0 0 0 358.03657426554855 -64.662307079857783 0 -64.662307079857783 47.730581483112474 0 0 0 0 182.98372910601393 188.00249337351852 0 188.00249337351852 1034.3115053372148 0 0 0 0 -16.980200539900295 -280.61993924542412 0 -280.61993924542412 558.29097111450392 0 0 0 0 37.151197183215118 127.79722236842281 0 127.79722236842281 539.53717739149988 0 0 0 0 156.61202243416483 -142.92417313914848 0 -142.92417313914848 928.91593850876234 0 0 0 0 150.28446445172722 40.705922173365252 0 40.705922173365252 559.73941629274123 0 0 0 0 -23.769342230483744 94.752491228276995 0 94.752491228276995 875.65335940866498 0 0 0 0 -70.645662102407186 177.77316441898438 0 177.77316441898438 1049.0164431451049 0 0 0 0 164.94978094814451 83.687235682897153 0 83.687235682897153 85.719473779427062 0 0 0 0 143.79695951880512 111.22665743413017 0 111.22665743413017 41.527482608702456 0 0 0 0 -170.76459779288052 -141.40555341766412 0 -141.40555341766412 93.669885875877156 0 0 0 0 -283.54043599189049 207.9664442795729 0 207.9664442795729 -58.214173740650949 0 0 0 0 0.51486003295209315 4.7887662815161125 0 4.7887662815161125 9.8492094582196277 0 0 0 0 127.10516301593634 -8.1914882747241791 0 -8.1914882747241791 120.96849534957846 0 0 0 0 124.84493692692195 -5.9632899237622041 0 -5.9632899237622041 120.26115752038095 0 0 0 0 -0.62051069776316581 -23.19756964239059 0 -23.19756964239059 158.66680325117613 0 0 0 0 98.79600866281362 -31.060891421778706 0 -31.060891421778706 140.12035570219268 0 0 0 0 -1.9868199508664475 -13.568066950268985 0 -13.568066950268985 163.04099305230193 0 0 0 0 102.14414755043913 48.912737572184597 0 48.912737572184597 48.475335680997887 0 0 0 0 93.054066889088062 45.153929833719303 0 45.153929833719303 266.72564428239275 0 0 0 0 83.789190565483295 291.3059248936479 0 291.3059248936479 1149.7362341003918 0 0 0 0 -0.56652410290676869 -0.89751189298112699 0 -0.89751189298112699 10.370215187455621 0 0 0 0 52.552801913567237 -20.771250059829072 0 -20.771250059829072 -21.856534751786967 0 0 0 0 -126.88292147465836 88.459578198820964 0 88.459578198820964 1275.201781983189 0 0 0 0 -78.125306379788526 46.710574662744875 0 46.710574662744875 1268.4692325481992 0 0 0 0 -38.177575812566374 43.309322239323137 0 43.309322239323137 79.139402660074666 0 0 0 0 84.760623410631524 -148.97828826306431 0 -148.97828826306431 1497.6028826317051 0 0 0 0 -1.7395454709365765 -2.1066393516005331 0 -2.1066393516005331 6.6387758444820975 0 0 0 0 -4.3850731518877364 12.498068011178722 0 12.498068011178722 34.734218438312482 0 0 0 0 -0.86101351284105476 -35.871415546558637 0 -35.871415546558637 107.57601825003348 0 0 0 0 17.454768543249884 25.621700004477475 0 25.621700004477475 66.2227394268848 0 0 0 0 -0.27191136309738795 -14.042113068358049 0 -14.042113068358049 135.52057862228685 0 0 0 0 -20.925977797963697 -13.474971367069884 0 -13.474971367069884 117.3848997074283 0 0 0 0 -5.7920127051984309 2.9773501714171289 0 2.9773501714171289 59.347733642296589 0 0 0 0 -4.4859102500870165 10.91901980827312 0 10.91901980827312 47.946944653204042 0 0 0 0 4.2301982092349135 -8.4208924046079119 0 -8.4208924046079119 79.571512853994136 0 0 0 0 13.34306674488289 -7.993666178530475 0 -7.993666178530475 62.674505372164276 0 0 0 0 8.6369636837140717 -18.273343301816848 0 -18.273343301816848 5.0973772888583744 0 0 0 0 0.3394791040191194 -11.085846371614025 0 -11.085846371614025 84.19841718868247 0 0 0 0 2.5598257346083813 -15.286654131350335 0 -15.286654131350335 17.377623656399933 0 0 0 0 4.6894328600219524 -11.954940624636947 0 -11.954940624636947 66.378091852762736 0 0 0 0 -9.3269316490238907 -17.203859687319891 0 -17.203859687319891 55.370466218244474 0 0 0 0 -4.4501322201952469 -11.475574470493193 0 -11.475574470493193 36.142430150278159 0 0 0 0 -2.1697259093289727 -16.407947487083312 0 -16.407947487083312 10.229324398760122 0 0 0 0 -6.4354234225634563 -18.286143932517369 0 -18.286143932517369 54.446956783664348 0 0 0 0 93.071995565627731 -92.075692682497902 0 -92.075692682497902 48.175218244979988 0 0 0 0 -3.1913974068651818 -12.024755216798511 0 -12.024755216798511 -0.36796694428277021 0 0 0 0 23.190052301438584 -59.886558501461877 0 -59.886558501461877 56.670398981383187 0 0 0 0 -0.9693084683494817 -94.310932211525142 0 -94.310932211525142 147.18263288769231 0 0 0 0 -13.675671893947765 -70.169170905654028 0 -70.169170905654028 89.535663965609274 0 0 0 0 -3.8041452665020188 -82.572328275462496 0 -82.572328275462496 99.055007615672366 0 0 0 0 29.469110877526418 -74.451456477320789 0 -74.451456477320789 42.325781399704283 0 0 0 0 -6.1039571380506459 -16.344780337025441 0 -16.344780337025441 47.398065253240929 0 0 0 0 20.254853832117078 -26.947032085294268 0 -26.947032085294268 114.30458237377479 0 0 0 0 -1.4990822818216891 -28.289498179615137 0 -28.289498179615137 27.476988117603007 0 0 0 0 -0.008984529949863429 -39.748216525366509 0 -39.748216525366509 37.43524452352316 0 0 0 0 15.364548071200261 -48.440383101598854 0 -48.440383101598854 133.00876454994966 0 0 0 0 -8.7284977606850589 -49.191805114007366 0 -49.191805114007366 132.99133085165795 0 0 0 0 63.286903282089042 48.122173864139768 0 48.122173864139768 -26.363166988943703 0 0 0 0 4.0136474253981937 -31.885617478713268 0 -31.885617478713268 40.588205068228689 0 0 0 0 -14.398316315701777 -42.504211958437736 0 -42.504211958437736 139.19030834418481 0 0 0 0 -11.657424588745926 -46.249599825447149 0 -46.249599825447149 143.59302132881339 0 0 0 0 -7.699627021373999 -44.060147483671244 0 -44.060147483671244 144.72974579294169 0 0 0 0 -6.727163411454967 -62.323480143299093 0 -62.323480143299093 166.31448177889615 0 0 0 0 -10.218832765674961 -46.835917500616233 0 -46.835917500616233 153.97821555100381 0 0 0 0 -7.0818322238083056 -57.180768995438484 0 -57.180768995438484 149.84688234143687 0 0 0 0 -92.132854100527766 -128.22372860176256 0 -128.22372860176256 144.93610248468758 0 0 0 0 5.5737028164026619 -2.5402415290785179 0 -2.5402415290785179 -6.5730637805222685 0 0 0 0 -0.87365461305219938 -40.605793009573937 0 -40.605793009573937 43.777819255275766 0 0 0 0 -13.998466483722765 -59.096610882649486 0 -59.096610882649486 74.978538745643164 0 0 0 0 -10.186450312092347 -56.73641586220765 0 -56.73641586220765 51.81980522496815 0 0 0 0 0.53256084407239246 -24.571720640837732 0 -24.571720640837732 -0.26574983633237537 0 0 0 0 -103.73220863061215 -67.332504633453027 0 -67.332504633453027 227.01745706500151 0 0 0 0 175.36972556364344 5.1701191708052647 0 5.1701191708052647 -120.0151178821161 0 0 0 0 39.38804828237825 -25.045263747052957 0 -25.045263747052957 71.312760774526396 0 0 0 0 211.2963524051811 70.651111843280887 0 70.651111843280887 -206.73532407789207 0 0 0 0 -8.7994268778994567 -19.394076847830348 0 -19.394076847830348 51.366631067749573 0 0 0 0 0.52301469557460223 21.484716821425536 0 21.484716821425536 55.994202877875068 0 0 0 0 -9.1882576860796821 -3.2647838285937993 0 -3.2647838285937993 40.315027562344738 0 0 0 0 63.183458599897222 146.20391570050515 0 146.20391570050515 172.97010849714479 0 0 0 0 52.0397792298063 117.59393824367908 0 117.59393824367908 184.49992202484555 0 0 0 0 -10.333151474586035 -19.582347324229207 0 -19.582347324229207 50.634980020817103 0 0 0 0 42.073053642940067 23.712872605256962 0 23.712872605256962 204.81781808583219 0 0 0 0 135.39550630978738 103.96941605993379 0 103.96941605993379 237.24456301190094 0 0 0 0 5.3224178337277372 -0.97666639127263721 0 -0.97666639127263721 7.1430270815074701 0 0 0 0 -24.557762165181884 -15.925043730987454 0 -15.925043730987454 190.55625622392836 0 0 0 0 72.039304961400831 11.016559175117663 0 11.016559175117663 154.80285869318323 0 0 0 0 71.694852727916441 -1.9670889497938333 0 -1.9670889497938333 159.33239012775266 0 0 0 0 -62.414058068920895 -37.080101470978661 0 -37.080101470978661 181.56423559832183 0 0 0 0 108.92864127107532 28.659458668003936 0 28.659458668003936 146.95009261596715 0 0 0 0 166.2166922656088 60.955815445764529 0 60.955815445764529 158.48986646981575 0 0 0 0 188.38504832372928 10.309139974673599 0 10.309139974673599 99.855405634083581 0 0 0 0 187.49937908633365 11.409031996465274 0 11.409031996465274 118.56664075142544 0 0 0 0 200.14830239012372 35.295706954362686 0 35.295706954362686 99.397537005415359 0 0 0 0 87.573777604972747 -322.53923665186812 0 -322.53923665186812 19.359353864374953 0 0 0 0 127.74878015401453 -210.32282124175981 0 -210.32282124175981 284.73837873813318 0 0 0 0 49.118191170977298 -285.99330329561053 0 -285.99330329561053 18.841701461002231 0 0 0 0 149.22343174691764 -309.49901163890172 0 -309.49901163890172 -281.29527243373013 0 0 0 0 3.7706816720547067 -186.46540179885869 0 -186.46540179885869 5.4832516044407384 0 0 0 0 31.385614864309787 -286.99712974997601 0 -286.99712974997601 238.53060813562479 0 0 0 0 347.50183428037656 -370.49906992426531 0 -370.49906992426531 251.93147029573447 0 0 0 0 235.36286375471354 -207.0630053528148 0 -207.0630053528148 13.782120065460049 0 0 0 0 58.604466186867285 39.805981953584705 0 39.805981953584705 113.81382417295481 0 0 0 0 430.67985540045322 -145.18820675390816 0 -145.18820675390816 7.0951743687473936 0 0 0 0 310.34150748610682 1.8628368561476236 0 1.8628368561476236 18.995451131006121 0 0 0 0 4.7599833494778068 -2.2384251879884687 0 -2.2384251879884687 66.840971650402935 0 0 0 0 -0.52911238414407213 -12.594957566990468 0 -12.594957566990468 62.841499729552368 0 0 0 0 -19.76613509762683 -28.640630440611858 0 -28.640630440611858 117.95319169001596 0 0 0 0 -6.4163736418502708 1.4160579955657937 0 1.4160579955657937 15.593791416958794 0 0 0 0 -8.8917258182791556 -15.497723543079701 0 -15.497723543079701 49.978772149435827 0 0 0 0 -1.4784065539201716 -14.278591692821315 0 -14.278591692821315 35.707957937487663 0 0 0 0 -24.304327621807715 -10.53861414146013 0 -10.53861414146013 77.743900555036817 0 0 0 0 -1.7571506716176373 -47.019088901452051 0 -47.019088901452051 14.687481374727213 0 0 0 0 37.114021253253668 -56.85379083373482 0 -56.85379083373482 53.507042966419249 0 0 0 0 176.68506350610187 -104.34571614144807 0 -104.34571614144807 69.400808801681706 0 0 0 0 31.869402692431322 14.870539628296683 0 14.870539628296683 97.817987549788086 0 0 0 0 -8.0658037338314905 -0.017660128667543518 0 -0.017660128667543518 8.2281837456105613 0 0 0 0 -268.83516486376038 -245.38808316226641 0 -245.38808316226641 -153.73615414448341 0 0 0 0 42.560681002684305 -49.577144805056378 0 -49.577144805056378 59.537590281608573 0 0 0 0 -257.37597745988808 -298.31738758486426 0 -298.31738758486426 80.695422461416456 0 0 0 0 -1.7426622601710733 -18.093778044731152 0 -18.093778044731152 21.245321181934742 0 0 0 0 -225.61506795161657 -112.31160308173912 0 -112.31160308173912 74.139097190331086 0 0 0 0 -2.9563910375469029 -11.415297437592715 0 -11.415297437592715 14.565393371645598 0 0 0 0 -705.75084428664968 13.179629504360491 0 13.179629504360491 53.878556657989975 0 0 0 0 -1.5711194253422462 -2.6533272655457694 0 -2.6533272655457694 0.52719140637145756 0 0 0 0 -447.76075071438527 -354.56958160259455 0 -354.56958160259455 273.11305029311188 0 0 0 0 -180.85304940478102 -271.8928969697663 0 -271.8928969697663 58.40316057857126 0 0 0 0 871.04641680867485 -498.02316207568583 0 -498.02316207568583 -295.00713912916399 0 0 0 0 -210.34359785969548 -375.12678277423402 0 -375.12678277423402 1148.8652536761947 0 0 0 0 -1.5479495176902303 2.72158631815131 0 2.72158631815131 -1.0450919012819337 0 0 0 0 398.8977719016616 -520.63868702101172 0 -520.63868702101172 -1085.8607943605675 0 0 0 0 -50.544082023241117 -323.53261106114223 0 -323.53261106114223 -314.89731067804678 0 0 0 0 286.60424073882223 -204.87839101350983 0 -204.87839101350983 -340.24221699470945 0 0 0 0 150.18988315500246 -130.31586276345843 0 -130.31586276345843 -228.62206974489527 0 0 0 0 -95.429509659333235 -82.267467137911808 0 -82.267467137911808 -230.59261404587596 0 0 0 0 342.05636987398475 -333.80323011925066 0 -333.80323011925066 937.89570020849533 0 0 0 0 6.3012461284594679 111.69749521386996 0 111.69749521386996 1038.1484344167548 0 0 0 0 318.92686317608241 17.196116211074695 0 17.196116211074695 -231.29608183137316 0 0 0 0 9.4019558232941307 -2.8224506382306345 0 -2.8224506382306345 0.85314696420194025 0 0 0 0 612.75169418904318 -467.26544797301176 0 -467.26544797301176 386.32320009997784 0 0 0 0 -111.10859376670845 -304.11928831273781 0 -304.11928831273781 479.83579757614643 0 0 0 0 455.91227418778783 -293.16354594482254 0 -293.16354594482254 258.64549720297873 0 0 0 0 -335.99912259811816 216.45954308420187 0 216.45954308420187 335.01630719522655 0 0 0 0 -11.024894988622464 -69.637045285006025 0 -69.637045285006025 347.76781887953985 0 0 0 0 368.39357092005093 211.69910979771794 0 211.69910979771794 326.39413018703635 0 0 0 0 -235.1015248623512 201.86945570888929 0 201.86945570888929 129.89882674553519 0 0 0 0 -633.87318803891731 189.00890499904199 0 189.00890499904199 401.75915638003789 0 0 0 0 0.36616978604523465 -2.0872875059737597 0 -2.0872875059737597 1.9478683407798485 0 0 0 0 192.44480701165625 -171.41063872420978 0 -171.41063872420978 109.30145179909596 0 0 0 0 -45.140277996964869 -68.084951956669101 0 -68.084951956669101 -77.891529439482838 0 0 0 0 -688.79670280339406 -228.88079630047287 0 -228.88079630047287 452.30386043611361 0 0 0 0 -32.718340659666353 -10.723944657132506 0 -10.723944657132506 197.27896713900554 0 0 0 0 -23.675672512210156 -124.40047437316161 0 -124.40047437316161 308.74520335259149 0 0 0 0 -293.71530890939107 48.105962917899888 0 48.105962917899888 259.10954124241835 0 0 0 0 -294.28280249228283 88.685212740550924 0 88.685212740550924 450.79881403949548 0 0 0 0 -157.54671201350402 112.32865942353237 0 112.32865942353237 241.95570179837341 0 0 0 0 -299.38440579659755 114.27302566842991 0 114.27302566842991 413.76652412350086 0 0 0 0 -235.23929928923465 219.1257200066284 0 219.1257200066284 107.21175048994337 0 0 0 0 -5.9632107906374987 1.3500479404538623 0 1.3500479404538623 0.018560892625668401 0 0 0 0 -89.599594877132319 139.88169045335962 0 139.88169045335962 17.84357265689323 0 0 0 0 -17.294862404418154 -4.3384718807456011 0 -4.3384718807456011 159.20162727014394 0 0 0 0 -1.5507407660793433 52.565087549748569 0 52.565087549748569 103.13666562693106 0 0 0 0 -75.328748002804446 -7.1837476665550639 0 -7.1837476665550639 254.32828636749764 0 0 0 0 -244.70275669418453 -40.320930410922301 0 -40.320930410922301 155.57049941538571 0 0 0 0 -63.589048557606453 -50.31103397955394 0 -50.31103397955394 -21.34686307064112 0 0 0 0 -254.48037206301734 119.27612224346012 0 119.27612224346012 197.66082894253123 0 0 0 0 222.40905812228166 258.55979527157979 0 258.55979527157979 11.573961273730674 0 0 0 0 -12.536850801749324 -10.210822928691414 0 -10.210822928691414 61.862496806359559 0 0 0 0 -51.535912192036221 -4.9723901315810508 0 -4.9723901315810508 89.792717758746221 0 0 0 0 -1.2784598019467928 -15.581916778262727 0 -15.581916778262727 74.257579512075921 0 0 0 0 -58.530355917047928 -44.725398098642472 0 -44.725398098642472 103.1023285684787 0 0 0 0 -36.867251092017796 -54.007377144207567 0 -54.007377144207567 95.718822980714322 0 0 0 0 -42.794480721520813 2.1773245256008522 0 2.1773245256008522 77.780574149748645 0 0 0 0 -33.035865844316504 -21.938370752479386 0 -21.938370752479386 130.05700402445655 0 0 0 0 -34.48908105765986 -44.868818714039662 0 -44.868818714039662 123.19161934644217 0 0 0 0 -18.079353165131579 -63.832020767469658 0 -63.832020767469658 144.77240595372132 0 0 0 0 -4.2217595277379587 -57.324884101450152 0 -57.324884101450152 139.02375073654548 0 0 0 0 13.246324640302191 -115.96337243033486 0 -115.96337243033486 274.41967775119701 0 0 0 0 -1.856548307846424 -22.097335236656363 0 -22.097335236656363 146.1645827800312 0 0 0 0 -13.217730396418119 -7.4173976410311298 0 -7.4173976410311298 136.74702327814612 0 0 0 0 -10.087687376547365 1.0358467236437718 0 1.0358467236437718 138.365298180237 0 0 0 0 -13.066035188252044 11.799741928622097 0 11.799741928622097 159.9259069102045 0 0 0 0 -22.192469575204086 7.0498981953242037 0 7.0498981953242037 174.54289788098322 0 0 0 0 -18.11457740274372 2.8489178115542444 0 2.8489178115542444 -2.1246198503444731 0 0 0 0 -67.017054463642353 44.281521180455456 0 44.281521180455456 144.85972501063588 0 0 0 0 64.071279506866176 -3.8694357485874207 0 -3.8694357485874207 28.807515076987329 0 0 0 0 -6.7500665918882987 -13.572411370783811 0 -13.572411370783811 63.130361909579733 0 0 0 0 -30.963352863954896 5.3990143007596174 0 5.3990143007596174 13.390022992196066 0 0 0 0 -12.756131688164487 17.002415307572846 0 17.002415307572846 113.06563417457073 0 0 0 0 -46.536026749305165 -7.7801212646372733 0 -7.7801212646372733 107.37553582815599 0 0 0 0 -0.78106014879826302 -10.690159874368717 0 -10.690159874368717 85.729776723171739 0 0 0 0 -87.350130208378687 3.2993899331959256 0 3.2993899331959256 122.72178787265875 0 0 0 0 -46.200696407497162 35.200725922099082 0 35.200725922099082 114.35138772426944 0 0 0 0 -8.8906316982608278 -20.193622869195778 0 -20.193622869195778 91.878447178878659 0 0 0 0 -28.67045024641925 -19.080324512808147 0 -19.080324512808147 93.944404205537012 0 0 0 0 -82.805962770417111 7.1753373629793771 0 7.1753373629793771 102.1161076931312 0 0 0 0 -31.140821042960624 14.117421309718338 0 14.117421309718338 92.713422361967332 0 0 0 0 -82.305296343429447 -9.2803867189017524 0 -9.2803867189017524 103.09103499443881 0 0 0 0 -3.9009447010084415 -9.0351420446872908 0 -9.0351420446872908 69.689568757828965 0 0 0 0 -49.418334239080878 -4.1030190352812497 0 -4.1030190352812497 97.324126391155005 0 0 0 0 -92.534074610685593 2.3625031317842513 0 2.3625031317842513 114.29017753115841 0 0 0 0 21.217109440653303 26.473043685029552 0 26.473043685029552 76.627265708360937 0 0 0 0 -5.4842069325263152 12.019885952006646 0 12.019885952006646 87.186536556874216 0 0 0 0 -68.774294065052885 4.9030470094185148 0 4.9030470094185148 112.64820832840633 0 0 0 0 -28.34320357107481 48.791654030774225 0 48.791654030774225 133.43463267483094 0 0 0 0 -0.17526126653247459 8.094962217090913 0 8.094962217090913 82.270696624432432 0 0 0 0 18.381211601694638 102.56698946614858 0 102.56698946614858 192.1018738447674 0 0 0 0 76.301539038131978 45.603146658093465 0 45.603146658093465 128.30185495228943 0 0 0 0 -50.359629092935847 -17.14337874375633 0 -17.14337874375633 48.377947404813312 0 0 0 0 0.066568851228777426 -2.5883521790644863 0 -2.5883521790644863 1.2389843018095092 0 0 0 0 -43.050350097916862 5.8027430592434257 0 5.8027430592434257 106.25983605758665 0 0 0 0 -44.309585039574927 29.225350885645526 0 29.225350885645526 113.82611344564066 0 0 0 0 -1.6672112846374603 15.357750085717271 0 15.357750085717271 104.79022762576642 0 0 0 0 -2.866025847518813 25.774539353875298 0 25.774539353875298 75.443834926940326 0 0 0 0 27.345414678502493 24.153020716519677 0 24.153020716519677 109.33384137412941 0 0 0 0 -2.5320863954992205 22.204187600513706 0 22.204187600513706 110.02848706081568 0 0 0 0 2.4639390999188731 2.8002007274862422 0 2.8002007274862422 20.526481549941238 0 0 0 0 -16.713235986535434 14.632416510401537 0 14.632416510401537 82.432795684580881 0 0 0 0 -6.7147244038951612 9.9332393557378964 0 9.9332393557378964 47.581884015406104 0 0 0 0 -8.0303545548650312 19.479757864371351 0 19.479757864371351 65.601129729249294 0 0 0 0 -0.1931779049862854 -1.1731551117807157 0 -1.1731551117807157 120.81704989185528 0 0 0 0 -5.157292416546948 16.801738398017157 0 16.801738398017157 72.233704235854944 0 0 0 0 -45.329548648725222 43.595237333623572 0 43.595237333623572 166.0678048170812 0 0 0 0 -6.6294765461708671 4.0628009696409535 0 4.0628009696409535 91.752752887654566 0 0 0 0 -2.4397797594724118 4.6850570628536126 0 4.6850570628536126 21.792785107587672 0 0 0 0 19.504077727833192 38.400398131987913 0 38.400398131987913 89.086695212799896 0 0 0 0 56.880886622591788 57.548689698669477 0 57.548689698669477 104.98802878854985 0 0 0 0 -17.832365567695888 130.37056700207177 0 130.37056700207177 229.42705708176754 0 0 0 0 -46.005876211303985 45.608187817089856 0 45.608187817089856 162.18394038376027 0 0 0 0 -19.549347663143635 27.924777570877268 0 27.924777570877268 103.7030237299914 0 0 0 0 -80.012640423985431 42.345416533667958 0 42.345416533667958 257.20675833636051 0 0 0 0 26.249161162206178 -30.310693311501041 0 -30.310693311501041 84.111896994165363 0 0 0 0 -17.286018112112743 -10.679901435541979 0 -10.679901435541979 71.173170656111324 0 0 0 0 -47.2912173980001 12.219716672519439 0 12.219716672519439 62.413790814753156 0 0 0 0 -25.202245171423449 32.871582598101043 0 32.871582598101043 105.86807746036644 0 0 0 0 -16.96373442323933 13.251069937622056 0 13.251069937622056 58.071948537926922 0 0 0 0 -109.7349519083246 68.564157120075834 0 68.564157120075834 100.64578867808996 0 0 0 0 83.959324027609171 81.857314270071583 0 81.857314270071583 61.956752171827247 0 0 0 0 22.311468966277289 153.83321915998204 0 153.83321915998204 150.6366816803129 0 0 0 0 -141.52817163725331 -13.082824262673967 0 -13.082824262673967 159.04288202218231 0 0 0 0 31.455229182809035 193.02565263157885 0 193.02565263157885 304.64310327079693 0 0 0 0 -138.24492823356854 -107.71379511325722 0 -107.71379511325722 -22.587856501912029 0 0 0 0 -0.76999766876018194 -0.74302266098203518 0 -0.74302266098203518 1.9753122249788078 0 0 0 0 -55.136823119391138 9.7667911650892165 0 9.7667911650892165 66.048273979358783 0 0 0 0 -94.873681499630422 12.500292876506137 0 12.500292876506137 94.036183766686008 0 0 0 0 -64.31004733513339 35.811977739373106 0 35.811977739373106 99.916184406315551 0 0 0 0 -92.561491278705375 23.460739963038577 0 23.460739963038577 137.72033645798365 0 0 0 0 -76.632356625016428 -2.571460037608631 0 -2.571460037608631 87.560444800979894 0 0 0 0 -63.793256238019239 38.367879832971084 0 38.367879832971084 110.57414099249945 0 0 0 0 -49.279956118685391 67.728468309767777 0 67.728468309767777 96.101503827092529 0 0 0 0 -55.418978931664356 57.828604943850223 0 57.828604943850223 137.73330610408448 0 0 0 0 -31.854948759554148 112.84301972182038 0 112.84301972182038 207.10776010566769 0 0 0 0 -62.349194627984147 25.3875788464984 0 25.3875788464984 155.32446297123533 0 0 0 0 -2.2191909416806936 58.791019405001862 0 58.791019405001862 100.64321718575138 0 0 0 0 -0.14641567417951806 -0.54606707522749787 0 -0.54606707522749787 1.9501594410915573 0 0 0 0 5.4365147592709739 19.476401976677153 0 19.476401976677153 17.931785035056237 0 0 0 0 12.935573788873796 23.430116353663834 0 23.430116353663834 155.58658936163556 0 0 0 0 80.372719463439779 173.86019991892681 0 173.86019991892681 234.8832248951785 0 0 0 0 41.316656721814752 33.828331289063499 0 33.828331289063499 43.468823482312018 0 0 0 0 22.207540152664023 72.430140722372016 0 72.430140722372016 133.06462429528619 0 0 0 0 42.383406008940256 100.78688269776831 0 100.78688269776831 153.25973236187565 0 0 0 0 49.139416922351629 78.758874060560629 0 78.758874060560629 115.34854034179807 0 0 0 0 0.65307767590202048 -2.0749791653540939 0 -2.0749791653540939 4.1933395436095111 0 0 0 0 -20.895507050620267 65.034453570533515 0 65.034453570533515 159.61787074726999 0 0 0 0 52.394100880759837 25.980316996753572 0 25.980316996753572 28.126503662439063 0 0 0 0 37.322290588415541 269.74490607647203 0 269.74490607647203 213.49028570864903 0 0 0 0 176.60670958965511 -369.50209081484354 0 -369.50209081484354 322.4987374953962 0 0 0 0 347.68314246397654 200.40871564685585 0 200.40871564685585 89.141201791615458 0 0 0 0 4.5579971470768896 -197.81704377150345 0 -197.81704377150345 298.78075023159909 0 0 0 0 0.033351621067499337 -0.026759900501517109 0 -0.026759900501517109 4.8337960233366459 0 0 0 0 119.94840569185271 125.94983905037043 0 125.94983905037043 -90.191828356058977 0 0 0 0 0.27353753769379896 -0.29844190787613201 0 -0.29844190787613201 0.9708796908924171 0 0 0 0 42.388662517775401 99.979211840565654 0 99.979211840565654 58.763735587061092 0 0 0 0 -114.01565505250051 -10.055819118959334 0 -10.055819118959334 160.3506225139281 0 0 0 0 75.156727002990806 72.141619307385554 0 72.141619307385554 81.319067567237653 0 0 0 0 -0.20537414512665797 -0.2592113917914638 0 -0.2592113917914638 11.76499734268404 0 0 0 0 -81.314855156665544 24.610427666233591 0 24.610427666233591 23.525115535609075 0 0 0 0 -16.322561605818692 -9.8862571300924174 0 -9.8862571300924174 11.929183636508242 0 0 0 0 -43.202688616263231 14.042752899913467 0 14.042752899913467 -2.9065616908337688 0 0 0 0 -25.40220096546642 -24.464263888662572 0 -24.464263888662572 83.01948400256515 0 0 0 0 -15.132958879787111 -32.093278411117353 0 -32.093278411117353 73.387492924040998 0 0 0 0 -32.821910259945753 -116.15738665201934 0 -116.15738665201934 25.336910373356659 0 0 0 0 -47.845616055802225 -122.28149300271252 0 -122.28149300271252 188.62272107771423 0 0 0 0 -176.36720021461906 90.589575700192654 0 90.589575700192654 168.63977377247647 0 0 0 0 -12.226920524740876 80.018891073064879 0 80.018891073064879 127.56706826135633 0 0 0 0 -25.284365448440781 -34.246891946177129 0 -34.246891946177129 163.67708688449056 0 0 0 0 -23.668882627954645 12.947290946674912 0 12.947290946674912 98.974167942717031 0 0 0 0 -78.145042654731128 -29.367548139420251 0 -29.367548139420251 180.47191776687032 0 0 0 0 -81.077895682652183 -24.201537793574971 0 -24.201537793574971 304.04277344997536 0 0 0 0 -95.121864375479618 -88.757406093645841 0 -88.757406093645841 304.66054373474617 0 0 0 0 -154.82156853160078 -57.66546203732446 0 -57.66546203732446 289.13272329114261 0 0 0 0 -90.827760488655997 -54.393572351870489 0 -54.393572351870489 313.13863702618983 0 0 0 0 -74.573143029399603 -81.150665962220955 0 -81.150665962220955 305.77120690445736 0 0 0 0 -65.48309201797997 -93.942479676705261 0 -93.942479676705261 268.0310386664496 0 0 0 0 -63.217372243658929 -55.808703578015411 0 -55.808703578015411 283.29216794297827 0 0 0 0 -77.402130591455943 -96.157522701912967 0 -96.157522701912967 382.36027457274758 0 0 0 0 -31.574634099715468 -118.50936327997806 0 -118.50936327997806 525.79154140236278 0 0 0 0 -23.019370956817966 -77.42496428589584 0 -77.42496428589584 291.59984337414971 0 0 0 0 91.203167815459437 2.8882270779067767 0 2.8882270779067767 445.03311034684157 0 0 0 0 -73.440345904776024 -36.152423837060724 0 -36.152423837060724 507.6794361782886 0 0 0 0 -79.384931387513888 -4.0929067853448942 0 -4.0929067853448942 402.57910238304612 0 0 0 0 -99.00711124754298 0.76641488661698531 0 0.76641488661698531 409.21356164302506 0 0 0 0 -135.05190297598301 42.750793823601271 0 42.750793823601271 408.60190878609819 0 0 0 0 -73.00581636154709 7.1679931189755735 0 7.1679931189755735 351.76582428668189 0 0 0 0 -30.65702122167886 72.610759740357025 0 72.610759740357025 441.92053664389823 0 0 0 0 -46.106838146508494 -4.6305267529696721 0 -4.6305267529696721 250.78753329811298 0 0 0 0 16.651135915775285 59.491187205236201 0 59.491187205236201 316.26174724799785 0 0 0 0 -86.783205329708721 12.342903293449126 0 12.342903293449126 362.05213336132147 0 0 0 0 -111.25562551122812 61.989096082161268 0 61.989096082161268 351.40623100075027 0 0 0 0 -106.79337290832041 49.349304139395826 0 49.349304139395826 374.84710642028585 0 0 0 0 -72.238514779479601 87.949589958345314 0 87.949589958345314 366.70065399530722 0 0 0 0 -127.32208160720425 82.179861567146418 0 82.179861567146418 417.83507810271112 0 0 0 0 -126.03627898505329 64.49952483292509 0 64.49952483292509 363.44827989895202 0 0 0 0 -113.51991030896926 31.635826073164935 0 31.635826073164935 324.87484786100686 0 0 0 0 -81.999355776888365 -111.1018053188136 0 -111.1018053188136 130.36647891470056 0 0 0 0 -152.09370634189986 37.438056494891498 0 37.438056494891498 330.23435018087548 0 0 0 0 62.082508250776982 -139.73662122727546 0 -139.73662122727546 103.36905741515875 0 0 0 0 -83.282615594478671 -157.22518629295155 0 -157.22518629295155 455.5935747363983 0 0 0 0 -90.171154861503965 69.001030580293445 0 69.001030580293445 313.10460850833624 0 0 0 0 -47.063319698572542 -35.824929929537575 0 -35.824929929537575 326.99335945027997 0 0 0 0 -82.03575937322853 16.232687064093625 0 16.232687064093625 104.95603385258073 0 0 0 0 -115.24163778590543 -46.046345519062925 0 -46.046345519062925 163.82430190894956 0 0 0 0 8.9789994065075938 -9.3490567180894004 0 -9.3490567180894004 6.7461666658347781 0 0 0 0 -33.278758229308323 -90.605611727263749 0 -90.605611727263749 23.128417915810132 0 0 0 0 12.359471154695029 84.204786813879764 0 84.204786813879764 135.16869150734783 0 0 0 0 98.572548785462004 1.2028432687366148 0 1.2028432687366148 288.32133878090826 0 0 0 0 51.856279263848897 -88.353993883858038 0 -88.353993883858038 210.18139234231057 0 0 0 0 -36.46762806944821 -301.62919688261172 0 -301.62919688261172 -225.2559315554754 0 0 0 0 9.462079343787309 -8.7608396525583601 0 -8.7608396525583601 5.9575163009075283 0 0 0 0 -220.9333963643071 -118.60626937833149 0 -118.60626937833149 347.34056363675154 0 0 0 0 258.66199715946004 -73.1770447216295 0 -73.1770447216295 128.52127833939448 0 0 0 0 424.68515737890402 -367.68403162700997 0 -367.68403162700997 272.05448563270875 0 0 0 0 4.6409435519117581 -3.6622001796366703 0 -3.6622001796366703 2.6190464600892369 0 0 0 0 358.84548033610179 -127.94537619488801 0 -127.94537619488801 -479.93308292212168 0 0 0 0 389.22910692559088 -264.25143885370926 0 -264.25143885370926 428.46069651575817 0 0 0 0 -37.03264844993339 -97.533148649547002 0 -97.533148649547002 550.96880104747834 0 0 0 0 -23.704329017373286 -180.91368494080234 0 -180.91368494080234 1003.9934332496086 0 0 0 0 133.14382377264778 95.618439088619198 0 95.618439088619198 63.455201187773127 0 0 0 0 6.2287459648437107 -118.5446781456294 0 -118.5446781456294 748.40938679123065 0 0 0 0 0.39461498161485453 -1.4139298172553652 0 -1.4139298172553652 2.799783653038503 0 0 0 0 267.29616597064694 -206.98418000880883 0 -206.98418000880883 565.07824462529243 0 0 0 0 69.019490708796639 -16.947206709450256 0 -16.947206709450256 330.03268203702828 0 0 0 0 104.27904226770403 61.259943981793185 0 61.259943981793185 484.77833775158069 0 0 0 0 217.56845830916035 -174.69091392182781 0 -174.69091392182781 436.09905693058681 0 0 0 0 28.547168727301823 -235.50249632652412 0 -235.50249632652412 716.16361818986115 0 0 0 0 
</DataArray>
<DataArray type="Float64" Name="cross_section_updated" format="ascii">
1 1 1 1 1 1 1 1 1 1 1 1 1 1 0.011973094561936503 1 1 1 1 1 1 0.010094208487486728 1 0.0098490478627762529 1 1 1 1 1 1 1 1 1 1 1 1 1 1 1 1 1 1 1 1 1 1 0.010754269129355822 1 1 1 1 1 1 0.011177022241391402 1 0.010267478455311951 1 1 1 1 1 1 1 1 1 1 1 1 1 1 0.010422753112035589 1 1 1 1 1 1 1 1 1 1 1 0.0099607360597962751 1 0.010611792008109791 1 1 1 0.010231614867145362 1 1 1 1 1 0.010135046718070674 0.010162814949652972 1 1 1 1 1 1 1 1 1 1 0.010171882546042222 1 1 1 0.010033695832964061 1 1 1 1 1 1 1 1 1 1 0.010335819690815703 1 0.012017075085736847 1 1 0.0092405937110815028 1 1 1 1 1 1 1 0.0099740116118909282 1 1 1 1 1 1 1 1 0.011806999579423024 1 1 0.014097070296262925 1 1 0.012194648850933715 1 1 0.013405856787928536 1 1 1 1 1 1 1 1 1 1 1 1 1 0.011439622310036821 1 1 0.014797522506094979 1 0.012593054034694566 0.012588976453471826 1 1 1 1 1 1 1 1 1 0.013108844625367337 1 1 1 1 1 1 1 1 1 1 1 1 1 1 1 1 1 1 1 1 1 1 1 1 1 1 1 1 1 1 1 0.011576892263247181 0.0099937873626895837 1 1 0.011996861642538714 0.012037100689736721 1 1 0.010795145912658883 1 0.013282622552589404 1 1 0.011180376760020656 1 0.012046811822584829 1 1 1 1 1 1 1 1 0.015310207857814674 1 1 1 0.013210258325388295 1 1 0.011735557593632845 1 0.012960230050496582 1 1 0.01243453117634917 0.012524420901578875 1 1 1 0.011062920211957861 1 1 0.010020995249619368 0.010292600398436854 1 1 1 1 0.011919852880843448 0.010623737283773188 0.010637505272928562 1 1 1 0.010853879948961498 1 1 0.0099694468846831946 1 1 1 1 1 1 1 0.01615871806392 1 1 0.01628335885521974 1 1 1 1 0.016350555421306708 1 1 1 1 1 1 1 1 0.0096751267983038198 1 1 0.013152968453351396 1 0.012060133474194809 1 1 1 0.009904047793506723 1 1 1 1 1 1 1 1 1 1 1 1 0.010480220152953072 1 1 1 1 0.010176813588330107 1 0.01054329326693805 0.015760784719455218 1 1 1 1 1 1 1 1 1 1 0.014651528142279368 0.011606558748925145 1 1 1 1 1 1 1 1 1 1 1 1 1 1 1 1 1 1 1 1 1 1 1 1 1 1 1 1 1 1 1 1 1 1 1 1 1 1 1 1 1 1 1 1 1 1 1 1 1 1 1 1 1 1 1 1 1 1 0.0086651819623427447 1 1 0.015203590528510065 1 1 1 1 1 1 1 1 1 1 1 1 0.014237615613854872 1 1 1 1 1 1 0.01000789299592883 0.015471534979871712 1 1 1 1 1 0.0097392822062543644 0.011621464885852417 1 1 1 1 0.011361975757692322 1 0.011027880603744853 1 1 1 1 1 0.013364222799524338 1 0.011127604215959871 1 1 0.011443229996567734 0.013282960267242357 0.010018571140291716 1 1 1 0.011660382812890157 1 1 1 0.0099626801672540871 1 1 0.011188326110485083 1 1 1 1 1 1 1 1 1 1 1 1 1 1 1 1 1 1 1 1 1 1 1 1 1 1 0.0099840359415773999 1 1 1 1 1 1 1 1 1 1 1 1 1 1 1 1 1 1 1 1 1 1 1 1 1 1 1 1 1 1 1 1 1 1 1 1 0.0098526478107479661 1 1 1 1 1 1 1 1 1 1 1 1 1 1 1 1 1 0.0091105387887449162 1 0.009516432017323698 1 1 1 1 0.0095711286455205796 1 1 0.0095799530710600298 1 1 1 1 1 1 0.0095292345867143882 1 1 1 1 1 1 1 1 1 1 1 0.0098172538996785848 1 1 1 1 1 1 1 1 1 1 1 1 1 1 1 1 1 1 1 1 1 1 1 1 1 1 1 1 1 1 1 1 1 1 1 1 1 1 1 1 1 1 1 0.0099848861409679093 1 1 1 1 1 1 1 1 1 1 1 1 0.010212893598497894 1 1 1 0.0099636067149225915 1 1 1 0.010025689481358346 0.015918988937736318 1 1 0.015480866589946667 1 1 1 1 1 1 1 1 1 1 1 1 1 1 1 1 1 1 1 1 1 1 1 1 1 1 1 1 1 1 1 1 1 0.0096588592382201282 1 1 1 1 1 1 1 1 1 0.011580247208899377 1 1 0.010003814789037897 0.014305341485928276 1 1 1 1 1 0.010458334763791658 1 1 0.010144935569938758 0.0099974753707896859 1 1 0.013577026407454264 1 0.0099775214252317886 1 1 1 1 1 0.016010004186337995 1 1 1 0.016053978409268525 1 1 1 1 1 1 1 1 1 1 1 1 0.012714049219459447 0.010126539535836821 1 1 0.010008781690380872 1 1 1 1 1 1 1 1 1 1 1 1 1 1 1 1 1 1 1 1 1 1 0.0099459206947553891 1 1 1 1 0.0099644124171081282 1 1 1 1 1 1 1 1 0.010029276587803847 1 0.015484227047390976 1 1 1 1 1 1 1 1 1 1 1 0.010010784865451094 1 1 1 1 0.010072303055891184 1 1 1 1 1 1 0.0099378856569720449 1 1 1 1 0.019138104119151962 0.014727163479283222 1 0.0100232103674576 1 1 0.010231740791401552 1 1 1 1 1 1 1 1 1 1 1 1 1 1 1 1 1 0.016231304439201864 1 0.014372354668174431 1 1 1 1 1 0.011369510498295904 1 1 1 1 1 1 1 1 1 1 1 1 1 1 1 1 1 1 1 1 1 1 1 1 1 1 1 1 1 1 1 1 1 1 1 1 1 1 1 1 1 1 1 1 1 1 1 1 1 1 1 1 1 1 1 1 1 1 1 1 1 1 1 1 1 1 1 0.017813661897422117 1 0.012228253226521733 1 1 1 1 1 1 1 1 1 1 1 1 1 1 1 1 1 1 1 1 1 1 1 1 1 1 1 1 1 1 1 1 1 1 1 1 1 1 1 1 1 0.010142284167459853 1 1 1 1 1 1 1 1 1 1 1 1 1 1 1 0.010492516276183366 1 1 1 1 1 1 0.010202923232795912 1 1 1 1 1 1 1 1 1 1 1 1 1 1 1 1 1 1 1 0.010143411615765697 1 1 0.010406292812245505 1 1 0.010065991827786495 1 1 1 1 0.0095842583746154932 1 0.019718644236733487 1 1 1 1 1 1 1 1 1 1 1 1 1 1 1 1 1 1 1 1 1 1 1 1 1 0.0097608615272826368 1 0.0099266213790062934 1 1 1 1 1 1 1 1 1 1 1 0.019829345151257557 1 1 1 0.019930037447081647 1 1 0.010263566287710267 1 0.010674869328295998 1 1 1 1 1 1 1 1 1 1 1 1 1 1 0.010514122330907927 1 1 1 1 1 1 0.010262379996720881 1 1 1 1 1 1 1 1 0.010103002883182362 1 1 1 1 1 1 1 1 1 1 1 1 1 1 1 1 1 1 1 0.010258712551444211 1 1 1 1 1 1 1 1 1 1 1 1 1 1 1 1 1 1 1 1 1 1 1 1 1 1 0.010246861298668287 1 1 1 1 0.022910560999449284 1 1 1 0.023311708118902645 1 1 1 1 1 1 1 1 1 1 1 1 1 1 0.021721119820598787 1 1 1 0.015746835230197362 1 1 1 1 1 0.016189110727250797 1 1 1 1 1 1 1 1 1 1 1 1 1 1 1 1 0.012600295393876674 1 0.011899902615142701 1 0.011068462016045621 1 1 1 0.010639679355304061 1 1 1 1 1 1 1 1 1 1 1 1 1 1 0.013090271683585791 1 1 1 1 1 1 1 1 1 1 1 1 1 1 0.011470843760698787 0.011558438305754738 1 1 1 1 1 1 1 1 1 1 1 1 1 1 1 1 1 1 1 1 1 1 1 1 1 1 1 1 0.01221454747003051 1 1 1 1 0.010003047516324127 1 1 1 0.010069651518821679 1 1 1 1 1 1 1 1 0.0081364295731269302 1 1 1 0.023359108511658046 1 1 0.018095935792074226 1 1 0.0099975051285175111 0.0130722411111956 1 1 1 1 1 1 0.014516686225456484 1 1 1 1 1 1 1 1 1 1 1 1 1 0.01347769110795099 1 1 1 1 0.010989524336915907 1 1 1 1 1 1 1 1 1 1 1 1 1 1 1 1 1 1 1 1 1 1 1 1 1 1 1 1 1 1 1 1 1 1 1 1 1 1 1 1 1 1 1 1 1 1 1 1 1 1 1 1 1 1 1 1 1 1 1 1 1 1 1 1 1 1 1 1 1 1 0.010095780473273971 1 1 1 1 1 1 1 1 1 1 1 0.013818657806207299 1 1 1 1 0.0099963438931906859 1 1 1 1 1 0.012190141543880451 1 1 1 0.01047056681087816 1 1 1 0.011173632370582358 1 1 1 1 1 1 1 1 0.010202375208670431 1 1 1 0.01054295933294779 1 0.010085585042450832 1 1 0.010556363947947104 1 1 1 1 1 0.010536185120642329 1 1 1 1 1 1 0.010384817105129328 1 1 1 1 1 1 1 1 1 1 1 0.011097769324298287 0.0099003517531660364 1 1 1 1 1 1 1 1 1 1 1 1 1 1 1 1 1 1 1 1 1 1 1 1 1 1 1 1 1 0.010246592077254859 1 1 1 1 0.0093940237511087599 1 1 1 1 1 1 1 1 0.010538141237066158 1 1 1 1 0.010444070228541115 0.010063829327948297 1 1 1 1 1 1 1 1 1 1 0.010140062548387653 1 1 1 1 1 1 1 1 1 0.010380280734773204 1 1 1 1 1 1 1 1 1 1 1 1 1 1 1 1 1 1 1 1 1 1 1 1 1 1 1 0.010816105617430898 1 1 1 1 1 1 1 1 1 1 1 1 1 1 1 1 1 1 1 1 1 1 1 1 1 1 1 1 1 1 1 1 1 1 1 1 1 1 1 1 1 1 1 1 1 1 1 1 1 0.010149772136455928 1 1 1 1 0.011176119202235005 0.010463202879776782 1 1 1 1 1 1 1 1 1 1 1 1 1 1 1 1 1 1 0.01193507393189927 1 1 1 1 1 1 1 1 1 1 1 1 1 1 1 0.010421351743223044 1 1 1 1 1 1 1 1 1 1 1 1 1 1 1 1 1 1 1 1 1 1 1 1 1 1 1 1 1 1 1 0.0099924074816869265 1 1 0.012301182704946094 1 1 0.011552257660390391 1 1 1 1 0.011886616885240361 0.012398539911090974 1 1 1 1 1 1 1 0.0099599340759552232 1 1 1 1 1 1 0.010213688645868276 1 1 1 1 1 1 1 1 1 1 1 1 1 0.010798558847355762 1 0.013031746306666869 1 1 1 1 1 1 0.011080266567036765 1 1 1 1 1 1 1 1 1 1 1 1 1 1 1 1 1 1 1 1 1 1 0.014687691309657577 0.012017564332904079 1 0.01913692715930522 1 1 1 1 1 0.0091780329638547209 1 0.022626163813822393 1 1 1 0.010142138462793764 1 0.01048045799484581 1 1 1 1 0.014759855489207623 1 1 0.0070245175267656503 1 1 1 0.012730261778885161 1 1 1 0.011984768337983301 1 1 1 0.010017314507002382 1 1 1 1 1 1 1 1 1 0.011759746497934029 1 1 1 1 0.0099756207814196071 1 0.011353014897289373 1 1 0.014495474665997992 1 1 1 0.016019946958306955 1 0.010826756069789324 1 1 1 1 1 1 0.010231449970483737 1 1 0.01091347182215895 1 0.011003147244260662 1 1 1 1 1 1 1 1 1 1 1 1 1 1 0.016045365674523557 1 1 1 1 1 0.010156791354537058 0.01853045906344758 1 1 1 0.017024888227735784 1 1 1 1 0.010572599642698327 1 1 0.011652166624684273 1 1 1 1 1 1 1 0.0095108271511668962 1 1 1 1 1 1 1 1 1 1 1 1 1 1 1 0.011144136259209052 1 1 1 1 1 1 1 1 0.013801098962055322 1 0.019693228936565128 1 1 1 0.011404864008386043 1 0.022548350943896928 1 1 1 1 1 1 1 1 1 1 1 1 1 1 1 1 1 1 1 1 1 1 1 1 1 1 1 0.011363821579786255 1 1 1 0.016540989683630665 1 1 1 1 1 1 0.013360365989101255 1 1 1 0.010034699903772558 1 0.010000291483062534 1 1 1 1 1 1 1 1 0.0092669252717904292 0.016541691765508092 1 1 1 1 1 1 0.011895015423957826 1 1 1 0.01037206071635364 1 1 1 0.0098999030147293686 1 1 1 1 1 1 1 1 1 1 1 1 0.011486160329318809 1 0.0099977304178216035 1 1 1 1 1 1 1 1 1 1 0.015159139619942759 1 0.010211906524558119 0.010676210907447435 1 1 1 1 1 1 1 1 1 1 1 1 1 0.010326731482059398 1 1 0.01008887637390116 1 0.0096315290296536231 1 1 1 1 1 1 0.01542828718630687 1 1 1 0.0087659211534428724 1 0.011373554200408559 1 1 1 0.012729691283846383 1 1 0.012282536940815996 0.011094794127481182 1 0.010391212140940624 1 1 0.01150874369598799 1 1 1 1 1 1 1 1 1 1 1 1 1 0.010788526065039801 0.011777725025194037 1 1 1 1 1 1 1 1 1 1 1 1 1 1 1 1 1 1 1 1 0.0098973644765311224 1 0.0099240246093189478 0.010005156290844955 1 1 1 0.0092133366679667018 1 0.0098446151404103146 0.013374464168084738 1 1 1 1 0.010074141548566583 1 1 1 1 1 1 0.010107652320133782 1 1 1 1 1 1 1 1 1 1 1 1 0.011157695284911472 1 1 1 1 1 1 1 1 1 1 1 1 1 0.010236565519632038 1 0.0094064268607408196 1 1 1 1 1 1 1 1 0.012245930937810311 1 0.012379702262562606 1 1 1 0.010156793019098649 1 1 1 1 1 0.014312120166823299 1 0.012228204692270164 0.015303658327357977 1 1 0.010003861512125367 1 1 1 1 0.013641207089578621 1 0.010277279137277849 1 1 0.0097722268215395033 1 1 0.014354288245746994 1 1 1 1 1 1 0.015752645084844148 0.0099993144463697142 1 1 0.0095342372102208573 1 1 0.0096884121752811424 1 1 0.010638028398862283 0.012785151163537307 1 1 1 0.0099997634841820886 1 1 1 0.0096832810443080522 1 0.012321727025395433 1 0.012831072841029538 1 1 0.0099364787692483962 1 1 0.013126446475703733 1 1 1 0.013182427114927288 1 1 1 0.010341985492713606 1 1 1 0.013836627201071833 1 0.013779145743718836 1 1 1 0.010412159022288838 1 1 1 1 1 1 1 1 1 1 1 1 1 1 1 1 1 1 1 1 1 1 1 1 1 1 1 1 1 1 1 1 1 1 1 1 1 1 1 1 1 1 1 0.0099950007494611134 1 1 1 1 1 1 0.010000080587619083 0.0099975697452375761 1 1 1 1 1 1 1 1 1 1 1 1 1 1 1 1 1 1 1 1 1 1 1 1 1 1 1 1 1 1 1 1 1 1 1 1 1 1 1 1 0.010013296585405148 1 1 1 0.013029086187987714 1 1 0.012804466375402383 0.009746235616973303 1 1 0.0096188480355945231 1 0.010001282516853451 1 0.010422864458429354 0.010901641987616235 1 1 1 1 1 0.01163653922334346 1 0.010940686306101552 1 1 0.010976655318873849 1 1 1 1 1 0.010890362342156342 1 1 1 1 1 1 1 1 1 1 1 1 0.010045872385716359 1 0.0099871191726968386 1 0.012180811967000485 1 1 1 1 1 0.011364487014496903 0.011149752394659117 0.011731919149699899 1 1 0.010170723418918975 0.01103314245323081 1 1 1 0.012273234896561411 1 0.011949110848194684 1 0.010836847358485875 0.014093868184439107 1 0.011723662611183405 1 1 1 0.010047012841497534 1 1 1 1 1 1 1 0.010680167331961884 0.0099361539664747506 1 1 0.010005961302710592 1 1 0.015607736233157501 1 0.012501296719220865 1 1 0.010918787154572659 1 1 0.011840734819429734 1 0.0136194559995646 1 1 1 0.009943743999560585 1 0.013411595403873069 1 1 0.010793989044684945 1 0.010781093134178505 0.012972297373878573 1 0.0094460919052031696 0.010328273254567803 0.011762475225402223 1 1 1 1 0.010014264657097375 1 1 0.0108175310481956 1 1 1 1 0.011617265357274753 1 1 1 1 1 1 0.010134258689885397 1 0.010133330462980509 1 1 1 0.0099639471917138279 0.011673655970441617 1 1 1 1 1 1 0.014038803757276064 1 1 0.015222533711649893 1 0.012269756646607316 1 1 0.012109770435223833 1 1 0.012156267550990873 1 1 1 1 0.01201726689696765 0.014000233745822366 1 1 1 1 0.011467375727794441 1 1 1 1 1 1 1 1 1 0.0098583513412858481 1 1 1 1 1 1 1 0.0093304320337788231 1 0.011679656545072012 1 0.010002289307006567 1 1 0.0099501351393076389 1 1 1 1 0.01144906658998337 0.010644323718141887 1 1 1 0.013279671505908407 0.011023363331930405 0.011032213008120718 1 1 1 1 0.0106322809299675 0.010338279437467195 0.013490168575900345 0.011310685449796104 1 1 0.012911679341552977 1 1 0.011710107418550138 1 1 1 0.014448243337844282 1 1 1 0.013520899116583567 1 0.0096854048429035871 1 1 1 1 1 1 1 0.0095405701480920906 0.012458181059582709 1 1 0.0099378066378529722 1 1 1 1 1 1 1 0.010997325864234724 1 1 1 1 1 1 1 0.011568275632436426 1 1 1 1 1 1 1 1 1 1 1 1 1 1 0.010016944402249896 1 1 1 1 1 1 1 1 1 1 0.010034529308878123 1 1 0.010614401440135347 1 0.014557225582792708 1 1 1 0.013758193171493125 1 0.0098618261605131919 1 1 1 1 1 1 1 0.012614546262003723 1 1 1 1 1 1 1 1 1 1 1 1 1 1 1 1 0.0098232272043661528 1 1 0.0095593076581540308 1 0.013230135980731601 1 0.010835487418340787 1 0.01071455219930012 1 1 1 0.013504966193453441 0.010277323294179064 1 1 1 1 1 1 0.010978664796641963 1 1 1 1 1 1 1 0.010321407811723872 1 1 0.01144332669024062 1 1 1 1 1 1 1 1 1 1 1 1 1 1 1 1 1 0.010139189571702789 1 1 1 0.01009201060096526 1 1 1 1 1 1 1 1 1 1 1 1 1 1 1 1 1 1 1 1 1 1 1 1 0.010120478800809128 1 1 1 1 1 1 1 1 1 1 1 0.010103793748947881 1 1 1 1 1 1 0.0095079895679254511 1 1 1 1 1 1 1 1 1 1 0.010315070264159646 1 1 0.010013031316556485 0.010296822435741777 1 0.0087338744750999932 1 1 1 0.012076573847816413 1 1 1 0.011187782691405215 1 1 1 1 1 1 1 1 1 1 0.010336129700310129 1 1 1 1 1 1 1 1 1 1 1 1 0.01355863497854602 1 1 0.012728312125281744 1 1 1 1 0.010147677395555202 1 1 0.010324314547400041 1 1 1 0.01346140546939437 1 1 1 0.012822296207636072 0.011313130367038862 1 1 1 0.011772149654896983 1 0.010776357133035964 1 1 1 1 1 1 1 1 1 1 1 0.010299297148177192 1 1 0.012427931209644943 1 1 1 1 0.012729210860868437 1 1 0.0097872234635664693 1 1 1 1 1 0.0081498262605837323 0.010003024802241004 1 1 1 1 0.0099080342858965179 1 1 1 1 1 1 1 0.0094157960241127141 1 1 1 1 0.010067165109193263 1 1 1 1 1 1 0.010417954057798388 1 1 0.010829927899086666 1 1 0.010837212292635375 1 1 0.010586941426243245 0.013578500289823998 1 0.010609964013399158 1 1 1 0.012980411993580496 0.010387680416506374 1 1 0.010973899942825292 1 1 0.010963381034265208 1 0.012088997240743804 1 1 1 1 1 1 1 0.012480354496083763 1 1 1 1 0.016317315576732872 1 1 1 1 1 1 1 1 1 1 1 1 1 1 1 1 1 0.010429214205244012 1 1 1 1 1 1 1 1 1 1 1 1 1 1 0.009727579399792026 1 1 1 1 1 0.019070962978814145 1 1 0.015875305391589257 1 1 1 1 0.0099656029184422568 1 1 1 0.012302208166562963 1 1 1 0.010846160443215251 1 1 1 1 1 1 1 1 1 1 1 1 1 1 1 1 1 1 1 0.010660454640686785 1 1 1 0.010248407768310864 1 1 0.010457470997405379 1 1 1 1 0.017762358909169822 1 1 1 1 1 0.010437614623837597 1 1 1 1 1 1 1 1 1 1 1 0.010793600697715507 1 1 1 1 1 1 1 1 1 1 1 0.010410977899388251 1 1 1 1 0.010186595787645485 1 0.01026156560764592 1 1 1 1 1 1 1 1 1 1 0.011337345951198527 1 0.015665140497165695 0.013213077256715396 1 0.0099569255016111261 1 1 1 1 0.0091928333489361275 0.018406846395438523 1 1 0.00960941685763151 1 1 0.010109800670955484 1 1 1 0.0139597075847711 1 1 0.010230685325416685 1 1 1 1 0.010563087882995262 1 1 1 1 0.011203317777425247 0.014801422352502869 1 1 1 1 1 1 1 0.010325662686836894 1 1 1 1 1 1 1 1 1 1 1 1 1 1 1 1 1 1 1 0.0098784041385486868 0.01081235895992419 1 1 1 1 0.010191639166594522 1 1 1 0.010800755051815688 1 1 1 1 1 1 1 1 1 1 1 0.01020145737498661 1 1 0.013137412130988041 1 1 1 1 1 1 0.011847987056190945 1 0.012211338901739191 1 1 1 1 0.013159363176449942 1 0.0098547018857284025 1 1 0.015212808686148787 1 1 0.010087227208693107 1 1 1 0.010198433906736276 1 1 1 0.016396741814009345 1 1 0.010130143168447601 1 1 1 1 1 1 0.010516478475110792 1 1 0.011510058124947934 1 1 1 1 1 0.011170205024497757 1 0.010757822708569125 1 1 0.009855718430506288 1 1 0.012951315709529072 1 0.010014546115961226 1 1 1 1 1 0.010597376981914682 0.0120478801388216 1 1 1 1 1 0.015425407684365939 1 1 1 1 1 1 1 1 1 1 1 1 1 1 1 1 1 1 1 1 0.010807501737522221 1 1 1 1 0.010256263557069682 1 1 1 0.012634195016409258 0.010088473527521425 1 1 1 1 1 0.013295961447008429 1 1 1 1 1 1 1 0.012190390024258427 1 1 1 1 1 1 1 1 0.012417573938896214 1 1 0.010076810277980316 1 1 1 1 0.016367155819485918 1 1 1 1 0.011826165197611734 1 0.016367256124656532 1 1 0.01298409462672754 1 1 1 1 1 0.015057584014675813 1 1 1 1 0.013294306061774128 1 1 1 1 1 0.0098012851833836501 1 1 1 1 1 1 0.010957969532583845 1 1 0.01046994456787957 1 1 0.011427336140951316 1 1 1 0.0099806551727210542 1 0.0096735045032755439 1 1 0.011250713932493241 1 1 1 1 1 1 1 0.010003434670255985 1 1 1 1 1 0.010375068575155003 1 1 1 0.012655848733956154 1 1 1 1 1 1 1 1 1 1 1 1 1 1 1 1 1 0.010146386887020501 1 1 1 1 0.011756552173943724 1 1 1 1 1 1 1 1 1 1 1 1 1 1 1 1 1 0.015692893102519805 1 1 1 1 1 0.01544545658490825 0.01023248544236198 1 1 1 0.011518613324287091 1 1 1 1 0.014828428173094434 1 1 1 1 1 1 0.01075797063881561 0.014889009042238142 1 1 1 1 1 1 0.010202011783472281 0.013826100944783377 1 1 1 1 0.011482746717839519 1 1 1 1 1 1 0.0096361477404815227 1 1 1 1 1 1 1 1 1 1 0.0093668340674804527 1 1 0.0097306863269989181 1 1 1 1 1 1 1 1 1 1 1 1 1 1 1 1 1 1 1 1 1 1 1 1 1 1 1 1 1 1 1 1 1 1 1 1 1 1 1 1 1 0.0150712225112055 1 1 1 0.015162179398304073 1 1 1 1 1 1 0.014081923608273093 1 1 1 1 1 1 1 1 1 0.01186598203051702 1 1 1 1 1 1 1 1 1 1 1 1 1 1 0.012378987034612333 1 1 0.015067868870360464 0.012693715467249561 1 1 1 1 1 1 1 1 1 1 1 1 1 1 1 1 1 1 1 1 1 0.010774556000716317 1 1 1 1 0.011972433111762024 1 1 1 1 1 1 0.010805166723252827 1 1 0.010174265010620846 1 1 0.010475622244024128 1 1 1 0.0097433306495444613 1 1 1 1 1 1 1 1 0.012414065130621502 1 1 1 1 1 1 1 1 1 1 0.014364900545090736 1 0.010558933861869855 1 1 1 1 0.013863950676026082 1 1 0.0099976731976787366 1 1 1 1 1 1 1 1 1 1 0.010133120377902113 1 1 1 1 1 1 1 1 1 1 1 0.01036953470027286 1 0.012253679116667379 1 1 1 1 1 1 1 1 1 1 1 1 1 1 1 1 1 1 1 1 0.015058509980374843 1 1 1 0.013919863077975081 1 0.012907127990768928 1 0.011663817319013657 1 1 0.011752414319593273 1 0.014844113736226773 0.012937405861275245 1 1 1 0.016505890217881687 0.01008075879513563 1 1 0.011824705192842662 1 1 1 1 1 1 1 1 1 1 1 1 1 1 0.0099701837790302852 0.013429105444143082 1 1 0.020402087394348185 1 0.016235870989379717 1 1 1 1 0.010611410927327154 1 1 1 1 1 1 1 1 0.01160541209477293 1 1 1 1 1 1 1 1 1 1 1 1 1 1 1 1 1 1 1 1 1 0.015559750327528231 1 0.010318703976794723 1 1 1 1 0.0083240129458740028 0.013807560449810534 1 0.010931735701968823 1 1 1 1 1 0.012824020923265362 1 1 1 0.011873527414457982 1 0.01030717355121794 1 0.012364006939672736 1 1 1 1 1 1 1 1 1 1 0.012103845677169985 1 1 0.0099502769814754938 1 1 1 0.011188444850485554 1 1 1 1 1 1 1 1 1 1 1 1 1 1 0.0098199498107766018 0.014452741813080006 1 1 1 1 0.009808179627286492 1 0.011860210222509647 1 0.013538193226468816 1 1 1 1 1 1 0.0099572267969493047 1 0.010794068938354488 0.01094853616330221 1 1 1 1 0.013549782678573983 0.011012531225385296 1 0.0099888898417902425 1 1 1 1 1 0.01341204284179584 1 1 1 1 1 1 1 0.013230619145138116 1 1 1 1 1 1 0.012403968359357328 0.012110306424465971 1 1 1 1 1 0.01169795321993692 1 1 1 1 1 0.010002966339064083 0.011120762455847635 1 1 1 0.0099990322055873507 1 1 1 0.0099990585240913241 1 1 1 1 1 1 1 1 1 1 1 1 1 1 1 1 1 1 1 1 1 1 1 1 1 1 1 1 1 0.010074439310196096 1 1 1 1 0.010040339681679375 0.010054496902381794 1 1 1 1 1 1 1 1 1 1 1 1 1 1 1 1 0.010031730642025588 1 1 1 1 1 1 1 1 1 1 1 1 1 1 1 0.010072203810419636 1 1 1 1 1 1 1 1 1 1 0.010146910974967317 1 1 1 1 1 1 0.010074707164547676 1 1 1 1 1 1 1 1 1 1 1 1 1 1 1 1 1 1 1 1 1 1 1 1 1 1 1 1 1 1 1 1 1 1 1 1 1 1 1 1 1 1 1 1 1 1 1 1 1 1 1 1 0.010294738345194253 1 1 1 1 1 1 1 1 1 1 1 1 1 1 1 1 1 1 1 1 1 1 1 1 1 1 1 1 0.010126860925138571 1 1 1 1 1 1 1 1 1 1 1 1 1 1 1 1 1 1 1 1 1 1 1 1 1 1 1 1 1 1 1 1 1 1 1 1 1 1 1 1 1 1 1 1 1 1 1 1 1 1 1 1 1 1 1 1 1 1 1 1 1 1 1 1 1 1 1 1 0.010329492806144702 1 1 1 1 1 1 1 1 1 1 1 1 1 1 0.010525510291953921 1 1 0.0099452268131274071 1 1 1 1 1 1 1 1 1 1 1 1 0.0099796543937746493 0.0099227861225712529 1 1 1 1 1 1 1 1 1 1 1 1 1 0.015834428218860275 1 0.015570176086047743 1 1 1 1 0.0098596421708432285 1 1 1 1 1 1 1 1 1 1 1 0.013327424759502644 1 1 1 1 1 1 1 1 1 0.014837033928228315 1 0.0092566838762998347 1 1 0.014756482702069584 1 1 0.0099996371175119295 0.013861523347136159 1 1 1 0.010399204480783394 0.01406688641563362 1 1 1 1 1 1 1 0.011316189466899173 1 0.01044880001799888 0.010001117772393721 1 1 0.012142142130174137 1 1 1 1 1 1 1 0.011819237823700399 1 1 0.0097006182371655453 1 1 0.01324806442027252 1 0.012190072752975322 1 0.010207082927608037 1 1 1 1 1 0.013015414650516708 0.016628943209457382 0.010144150584848799 1 1 1 1 1 1 1 0.0097939440521568472 1 1 1 0.012505895435157635 0.010213595893620401 1 1 1 1 1 0.011475571611548614 1 1 1 1 1 1 1 1 1 1 1 1 1 1 1 1 1 1 1 1 1 1 1 1 1 1 1 1 1 1 1 1 1 1 1 1 1 1 0.015563542715876382 1 1 1 0.0097138395163528998 1 0.01093085574556682 1 1 1 0.01035886794386387 1 1 0.009625200149614193 1 0.013622767082507007 0.0099962068715300431 0.016345501899080635 1 1 1 1 1 1 0.010614369288331914 1 1 1 1 1 1 0.014811571281445474 1 1 1 1 1 1 1 1 1 1 1 1 1 1 1 1 1 1 1 1 0.015557757951535535 1 1 1 1 1 1 0.015385882333393977 1 1 1 1 1 1 1 0.01005896184728193 1 0.0099127229604069819 1 1 1 1 0.010268259699829922 1 1 1 1 1 0.011757577021831044 0.0086192403034661448 1 1 0.009719356694621227 1 1 1 0.01096695657031266 1 1 1 1 1 1 1 0.010343383094934754 1 1 1 1 1 1 1 1 1 1 1 1 1 1 1 1 1 0.013127937996415328 0.010853420318397101 1 1 1 1 1 1 1 1 1 1 1 1 1 1 1 1 1 1 1 1 1 1 1 1 1 1 1 1 1 1 1 1 1 1 0.012240601028230085 0.0094371584577928984 1 1 1 1 1 0.0098000283003158509 1 1 1 1 1 1 1 1 1 1 1 1 1 1 1 1 1 1 1 1 1 1 1 1 1 1 1 1 1 1 1 1 1 0.010003920310908715 1 1 1 1 1 0.014337489362913449 1 1 1 1 1 1 0.014028350254993466 1 1 1 1 1 0.012326656726914078 1 1 1 1 1 1 0.014873002183477757 1 1 1 1 1 1 1 1 0.014264743226749451 1 1 0.015724769145567363 1 1 1 0.010157471368415983 1 1 1 1 1 0.015459436635736025 1 1 1 1 1 1 1 1 1 1 1 1 1 1 1 1 1 0.0099831891340543301 0.0099124626112294979 1 1 1 1 1 1 1 1 1 1 1 1 1 1 1 1 0.015235134238770577 1 1 1 1 1 1 1 1 1 1 1 1 1 1 1 1 1 1 1 1 1 1 1 1 1 1 1 1 1 1 1 1 1 1 1 1 1 1 1 1 1 0.010829305952150314 1 1 1 1 0.011134245596688033 1 1 1 1 1 0.0094721615965758683 1 1 1 0.0099110599962039872 1 1 0.011177241715767207 0.0096265175302030718 0.0097137465309911457 1 1 1 1 1 1 1 1 1 1 0.0098665538185311197 1 1 1 1 1 1 1 1 1 1 1 1 1 1 1 1 1 1 1 0.011079504768721802 1 0.012548269555247044 1 1 1 1 1 1 0.012049630811230385 0.010068191071148046 1 1 1 1 1 1 1 1 1 1 1 1 1 1 1 1 0.010455957775862987 1 1 1 1 1 1 1 1 0.011216199179662885 1 1 1 0.011745450136697984 1 1 1 1 1 1 1 1 1 1 1 0.0097630347442980644 1 1 1 1 1 1 1 1 1 1 1 1 1 1 1 1 1 1 1 1 0.0099710446465393274 1 1 1 1 0.0098624101499157832 1 1 0.0099875407450846637 1 1 1 1 1 1 1 0.010374723757425118 1 1 1 1 1 1 0.0099712769816343392 0.0096108287420145488 1 1 1 1 1 1 1 1 1 1 1 1 1 1 1 1 1 0.010346383970255536 1 0.010360438115658191 1 1 1 1 0.010876073327844914 1 1 1 0.010306306491812316 1 1 1 1 1 1 1 1 1 1 1 1 1 1 0.010860087376444666 1 1 1 1 1 0.012118734698404235 1 1 0.0098536616597336354 1 1 1 1 0.009997525690544122 1 1 1 0.010932833552473278 1 0.010371300243562113 0.010042411118672753 1 1 1 1 0.010312924519313618 0.010132515810932831 1 1 1 1 1 1 1 1 1 1 1 1 1 1 0.01027265024115186 1 0.01250688718445862 1 1 1 0.01051661180708437 1 1 1 1 1 1 1 1 1 1 1 1 1 1 1 1 1 1 0.012001569183649074 1 1 0.010604989181437773 1 1 0.010000549362118347 0.010589292965924656 1 0.011276327909920659 0.010687332287107561 1 1 1 1 0.01089037597144542 1 0.010585298558836883 1 1 1 1 0.0098169424264866571 1 1 1 0.0095273376510665638 1 1 1 1 1 1 1 1 0.0093413803611506179 1 1 1 1 1 0.010640005074969393 1 1 1 1 1 0.010024267646882527 0.017555653637391491 1 1 1 1 0.017381466775132935 0.0093319268949812236 1 1 0.010007268433725123 0.013215979577038857 0.010094363627911367 0.010624376648925033 1 1 1 0.01078154792644446 1 1 1 0.015317657259911582 1 0.010000123594143076 1 1 1 1 1 1 1 1 1 1 1 1 1 1 1 1 0.016788269620675297 1 1 1 1 1 1 1 0.013648490870581551 1 1 1 1 1 1 1 1 1 1 1 1 1 1 1 1 1 1 1 1 1 1 1 1 1 0.010327830615931073 1 0.01026808734843607 1 1 1 0.010074590891367407 0.010362715726406598 1 1 1 1 1 1 1 1 1 1 1 1 1 1 1 1 1 1 1 1 1 1 1 1 1 1 1 1 0.014960822328421521 1 1 1 1 0.010004931773806278 1 1 0.01517395101816784 1 1 1 1 1 1 1 1 1 0.010131157851256352 1 1 1 1 0.01466404507007185 1 0.0099717277387809146 1 1 1 0.0098724826647276342 1 0.010162475257160547 1 1 1 1 1 1 1 1 1 1 1 1 0.010356530158989394 1 0.01292528575918859 1 0.010650612569571227 0.010019533100360892 1 0.011455828702200585 0.0095333768401864149 1 0.0160719280767367 1 1 0.010903506719638772 1 0.010109193286294168 1 1 0.015790640784825768 1 1 0.010057194824172012 0.010001798960531204 1 1 0.0095594796892020835 1 1 0.013646486472835444 1 0.011744599614017295 0.014183904107451479 1 1 1 0.0095254024622512413 0.01521214964932624 1 1 0.014185589726729292 1 1 0.010071341840924107 0.0099801596932452708 1 1 1 1 0.0098619366345458741 1 1 0.010130864092804184 1 1 1 1 1 1 1 0.009374002862050472 1 1 1 0.012974360777057152 1 1 1 1 0.0093972930415287016 1 1 0.010846413217262778 1 0.013834751653820388 0.0080712765946171477 1 0.011158672939192368 0.013007968312472794 1 1 1 0.0093340931421644277 0.018006072719269767 1 1 0.010565786850962423 1 0.010312581587764541 1 0.0094432750026459591 1 1 0.010055760643900714 1 1 0.014728603452009464 0.011634369101301858 1 0.015984647301774346 1 0.010166042961731878 1 1 1 1 0.010039739230186999 1 1 1 1 1 1 1 1 1 1 0.010157799065875852 1 1 1 0.013213503036893389 1 0.014370243569653456 1 1 1 0.014689763623907687 1 1 1 1 1 0.0098040252083339517 1 1 1 1 1 1 0.014641097650664738 1 1 1 1 1 1 1 1 1 1 1 1 1 1 1 1 1 1 1 0.011792290998991824 1 1 1 1 1 0.01177393845543798 1 0.010985149885223151 1 1 1 1 1 0.019771444014451474 1 1 1 1 1 0.017160546650892075 1 1 1 1 1 0.014587483823266825 0.010955996046427306 1 1 1 1 1 1 1 1 1 1 1 1 1 1 1 1 1 1 1 1 0.010027772753163742 1 1 1 1 1 1 0.017369457297047176 1 1 1 1 1 1 0.013416803535529986 0.012702240868373738 1 1 1 1 1 0.010128071341138887 1 1 0.010418321579630265 0.010005002306787332 1 0.010507138170239641 1 0.016602578879904319 1 1 1 0.0077788554930032566 1 1 1 1 0.011012960975416137 1 1 1 1 1 0.017578597524259151 1 1 1 1 1 0.012299269306664157 0.014545032992423653 1 0.013144209299672024 1 1 0.01001463268052312 0.0101849365970495 1 0.016840857850954925 0.015602535346366107 1 1 0.010004321601443079 1 1 1 1 1 1 1 1 1 1 1 1 1 0.013530994788677041 0.014484871484349775 1 1 1 1 1 1 0.021144889540655971 1 1 0.0098680991710504359 1 1 1 1 1 0.019469233467008535 0.010888626806639238 1 1 1 0.010268871535817382 1 1 1 1 1 1 0.011924509949108025 1 1 1 1 1 1 1 1 1 1 1 1 0.011442584269331956 0.015003861086474682 1 1 1 1 1 1 1 1 1 1 1 1 1 1 1 1 1 1 0.015154705843654732 1 1 1 1 1 1 1 1 1 1 1 1 1 1 1 1 1 1 1 1 1 1 1 1 1 1 1 1 1 1 1 1 1 1 0.010696855977797614 1 1 1 1 1 1 1 1 0.011450554320210485 1 1 1 0.010645033597627397 1 1 1 1 1 0.01063814168398489 1 1 0.011177935247835271 1 1 1 0.010424236905422402 1 1 1 1 1 0.011627087654683147 1 1 1 1 1 0.0096696491198509978 1 1 1 1 0.010242985467007268 1 1 1 1 1 1 1 1 1 1 1 1 1 1 1 1 1 1 1 0.011297581740112604 1 1 1 1 1 1 1 1 1 0.010444574134222675 1 1 1 1 1 1 1 1 1 1 1 1 1 1 1 1 1 1 1 1 1 1 1 1 1 1 1 1 1 1 1 1 1 1 1 1 1 1 1 1 1 1 1 1 1 1 1 1 1 1 1 1 1 1 1 1 1 1 1 1 1 1 1 1 1 0.010002937992287105 1 1 1 0.0099349944932274597 1 1 1 1 1 1 1 1 1 1 1 1 1 1 1 1 1 1 1 1 1 1 1 1 1 1 1 0.011304459249864665 1 1 1 1 1 1 1 1 0.01053496271010303 1 1 1 1 1 1 1 1 1 1 1 1 1 1 1 1 1 1 1 1 1 1 1 1 1 1 1 1 1 1 1 1 1 1 1 1 1 1 1 0.0070922281595099728 1 1 1 1 1 1 1 0.00868017644055857 1 0.0097111578950804748 1 1 1 1 1 1 1 1 1 1 1 1 1 1 1 1 1 1 1 1 1 1 1 1 1 1 1 0.010010729461756428 1 0.0054393907602166506 1 0.017496063619242906 0.010036748708613751 1 1 1 0.0038880455478739525 0.010031229353850597 1 0.01432741035691663 1 1 1 1 0.014928011549603862 1 1 1 1 1 1 1 1 1 1 1 1 1 1 0.012949848128531534 1 1 0.01562326821556635 1 0.018875264560764545 0.020006420185971072 1 1 1 0.011081973740733209 1 1 1 1 1 1 1 1 1 1 1 1 1 1 1 1 1 1 1 1 1 1 1 1 1 1 1 1 1 1 1 1 1 1 1 1 1 1 1 1 1 1 1 1 1 1 1 1 1 1 1 1 1 1 1 1 1 1 1 1 1 1 1 0.01751874449541712 1 1 1 1 1 1 1 1 1 0.019896119329425904 1 0.018654369009839144 1 1 0.010749766541739441 1 1 1 1 1 1 1 1 1 0.016926646057528957 1 1 1 0.019390920907649867 1 1 1 1 1 1 1 1 1 0.013726721901477949 1 1 1 1 1 1 1 1 1 1 0.012270246209661032 1 1 1 1 1 1 1 1 1 1 1 1 1 1 1 1 1 1 1 1 1 1 1 0.010088289201172286 1 0.01004604603480695 1 1 1 1 1 1 1 1 1 1 0.014667638045730458 1 1 1 1 1 1 1 1 1 1 1 1 1 1 1 1 1 1 1 1 1 1 1 1 1 1 1 1 1 1 1 1 1 1 1 0.010280468516910566 1 1 1 1 0.010844599690010134 1 1 1 1 1 1 1 1 1 1 1 1 0.010506347370285624 1 1 1 1 1 1 1 1 1 0.011382526699209613 1 1 1 1 0.013510938198340162 1 1 1 1 1 1 1 0.0099190772304064926 1 0.008501108131687694 1 1 1 1 1 1 0.015547071029096922 1 0.0098741072878685658 0.011991806229934373 1 1 1 0.009963913279001077 1 1 0.015039834649131551 1 1 1 1 0.011832063817012232 1 1 1 1 1 1 1 1 1 0.0055419629122348338 1 1 1 1 0.010770371310630572 1 1 1 1 0.011010102262926237 1 1 0.01005247394334665 1 1 0.010349946432738068 1 0.011369632173896634 1 1 1 1 1 1 1 1 0.011651177373059258 1 1 1 1 1 1 1 1 1 1 0.011259215305704985 1 0.010390898977464509 1 1 1 1 1 1 1 1 1 1 1 1 1 1 1 1 1 1 1 1 1 1 1 1 1 1 1 1 1 1 1 1 1 1 1 1 1 1 1 1 1 1 1 1 1 1 1 1 1 1 1 1 1 1 1 1 1 1 1 1 1 1 1 1 0.019905305384768004 1 1 1 1 1 1 1 1 1 0.018804328266437676 1 1 1 1 1 1 1 1 1 1 0.01031948749664335 1 1 1 1 1 1 1 1 1 1 1 1 1 1 1 0.018226211613987825 1 1 1 1 0.010552481639516543 1 1 0.017433044719230371 1 1 1 1 1 1 0.014171376082929975 1 0.011734025276348713 1 1 1 0.01557853456315047 1 0.014238487191524856 0.014398046090752559 1 1 1 0.020415725397582907 1 1 1 1 1 1 1 1 1 1 0.010069826536716392 1 1 1 0.012566739962278277 1 1 0.018458961482352799 1 0.01062361907280405 0.017413659999451436 0.00971849493291033 1 1 0.013153069576932666 1 0.016243025896062805 0.014049356318759037 1 1 1 0.0049532975538057536 1 0.018581247000929401 1 0.010487863954537539 1 1 0.018811101975590959 1 1 1 0.011101916374508126 1 0.016684882481501979 1 0.010067621918553583 1 1 1 1 1 0.011514201865469193 1 1 1 1 0.014305835222879582 1 0.012753642794229119 1 1 0.019256184830350367 0.010041972909011968 1 0.011057370239683218 1 1 1 1 1 0.010390234475877148 1 1 1 1 1 1 0.022782042159228376 1 1 1 1 1 1 1 1 1 1 1 1 1 1 1 1 1 1 1 1 1 1 1 1 1 1 1 1 1 1 1 1 1 1 1 1 1 1 0.010163173499043702 1 1 1 1 1 1 1 1 1 1 1 1 1 1 1 1 1 1 1 1 1 1 1 1 1 1 1 1 1 1 1 1 1 1 1 1 1 1 1 1 1 1 1 1 0.010427377785360846 1 1 0.011152189865631282 1 1 0.010051437855338512 1 1 1 1 1 1 1 1 1 1 1 1 1 1 1 1 1 1 1 0.010277847970104018 1 1 1 1 0.0097736587392164755 1 0.0099745028685146071 1 0.010498793485760695 1 1 1 1 0.010240733657204733 1 1 1 1 1 1 1 1 1 0.010241886460210688 1 1 1 1 0.010754350083502236 1 0.010016010975921145 1 1 1 1 1 0.009884656629487034 1 1 1 1 1 1 1 1 1 1 0.015673099156876414 1 1 1 1 1 1 1 1 1 1 1 0.017092515889647331 1 1 1 0.017536242292986899 1 1 1 1 1 1 1 1 1 1 0.010030391944263001 1 1 1 1 1 1 1 1 1 0.010238638177548366 1 1 1 1 1 1 0.014431836104832368 1 1 1 1 1 0.014009067065626888 1 1 1 1 1 1 1 1 1 1 1 1 1 1 1 1 1 0.010991541935352914 1 1 1 1 1 0.012582736448581709 0.009617182210430392 0.014287474847495953 1 0.010002511788849627 1 1 1 1 1 1 1 1 1 1 1 1 1 1 1 1 1 1 1 1 1 1 1 1 1 1 1 1 0.01676776691322527 1 1 1 1 1 1 1 0.017019854255170622 1 1 1 1 1 1 1 1 1 1 1 0.014974160353891326 1 1 1 1 1 1 1 0.016939101156923084 1 0.0150990909769013 1 1 1 0.015601499409842385 1 1 0.016817862308826301 1 1 1 1 1 1 1 1 1 1 1 1 1 1 0.0098391606438531787 0.0085642175044976978 1 1 1 1 1 0.010250878549923438 1 1 1 1 0.017860453117882702 1 1 0.014334648488744559 1 1 1 0.0089114555125489048 1 1 1 1 0.010039884442841027 1 1 1 1 1 1 1 1 1 1 1 1 1 1 1 1 0.010456572688541194 1 1 1 1 1 1 0.017567275098923571 1 0.010423448438023807 1 0.019260047899580489 1 1 1 1 1 1 0.0096223166791784866 0.0061564270657416802 1 1 1 1 1 0.019650677987447927 1 1 1 1 1 1 1 1 1 1 1 1 1 1 1 0.011091105116108113 1 1 1 1 0.0098980875756406791 1 1 1 1 1 1 1 1 1 1 1 0.0094272553416130077 1 1 1 1 1 1 1 1 1 1 1 1 1 1 1 1 1 1 1 1 1 1 1 1 0.010259876360299409 1 1 1 1 1 0.009997630278836208 0.0099390299067833813 1 1 1 1 1 0.010671577343685366 0.0097121186167533815 1 0.0098877178609850409 1 1 1 1 1 1 1 0.010435168727951534 0.010027928802810455 1 0.010059888471070502 1 0.010017879157148994 1 1 1 1 1 1 1 1 1 1 1 0.0097683479066609218 1 1 1 1 1 1 1 1 1 1 1 1 1 1 1 1 1 1 1 1 1 1 1 1 1 1 1 1 0.010059031318000955 1 1 0.01055868736809548 1 1 1 0.0098805875776575083 1 1 1 0.01018283638407394 0.0099529981531187132 1 1 1 1 1 1 1 1 0.010066943175737073 0.010696921549849041 1 1 1 1 1 1 1 1 0.010363148066343213 1 1 1 1 1 1 1 1 1 1 1 1 1 1 1 1 1 1 1 1 1 1 1 1 1 1 1 1 1 1 1 1 1 1 1 1 0.010214312605543209 1 0.010100108148543362 1 1 1 1 1 1 1 1 1 1 0.014325776434869868 1 1 1 1 0.0099630476558608804 1 1 1 1 0.009975985819173418 1 1 1 1 1 1 1 0.013063498874467408 1 0.01000618009539413 1 0.01231484018690629 1 1 1 1 1 0.0114736124073034 1 1 1 1 0.010519579705058825 1 1 1 1 1 1 1 1 1 1 1 1 1 1 1 1 1 1 1 1 1 1 1 1 1 1 1 1 1 1 1 1 1 1 1 1 1 1 1 1 1 1 1 1 1 1 1 1 1 1 1 1 1 1 1 1 1 1 1 1 1 1 1 1 0.010127773687836003 1 1 1 1 1 1 1 1 1 1 1 1 1 1 1 1 0.009907174621339972 1 1 0.010432399389621934 1 1 1 1 1 1 1 1 1 1 1 1 1 1 1 1 1 1 1 1 1 1 1 1 1 0.011326705909469312 1 1 1 0.011091448621006965 1 1 0.014332476121557712 1 1 1 1 1 0.015854988172935493 1 1 1 1 1 1 1 1 1 1 1 1 1 0.024372413539455226 1 1 1 0.010379269730575701 1 0.012928697490932201 1 0.010743662973795542 1 1 1 1 1 1 1 1 1 1 1 1 1 1 0.0097886966327999612 1 1 1 0.015054639272171861 1 0.0098554212090911711 1 1 1 0.024861659842083446 1 1 1 1 1 1 1 1 1 1 1 1 1 1 1 1 1 1 1 1 0.010095091674787178 1 1 1 1 1 1 1 1 1 1 1 1 1 1 1 1 1 1 1 1 1 1 1 1 1 1 1 1 1 1 1 1 1 1 1 1 1 1 1 1 0.010076176150020778 1 1 1 1 1 1 1 1 0.013569926022534977 1 1 1 0.010160168674429058 1 1 1 1 1 1 1 1 1 1 1 1 1 1 1 1 0.01440684612765648 1 1 1 1 1 1 1 1 1 1 1 1 1 1 1 1 1 1 0.01456645379866111 1 1 1 1 1 1 1 1 1 0.010652133129722912 1 1 1 1 1 1 1 1 1 0.011499026421606379 1 1 1 1 1 1 1 1 1 0.014160805382888601 1 1 1 1 1 1 0.011460756516149789 1 1 1 1 1 1 1 1 1 0.010812398707513188 1 0.0084663836307125092 1 1 1 1 0.015529449763147176 0.010113020364047515 1 1 0.010151053364557015 1 1 1 1 1 1 1 1 1 1 1 1 1 1 1 1 1 1 1 1 1 1 1 1 1 1 1 1 1 1 0.012039001843131111 1 1 1 1 1 1 1 1 1 1 1 0.010680934959449046 1 1 1 1 1 1 1 1 1 0.010452056388093149 1 1 0.010183197527315458 1 1 1 1 1 1 1 1 1 1 1 1 1 1 1 1 1 1 1 1 1 1 1 1 1 1 1 1 1 1 1 1 1 1 1 1 1 1 1 1 1 1 1 1 1 1 1 1 1 1 1 1 1 1 1 1 1 1 1 1 1 1 1 1 1 1 1 1 1 1 1 1 1 1 1 1 1 1 1 1 1 1 1 1 1 1 1 1 1 1 1 1 1 1 1 1 1 1 1 1 1 1 1 1 1 1 1 1 1 1 1 1 1 1 1 1 1 1 1 1 1 1 1 1 1 1 1 1 1 1 1 1 1 1 1 1 1 1 1 1 1 1 1 1 0.016621165232753692 0.0074001597134367835 0.0099016894897729583 0.0098963368197112905 1 1 1 1 1 1 1 1 1 0.015143397887396874 1 1 0.012069765637424665 1 1 1 1 1 1 1 1 1 1 1 1 0.010002187226584643 1 1 1 1 0.010367228405021224 1 1 1 1 0.0099405726924979287 1 1 1 1 1 1 0.011245587663692568 0.014745059825023846 1 1 1 1 1 1 1 0.015348594325286263 1 1 1 1 1 0.015034926679978453 1 1 1 1 1 1 1 1 1 1 0.0084640260209128855 1 1 1 1 1 1 1 0.0096120026939673885 1 1 1 1 1 0.010811396098636792 1 1 1 1 1 1 1 1 1 1 1 1 1 1 1 1 1 1 1 1 1 1 1 1 1 1 1 1 1 1 1 1 1 1 1 0.0186783638145172 1 1 1 1 1 1 1 1 1 1 1 0.0093072215089283171 0.0097616036864227006 1 1 1 0.016160086600136465 1 0.0069382154889304649 1 1 1 1 0.0096855530854943941 1 1 1 1 1 1 1 1 1 1 1 1 1 1 1 1 1 1 1 1 1 1 1 1 1 1 1 1 1 1 1 0.011242246281801151 1 1 1 1 1 1 0.010805028204155291 1 1 1 1 1 1 1 1 1 0.013963850803611264 1 1 1 1 1 1 0.011411231257249556 1 1 1 1 1 1 1 0.011767053262123583 1 1 1 1 1 1 0.0094635798785727351 1 1 0.0083498006983421195 0.013534843484898005 0.010004491208140306 1 1 1 0.015018781974581853 1 1 0.011382212335584391 0.013480935547536025 1 1 0.011080840965986348 1 1 1 0.013537608408530712 1 1 1 0.01162553141812591 1 1 1 0.010052672747824721 1 1 1 0.011077856317338788 1 1 1 1 1 1 0.0099782582709761567 1 1 1 1 1 1 1 1 1 1 1 1 1 1 1 1 1 0.010091201413717705 1 1 1 0.011225847226134702 1 1 0.0103482882590776 1 1 1 1 1 1 1 1 1 1 1 1 0.010263573827385714 1 1 1 1 1 1 1 1 1 1 1 1 1 0.013213005895419084 0.010420229833584791 1 1 1 1 1 1 0.014571358394471512 1 1 0.011121491281423016 1 1 1 1 1 1 1 1 1 1 1 1 0.011580960212743237 1 1 1 1 1 1 1 1 1 1 1 1 1 1 0.010157278222195348 1 1 1 1 1 1 1 0.010363690629705661 0.010269854222736755 1 1 1 1 1 1 1 1 1 1 1 1 1 1 1 1 1 1 1 1 1 1 1 1 0.010202458097431179 1 1 1 1 1 1 0.012303364211136822 1 1 1 0.013431013320031097 1 1 1 0.023170410711415419 1 1 0.022123953310921041 1 1 1 1 1 0.010718528840015331 1 0.0062459792189479592 1 1 1 1 0.018747587753633926 1 1 1 1 1 0.016621779580800682 1 1 0.0093572242846090489 0.0097242455678604716 1 1 1 1 0.011031417060236966 1 1 1 1 1 1 1 0.012719793687812396 1 1 1 1 1 1 1 1 1 0.023835566612396303 1 1 1 1 1 1 0.0094731194463752999 1 1 0.01260626662569439 1 0.010955191702996863 1 1 1 1 0.0099168702766220598 1 1 1 1 1 1 1 1 1 0.008308414722429474 1 1 1 1 0.010287876398932385 0.015351650208028259 1 1 1 1 1 1 1 1 1 1 1 1 1 1 1 1 1 1 1 1 1 1 1 0.011073693601365156 1 1 1 0.0093512756140046276 1 1 1 1 1 1 1 1 1 1 0.013438872082759235 0.013734660394499665 1 0.010224490582867677 1 1 1 0.01063121073293224 1 1 1 1 1 1 1 1 1 1 1 1 1 1 1 1 1 1 1 1 1 0.010731320393314618 1 1 1 1 0.0100005828912325 1 1 1 1 0.0095414449330328086 1 1 0.019316454270840729 1 1 1 0.010647716961132743 1 1 1 1 1 1 1 1 1 1 1 1 1 0.020549004105748402 1 1 1 1 0.011297534425961514 1 1 0.010513956203393519 1 0.0121343575197175 1 1 1 1 1 1 1 1 1 1 1 1 1 1 1 1 1 0.015961701979987655 1 1 1 1 1 1 0.014127190221713132 1 1 1 1 0.0095862557912198675 1 1 0.010225132167452543 1 1 1 1 1 1 1 1 1 0.0098814935666950918 1 0.010179589869592063 0.0094655210612108378 1 1 1 1 1 0.017828473976949481 1 1 1 1 1 1 1 1 1 1 1 1 0.012861700342807527 1 1 1 1 1 1 1 1 1 1 1 1 1 1 0.013843237493955593 1 1 1 1 1 1 1 1 1 1 1 1 1 1 1 1 0.013824678298296741 1 1 1 1 1 1 1 0.011622509626755123 1 1 1 1 1 1 0.010539900006013887 1 0.016423254186807672 1 1 1 1 1 1 1 1 1 1 1 1 1 1 1 1 1 1 1 1 1 1 1 1 1 1 1 0.011002105247596755 1 1 1 1 1 1 0.010980635846192546 0.010348340572948206 1 1 1 1 1 0.012263665483364 1 1 1 0.010264531395884336 1 1 0.010261508811775054 1 1 1 1 0.017048274598910666 1 1 1 1 1 1 1 0.0090607776454758714 1 1 0.01783444034376009 0.008089028245812523 1 1 1 1 1 1 1 1 1 1 1 1 1 1 1 1 0.011561568724273389 1 1 1 0.011464678928140086 1 1 1 1 1 1 0.011646898511241021 1 1 0.010149739042735292 1 1 1 1 1 1 1 1 1 0.010612665541625576 1 1 1 1 1 1 1 1 0.010762277786276482 1 1 1 1 0.011665176402051766 1 1 1 1 1 1 0.011975247854933854 1 1 1 1 1 1 1 1 0.010139802243598353 1 1 1 1 1 1 1 1 0.0099824706460911218 0.015167403738167516 1 1 1 1 1 1 1 1 0.015622849200575401 1 0.01529909761969836 1 1 1 1 0.0099085932451100835 1 0.017687236356963607 0.0097594923427649759 1 1 1 1 1 1 1 1 1 1 1 1 0.018963142072366993 1 0.0098916198975598207 0.019740381148667621 1 1 1 1 0.010513925762425885 1 1 0.010038424719858777 1 1 0.010207471959142374 1 0.010718952883388103 1 1 1 1 1 1 1 1 1 1 1 1 1 1 1 1 1 1 1 1 1 1 1 1 1 0.0070307914860426538 1 1 1 1 1 1 0.01001627979349539 0.0089879960229164637 1 1 1 1 1 1 1 1 1 1 1 1 1 1 1 1 1 1 1 1 1 0.012687238863255644 1 0.01117463503824935 1 1 0.010531864064516314 1 0.011353839455469363 1 1 1 1 1 1 1 1 1 1 1 1 1 1 1 1 1 1 1 1 1 1 1 1 1 0.011512603825006294 1 1 1 1 1 1 1 1 1 1 1 1 1 1 1 1 1 1 1 1 1 1 1 1 1 0.010283935897036696 1 1 1 1 1 1 1 1 1 0.010052935170975981 1 0.010557318883631102 1 1 1 0.012035619356392763 1 1 1 1 1 1 1 1 1 1 1 0.015537425292280412 1 1 1 1 1 1 1 1 1 1 1 1 1 1 1 1 1 1 1 1 1 1 1 1 1 1 1 1 0.010256174810062545 0.013830803544421521 1 1 0.0099312700006472746 1 1 1 1 1 0.011694700039314583 1 1 1 1 1 0.01202299179373645 1 1 1 1 1 1 0.010016804373587779 1 1 1 1 0.018106482242169212 1 0.0098437617209028352 1 1 1 1 1 1 1 1 0.010558720026984096 1 1 1 1 1 1 1 1 1 1 1 0.010115029599342318 1 1 1 0.012236930859229203 0.012135085792965263 1 1 1 1 0.015117995831462235 1 0.010078745829193721 1 1 1 1 1 1 1 1 1 1 1 0.015378912296612063 1 1 1 1 1 1 0.01535960025425992 1 0.010628020895145343 1 0.010404337072426068 0.013234751904978782 0.010007743554144338 1 1 1 1 1 0.00920358558348695 1 1 0.0093855909929668989 1 1 1 1 1 1 1 1 1 1 1 1 1 0.0099998729835295945 0.0099651958601432167 0.011141973417714382 1 1 1 0.01000261617950348 1 0.0085135128137616041 0.0099902805530280199 1 1 1 1 0.009815027384316409 1 1 1 1 1 1 1 1 1 1 0.011641842663177564 1 0.012015407075147226 1 1 1 1 1 1 1 1 1 0.013297554877544264 1 0.010791600012965481 1 1 1 0.01443145421407333 1 0.011261173505127123 1 0.010633695472684328 1 1 0.014199704606031448 0.0099947800063247896 1 1 1 1 0.010004976309376709 1 1 0.0091830710511123619 0.0087299318118477763 0.012055574656852426 1 1 0.013729488815054345 1 0.014370454142606364 1 1 1 1 0.011199099791865374 0.010817370249453267 0.013786489505910781 1 1 0.010207172947772613 1 1 0.012209327629739834 0.010069925007903394 1 1 1 1 0.013810437150750516 1 0.0093347414413205675 0.011155243719950469 1 1 1 0.010199928087614713 0.012274343423549531 0.014112159733779352 1 1 1 1 1 1 0.010013864087277679 1 1 1 0.010701727349109917 1 0.011193761651725604 1 1 0.013658001445502924 1 1 1 1 1 1 0.0099051846638115414 0.0064003467275070749 1 1 1 1 1 1 1 0.01241563353444778 1 1 1 1 1 1 1 1 1 1 1 1 1 1 0.0078894228451856768 1 1 0.0093278844844988992 1 1 1 1 1 1 1 1 1 1 1 1 1 1 1 1 1 0.010372102443089476 1 1 0.0090471261734041616 1 1 0.011470813436303294 0.010918805383521487 1 1 1 0.0099625296340480202 1 1 1 1 1 1 0.0099667294184278537 1 1 1 1 1 1 1 0.009883405612007231 1 1 1 0.0092639791746586351 1 1 1 0.0106784040857333 1 0.013666053016919064 1 0.0087284341611389704 1 1 0.013956978964138523 1 1 0.010009670083673804 1 1 1 0.0098197082573624993 1 0.0099344012425499721 1 1 0.0086124238684649433 1 0.0085334278003229118 1 0.0079053564460593896 0.012049794750501422 1 1 1 0.011717198835761833 1 0.008785222603131207 0.0097274408316607615 1 1 1 0.010152042016593137 0.010000384316155226 0.008199285867029062 1 1 1 1 1 1 1 1 1 1 0.0099639811374276424 1 1 1 1 1 1 1 1 0.011531714427184075 1 1 1 1 0.011006510382513164 1 1 1 1 1 1 1 1 1 1 0.0099994436284866154 1 0.012067509034766414 1 1 1 1 1 1 1 1 1 1 1 1 1 1 1 1 0.011624890292505704 1 1 1 0.0099889963176537713 0.0085176079631501377 1 1 1 0.011639904115447998 0.0074829632507971457 1 1 1 1 0.0099725272347646679 1 1 0.013823996625431859 1 1 1 0.0095178184565434445 1 0.010323172322468474 0.0094837873688194893 1 0.0098592999104058256 1 1 1 1 1 1 1 1 1 1 1 0.0098620798733658425 1 1 1 0.010564860549934618 1 1 1 1 1 1 0.010351196452915533 1 1 0.0098000138874328371 1 1 0.010766334165973708 1 1 1 1 1 1 1 1 1 1 1 1 1 1 1 1 1 1 1 1 1 1 1 1 1 1 1 1 1 0.010382418034554509 1 1 1 1 1 1 1 1 1 1 1 1 1 1 1 1 1 1 1 1 1 1 1 1 1 1 1 1 1 1 0.011325910849663336 1 1 1 0.013760605702266629 1 1 1 1 1 1 1 1 1 1 1 1 1 1 1 1 1 1 1 0.018093949979762079 0.0099816261075778186 0.009753762462520868 1 1 0.0090203464344717193 0.0099500672644649655 1 1 1 1 0.010060470597508342 0.0080519097586889982 1 1 0.010390420268839202 1 1 1 1 0.016307719849239607 1 1 1 1 1 1 1 1 1 1 1 1 1 1 1 1 1 1 1 1 1 1 1 1 1 1 1 1 1 1 1 1 1 1 0.012677814760284331 0.0097545370523429709 1 1 1 0.010285652692357894 1 1 1 1 1 1 1 1 1 1 0.011837595427714077 1 1 1 0.014272290280317372 1 1 1 1 1 1 1 1 1 1 1 1 1 1 1 1 1 1 1 1 1 1 1 1 1 1 1 1 1 0.010331531678868817 1 1 1 1 1 1 0.010807665811040005 1 1 1 1 0.0095310127897724334 1 0.0076449292672932205 1 1 0.0085794128233388361 1 1 1 1 0.016398245401819958 1 0.011368435708167103 1 1 1 1 1 0.01107794996029153 1 0.010081014745750405 1 1 1 1 1 1 1 1 0.010660221236469427 1 1 1 1 1 0.010362523376468445 1 1 1 1 1 0.01719191349161904 1 1 1 1 1 0.01710149766095493 1 0.016879978936750077 0.0091834827426139649 1 0.017693189062211803 1 0.018841249654401183 0.008308921662467602 1 0.01013994978884545 1 0.027878128791283971 1 1 0.0084529859230349814 1 1 1 1 1 1 1 1 1 1 1 0.010132415638209578 1 1 1 1 1 1 0.027033808569333347 1 1 1 1 1 1 1 1 1 1 1 1 1 1 1 1 1 1 1 1 1 1 1 1 1 1 0.0099983281313590928 1 1 0.010106572745496808 0.010055425596996417 1 0.010590976204969828 1 1 1 1 1 1 1 1 1 1 1 1 1 1 1 1 0.0070337184541556389 1 0.017092260128290765 1 1 1 1 1 1 1 1 0.0083880632041607762 1 0.014930967161681939 1 1 0.010288008381035116 0.010214138382584066 1 1 0.011246583804662131 1 1 1 1 1 1 1 0.0096617643502429316 1 1 0.0085732259418415079 1 1 1 1 1 1 1 1 1 1 1 1 1 1 1 1 1 0.0086517626946657628 1 0.010034262413054133 1 1 1 1 1 1 1 1 1 1 1 1 1 0.0095377058853960174 0.010020874881293398 1 1 1 1 1 1 0.011091299699232051 1 1 0.010516162790283674 1 1 1 1 1 1 1 1 1 1 0.010559518789049623 1 1 0.0096707209279002643 1 1 1 0.010150488833573282 1 0.0095087160952463268 1 0.012359491613721518 1 0.015342367949557394 0.0099945971825822003 1 1 1 0.010285778625219184 1 1 1 1 1 1 1 1 1 1 1 1 1 1 1 1 1 1 1 0.010184231840962364 1 1 1 1 1 1 1 0.010872450877904912 1 1 1 1 0.010340249935415021 1 1 1 1 1 1 1 1 1 1 1 1 1 1 1 1 1 1 1 1 1 1 1 1 0.010469536851359937 1 1 1 1 1 1 0.013251572576756283 1 1 1 1 1 1 1 1 1 1 1 1 1 1 0.010487999420942438 1 0.0080111162227660005 1 1 1 1 0.014415873774622411 1 1 1 1 0.011542450573658757 1 1 0.0081174472325133955 1 0.0069287579969623311 1 1 0.012171129914318346 1 1 1 1 0.01204210306134313 1 1 1 1 1 0.0093670220977935433 0.011765169502244904 1 0.010422665707877983 1 1 1 1 1 1 1 1 1 1 1 1 0.0098986417050354204 1 1 1 0.012789308266850971 1 0.010079461075089655 1 1 0.010009401706381954 1 1 1 1 1 1 1 0.010008852042941607 1 1 1 0.010200365814580736 1 1 0.010367566087416361 1 1 0.010067546295905149 1 0.0099994447728466405 0.010967152726666117 1 1 1 0.01070804423361281 1 1 1 1 1 1 1 1 1 1 1 0.012761109430753667 1 1 1 1 1 1 1 1 1 1 1 1 1 1 1 1 1 1 1 1 0.015627383292026759 1 1 1 1 0.021831603638162819 1 1 1 1 1 1 1 1 1 1 1 0.010467922466791804 1 1 0.0216948579754263 1 0.0097092817862132891 1 1 1 1 1 1 1 1 1 0.014219702610276115 1 1 1 1 1 1 1 1 1 1 0.011274417473896483 1 1 1 1 1 1 1 0.022273783274273359 1 1 1 0.01964337671411532 0.0095664716756547682 1 1 1 1 1 1 1 1 0.012602896800777995 1 1 0.010435607784857292 1 1 1 1 1 1 1 1 1 1 1 1 1 1 0.011003971852541369 1 1 1 1 1 1 1 1 1 1 1 1 1 1 1 1 1 1 1 1 1 0.01075533864901514 1 1 0.010590606716186819 1 1 1 1 1 1 1 1 1 1 1 1 1 1 1 0.00958245809629415 1 1 1 1 1 1 1 0.011019871527140091 1 1 0.013018356151758956 1 1 1 1 1 1 1 1 1 1 1 0.010805833820879605 1 1 1 0.01139644053706642 1 1 1 1 1 1 1 1 0.01171526752446465 1 1 1 1 1 1 0.013948335034002826 1 1 1 1 1 1 1 1 1 1 1 1 1 1 1 1 1 1 1 1 1 0.01251847595149818 1 1 1 1 0.010880571881316456 1 1 1 1 1 1 1 0.010764190702146261 1 1 1 0.011519529351161397 1 1 1 1 1 1 1 1 0.011474578246776879 1 0.010351722466645903 1 1 1 1 1 1 1 0.017042528618400221 1 1 1 1 1 1 1 0.010105038952955725 0.010988190300756005 1 1 1 1 0.012359742663065585 0.011499639554137429 1 1 1 0.014902873933800971 1 1 1 1 1 1 1 1 0.011051023184851117 1 1 0.012657513625641954 1 1 1 1 0.012101970834983261 0.010918742213948621 1 1 1 1 1 1 1 1 1 0.010755970900496292 1 1 0.010283423621096674 1 1 1 1 1 1 1 1 0.0084134019533055483 1 1 1 1 1 0.009955152004695076 1 1 1 1 1 1 1 1 1 1 0.01150274216545465 1 1 1 1 1 1 1 1 1 1 1 1 1 1 1 1 0.010439016182289811 1 1 1 1 1 1 0.011672113325920537 0.011640878391991691 1 0.010543031093090358 1 1 1 1 1 1 1 1 1 1 1 1 1 1 1 1 1 1 1 0.0099351945623143475 1 1 0.0099569630602713149 0.014484621138904977 1 1 1 1 1 1 1 1 1 1 1 1 0.013735809674992834 1 1 1 1 1 1 1 1 1 1 1 1 1 1 1 1 1 1 1 1 0.009986813527330364 1 0.015934896927703793 1 1 1 1 1 1 1 1 1 1 1 1 1 1 1 1 1 1 1 1 1 0.012393061786516904 1 1 1 1 0.010096929442690422 1 1 1 1 1 1 1 1 1 0.012166691190916533 0.010566036548369458 1 1 1 1 0.010469357824926227 1 1 1 1 1 1 0.015920875068157064 1 0.0096019076793364549 1 1 1 1 1 1 1 1 1 1 1 1 1 1 1 1 1 1 1 1 1 0.010494021123318795 1 0.0098613889152543571 1 0.018249528395891244 1 1 0.010448285607924511 1 0.01763848076596268 1 1 1 1 1 0.010415243269389307 0.016903072974048299 1 1 1 0.010157149817379876 1 1 0.010140552789195192 1 1 1 1 1 1 1 0.010291833161719346 0.019022388376300416 1 1 1 0.010151280372524144 1 1 1 1 1 1 1 1 0.019549403949416372 1 1 1 1 1 1 1 0.010009727177827207 1 1 1 1 1 1 1 1 1 1 0.009955806038341411 1 0.010211422456225673 1 1 1 1 1 1 0.010050385238969135 1 1 1 1 0.010251742334187054 1 1 1 1 0.010040619603103134 1 1 1 1 1 0.010483917088965202 1 1 1 1 1 1 1 1 0.013254145566627379 1 1 1 1 1 1 1 0.012378507094567615 1 1 1 0.011527814793686504 1 1 1 1 1 1 1 1 1 1 1 1 1 1 1 1 1 1 1 1 1 1 1 1 1 1 1 1 1 1 1 1 1 1 1 1 1 1 1 0.010085337026840186 1 1 1 1 1 1 1 1 0.010253677873816397 1 0.010327583355699201 1 1 1 1 0.010028045354343974 1 1 1 1 1 1 1 1 1 1 1 1 1 1 1 1 1 1 1 1 0.01015924250872299 1 1 1 1 1 1 1 0.011910382543681687 1 1 1 1 1 1 0.011481273834961893 1 1 0.0099359686445853971 1 0.012035132535650942 1 1 0.021179736190058942 1 1 1 1 1 1 1 1 0.012701471485140087 1 1 0.013296139717140797 1 1 1 1 1 1 1 1 1 1 1 1 1 1 0.011219160632873209 1 1 1 1 0.010485075465665092 1 1 0.010379826652100349 1 0.012686728142949369 1 1 1 1 0.01026158776117388 1 1 1 1 1 1 1 1 1 1 1 1 0.010108013646549912 1 1 1 1 1 1 0.017097665165724869 1 1 1 1 1 1 1 0.014685440584374208 1 1 1 1 1 1 1 1 1 1 1 1 1 1 1 1 1 1 1 1 1 1 1 0.019223651414488209 1 1 1 1 0.0076988792082170205 1 1 1 1 0.011033592460575815 1 1 1 1 1 1 1 1 1 1 1 1 1 1 1 1 1 1 1 1 1 1 1 1 1 1 1 1 1 1 1 1 1 1 1 1 1 1 1 1 1 0.013849381076884961 1 1 1 1 1 1 1 1 1 1 1 1 0.012305751946314704 1 1 1 1 1 1 1 1 1 1 1 1 1 0.013152759453232115 1 1 1 1 1 1 1 1 1 1 1 1 1 1 1 0.017463503944722614 1 1 1 1 1 0.010319271362469202 1 1 1 1 1 1 1 1 1 1 1 1 1 1 1 1 1 1 1 1 1 1 1 1 1 0.012984769981452985 1 1 1 1 1 1 1 1 1 1 1 1 1 1 1 1 1 1 1 1 1 1 1 1 1 1 1 1 1 1 1 1 1 1 1 1 1 1 1 1 1 1 1 1 1 1 1 1 1 1 1 1 1 0.010467431116762363 1 1 1 1 1 1 1 1 1 1 1 1 1 1 1 1 1 1 1 0.010660472257772318 1 1 1 1 1 1 1 1 0.0099621832747480467 1 1 1 1 1 0.010060134338304215 0.012883774050071278 1 1 1 1 1 0.013422192952183004 1 1 0.011127240986514741 1 0.010485879440753241 1 1 0.012046559962333777 0.01009463281465808 0.010760259043570503 1 0.0086303526477165011 1 1 1 1 1 1 1 0.010393792102438505 0.015070074045643389 1 1 1 0.011017503273345865 1 1 1 1 1 1 1 0.01000197597606502 0.015313806871884595 1 1 0.010036787502535385 1 1 1 1 0.014909238987392597 1 0.011099545238423759 1 1 0.014826365384346606 1 1 0.010551708851984427 1 1 1 1 1 1 1 1 1 1 1 1 1 1 1 1 1 1 1 1 1 0.016348846588303108 1 0.0099831295604746254 1 0.013646782968919651 1 1 1 1 1 0.0092075768732054093 1 1 1 1 1 0.011518219501399628 1 0.0096893341399858952 1 1 1 1 0.0097956920001678188 1 1 1 1 1 1 1 1 0.010994036765656382 1 1 1 1 1 1 1 1 0.010206188732337583 1 1 1 1 1 1 1 1 1 1 0.0093765562385682479 1 1 1 1 1 1 1 1 1 1 0.017464674852233974 1 1 1 1 1 1 1 1 1 1 1 1 1 0.008139608391423787 1 1 1 0.0068444019203096704 1 1 0.018599100564556836 1 1 0.019238231854893567 1 1 1 1 1 1 1 1 0.018686124602971768 1 1 0.018204829526880947 1 1 1 0.010286700105467826 1 1 1 1 1 1 0.010568434708242138 0.018203907441243707 1 0.015399632391045663 1 0.017178767053688662 1 0.015457487383247254 0.010101225432494292 1 1 1 1 1 1 1 1 1 0.0086424321742472228 0.013973362250759515 1 1 1 1 1 1 0.010081269998664115 1 1 1 1 1 1 1 1 1 1 1 0.010153064995466235 1 1 1 1 1 1 1 0.010463410247209759 1 1 1 1 1 1 0.010463760118916822 1 0.010107267919645167 1 1 1 0.011135397679052163 1 1 1 1 1 1 1 1 1 1 1 1 1 1 1 1 1 1 1 1 1 1 1 1 1 1 1 1 1 1 1 1 1 1 1 1 1 1 1 1 1 1 1 1 1 1 0.011587035886936209 1 1 1 1 1 0.011565373885753804 1 1 1 0.010712423166025723 1 1 1 1 1 1 0.010310345251743527 1 1 1 1 1 
</DataArray>
</CellData>
</Piece>
</UnstructuredGrid>
</VTKFile>
