<?xml version="1.0"?>
<VTKFile type="UnstructuredGrid" version="0.1" byte_order="LittleEndian">
<UnstructuredGrid>
<Piece NumberOfPoints="29012" NumberOfCells="10100">
<Points>
<DataArray type="Float64" NumberOfComponents="3" format="ascii">
-0.5 -0.5 0 -0.45419154818156382 -0.5 0 -0.4552502218887553 -0.47391307915062619 0 -0.5 -0.5 0 -0.4552502218887553 -0.47391307915062619 0 -0.47239567761351492 -0.46086961872594229 0 -0.5 -0.5 0 -0.47239567761351492 -0.46086961872594229 0 -0.47535824118409198 -0.42761594459381103 0 -0.45419154818156382 -0.5 0 -0.43810476616399568 -0.48695653957531032 0 -0.42095931043923801 -0.49999999999999639 0 -0.4552502218887553 -0.47391307915062619 0 -0.43810476616399568 -0.48695653957531032 0 -0.4552502218887553 -0.47391307915062619 0 -0.43810476616399568 -0.48695653957531032 0 -0.43516719177236662 -0.47080669637583439 0 -0.45419154818156382 -0.5 0 -0.4552502218887553 -0.47391307915062619 0 -0.43810476616399568 -0.48695653957531032 0 -0.44897420804176458 -0.44910521278488852 0 -0.47239567761351492 -0.46086961872594229 0 -0.47535824118409198 -0.42761594459381103 0 -0.4552502218887553 -0.47391307915062619 0 -0.44897420804176458 -0.44910521278488852 0 -0.43516719177236662 -0.47080669637583439 0 -0.4552502218887553 -0.47391307915062619 0 -0.44897420804176458 -0.44910521278488852 0 -0.47239567761351492 -0.46086961872594229 0 -0.4552502218887553 -0.47391307915062619 0 -0.47239567761351492 -0.46086961872594229 0 -0.5 -0.5 0 -0.47535824118409198 -0.42761594459381103 0 -0.5 -0.38308813969605737 0 -0.47535824118409198 -0.42761594459381103 0 -0.5 -0.38308813969605737 0 -0.45977506862290501 -0.39907307453079388 0 -0.5 -0.38308813969605737 0 -0.45977506862290501 -0.39907307453079388 0 -0.45025553758823122 -0.36878870906919142 0 -0.45977506862290501 -0.39907307453079388 0 -0.44348683465373617 -0.42098304513355589 0 -0.42977472968846531 -0.39488953416135403 0 -0.45977506862290501 -0.39907307453079388 0 -0.42977472968846531 -0.39488953416135403 0 -0.45025553758823122 -0.36878870906919142 0 -0.44897420804176458 -0.44910521278488852 0 -0.47535824118409198 -0.42761594459381103 0 -0.44348683465373617 -0.42098304513355589 0 -0.47535824118409198 -0.42761594459381103 0 -0.45977506862290501 -0.39907307453079388 0 -0.44348683465373617 -0.42098304513355589 0 -0.44897420804176458 -0.44910521278488852 0 -0.44348683465373617 -0.42098304513355589 0 -0.42917521172469397 -0.43649490035919258 0 -0.44348683465373617 -0.42098304513355589 0 -0.42917521172469397 -0.43649490035919258 0 -0.41777632770650441 -0.41871340851046301 0 -0.44348683465373617 -0.42098304513355589 0 -0.41777632770650441 -0.41871340851046301 0 -0.42977472968846531 -0.39488953416135403 0 -0.41777632770650441 -0.41871340851046301 0 -0.40649133702679557 -0.41288781904712152 0 -0.41134142118011308 -0.40290124915357628 0 -0.41777632770650441 -0.41871340851046301 0 -0.40649133702679557 -0.41288781904712152 0 -0.40320277202447469 -0.4214382276914701 0 -0.41777632770650441 -0.41871340851046301 0 -0.40320277202447469 -0.4214382276914701 0 -0.40981632344243818 -0.43908631118398972 0 -0.42917521172469397 -0.43649490035919258 0 -0.41777632770650441 -0.41871340851046301 0 -0.40981632344243818 -0.43908631118398972 0 -0.42977472968846531 -0.39488953416135403 0 -0.45025553758823122 -0.36878870906919142 0 -0.41733446999391249 -0.36160523976649989 0 -0.42977472968846531 -0.39488953416135403 0 -0.40204143561548622 -0.38683863099487081 0 -0.41733446999391249 -0.36160523976649989 0 -0.42977472968846531 -0.39488953416135403 0 -0.41134142118011308 -0.40290124915357628 0 -0.40204143561548622 -0.38683863099487081 0 -0.41777632770650441 -0.41871340851046301 0 -0.42977472968846531 -0.39488953416135403 0 -0.41134142118011308 -0.40290124915357628 0 -0.40204143561548622 -0.38683863099487081 0 -0.38680688981860412 -0.39481074748915113 0 -0.38499912013883891 -0.37390806913874081 0 -0.40204143561548622 -0.38683863099487081 0 -0.38680688981860412 -0.39481074748915113 0 -0.38674840123706 -0.4120720222232418 0 -0.41134142118011308 -0.40290124915357628 0 -0.40204143561548622 -0.38683863099487081 0 -0.39364482719609017 -0.40849839083297651 0 -0.40204143561548622 -0.38683863099487081 0 -0.39364482719609017 -0.40849839083297651 0 -0.38674840123706 -0.4120720222232418 0 -0.40204143561548622 -0.38683863099487081 0 -0.38674840123706 -0.4120720222232418 0 -0.38061572242359931 -0.40262055431257698 0 -0.38680688981860412 -0.39481074748915113 0 -0.38674840123706 -0.4120720222232418 0 -0.38061572242359931 -0.40262055431257698 0 -0.38680688981860412 -0.39481074748915113 0 -0.37130030326557911 -0.3926514153960125 0 -0.38680688981860412 -0.39481074748915113 0 -0.38499912013883891 -0.37390806913874081 0 -0.37130030326557911 -0.3926514153960125 0 -0.39270836360346911 -0.43137379312473251 0 -0.40320277202447469 -0.4214382276914701 0 -0.40981632344243818 -0.43908631118398972 0 -0.40649133702679557 -0.41288781904712152 0 -0.41134142118011308 -0.40290124915357628 0 -0.39364482719609017 -0.40849839083297651 0 -0.40649133702679557 -0.41288781904712152 0 -0.40320277202447469 -0.4214382276914701 0 -0.39364482719609017 -0.40849839083297651 0 -0.39270836360346911 -0.43137379312473251 0 -0.39155053431496328 -0.41128175987535359 0 -0.39364482719609017 -0.40849839083297651 0 -0.39270836360346911 -0.43137379312473251 0 -0.40320277202447469 -0.4214382276914701 0 -0.39364482719609017 -0.40849839083297651 0 -0.39270836360346911 -0.43137379312473251 0 -0.39364482719609017 -0.40849839083297651 0 -0.39155053431496328 -0.41128175987535359 0 -0.39364482719609017 -0.40849839083297651 0 -0.38674840123706 -0.4120720222232418 0 -0.38433910343005839 -0.41604734540929889 0 -0.38099618253532108 -0.42782111293649638 0 -0.36070158400831559 -0.41635841300089832 0 -0.39270836360346911 -0.43137379312473251 0 -0.39155053431496328 -0.41128175987535359 0 -0.38433910343005839 -0.41604734540929889 0 -0.38433910343005839 -0.41604734540929889 0 -0.38674840123706 -0.4120720222232418 0 -0.36070158400831559 -0.41635841300089832 0 -0.39155053431496328 -0.41128175987535359 0 -0.38433910343005839 -0.41604734540929889 0 -0.38674840123706 -0.4120720222232418 0 -0.39155053431496328 -0.41128175987535359 0 -0.38674840123706 -0.4120720222232418 0 -0.38433910343005839 -0.41604734540929889 0 -0.38674840123706 -0.4120720222232418 0 -0.38061572242359931 -0.40262055431257698 0 -0.38674840123706 -0.4120720222232418 0 -0.3713059213741926 -0.40528172557074571 0 -0.38099618253532108 -0.42782111293649638 0 -0.3795021320594707 -0.44529056005039169 0 -0.37053821469267501 -0.43417938553958119 0 -0.39270836360346911 -0.43137379312473251 0 -0.38099618253532108 -0.42782111293649638 0 -0.3795021320594707 -0.44529056005039169 0 -0.39270836360346911 -0.43137379312473251 0 -0.38433910343005839 -0.41604734540929889 0 -0.38099618253532108 -0.42782111293649638 0 -0.39270836360346911 -0.43137379312473251 0 -0.3795021320594707 -0.44529056005039169 0 -0.391771900010848 -0.45424919541648839 0 -0.391771900010848 -0.45424919541648839 0 -0.40981632344243818 -0.43908631118398972 0 -0.40674493418930729 -0.46388260985211288 0 -0.39270836360346911 -0.43137379312473251 0 -0.391771900010848 -0.45424919541648839 0 -0.40981632344243818 -0.43908631118398972 0 -0.39270836360346911 -0.43137379312473251 0 -0.391771900010848 -0.45424919541648839 0 -0.391771900010848 -0.45424919541648839 0 -0.39083543641822682 -0.47712459770824428 0 -0.40674493418930729 -0.46388260985211288 0 -0.391771900010848 -0.45424919541648839 0 -0.39083543641822682 -0.47712459770824428 0 -0.3795021320594707 -0.44529056005039169 0 -0.391771900010848 -0.45424919541648839 0 -0.37648671065194589 -0.4680002829253318 0 -0.391771900010848 -0.45424919541648839 0 -0.37648671065194589 -0.4680002829253318 0 -0.39083543641822682 -0.47712459770824428 0 -0.37648671065194589 -0.4680002829253318 0 -0.37737682998844191 -0.48463693516268719 0 -0.39083543641822682 -0.47712459770824428 0 -0.37737682998844191 -0.48463693516268719 0 -0.38989897282560571 -0.50000000000000022 0 -0.39083543641822682 -0.47712459770824428 0 -0.37737682998844191 -0.48463693516268719 0 -0.38989897282560571 -0.50000000000000022 0 -0.37117840301397559 -0.5 0 -0.38989897282560571 -0.50000000000000022 0 -0.39083543641822682 -0.47712459770824428 0 -0.38989897282560571 -0.50000000000000022 0 -0.39083543641822682 -0.47712459770824428 0 -0.40690372728280388 -0.48560680181341942 0 -0.38989897282560571 -0.50000000000000022 0 -0.40542914163242177 -0.5 0 -0.40690372728280388 -0.48560680181341942 0 -0.39083543641822682 -0.47712459770824428 0 -0.40690372728280388 -0.48560680181341942 0 -0.40674493418930729 -0.46388260985211288 0 -0.41831745830458178 -0.4733702350315897 0 -0.40690372728280388 -0.48560680181341942 0 -0.40674493418930729 -0.46388260985211288 0 -0.41831745830458178 -0.4733702350315897 0 -0.40690372728280388 -0.48560680181341942 0 -0.42407438812501952 -0.48436534969360068 0 -0.40690372728280388 -0.48560680181341942 0 -0.42095931043923801 -0.49999999999999639 0 -0.42407438812501952 -0.48436534969360068 0 -0.40542914163242177 -0.5 0 -0.40690372728280388 -0.48560680181341942 0 -0.42095931043923801 -0.49999999999999639 0 -0.43810476616399568 -0.48695653957531032 0 -0.42095931043923801 -0.49999999999999639 0 -0.42407438812501952 -0.48436534969360068 0 -0.43810476616399568 -0.48695653957531032 0 -0.42095931043923801 -0.49999999999999639 0 -0.41831745830458178 -0.4733702350315897 0 -0.42407438812501952 -0.48436534969360068 0 -0.43516719177236662 -0.47080669637583439 0 -0.43810476616399568 -0.48695653957531032 0 -0.42407438812501952 -0.48436534969360068 0 -0.43516719177236662 -0.47080669637583439 0 -0.44897420804176458 -0.44910521278488852 0 -0.43516719177236662 -0.47080669637583439 0 -0.42582236477902657 -0.45458652418306628 0 -0.41831745830458178 -0.4733702350315897 0 -0.43516719177236662 -0.47080669637583439 0 -0.42582236477902657 -0.45458652418306628 0 -0.44897420804176458 -0.44910521278488852 0 -0.42917521172469397 -0.43649490035919258 0 -0.42582236477902657 -0.45458652418306628 0 -0.42582236477902657 -0.45458652418306628 0 -0.40981632344243818 -0.43908631118398972 0 -0.40674493418930729 -0.46388260985211288 0 -0.42917521172469397 -0.43649490035919258 0 -0.42582236477902657 -0.45458652418306628 0 -0.40981632344243818 -0.43908631118398972 0 -0.41831745830458178 -0.4733702350315897 0 -0.42582236477902657 -0.45458652418306628 0 -0.40674493418930729 -0.46388260985211288 0 -0.48014663844908212 -0.25426376959167701 0 -0.5 -0.29275898990773391 0 -0.5 -0.22760144136205479 0 -0.43983761467696247 -0.25866437993213193 0 -0.44778793812410272 -0.27579569380896479 0 -0.43229942589967452 -0.26008175990477939 0 -0.44358413910435768 -0.25267956823017751 0 -0.4603529089819427 -0.26552167708147623 0 -0.4485400056501796 -0.26392793121794739 0 -0.44358413910435768 -0.25267956823017751 0 -0.4603529089819427 -0.26552167708147623 0 -0.44358413910435768 -0.25267956823017751 0 -0.43983761467696247 -0.25866437993213193 0 -0.43556852841349247 -0.25182683078220058 0 -0.44358413910435768 -0.25267956823017751 0 -0.43983761467696247 -0.25866437993213193 0 -0.4485400056501796 -0.26392793121794739 0 -0.44358413910435768 -0.25267956823017751 0 -0.43983761467696247 -0.25866437993213193 0 -0.4485400056501796 -0.26392793121794739 0 -0.43983761467696247 -0.25866437993213193 0 -0.44778793812410272 -0.27579569380896479 0 -0.4485400056501796 -0.26392793121794739 0 -0.44778793812410272 -0.27579569380896479 0 -0.4603529089819427 -0.26552167708147623 0 -0.44778793812410272 -0.27579569380896479 0 -0.4603529089819427 -0.26552167708147623 0 -0.46061927724933921 -0.28722191920531193 0 -0.4603529089819427 -0.26552167708147623 0 -0.4771216788595285 -0.278363785932774 0 -0.46061927724933921 -0.28722191920531193 0 -0.4603529089819427 -0.26552167708147623 0 -0.4771216788595285 -0.278363785932774 0 -0.44358413910435768 -0.25267956823017751 0 -0.46032675430121928 -0.25083923125858781 0 -0.4603529089819427 -0.26552167708147623 0 -0.46032675430121928 -0.25083923125858781 0 -0.4603529089819427 -0.26552167708147623 0 -0.48014663844908212 -0.25426376959167701 0 -0.48014663844908212 -0.25426376959167701 0 -0.4771216788595285 -0.278363785932774 0 -0.5 -0.29275898990773391 0 -0.4603529089819427 -0.26552167708147623 0 -0.48014663844908212 -0.25426376959167701 0 -0.4771216788595285 -0.278363785932774 0 -0.4771216788595285 -0.278363785932774 0 -0.4721346184084807 -0.29996329032098518 0 -0.46061927724933921 -0.28722191920531193 0 -0.4771216788595285 -0.278363785932774 0 -0.5 -0.29275898990773391 0 -0.4721346184084807 -0.29996329032098518 0 -0.5 -0.29275898990773391 0 -0.4721346184084807 -0.29996329032098518 0 -0.46664832660938688 -0.33105302336667269 0 -0.4721346184084807 -0.29996329032098518 0 -0.45628380932414869 -0.3104187331924339 0 -0.46061927724933921 -0.28722191920531193 0 -0.45628380932414869 -0.3104187331924339 0 -0.46061927724933921 -0.28722191920531193 0 -0.44277721514142337 -0.29309836553995983 0 -0.44778793812410272 -0.27579569380896479 0 -0.46061927724933921 -0.28722191920531193 0 -0.44277721514142337 -0.29309836553995983 0 -0.44778793812410272 -0.27579569380896479 0 -0.44277721514142337 -0.29309836553995983 0 -0.43163726981646638 -0.28082213281065432 0 -0.45628380932414869 -0.3104187331924339 0 -0.44277721514142337 -0.29309836553995983 0 -0.43453528889129811 -0.31372016194234159 0 -0.5 -0.38308813969605737 0 -0.5 -0.29275898990773391 0 -0.46664832660938688 -0.33105302336667269 0 -0.4475237322992931 -0.32289094175989419 0 -0.46664832660938688 -0.33105302336667269 0 -0.43262750437233871 -0.33637184853812901 0 -0.4475237322992931 -0.32289094175989419 0 -0.43262750437233871 -0.33637184853812901 0 -0.43453528889129811 -0.31372016194234159 0 -0.45628380932414869 -0.3104187331924339 0 -0.4475237322992931 -0.32289094175989419 0 -0.43453528889129811 -0.31372016194234159 0 -0.45628380932414869 -0.3104187331924339 0 -0.4475237322992931 -0.32289094175989419 0 -0.46664832660938688 -0.33105302336667269 0 -0.4721346184084807 -0.29996329032098518 0 -0.45628380932414869 -0.3104187331924339 0 -0.46664832660938688 -0.33105302336667269 0 -0.5 -0.38308813969605737 0 -0.46664832660938688 -0.33105302336667269 0 -0.45025553758823122 -0.36878870906919142 0 -0.46664832660938688 -0.33105302336667269 0 -0.45025553758823122 -0.36878870906919142 0 -0.43262750437233871 -0.33637184853812901 0 -0.45025553758823122 -0.36878870906919142 0 -0.41733446999391249 -0.36160523976649989 0 -0.43262750437233871 -0.33637184853812901 0 -0.41733446999391249 -0.36160523976649989 0 -0.43262750437233871 -0.33637184853812901 0 -0.41733446999391249 -0.36160523976649989 0 -0.39986456686569599 -0.3588152220462214 0 -0.4130754517046879 -0.34348948839582821 0 -0.41733446999391249 -0.36160523976649989 0 -0.4130754517046879 -0.34348948839582821 0 -0.43262750437233871 -0.33637184853812901 0 -0.40204143561548622 -0.38683863099487081 0 -0.41733446999391249 -0.36160523976649989 0 -0.40204143561548622 -0.38683863099487081 0 -0.41733446999391249 -0.36160523976649989 0 -0.39986456686569599 -0.3588152220462214 0 -0.40204143561548622 -0.38683863099487081 0 -0.38499912013883891 -0.37390806913874081 0 -0.39986456686569599 -0.3588152220462214 0 -0.38499912013883891 -0.37390806913874081 0 -0.38158493308834501 -0.35278975307175747 0 -0.39986456686569599 -0.3588152220462214 0 -0.38499912013883891 -0.37390806913874081 0 -0.38158493308834501 -0.35278975307175747 0 -0.36301787552378378 -0.37131935523388337 0 -0.39986456686569599 -0.3588152220462214 0 -0.40015199065290602 -0.33426015090963168 0 -0.4130754517046879 -0.34348948839582821 0 -0.38158493308834501 -0.35278975307175747 0 -0.39986456686569599 -0.3588152220462214 0 -0.40015199065290602 -0.33426015090963168 0 -0.38158493308834501 -0.35278975307175747 0 -0.40015199065290602 -0.33426015090963168 0 -0.38158493308834501 -0.35278975307175747 0 -0.40015199065290602 -0.33426015090963168 0 -0.38310888681508037 -0.33574969187057607 0 -0.38158493308834501 -0.35278975307175747 0 -0.38310888681508037 -0.33574969187057607 0 -0.36585202489038432 -0.33928096665442481 0 -0.40015199065290602 -0.33426015090963168 0 -0.38310888681508037 -0.33574969187057607 0 -0.38090393481470841 -0.31934820714295648 0 -0.38310888681508037 -0.33574969187057607 0 -0.38090393481470841 -0.31934820714295648 0 -0.36585202489038432 -0.33928096665442481 0 -0.40015199065290602 -0.33426015090963168 0 -0.38090393481470841 -0.31934820714295648 0 -0.40360135213915971 -0.30464894584998448 0 -0.41649432201207282 -0.32798117314844139 0 -0.40360135213915971 -0.30464894584998448 0 -0.40015199065290602 -0.33426015090963168 0 -0.41649432201207282 -0.32798117314844139 0 -0.40360135213915971 -0.30464894584998448 0 -0.41649432201207282 -0.32798117314844139 0 -0.41960442524199099 -0.31008851052487463 0 -0.40360135213915971 -0.30464894584998448 0 -0.41649432201207282 -0.32798117314844139 0 -0.4130754517046879 -0.34348948839582821 0 -0.43262750437233871 -0.33637184853812901 0 -0.40015199065290602 -0.33426015090963168 0 -0.41649432201207282 -0.32798117314844139 0 -0.4130754517046879 -0.34348948839582821 0 -0.41649432201207282 -0.32798117314844139 0 -0.43453528889129811 -0.31372016194234159 0 -0.41960442524199099 -0.31008851052487463 0 -0.41649432201207282 -0.32798117314844139 0 -0.43262750437233871 -0.33637184853812901 0 -0.43453528889129811 -0.31372016194234159 0 -0.44277721514142337 -0.29309836553995983 0 -0.43453528889129811 -0.31372016194234159 0 -0.42378673792543348 -0.29400376115873089 0 -0.43453528889129811 -0.31372016194234159 0 -0.42378673792543348 -0.29400376115873089 0 -0.41960442524199099 -0.31008851052487463 0 -0.44277721514142337 -0.29309836553995983 0 -0.42378673792543348 -0.29400376115873089 0 -0.43163726981646638 -0.28082213281065432 0 -0.42378673792543348 -0.29400376115873089 0 -0.41895383488575949 -0.27885837854127937 0 -0.43163726981646638 -0.28082213281065432 0 -0.42378673792543348 -0.29400376115873089 0 -0.40858580848298071 -0.28598988963903288 0 -0.40360135213915971 -0.30464894584998448 0 -0.42378673792543348 -0.29400376115873089 0 -0.40858580848298071 -0.28598988963903288 0 -0.41895383488575949 -0.27885837854127937 0 -0.42378673792543348 -0.29400376115873089 0 -0.41960442524199099 -0.31008851052487463 0 -0.40360135213915971 -0.30464894584998448 0 -0.38090393481470841 -0.31934820714295648 0 -0.40360135213915971 -0.30464894584998448 0 -0.38496659708598591 -0.2997178514257815 0 -0.38496659708598591 -0.2997178514257815 0 -0.39070838226624671 -0.28131671855152751 0 -0.36923837523670228 -0.28857366793967881 0 -0.40360135213915971 -0.30464894584998448 0 -0.39070838226624671 -0.28131671855152751 0 -0.40360135213915971 -0.30464894584998448 0 -0.38496659708598591 -0.2997178514257815 0 -0.39070838226624671 -0.28131671855152751 0 -0.40858580848298071 -0.28598988963903288 0 -0.40360135213915971 -0.30464894584998448 0 -0.39070838226624671 -0.28131671855152751 0 -0.40858580848298071 -0.28598988963903288 0 -0.39070838226624671 -0.28131671855152751 0 -0.40562190925377328 -0.27317986386554682 0 -0.39070838226624671 -0.28131671855152751 0 -0.39446416800724021 -0.26632144131029528 0 -0.38815589890150221 -0.26542477235707679 0 -0.40562190925377328 -0.27317986386554682 0 -0.39446416800724021 -0.26632144131029528 0 -0.4013620601615504 -0.26298393967861428 0 -0.39070838226624671 -0.28131671855152751 0 -0.40562190925377328 -0.27317986386554682 0 -0.39446416800724021 -0.26632144131029528 0 -0.39070838226624671 -0.28131671855152751 0 -0.37781541239333349 -0.25798449125307071 0 -0.38815589890150221 -0.26542477235707679 0 -0.39070838226624671 -0.28131671855152751 0 -0.37753625719602157 -0.26748410485126761 0 -0.37781541239333349 -0.25798449125307071 0 -0.39070838226624671 -0.28131671855152751 0 -0.37781541239333349 -0.25798449125307071 0 -0.39070838226624671 -0.28131671855152751 0 -0.37753625719602157 -0.26748410485126761 0 -0.36923837523670228 -0.28857366793967881 0 -0.37781541239333349 -0.25798449125307071 0 -0.38963563293918863 -0.25607643831341392 0 -0.37829551493504182 -0.2416466667107931 0 -0.38963563293918863 -0.25607643831341392 0 -0.40145965599806233 -0.25302967574351681 0 -0.37829551493504182 -0.2416466667107931 0 -0.37753625719602157 -0.26748410485126761 0 -0.37781541239333349 -0.25798449125307071 0 -0.37781541239333349 -0.25798449125307071 0 -0.38815589890150221 -0.26542477235707679 0 -0.38963563293918863 -0.25607643831341392 0 -0.38963563293918863 -0.25607643831341392 0 -0.4013620601615504 -0.26298393967861428 0 -0.40145965599806233 -0.25302967574351681 0 -0.39446416800724021 -0.26632144131029528 0 -0.38963563293918863 -0.25607643831341392 0 -0.4013620601615504 -0.26298393967861428 0 -0.39446416800724021 -0.26632144131029528 0 -0.38815589890150221 -0.26542477235707679 0 -0.38963563293918863 -0.25607643831341392 0 -0.40145965599806233 -0.25302967574351681 0 -0.41193914988415259 -0.25070470746742468 0 -0.4246237970610825 -0.2644126847762408 0 -0.4013620601615504 -0.26298393967861428 0 -0.40145965599806233 -0.25302967574351681 0 -0.4246237970610825 -0.2644126847762408 0 -0.40145965599806233 -0.25302967574351681 0 -0.4246237970610825 -0.2644126847762408 0 -0.41193914988415259 -0.25070470746742468 0 -0.42187018725459419 -0.25358682383067987 0 -0.4246237970610825 -0.2644126847762408 0 -0.41193914988415259 -0.25070470746742468 0 -0.42187018725459419 -0.25358682383067987 0 -0.41508950118529342 -0.2475057024194558 0 -0.40562190925377328 -0.27317986386554682 0 -0.41895383488575949 -0.27885837854127937 0 -0.4246237970610825 -0.2644126847762408 0 -0.40562190925377328 -0.27317986386554682 0 -0.4013620601615504 -0.26298393967861428 0 -0.4246237970610825 -0.2644126847762408 0 -0.40858580848298071 -0.28598988963903288 0 -0.40562190925377328 -0.27317986386554682 0 -0.41895383488575949 -0.27885837854127937 0 -0.44778793812410272 -0.27579569380896479 0 -0.43229942589967452 -0.26008175990477939 0 -0.4246237970610825 -0.2644126847762408 0 -0.44778793812410272 -0.27579569380896479 0 -0.43163726981646638 -0.28082213281065432 0 -0.4246237970610825 -0.2644126847762408 0 -0.44778793812410272 -0.27579569380896479 0 -0.4246237970610825 -0.2644126847762408 0 -0.41895383488575949 -0.27885837854127937 0 -0.43163726981646638 -0.28082213281065432 0 -0.4246237970610825 -0.2644126847762408 0 -0.43229942589967452 -0.26008175990477939 0 -0.43556852841349247 -0.25182683078220058 0 -0.42923298166873619 -0.25262009663155832 0 -0.43983761467696247 -0.25866437993213193 0 -0.43229942589967452 -0.26008175990477939 0 -0.43556852841349247 -0.25182683078220058 0 -0.43556852841349247 -0.25182683078220058 0 -0.42923298166873619 -0.25262009663155832 0 -0.42974296170692228 -0.2462554800976734 0 -0.42187018725459419 -0.25358682383067987 0 -0.42923298166873619 -0.25262009663155832 0 -0.42097071053777319 -0.24682494042986561 0 -0.42187018725459419 -0.25358682383067987 0 -0.43229942589967452 -0.26008175990477939 0 -0.42923298166873619 -0.25262009663155832 0 -0.42187018725459419 -0.25358682383067987 0 -0.43229942589967452 -0.26008175990477939 0 -0.4246237970610825 -0.2644126847762408 0 -0.32752030595706499 -0.25265331781972028 0 -0.31312628714849111 -0.26413411035817458 0 -0.30180322098676621 -0.26029539081812242 0 -0.32752030595706499 -0.25265331781972028 0 -0.30180322098676621 -0.26029539081812242 0 -0.32752030595706499 -0.25265331781972028 0 -0.30180322098676621 -0.26029539081812242 0 -0.31119823653221867 -0.2487251291273504 0 -0.32316579405437551 -0.26409571883075961 0 -0.32752030595706499 -0.25265331781972028 0 -0.31312628714849111 -0.26413411035817458 0 -0.32316579405437551 -0.26409571883075961 0 -0.32752030595706499 -0.25265331781972028 0 -0.3313143396168321 -0.26714584702917449 0 -0.31312628714849111 -0.26413411035817458 0 -0.320702243495114 -0.27244960011596919 0 -0.3058672575499421 -0.27328658231133451 0 -0.32316579405437551 -0.26409571883075961 0 -0.31312628714849111 -0.26413411035817458 0 -0.320702243495114 -0.27244960011596919 0 -0.320702243495114 -0.27244960011596919 0 -0.3165854332367678 -0.28603883174041062 0 -0.3058672575499421 -0.27328658231133451 0 -0.320702243495114 -0.27244960011596919 0 -0.3313143396168321 -0.26714584702917449 0 -0.32958751450244922 -0.28184851505540109 0 -0.320702243495114 -0.27244960011596919 0 -0.32958751450244922 -0.28184851505540109 0 -0.3165854332367678 -0.28603883174041062 0 -0.32316579405437551 -0.26409571883075961 0 -0.320702243495114 -0.27244960011596919 0 -0.3313143396168321 -0.26714584702917449 0 -0.3313143396168321 -0.26714584702917449 0 -0.3383046643340557 -0.25367321458275449 0 -0.34748711785283187 -0.28220913193997799 0 -0.3313143396168321 -0.26714584702917449 0 -0.34748711785283187 -0.28220913193997799 0 -0.32958751450244922 -0.28184851505540109 0 -0.3383046643340557 -0.25367321458275449 0 -0.34748711785283187 -0.28220913193997799 0 -0.32752030595706499 -0.25265331781972028 0 -0.3383046643340557 -0.25367321458275449 0 -0.35323739092736361 -0.24501124482131681 0 -0.32752030595706499 -0.25265331781972028 0 -0.3313143396168321 -0.26714584702917449 0 -0.3383046643340557 -0.25367321458275449 0 -0.3383046643340557 -0.25367321458275449 0 -0.35143640493699529 -0.25772934084330762 0 -0.34748711785283187 -0.28220913193997799 0 -0.3383046643340557 -0.25367321458275449 0 -0.35143640493699529 -0.25772934084330762 0 -0.35323739092736361 -0.24501124482131681 0 -0.35143640493699529 -0.25772934084330762 0 -0.36641932906039282 -0.24980620289221331 0 -0.35323739092736361 -0.24501124482131681 0 -0.35143640493699529 -0.25772934084330762 0 -0.3597509669362704 -0.2651461148269072 0 -0.36641932906039282 -0.24980620289221331 0 -0.3597509669362704 -0.2651461148269072 0 -0.36940725866998692 -0.26249131806401321 0 -0.36641932906039282 -0.24980620289221331 0 -0.37753625719602157 -0.26748410485126761 0 -0.37781541239333349 -0.25798449125307071 0 -0.36940725866998692 -0.26249131806401321 0 -0.37781541239333349 -0.25798449125307071 0 -0.36940725866998692 -0.26249131806401321 0 -0.36641932906039282 -0.24980620289221331 0 -0.37753625719602157 -0.26748410485126761 0 -0.36567502508321581 -0.27499441473807229 0 -0.36923837523670228 -0.28857366793967881 0 -0.37753625719602157 -0.26748410485126761 0 -0.36940725866998692 -0.26249131806401321 0 -0.36567502508321581 -0.27499441473807229 0 -0.3597509669362704 -0.2651461148269072 0 -0.36940725866998692 -0.26249131806401321 0 -0.36567502508321581 -0.27499441473807229 0 -0.35143640493699529 -0.25772934084330762 0 -0.3597509669362704 -0.2651461148269072 0 -0.34748711785283187 -0.28220913193997799 0 -0.3597509669362704 -0.2651461148269072 0 -0.36567502508321581 -0.27499441473807229 0 -0.34748711785283187 -0.28220913193997799 0 -0.34748711785283187 -0.28220913193997799 0 -0.3566695713716081 -0.31074504929720143 0 -0.34748711785283187 -0.28220913193997799 0 -0.36923837523670228 -0.28857366793967881 0 -0.3566695713716081 -0.31074504929720143 0 -0.36567502508321581 -0.27499441473807229 0 -0.34748711785283187 -0.28220913193997799 0 -0.36923837523670228 -0.28857366793967881 0 -0.38496659708598591 -0.2997178514257815 0 -0.36923837523670228 -0.28857366793967881 0 -0.3566695713716081 -0.31074504929720143 0 -0.38090393481470841 -0.31934820714295648 0 -0.38496659708598591 -0.2997178514257815 0 -0.3566695713716081 -0.31074504929720143 0 -0.34748711785283187 -0.28220913193997799 0 -0.3566695713716081 -0.31074504929720143 0 -0.32786191770141071 -0.30452814351501872 0 -0.3566695713716081 -0.31074504929720143 0 -0.32786191770141071 -0.30452814351501872 0 -0.32973448098335151 -0.32217587513409662 0 -0.34748711785283187 -0.28220913193997799 0 -0.32958751450244922 -0.28184851505540109 0 -0.32786191770141071 -0.30452814351501872 0 -0.3165854332367678 -0.28603883174041062 0 -0.32786191770141071 -0.30452814351501872 0 -0.30966498615293842 -0.29822278451192102 0 -0.32958751450244922 -0.28184851505540109 0 -0.3165854332367678 -0.28603883174041062 0 -0.32786191770141071 -0.30452814351501872 0 -0.32786191770141071 -0.30452814351501872 0 -0.30724868167873381 -0.31212656849092479 0 -0.30966498615293842 -0.29822278451192102 0 -0.32973448098335151 -0.32217587513409662 0 -0.31179441924514911 -0.33405830800022318 0 -0.30724868167873381 -0.31212656849092479 0 -0.32786191770141071 -0.30452814351501872 0 -0.32973448098335151 -0.32217587513409662 0 -0.30724868167873381 -0.31212656849092479 0 -0.33004161624615602 -0.33982220253319512 0 -0.31872282741923452 -0.3494088472444361 0 -0.31179441924514911 -0.33405830800022318 0 -0.33004161624615602 -0.33982220253319512 0 -0.32973448098335151 -0.32217587513409662 0 -0.31179441924514911 -0.33405830800022318 0 -0.33004161624615602 -0.33982220253319512 0 -0.32973448098335151 -0.32217587513409662 0 -0.34479067965705129 -0.3317749789680165 0 -0.33004161624615602 -0.33982220253319512 0 -0.34479067965705129 -0.3317749789680165 0 -0.34388207792873221 -0.34562979158973239 0 -0.3566695713716081 -0.31074504929720143 0 -0.32973448098335151 -0.32217587513409662 0 -0.34479067965705129 -0.3317749789680165 0 -0.3566695713716081 -0.31074504929720143 0 -0.36585202489038432 -0.33928096665442481 0 -0.34479067965705129 -0.3317749789680165 0 -0.3566695713716081 -0.31074504929720143 0 -0.36585202489038432 -0.33928096665442481 0 -0.38090393481470841 -0.31934820714295648 0 -0.3566695713716081 -0.31074504929720143 0 -0.36585202489038432 -0.33928096665442481 0 -0.36585202489038432 -0.33928096665442481 0 -0.34479067965705129 -0.3317749789680165 0 -0.34388207792873221 -0.34562979158973239 0 -0.36585202489038432 -0.33928096665442481 0 -0.35213981271349998 -0.35688918185130342 0 -0.34388207792873221 -0.34562979158973239 0 -0.38158493308834501 -0.35278975307175747 0 -0.36585202489038432 -0.33928096665442481 0 -0.36564866155400327 -0.35506981420284228 0 -0.36585202489038432 -0.33928096665442481 0 -0.35213981271349998 -0.35688918185130342 0 -0.36564866155400327 -0.35506981420284228 0 -0.38158493308834501 -0.35278975307175747 0 -0.36564866155400327 -0.35506981420284228 0 -0.36301787552378378 -0.37131935523388337 0 -0.35213981271349998 -0.35688918185130342 0 -0.36564866155400327 -0.35506981420284228 0 -0.36301787552378378 -0.37131935523388337 0 -0.38158493308834501 -0.35278975307175747 0 -0.36301787552378378 -0.37131935523388337 0 -0.35213981271349998 -0.35688918185130342 0 -0.36301787552378378 -0.37131935523388337 0 -0.34235615455663559 -0.36898854841574391 0 -0.36301787552378378 -0.37131935523388337 0 -0.34235615455663559 -0.36898854841574391 0 -0.34359748138424651 -0.37989712869324238 0 -0.35213981271349998 -0.35688918185130342 0 -0.34235615455663559 -0.36898854841574391 0 -0.33347841383974902 -0.35661559919109281 0 -0.34235615455663559 -0.36898854841574391 0 -0.32886922559232279 -0.36823036088819339 0 -0.33233020661607199 -0.37897337915820001 0 -0.34235615455663559 -0.36898854841574391 0 -0.32886922559232279 -0.36823036088819339 0 -0.33347841383974902 -0.35661559919109281 0 -0.35213981271349998 -0.35688918185130342 0 -0.34388207792873221 -0.34562979158973239 0 -0.33347841383974902 -0.35661559919109281 0 -0.33004161624615602 -0.33982220253319512 0 -0.34388207792873221 -0.34562979158973239 0 -0.33347841383974902 -0.35661559919109281 0 -0.33004161624615602 -0.33982220253319512 0 -0.33347841383974902 -0.35661559919109281 0 -0.31872282741923452 -0.3494088472444361 0 -0.33347841383974902 -0.35661559919109281 0 -0.31872282741923452 -0.3494088472444361 0 -0.3168125958841565 -0.36155111588222433 0 -0.31872282741923452 -0.3494088472444361 0 -0.3168125958841565 -0.36155111588222433 0 -0.30537814665786212 -0.35046611655600451 0 -0.32886922559232279 -0.36823036088819339 0 -0.33347841383974902 -0.35661559919109281 0 -0.3168125958841565 -0.36155111588222433 0 -0.3168125958841565 -0.36155111588222433 0 -0.30801734772817152 -0.36888776622316372 0 -0.31936875706500079 -0.37502316179370621 0 -0.32886922559232279 -0.36823036088819339 0 -0.33233020661607199 -0.37897337915820001 0 -0.31936875706500079 -0.37502316179370621 0 -0.32886922559232279 -0.36823036088819339 0 -0.3168125958841565 -0.36155111588222433 0 -0.31936875706500079 -0.37502316179370621 0 -0.30176839469524069 -0.36045680850671141 0 -0.29633866705462519 -0.35673188437699582 0 -0.29562070382356448 -0.36608991577993188 0 -0.30176839469524069 -0.36045680850671141 0 -0.30801734772817152 -0.36888776622316372 0 -0.29562070382356448 -0.36608991577993188 0 -0.30176839469524069 -0.36045680850671141 0 -0.29562070382356448 -0.36608991577993188 0 -0.30801734772817152 -0.36888776622316372 0 -0.29562070382356448 -0.36608991577993188 0 -0.30651628717289497 -0.38131782915324469 0 -0.29562070382356448 -0.36608991577993188 0 -0.30651628717289497 -0.38131782915324469 0 -0.3168125958841565 -0.36155111588222433 0 -0.30176839469524069 -0.36045680850671141 0 -0.30801734772817152 -0.36888776622316372 0 -0.31872282741923452 -0.3494088472444361 0 -0.30537814665786212 -0.35046611655600451 0 -0.31179441924514911 -0.33405830800022318 0 -0.3168125958841565 -0.36155111588222433 0 -0.30176839469524069 -0.36045680850671141 0 -0.30537814665786212 -0.35046611655600451 0 -0.30537814665786212 -0.35046611655600451 0 -0.29628893732942041 -0.35036818159959332 0 -0.29558899228887831 -0.34026456773792307 0 -0.30537814665786212 -0.35046611655600451 0 -0.29633866705462519 -0.35673188437699582 0 -0.29628893732942041 -0.35036818159959332 0 -0.30176839469524069 -0.36045680850671141 0 -0.30537814665786212 -0.35046611655600451 0 -0.29633866705462519 -0.35673188437699582 0 -0.29633866705462519 -0.35673188437699582 0 -0.28693958964866217 -0.35193010937164182 0 -0.29203623017300162 -0.36108017444809237 0 -0.28693958964866217 -0.35193010937164182 0 -0.27553701656613039 -0.34747741778808128 0 -0.28344607046669712 -0.3353997459815013 0 -0.29633866705462519 -0.35673188437699582 0 -0.29628893732942041 -0.35036818159959332 0 -0.28693958964866217 -0.35193010937164182 0 -0.29628893732942041 -0.35036818159959332 0 -0.28693958964866217 -0.35193010937164182 0 -0.29558899228887831 -0.34026456773792307 0 -0.28693958964866217 -0.35193010937164182 0 -0.29203623017300162 -0.36108017444809237 0 -0.27793292297869709 -0.36233984825116472 0 -0.29203623017300162 -0.36108017444809237 0 -0.29562070382356448 -0.36608991577993188 0 -0.27793292297869709 -0.36233984825116472 0 -0.29562070382356448 -0.36608991577993188 0 -0.27778183291164382 -0.38243560972868967 0 -0.29562070382356448 -0.36608991577993188 0 -0.27793292297869709 -0.36233984825116472 0 -0.27778183291164382 -0.38243560972868967 0 -0.29633866705462519 -0.35673188437699582 0 -0.29203623017300162 -0.36108017444809237 0 -0.29562070382356448 -0.36608991577993188 0 -0.29203623017300162 -0.36108017444809237 0 -0.29562070382356448 -0.36608991577993188 0 -0.27793292297869709 -0.36233984825116472 0 -0.25804678253975061 -0.37293097864154412 0 -0.27778183291164382 -0.38243560972868967 0 -0.25804678253975061 -0.37293097864154412 0 -0.26023924238447832 -0.35363314844072841 0 -0.2402158550776487 -0.3585345644779912 0 -0.27793292297869709 -0.36233984825116472 0 -0.25804678253975061 -0.37293097864154412 0 -0.26023924238447832 -0.35363314844072841 0 -0.27793292297869709 -0.36233984825116472 0 -0.26023924238447832 -0.35363314844072841 0 -0.27553701656613039 -0.34747741778808128 0 -0.26023924238447832 -0.35363314844072841 0 -0.27553701656613039 -0.34747741778808128 0 -0.26667641296327588 -0.33313271670345551 0 -0.28693958964866217 -0.35193010937164182 0 -0.27793292297869709 -0.36233984825116472 0 -0.27553701656613039 -0.34747741778808128 0 -0.26667641296327588 -0.33313271670345551 0 -0.28486159368994018 -0.31786502865286942 0 -0.28344607046669712 -0.3353997459815013 0 -0.27553701656613039 -0.34747741778808128 0 -0.26667641296327588 -0.33313271670345551 0 -0.28344607046669712 -0.3353997459815013 0 -0.26023924238447832 -0.35363314844072841 0 -0.26667641296327588 -0.33313271670345551 0 -0.24670955931798391 -0.33764664420284268 0 -0.26667641296327588 -0.33313271670345551 0 -0.25273386975939072 -0.32072586397171032 0 -0.24670955931798391 -0.33764664420284268 0 -0.25273386975939072 -0.32072586397171032 0 -0.26557564343465451 -0.30491080956572181 0 -0.25273386975939072 -0.32072586397171032 0 -0.26685985280015129 -0.31878550050212962 0 -0.26557564343465451 -0.30491080956572181 0 -0.26667641296327588 -0.33313271670345551 0 -0.25273386975939072 -0.32072586397171032 0 -0.26685985280015129 -0.31878550050212962 0 -0.26685985280015129 -0.31878550050212962 0 -0.28486159368994018 -0.31786502865286942 0 -0.26557564343465451 -0.30491080956572181 0 -0.26667641296327588 -0.33313271670345551 0 -0.26685985280015129 -0.31878550050212962 0 -0.28486159368994018 -0.31786502865286942 0 -0.28486159368994018 -0.31786502865286942 0 -0.28344607046669712 -0.3353997459815013 0 -0.29874398349458359 -0.32549451642763949 0 -0.28693958964866217 -0.35193010937164182 0 -0.28344607046669712 -0.3353997459815013 0 -0.29558899228887831 -0.34026456773792307 0 -0.28344607046669712 -0.3353997459815013 0 -0.29558899228887831 -0.34026456773792307 0 -0.29874398349458359 -0.32549451642763949 0 -0.30537814665786212 -0.35046611655600451 0 -0.29558899228887831 -0.34026456773792307 0 -0.31179441924514911 -0.33405830800022318 0 -0.29558899228887831 -0.34026456773792307 0 -0.31179441924514911 -0.33405830800022318 0 -0.29874398349458359 -0.32549451642763949 0 -0.28486159368994018 -0.31786502865286942 0 -0.29874398349458359 -0.32549451642763949 0 -0.30724868167873381 -0.31212656849092479 0 -0.31179441924514911 -0.33405830800022318 0 -0.29874398349458359 -0.32549451642763949 0 -0.30724868167873381 -0.31212656849092479 0 -0.28486159368994018 -0.31786502865286942 0 -0.29905292013240981 -0.30080993899827929 0 -0.30724868167873381 -0.31212656849092479 0 -0.29905292013240981 -0.30080993899827929 0 -0.30724868167873381 -0.31212656849092479 0 -0.30966498615293842 -0.29822278451192102 0 -0.3165854332367678 -0.28603883174041062 0 -0.30966498615293842 -0.29822278451192102 0 -0.30383541971410821 -0.28746185446459183 0 -0.3165854332367678 -0.28603883174041062 0 -0.30383541971410821 -0.28746185446459183 0 -0.3058672575499421 -0.27328658231133451 0 -0.30383541971410821 -0.28746185446459183 0 -0.28965391942632851 -0.28837345887108978 0 -0.29791876027469072 -0.2802745229336594 0 -0.29905292013240981 -0.30080993899827929 0 -0.30383541971410821 -0.28746185446459183 0 -0.28965391942632851 -0.28837345887108978 0 -0.29905292013240981 -0.30080993899827929 0 -0.30966498615293842 -0.29822278451192102 0 -0.30383541971410821 -0.28746185446459183 0 -0.28965391942632851 -0.28837345887108978 0 -0.2784174171099183 -0.28909575515973329 0 -0.29231844440838328 -0.27197619608762108 0 -0.30383541971410821 -0.28746185446459183 0 -0.28965391942632851 -0.28837345887108978 0 -0.28965391942632851 -0.28837345887108978 0 -0.2784174171099183 -0.28909575515973329 0 -0.28486159368994018 -0.31786502865286942 0 -0.28965391942632851 -0.28837345887108978 0 -0.2784174171099183 -0.28909575515973329 0 -0.28486159368994018 -0.31786502865286942 0 -0.28965391942632851 -0.28837345887108978 0 -0.28486159368994018 -0.31786502865286942 0 -0.29905292013240981 -0.30080993899827929 0 -0.28965391942632851 -0.28837345887108978 0 -0.26557564343465451 -0.30491080956572181 0 -0.2784174171099183 -0.28909575515973329 0 -0.28486159368994018 -0.31786502865286942 0 -0.26557564343465451 -0.30491080956572181 0 -0.2784174171099183 -0.28909575515973329 0 -0.25273386975939072 -0.32072586397171032 0 -0.26557564343465451 -0.30491080956572181 0 -0.25170461348194412 -0.30483746849924931 0 -0.26557564343465451 -0.30491080956572181 0 -0.25170461348194412 -0.30483746849924931 0 -0.2612653050330534 -0.29019831417201858 0 -0.2612653050330534 -0.29019831417201858 0 -0.2441131929561885 -0.2913008731843042 0 -0.25170461348194412 -0.30483746849924931 0 -0.2612653050330534 -0.29019831417201858 0 -0.2441131929561885 -0.2913008731843042 0 -0.25520955760751529 -0.28320891992735048 0 -0.2612653050330534 -0.29019831417201858 0 -0.2441131929561885 -0.2913008731843042 0 -0.25520955760751529 -0.28320891992735048 0 -0.2612653050330534 -0.29019831417201858 0 -0.26415341921256469 -0.28085710182659568 0 -0.2612653050330534 -0.29019831417201858 0 -0.2784174171099183 -0.28909575515973329 0 -0.26415341921256469 -0.28085710182659568 0 -0.2612653050330534 -0.29019831417201858 0 -0.2784174171099183 -0.28909575515973329 0 -0.26557564343465451 -0.30491080956572181 0 -0.2612653050330534 -0.29019831417201858 0 -0.2784174171099183 -0.28909575515973329 0 -0.2784174171099183 -0.28909575515973329 0 -0.27368938217035788 -0.27874188375278702 0 -0.26415341921256469 -0.28085710182659568 0 -0.2784174171099183 -0.28909575515973329 0 -0.27368938217035788 -0.27874188375278702 0 -0.2812422678534951 -0.27554930640889352 0 -0.27368938217035788 -0.27874188375278702 0 -0.2812422678534951 -0.27554930640889352 0 -0.27094442450545397 -0.26946537161592721 0 -0.27368938217035788 -0.27874188375278702 0 -0.27094442450545397 -0.26946537161592721 0 -0.26415341921256469 -0.28085710182659568 0 -0.27094442450545397 -0.26946537161592721 0 -0.26415341921256469 -0.28085710182659568 0 -0.27094442450545397 -0.26946537161592721 0 -0.26415341921256469 -0.28085710182659568 0 -0.24970680178845411 -0.27577633039306748 0 -0.27094442450545397 -0.26946537161592721 0 -0.24970680178845411 -0.27577633039306748 0 -0.25520955760751529 -0.28320891992735048 0 -0.26415341921256469 -0.28085710182659568 0 -0.24970680178845411 -0.27577633039306748 0 -0.27094442450545397 -0.26946537161592721 0 -0.24970680178845411 -0.27577633039306748 0 -0.25917426252380321 -0.24950027074751899 0 -0.24970680178845411 -0.27577633039306748 0 -0.25917426252380321 -0.24950027074751899 0 -0.27094442450545397 -0.26946537161592721 0 -0.28591666447659481 -0.24434983848872399 0 -0.25917426252380321 -0.24950027074751899 0 -0.27094442450545397 -0.26946537161592721 0 -0.28591666447659481 -0.24434983848872399 0 -0.27094442450545397 -0.26946537161592721 0 -0.29383162236720062 -0.26266422611322338 0 -0.28591666447659481 -0.24434983848872399 0 -0.29383162236720062 -0.26266422611322338 0 -0.29736026340746802 -0.2409492657373718 0 -0.29383162236720062 -0.26266422611322338 0 -0.29231844440838328 -0.27197619608762108 0 -0.30180322098676621 -0.26029539081812242 0 -0.28965391942632851 -0.28837345887108978 0 -0.29231844440838328 -0.27197619608762108 0 -0.2812422678534951 -0.27554930640889352 0 -0.27094442450545397 -0.26946537161592721 0 -0.29383162236720062 -0.26266422611322338 0 -0.2784174171099183 -0.28909575515973329 0 -0.29231844440838328 -0.27197619608762108 0 -0.27094442450545397 -0.26946537161592721 0 -0.29383162236720062 -0.26266422611322338 0 -0.28965391942632851 -0.28837345887108978 0 -0.29231844440838328 -0.27197619608762108 0 -0.29791876027469072 -0.2802745229336594 0 -0.2784174171099183 -0.28909575515973329 0 -0.2812422678534951 -0.27554930640889352 0 -0.29231844440838328 -0.27197619608762108 0 -0.29383162236720062 -0.26266422611322338 0 -0.29231844440838328 -0.27197619608762108 0 -0.2812422678534951 -0.27554930640889352 0 -0.29383162236720062 -0.26266422611322338 0 -0.29231844440838328 -0.27197619608762108 0 -0.29231844440838328 -0.27197619608762108 0 -0.30180322098676621 -0.26029539081812242 0 -0.29231844440838328 -0.27197619608762108 0 -0.3058672575499421 -0.27328658231133451 0 -0.30180322098676621 -0.26029539081812242 0 -0.30383541971410821 -0.28746185446459183 0 -0.29791876027469072 -0.2802745229336594 0 -0.3058672575499421 -0.27328658231133451 0 -0.29231844440838328 -0.27197619608762108 0 -0.29791876027469072 -0.2802745229336594 0 -0.3058672575499421 -0.27328658231133451 0 -0.31312628714849111 -0.26413411035817458 0 -0.3058672575499421 -0.27328658231133451 0 -0.30180322098676621 -0.26029539081812242 0 -0.29383162236720062 -0.26266422611322338 0 -0.30104833582341312 -0.2531585029490166 0 -0.29736026340746802 -0.2409492657373718 0 -0.30180322098676621 -0.26029539081812242 0 -0.31119823653221867 -0.2487251291273504 0 -0.30104833582341312 -0.2531585029490166 0 -0.30180322098676621 -0.26029539081812242 0 -0.31119823653221867 -0.2487251291273504 0 -0.29383162236720062 -0.26266422611322338 0 -0.30180322098676621 -0.26029539081812242 0 -0.29383162236720062 -0.26266422611322338 0 -0.30104833582341312 -0.2531585029490166 0 -0.30180322098676621 -0.26029539081812242 0 -0.33989341140880752 -0.45269153058047801 0 -0.32218104523808128 -0.46089178205855791 0 -0.33913344807865919 -0.46930990412135087 0 -0.33989341140880752 -0.45269153058047801 0 -0.33913344807865919 -0.46930990412135087 0 -0.35136804731572419 -0.46100105532775398 0 -0.33989341140880752 -0.45269153058047801 0 -0.32535354732803062 -0.44124525223250999 0 -0.34473604798785218 -0.43473463008795821 0 -0.33989341140880752 -0.45269153058047801 0 -0.32535354732803062 -0.44124525223250999 0 -0.32218104523808128 -0.46089178205855791 0 -0.32535354732803062 -0.44124525223250999 0 -0.31379372532975969 -0.42407779810171897 0 -0.30280188461510082 -0.44814785546760838 0 -0.32535354732803062 -0.44124525223250999 0 -0.32218104523808128 -0.46089178205855791 0 -0.30280188461510082 -0.44814785546760838 0 -0.32218104523808128 -0.46089178205855791 0 -0.32429088254791899 -0.47964843600869272 0 -0.30314841170964979 -0.47876861912680729 0 -0.32429088254791899 -0.47964843600869272 0 -0.32286251601823268 -0.5 0 -0.30314841170964979 -0.47876861912680729 0 -0.32286251601823268 -0.5 0 -0.33896250958674512 -0.48575528594150502 0 -0.35245783320234558 -0.49999999999999928 0 -0.32429088254791899 -0.47964843600869272 0 -0.32286251601823268 -0.5 0 -0.33896250958674512 -0.48575528594150502 0 -0.32218104523808128 -0.46089178205855791 0 -0.32429088254791899 -0.47964843600869272 0 -0.33913344807865919 -0.46930990412135087 0 -0.32429088254791899 -0.47964843600869272 0 -0.33896250958674512 -0.48575528594150502 0 -0.33913344807865919 -0.46930990412135087 0 -0.33913344807865919 -0.46930990412135087 0 -0.35848462703245532 -0.47805979517985991 0 -0.35136804731572419 -0.46100105532775398 0 -0.33896250958674512 -0.48575528594150502 0 -0.33913344807865919 -0.46930990412135087 0 -0.35848462703245532 -0.47805979517985991 0 -0.35848462703245532 -0.47805979517985991 0 -0.35245783320234558 -0.49999999999999928 0 -0.33896250958674512 -0.48575528594150502 0 -0.35848462703245532 -0.47805979517985991 0 -0.35245783320234558 -0.49999999999999928 0 -0.37737682998844191 -0.48463693516268719 0 -0.35848462703245532 -0.47805979517985991 0 -0.37117840301397559 -0.5 0 -0.35848462703245532 -0.47805979517985991 0 -0.35245783320234558 -0.49999999999999928 0 -0.37117840301397559 -0.5 0 -0.37648671065194589 -0.4680002829253318 0 -0.37737682998844191 -0.48463693516268719 0 -0.35848462703245532 -0.47805979517985991 0 -0.35848462703245532 -0.47805979517985991 0 -0.36451142086256522 -0.45611959035972049 0 -0.37648671065194589 -0.4680002829253318 0 -0.35848462703245532 -0.47805979517985991 0 -0.36451142086256522 -0.45611959035972049 0 -0.3795021320594707 -0.44529056005039169 0 -0.37648671065194589 -0.4680002829253318 0 -0.36451142086256522 -0.45611959035972049 0 -0.35848462703245532 -0.47805979517985991 0 -0.36451142086256522 -0.45611959035972049 0 -0.35136804731572419 -0.46100105532775398 0 -0.36451142086256522 -0.45611959035972049 0 -0.35136804731572419 -0.46100105532775398 0 -0.35481732919613401 -0.44882445639736068 0 -0.33989341140880752 -0.45269153058047801 0 -0.35136804731572419 -0.46100105532775398 0 -0.35481732919613401 -0.44882445639736068 0 -0.33989341140880752 -0.45269153058047801 0 -0.35481732919613401 -0.44882445639736068 0 -0.34473604798785218 -0.43473463008795821 0 -0.35481732919613401 -0.44882445639736068 0 -0.34473604798785218 -0.43473463008795821 0 -0.35481732919613401 -0.44882445639736068 0 -0.34473604798785218 -0.43473463008795821 0 -0.357673125148604 -0.43612963701085428 0 -0.36451142086256522 -0.45611959035972049 0 -0.35481732919613401 -0.44882445639736068 0 -0.37053821469267501 -0.43417938553958119 0 -0.36451142086256522 -0.45611959035972049 0 -0.37053821469267501 -0.43417938553958119 0 -0.3795021320594707 -0.44529056005039169 0 -0.36451142086256522 -0.45611959035972049 0 -0.37053821469267501 -0.43417938553958119 0 -0.35481732919613401 -0.44882445639736068 0 -0.37053821469267501 -0.43417938553958119 0 -0.357673125148604 -0.43612963701085428 0 -0.38099618253532108 -0.42782111293649638 0 -0.37053821469267501 -0.43417938553958119 0 -0.36070158400831559 -0.41635841300089832 0 -0.37053821469267501 -0.43417938553958119 0 -0.36070158400831559 -0.41635841300089832 0 -0.357673125148604 -0.43612963701085428 0 -0.38674840123706 -0.4120720222232418 0 -0.36070158400831559 -0.41635841300089832 0 -0.3713059213741926 -0.40528172557074571 0 -0.38674840123706 -0.4120720222232418 0 -0.36070158400831559 -0.41635841300089832 0 -0.36070158400831559 -0.41635841300089832 0 -0.3713059213741926 -0.40528172557074571 0 -0.35626030264527331 -0.401893965671693 0 -0.36070158400831559 -0.41635841300089832 0 -0.33465476677957118 -0.42064480377855512 0 -0.36070158400831559 -0.41635841300089832 0 -0.34062130837722321 -0.40502839255458489 0 -0.33465476677957118 -0.42064480377855512 0 -0.36070158400831559 -0.41635841300089832 0 -0.35626030264527331 -0.401893965671693 0 -0.34062130837722321 -0.40502839255458489 0 -0.36070158400831559 -0.41635841300089832 0 -0.34473604798785218 -0.43473463008795821 0 -0.357673125148604 -0.43612963701085428 0 -0.36070158400831559 -0.41635841300089832 0 -0.34473604798785218 -0.43473463008795821 0 -0.33465476677957118 -0.42064480377855512 0 -0.36301787552378378 -0.37131935523388337 0 -0.37130030326557911 -0.3926514153960125 0 -0.35790196370788008 -0.38939959749949271 0 -0.38499912013883891 -0.37390806913874081 0 -0.36301787552378378 -0.37131935523388337 0 -0.37130030326557911 -0.3926514153960125 0 -0.37130030326557911 -0.3926514153960125 0 -0.35626030264527331 -0.401893965671693 0 -0.35790196370788008 -0.38939959749949271 0 -0.38061572242359931 -0.40262055431257698 0 -0.37130030326557911 -0.3926514153960125 0 -0.3713059213741926 -0.40528172557074571 0 -0.37130030326557911 -0.3926514153960125 0 -0.3713059213741926 -0.40528172557074571 0 -0.35626030264527331 -0.401893965671693 0 -0.35626030264527331 -0.401893965671693 0 -0.34758065772343733 -0.39729381938403191 0 -0.34062130837722321 -0.40502839255458489 0 -0.34758065772343733 -0.39729381938403191 0 -0.35790196370788008 -0.38939959749949271 0 -0.34445081795922278 -0.38984895739600928 0 -0.34758065772343733 -0.39729381938403191 0 -0.34445081795922278 -0.38984895739600928 0 -0.34027397247383973 -0.39632086191965749 0 -0.35626030264527331 -0.401893965671693 0 -0.34758065772343733 -0.39729381938403191 0 -0.35790196370788008 -0.38939959749949271 0 -0.36301787552378378 -0.37131935523388337 0 -0.34445081795922278 -0.38984895739600928 0 -0.36301787552378378 -0.37131935523388337 0 -0.35790196370788008 -0.38939959749949271 0 -0.34445081795922278 -0.38984895739600928 0 -0.36301787552378378 -0.37131935523388337 0 -0.34445081795922278 -0.38984895739600928 0 -0.34359748138424651 -0.37989712869324238 0 -0.33233020661607199 -0.37897337915820001 0 -0.34359748138424651 -0.37989712869324238 0 -0.33633996037446501 -0.3888843243454122 0 -0.34235615455663559 -0.36898854841574391 0 -0.33233020661607199 -0.37897337915820001 0 -0.34359748138424651 -0.37989712869324238 0 -0.34445081795922278 -0.38984895739600928 0 -0.34359748138424651 -0.37989712869324238 0 -0.33633996037446501 -0.3888843243454122 0 -0.33233020661607199 -0.37897337915820001 0 -0.33633996037446501 -0.3888843243454122 0 -0.32292754921189343 -0.38514118351846682 0 -0.33633996037446501 -0.3888843243454122 0 -0.33237711793485031 -0.40054881591824942 0 -0.31741187052222841 -0.3965457425265555 0 -0.33237711793485031 -0.40054881591824942 0 -0.31741187052222841 -0.3965457425265555 0 -0.33465476677957118 -0.42064480377855512 0 -0.34445081795922278 -0.38984895739600928 0 -0.33633996037446501 -0.3888843243454122 0 -0.34027397247383973 -0.39632086191965749 0 -0.33633996037446501 -0.3888843243454122 0 -0.34027397247383973 -0.39632086191965749 0 -0.33237711793485031 -0.40054881591824942 0 -0.34027397247383973 -0.39632086191965749 0 -0.34062130837722321 -0.40502839255458489 0 -0.33237711793485031 -0.40054881591824942 0 -0.34758065772343733 -0.39729381938403191 0 -0.34027397247383973 -0.39632086191965749 0 -0.34062130837722321 -0.40502839255458489 0 -0.33633996037446501 -0.3888843243454122 0 -0.31741187052222841 -0.3965457425265555 0 -0.32292754921189343 -0.38514118351846682 0 -0.31936875706500079 -0.37502316179370621 0 -0.30651628717289497 -0.38131782915324469 0 -0.33633996037446501 -0.3888843243454122 0 -0.31741187052222841 -0.3965457425265555 0 -0.32292754921189343 -0.38514118351846682 0 -0.31741187052222841 -0.3965457425265555 0 -0.32292754921189343 -0.38514118351846682 0 -0.30651628717289497 -0.38131782915324469 0 -0.33233020661607199 -0.37897337915820001 0 -0.32292754921189343 -0.38514118351846682 0 -0.31936875706500079 -0.37502316179370621 0 -0.32535354732803062 -0.44124525223250999 0 -0.34473604798785218 -0.43473463008795821 0 -0.33465476677957118 -0.42064480377855512 0 -0.34473604798785218 -0.43473463008795821 0 -0.33465476677957118 -0.42064480377855512 0 -0.34062130837722321 -0.40502839255458489 0 -0.33237711793485031 -0.40054881591824942 0 -0.33465476677957118 -0.42064480377855512 0 -0.31741187052222841 -0.3965457425265555 0 -0.33465476677957118 -0.42064480377855512 0 -0.33465476677957118 -0.42064480377855512 0 -0.31379372532975969 -0.42407779810171897 0 -0.31134704237978189 -0.4110285151100711 0 -0.31741187052222841 -0.3965457425265555 0 -0.33465476677957118 -0.42064480377855512 0 -0.31134704237978189 -0.4110285151100711 0 -0.32535354732803062 -0.44124525223250999 0 -0.33465476677957118 -0.42064480377855512 0 -0.31379372532975969 -0.42407779810171897 0 -0.33465476677957118 -0.42064480377855512 0 -0.31379372532975969 -0.42407779810171897 0 -0.31379372532975969 -0.42407779810171897 0 -0.29293268387994831 -0.42751079242488338 0 -0.30280188461510082 -0.44814785546760838 0 -0.31379372532975969 -0.42407779810171897 0 -0.29293268387994831 -0.42751079242488338 0 -0.31134704237978189 -0.4110285151100711 0 -0.29293268387994831 -0.42751079242488338 0 -0.29781773817013829 -0.404476751044474 0 -0.31379372532975969 -0.42407779810171897 0 -0.31134704237978189 -0.4110285151100711 0 -0.29293268387994831 -0.42751079242488338 0 -0.29293268387994831 -0.42751079242488338 0 -0.29781773817013829 -0.404476751044474 0 -0.27822360581804839 -0.41240775956239289 0 -0.29781773817013829 -0.404476751044474 0 -0.27822360581804839 -0.41240775956239289 0 -0.29293268387994831 -0.42751079242488338 0 -0.27207164243013682 -0.43094378674804779 0 -0.29293268387994831 -0.42751079242488338 0 -0.27207164243013682 -0.43094378674804779 0 -0.28444341806466039 -0.4447827838943873 0 -0.29562070382356448 -0.36608991577993188 0 -0.30651628717289497 -0.38131782915324469 0 -0.29057610116610189 -0.3863567854245577 0 -0.30801734772817152 -0.36888776622316372 0 -0.31936875706500079 -0.37502316179370621 0 -0.30651628717289497 -0.38131782915324469 0 -0.31741187052222841 -0.3965457425265555 0 -0.30651628717289497 -0.38131782915324469 0 -0.30651628717289497 -0.38131782915324469 0 -0.29781773817013829 -0.404476751044474 0 -0.29057610116610189 -0.3863567854245577 0 -0.31741187052222841 -0.3965457425265555 0 -0.31134704237978189 -0.4110285151100711 0 -0.29781773817013829 -0.404476751044474 0 -0.31741187052222841 -0.3965457425265555 0 -0.30651628717289497 -0.38131782915324469 0 -0.29781773817013829 -0.404476751044474 0 -0.31741187052222841 -0.3965457425265555 0 -0.29781773817013829 -0.404476751044474 0 -0.29781773817013829 -0.404476751044474 0 -0.27514394375226803 -0.39746382141644832 0 -0.27822360581804839 -0.41240775956239289 0 -0.29781773817013829 -0.404476751044474 0 -0.29057610116610189 -0.3863567854245577 0 -0.27514394375226803 -0.39746382141644832 0 -0.29562070382356448 -0.36608991577993188 0 -0.29057610116610189 -0.3863567854245577 0 -0.27778183291164382 -0.38243560972868967 0 -0.27778183291164382 -0.38243560972868967 0 -0.25994296199972278 -0.39878130367744741 0 -0.26124569441422618 -0.38569103829473439 0 -0.25804678253975061 -0.37293097864154412 0 -0.27778183291164382 -0.38243560972868967 0 -0.26124569441422618 -0.38569103829473439 0 -0.27778183291164382 -0.38243560972868967 0 -0.25994296199972278 -0.39878130367744741 0 -0.29057610116610189 -0.3863567854245577 0 -0.27778183291164382 -0.38243560972868967 0 -0.27514394375226803 -0.39746382141644832 0 -0.27778183291164382 -0.38243560972868967 0 -0.27514394375226803 -0.39746382141644832 0 -0.25994296199972278 -0.39878130367744741 0 -0.27514394375226803 -0.39746382141644832 0 -0.25994296199972278 -0.39878130367744741 0 -0.27822360581804839 -0.41240775956239289 0 -0.25994296199972278 -0.39878130367744741 0 -0.26124569441422618 -0.38569103829473439 0 -0.24851627058846371 -0.38900976223591149 0 -0.25804678253975061 -0.37293097864154412 0 -0.26124569441422618 -0.38569103829473439 0 -0.24851627058846371 -0.38900976223591149 0 -0.29293268387994831 -0.42751079242488338 0 -0.27207164243013682 -0.43094378674804779 0 -0.27822360581804839 -0.41240775956239289 0 -0.27207164243013682 -0.43094378674804779 0 -0.27822360581804839 -0.41240775956239289 0 -0.25862947346595838 -0.42033876808031179 0 -0.27822360581804839 -0.41240775956239289 0 -0.25862947346595838 -0.42033876808031179 0 -0.25994296199972278 -0.39878130367744741 0 -0.27822360581804839 -0.41240775956239289 0 -0.25862947346595838 -0.42033876808031179 0 -0.25994296199972278 -0.39878130367744741 0 -0.24210409108780179 -0.41512699762620497 0 -0.25994296199972278 -0.39878130367744741 0 -0.25862947346595838 -0.42033876808031179 0 -0.24210409108780179 -0.41512699762620497 0 -0.25862947346595838 -0.42033876808031179 0 -0.25293092962144659 -0.44156045084484902 0 -0.24093585879898891 -0.43131383707359761 0 -0.27207164243013682 -0.43094378674804779 0 -0.25862947346595838 -0.42033876808031179 0 -0.25293092962144659 -0.44156045084484902 0 -0.25293092962144659 -0.44156045084484902 0 -0.26916686238034643 -0.45207166365670082 0 -0.24722653683762161 -0.46316581192730077 0 -0.27207164243013682 -0.43094378674804779 0 -0.25293092962144659 -0.44156045084484902 0 -0.26916686238034643 -0.45207166365670082 0 -0.26916686238034643 -0.45207166365670082 0 -0.26581159545503369 -0.47750792341523851 0 -0.24722653683762161 -0.46316581192730077 0 -0.26916686238034643 -0.45207166365670082 0 -0.28444341806466039 -0.4447827838943873 0 -0.28524401701776969 -0.46523982117469598 0 -0.26916686238034643 -0.45207166365670082 0 -0.28524401701776969 -0.46523982117469598 0 -0.26581159545503369 -0.47750792341523851 0 -0.27207164243013682 -0.43094378674804779 0 -0.26916686238034643 -0.45207166365670082 0 -0.28444341806466039 -0.4447827838943873 0 -0.28444341806466039 -0.4447827838943873 0 -0.28524401701776969 -0.46523982117469598 0 -0.30280188461510082 -0.44814785546760838 0 -0.29293268387994831 -0.42751079242488338 0 -0.28444341806466039 -0.4447827838943873 0 -0.30280188461510082 -0.44814785546760838 0 -0.28524401701776969 -0.46523982117469598 0 -0.30280188461510082 -0.44814785546760838 0 -0.30314841170964979 -0.47876861912680729 0 -0.32218104523808128 -0.46089178205855791 0 -0.30280188461510082 -0.44814785546760838 0 -0.30314841170964979 -0.47876861912680729 0 -0.28524401701776969 -0.46523982117469598 0 -0.30314841170964979 -0.47876861912680729 0 -0.29326719883411989 -0.5 0 -0.28524401701776969 -0.46523982117469598 0 -0.29326719883411989 -0.5 0 -0.26581159545503369 -0.47750792341523851 0 -0.32286251601823268 -0.5 0 -0.30314841170964979 -0.47876861912680729 0 -0.29326719883411989 -0.5 0 -0.29326719883411989 -0.5 0 -0.26581159545503369 -0.47750792341523851 0 -0.2636718816500071 -0.5 0 -0.26581159545503369 -0.47750792341523851 0 -0.2460807024745271 -0.48318830887402009 0 -0.24722653683762161 -0.46316581192730077 0 -0.26581159545503369 -0.47750792341523851 0 -0.2636718816500071 -0.5 0 -0.2460807024745271 -0.48318830887402009 0 -0.2636718816500071 -0.5 0 -0.2460807024745271 -0.48318830887402009 0 -0.23407656446589431 -0.5 0 -0.2460807024745271 -0.48318830887402009 0 -0.21898694291557641 -0.47275000017316199 0 -0.24722653683762161 -0.46316581192730077 0 -0.2460807024745271 -0.48318830887402009 0 -0.21898694291557641 -0.47275000017316199 0 -0.23407656446589431 -0.5 0 -0.21898694291557641 -0.47275000017316199 0 -0.23407656446589431 -0.5 0 -0.2044812472817813 -0.5 0 -0.25293092962144659 -0.44156045084484902 0 -0.24722653683762161 -0.46316581192730077 0 -0.2313217648286906 -0.44917727128204132 0 -0.25293092962144659 -0.44156045084484902 0 -0.2313217648286906 -0.44917727128204132 0 -0.24093585879898891 -0.43131383707359761 0 -0.21898694291557641 -0.47275000017316199 0 -0.24722653683762161 -0.46316581192730077 0 -0.2313217648286906 -0.44917727128204132 0 -0.21898694291557641 -0.47275000017316199 0 -0.2313217648286906 -0.44917727128204132 0 -0.2111016158251546 -0.44548321762575671 0 -0.2313217648286906 -0.44917727128204132 0 -0.2111016158251546 -0.44548321762575671 0 -0.22426522017588091 -0.4314726915749626 0 -0.21898694291557641 -0.47275000017316199 0 -0.2111016158251546 -0.44548321762575671 0 -0.19317281226588709 -0.45655386736919762 0 -0.2111016158251546 -0.44548321762575671 0 -0.19317281226588709 -0.45655386736919762 0 -0.19159319172542269 -0.43507542481046663 0 -0.19317281226588709 -0.45655386736919762 0 -0.17878215188816499 -0.44647939540570519 0 -0.19159319172542269 -0.43507542481046663 0 -0.21898694291557641 -0.47275000017316199 0 -0.19317281226588709 -0.45655386736919762 0 -0.18626906703122181 -0.47831860403723581 0 -0.21898694291557641 -0.47275000017316199 0 -0.2044812472817813 -0.5 0 -0.18626906703122181 -0.47831860403723581 0 -0.2044812472817813 -0.5 0 -0.17488593009766831 -0.5 0 -0.18626906703122181 -0.47831860403723581 0 -0.17488593009766831 -0.5 0 -0.15835272600677011 -0.48062949170606772 0 -0.18626906703122181 -0.47831860403723581 0 -0.17488593009766831 -0.5 0 -0.15835272600677011 -0.48062949170606772 0 -0.1452906129135553 -0.5 0 -0.15835272600677011 -0.48062949170606772 0 -0.18626906703122181 -0.47831860403723581 0 -0.1680519258056446 -0.45988905795558799 0 -0.19317281226588709 -0.45655386736919762 0 -0.18626906703122181 -0.47831860403723581 0 -0.1680519258056446 -0.45988905795558799 0 -0.19317281226588709 -0.45655386736919762 0 -0.17878215188816499 -0.44647939540570519 0 -0.1680519258056446 -0.45988905795558799 0 -0.19317281226588709 -0.45655386736919762 0 -0.1680519258056446 -0.45988905795558799 0 -0.17878215188816499 -0.44647939540570519 0 -0.17333666375035811 -0.43158694893411031 0 -0.19159319172542269 -0.43507542481046663 0 -0.17878215188816499 -0.44647939540570519 0 -0.1568714185799247 -0.44186317410678377 0 -0.17333666375035811 -0.43158694893411031 0 -0.17878215188816499 -0.44647939540570519 0 -0.1568714185799247 -0.44186317410678377 0 -0.1680519258056446 -0.45988905795558799 0 -0.15835272600677011 -0.48062949170606772 0 -0.1680519258056446 -0.45988905795558799 0 -0.14293103934540219 -0.46322424854197841 0 -0.1680519258056446 -0.45988905795558799 0 -0.14293103934540219 -0.46322424854197841 0 -0.1568714185799247 -0.44186317410678377 0 -0.1680519258056446 -0.45988905795558799 0 -0.14293103934540219 -0.46322424854197841 0 -0.1568714185799247 -0.44186317410678377 0 -0.14293103934540219 -0.46322424854197841 0 -0.1302076740279518 -0.44055256524749392 0 -0.14293103934540219 -0.46322424854197841 0 -0.1178101528851597 -0.46655943912836878 0 -0.14293103934540219 -0.46322424854197841 0 -0.1302076740279518 -0.44055256524749392 0 -0.1178101528851597 -0.46655943912836878 0 -0.14293103934540219 -0.46322424854197841 0 -0.1312079227153958 -0.4821811201316929 0 -0.1178101528851597 -0.46655943912836878 0 -0.1312079227153958 -0.4821811201316929 0 -0.1452906129135553 -0.5 0 -0.1156952957294424 -0.5 0 -0.15835272600677011 -0.48062949170606772 0 -0.1312079227153958 -0.4821811201316929 0 -0.1452906129135553 -0.5 0 -0.15835272600677011 -0.48062949170606772 0 -0.14293103934540219 -0.46322424854197841 0 -0.1312079227153958 -0.4821811201316929 0 -0.14836990564096081 -0.39371545990654089 0 -0.15284876859407251 -0.40590197726426108 0 -0.16620415588968351 -0.40415876543638779 0 -0.14836990564096081 -0.39371545990654089 0 -0.15284876859407251 -0.40590197726426108 0 -0.13763708355729831 -0.40699530521063371 0 -0.14836990564096081 -0.39371545990654089 0 -0.1643681432670695 -0.38703849469541968 0 -0.14559957831924539 -0.36846438571333268 0 -0.14836990564096081 -0.39371545990654089 0 -0.12732934003256491 -0.38386225562513221 0 -0.14836990564096081 -0.39371545990654089 0 -0.12732934003256491 -0.38386225562513221 0 -0.14559957831924539 -0.36846438571333268 0 -0.12732934003256491 -0.38386225562513221 0 -0.13763708355729831 -0.40699530521063371 0 -0.1189942540355351 -0.40690069624525421 0 -0.14836990564096081 -0.39371545990654089 0 -0.12732934003256491 -0.38386225562513221 0 -0.13763708355729831 -0.40699530521063371 0 -0.12858747969712031 -0.42101394573331269 0 -0.13763708355729831 -0.40699530521063371 0 -0.14365817593357011 -0.42565089384992733 0 -0.12858747969712031 -0.42101394573331269 0 -0.13763708355729831 -0.40699530521063371 0 -0.1189942540355351 -0.40690069624525421 0 -0.1302076740279518 -0.44055256524749392 0 -0.12858747969712031 -0.42101394573331269 0 -0.14365817593357011 -0.42565089384992733 0 -0.1568714185799247 -0.44186317410678377 0 -0.14365817593357011 -0.42565089384992733 0 -0.1601692016855123 -0.42477992947713361 0 -0.1568714185799247 -0.44186317410678377 0 -0.1302076740279518 -0.44055256524749392 0 -0.14365817593357011 -0.42565089384992733 0 -0.13763708355729831 -0.40699530521063371 0 -0.14365817593357011 -0.42565089384992733 0 -0.15077418713390331 -0.41451154572025789 0 -0.14365817593357011 -0.42565089384992733 0 -0.15077418713390331 -0.41451154572025789 0 -0.1601692016855123 -0.42477992947713361 0 -0.15284876859407251 -0.40590197726426108 0 -0.13763708355729831 -0.40699530521063371 0 -0.15077418713390331 -0.41451154572025789 0 -0.15284876859407251 -0.40590197726426108 0 -0.15077418713390331 -0.41451154572025789 0 -0.1612585107485168 -0.41012881004748541 0 -0.15284876859407251 -0.40590197726426108 0 -0.1612585107485168 -0.41012881004748541 0 -0.16620415588968351 -0.40415876543638779 0 -0.1612585107485168 -0.41012881004748541 0 -0.16956881165907711 -0.41987413123146522 0 -0.1601692016855123 -0.42477992947713361 0 -0.15077418713390331 -0.41451154572025789 0 -0.1612585107485168 -0.41012881004748541 0 -0.1601692016855123 -0.42477992947713361 0 -0.1612585107485168 -0.41012881004748541 0 -0.169494036482321 -0.41112520752599291 0 -0.16746314512394669 -0.40708866280295369 0 -0.1612585107485168 -0.41012881004748541 0 -0.16956881165907711 -0.41987413123146522 0 -0.169494036482321 -0.41112520752599291 0 -0.169494036482321 -0.41112520752599291 0 -0.16746314512394669 -0.40708866280295369 0 -0.16941047124935699 -0.40356866418794912 0 -0.1612585107485168 -0.41012881004748541 0 -0.16746314512394669 -0.40708866280295369 0 -0.16620415588968351 -0.40415876543638779 0 -0.1568714185799247 -0.44186317410678377 0 -0.1601692016855123 -0.42477992947713361 0 -0.17333666375035811 -0.43158694893411031 0 -0.16956881165907711 -0.41987413123146522 0 -0.1601692016855123 -0.42477992947713361 0 -0.17333666375035811 -0.43158694893411031 0 -0.17333666375035811 -0.43158694893411031 0 -0.1781377565479009 -0.41949679404591311 0 -0.19159319172542269 -0.43507542481046663 0 -0.16956881165907711 -0.41987413123146522 0 -0.17333666375035811 -0.43158694893411031 0 -0.1781377565479009 -0.41949679404591311 0 -0.1781377565479009 -0.41949679404591311 0 -0.16941047124935699 -0.40356866418794912 0 -0.19542336442086941 -0.41575038758549471 0 -0.16941047124935699 -0.40356866418794912 0 -0.19542336442086941 -0.41575038758549471 0 -0.169494036482321 -0.41112520752599291 0 -0.1781377565479009 -0.41949679404591311 0 -0.16941047124935699 -0.40356866418794912 0 -0.16956881165907711 -0.41987413123146522 0 -0.169494036482321 -0.41112520752599291 0 -0.1781377565479009 -0.41949679404591311 0 -0.1824897978970958 -0.39260580478872259 0 -0.16941047124935699 -0.40356866418794912 0 -0.1957790710290592 -0.39871569687060282 0 -0.16941047124935699 -0.40356866418794912 0 -0.1957790710290592 -0.39871569687060282 0 -0.19542336442086941 -0.41575038758549471 0 -0.16941047124935699 -0.40356866418794912 0 -0.1957790710290592 -0.39871569687060282 0 -0.1824897978970958 -0.39260580478872259 0 -0.17367754424923959 -0.39314779586555693 0 -0.16941047124935699 -0.40356866418794912 0 -0.14836990564096081 -0.39371545990654089 0 -0.16941047124935699 -0.40356866418794912 0 -0.1643681432670695 -0.38703849469541968 0 -0.14836990564096081 -0.39371545990654089 0 -0.16941047124935699 -0.40356866418794912 0 -0.17367754424923959 -0.39314779586555693 0 -0.16941047124935699 -0.40356866418794912 0 -0.1643681432670695 -0.38703849469541968 0 -0.14836990564096081 -0.39371545990654089 0 -0.16941047124935699 -0.40356866418794912 0 -0.16620415588968351 -0.40415876543638779 0 -0.16746314512394669 -0.40708866280295369 0 -0.16941047124935699 -0.40356866418794912 0 -0.16620415588968351 -0.40415876543638779 0 -0.16941047124935699 -0.40356866418794912 0 -0.16620415588968351 -0.40415876543638779 0 -0.1643681432670695 -0.38703849469541968 0 -0.17928241154289709 -0.38450118699365748 0 -0.17690723306151221 -0.36515160886020048 0 -0.17928241154289709 -0.38450118699365748 0 -0.194299491414926 -0.38309568002584699 0 -0.17690723306151221 -0.36515160886020048 0 -0.17367754424923959 -0.39314779586555693 0 -0.1643681432670695 -0.38703849469541968 0 -0.17928241154289709 -0.38450118699365748 0 -0.1824897978970958 -0.39260580478872259 0 -0.17367754424923959 -0.39314779586555693 0 -0.17928241154289709 -0.38450118699365748 0 -0.1824897978970958 -0.39260580478872259 0 -0.17928241154289709 -0.38450118699365748 0 -0.194299491414926 -0.38309568002584699 0 -0.1824897978970958 -0.39260580478872259 0 -0.194299491414926 -0.38309568002584699 0 -0.1957790710290592 -0.39871569687060282 0 -0.194299491414926 -0.38309568002584699 0 -0.1957790710290592 -0.39871569687060282 0 -0.22214767080876149 -0.39386272955325718 0 -0.1957790710290592 -0.39871569687060282 0 -0.22214767080876149 -0.39386272955325718 0 -0.1957790710290592 -0.39871569687060282 0 -0.21769976009169789 -0.41182919286979891 0 -0.22214767080876149 -0.39386272955325718 0 -0.194299491414926 -0.38309568002584699 0 -0.22214767080876149 -0.39386272955325718 0 -0.20629929832172991 -0.37155170522929992 0 -0.1781377565479009 -0.41949679404591311 0 -0.19159319172542269 -0.43507542481046663 0 -0.19542336442086941 -0.41575038758549471 0 -0.19159319172542269 -0.43507542481046663 0 -0.19542336442086941 -0.41575038758549471 0 -0.20801663044780511 -0.42792218289329592 0 -0.1957790710290592 -0.39871569687060282 0 -0.19542336442086941 -0.41575038758549471 0 -0.21769976009169789 -0.41182919286979891 0 -0.19542336442086941 -0.41575038758549471 0 -0.21769976009169789 -0.41182919286979891 0 -0.20801663044780511 -0.42792218289329592 0 -0.21769976009169789 -0.41182919286979891 0 -0.20801663044780511 -0.42792218289329592 0 -0.22426522017588091 -0.4314726915749626 0 -0.2111016158251546 -0.44548321762575671 0 -0.19159319172542269 -0.43507542481046663 0 -0.20801663044780511 -0.42792218289329592 0 -0.2111016158251546 -0.44548321762575671 0 -0.20801663044780511 -0.42792218289329592 0 -0.22426522017588091 -0.4314726915749626 0 -0.22426522017588091 -0.4314726915749626 0 -0.24210409108780179 -0.41512699762620497 0 -0.2313217648286906 -0.44917727128204132 0 -0.22426522017588091 -0.4314726915749626 0 -0.24093585879898891 -0.43131383707359761 0 -0.21769976009169789 -0.41182919286979891 0 -0.22426522017588091 -0.4314726915749626 0 -0.24210409108780179 -0.41512699762620497 0 -0.21769976009169789 -0.41182919286979891 0 -0.24210409108780179 -0.41512699762620497 0 -0.2377470049623617 -0.40123165408990558 0 -0.25862947346595838 -0.42033876808031179 0 -0.24210409108780179 -0.41512699762620497 0 -0.24093585879898891 -0.43131383707359761 0 -0.22426522017588091 -0.4314726915749626 0 -0.24210409108780179 -0.41512699762620497 0 -0.24093585879898891 -0.43131383707359761 0 -0.22214767080876149 -0.39386272955325718 0 -0.23228253406487709 -0.37431587200569411 0 -0.20629929832172991 -0.37155170522929992 0 -0.22214767080876149 -0.39386272955325718 0 -0.24851627058846371 -0.38900976223591149 0 -0.23228253406487709 -0.37431587200569411 0 -0.21769976009169789 -0.41182919286979891 0 -0.22214767080876149 -0.39386272955325718 0 -0.2377470049623617 -0.40123165408990558 0 -0.25994296199972278 -0.39878130367744741 0 -0.2377470049623617 -0.40123165408990558 0 -0.24851627058846371 -0.38900976223591149 0 -0.25994296199972278 -0.39878130367744741 0 -0.24210409108780179 -0.41512699762620497 0 -0.2377470049623617 -0.40123165408990558 0 -0.22214767080876149 -0.39386272955325718 0 -0.2377470049623617 -0.40123165408990558 0 -0.24851627058846371 -0.38900976223591149 0 -0.22214767080876149 -0.39386272955325718 0 -0.24851627058846371 -0.38900976223591149 0 -0.25804678253975061 -0.37293097864154412 0 -0.24851627058846371 -0.38900976223591149 0 -0.23228253406487709 -0.37431587200569411 0 -0.25804678253975061 -0.37293097864154412 0 -0.23228253406487709 -0.37431587200569411 0 -0.2402158550776487 -0.3585345644779912 0 -0.23228253406487709 -0.37431587200569411 0 -0.21933329431239171 -0.35897715642255629 0 -0.2402158550776487 -0.3585345644779912 0 -0.23228253406487709 -0.37431587200569411 0 -0.21933329431239171 -0.35897715642255629 0 -0.20629929832172991 -0.37155170522929992 0 -0.21933329431239171 -0.35897715642255629 0 -0.2402158550776487 -0.3585345644779912 0 -0.22555691949667689 -0.34280209002067918 0 -0.2402158550776487 -0.3585345644779912 0 -0.24670955931798391 -0.33764664420284268 0 -0.22555691949667689 -0.34280209002067918 0 -0.26023924238447832 -0.35363314844072841 0 -0.2402158550776487 -0.3585345644779912 0 -0.24670955931798391 -0.33764664420284268 0 -0.24670955931798391 -0.33764664420284268 0 -0.23483505622643339 -0.31705148160249202 0 -0.22555691949667689 -0.34280209002067918 0 -0.25273386975939072 -0.32072586397171032 0 -0.25170461348194412 -0.30483746849924931 0 -0.23483505622643339 -0.31705148160249202 0 -0.25273386975939072 -0.32072586397171032 0 -0.24670955931798391 -0.33764664420284268 0 -0.23483505622643339 -0.31705148160249202 0 -0.23483505622643339 -0.31705148160249202 0 -0.22052394952130761 -0.32644187808750719 0 -0.22294526975884049 -0.30775204159848529 0 -0.23483505622643339 -0.31705148160249202 0 -0.22052394952130761 -0.32644187808750719 0 -0.22555691949667689 -0.34280209002067918 0 -0.23483505622643339 -0.31705148160249202 0 -0.22555691949667689 -0.34280209002067918 0 -0.22052394952130761 -0.32644187808750719 0 -0.22555691949667689 -0.34280209002067918 0 -0.19645890744654479 -0.3427455401058162 0 -0.2075933987904722 -0.31622167467334378 0 -0.19645890744654479 -0.3427455401058162 0 -0.19049325429031541 -0.31063512056280151 0 -0.22052394952130761 -0.32644187808750719 0 -0.2075933987904722 -0.31622167467334378 0 -0.19645890744654479 -0.3427455401058162 0 -0.22052394952130761 -0.32644187808750719 0 -0.2075933987904722 -0.31622167467334378 0 -0.22294526975884049 -0.30775204159848529 0 -0.194299491414926 -0.38309568002584699 0 -0.20629929832172991 -0.37155170522929992 0 -0.17690723306151221 -0.36515160886020048 0 -0.19645890744654479 -0.3427455401058162 0 -0.20629929832172991 -0.37155170522929992 0 -0.17690723306151221 -0.36515160886020048 0 -0.21933329431239171 -0.35897715642255629 0 -0.22555691949667689 -0.34280209002067918 0 -0.19645890744654479 -0.3427455401058162 0 -0.21933329431239171 -0.35897715642255629 0 -0.19645890744654479 -0.3427455401058162 0 -0.20629929832172991 -0.37155170522929992 0 -0.2360332131627044 -0.25942361848391121 0 -0.2267237209175213 -0.26932080107363088 0 -0.21358999384310021 -0.25689926786046863 0 -0.2360332131627044 -0.25942361848391121 0 -0.21358999384310021 -0.25689926786046863 0 -0.2268249172093626 -0.24538517399888801 0 -0.2360332131627044 -0.25942361848391121 0 -0.24970680178845411 -0.27577633039306748 0 -0.25917426252380321 -0.24950027074751899 0 -0.2360332131627044 -0.25942361848391121 0 -0.24086100655331991 -0.2426135927544267 0 -0.25917426252380321 -0.24950027074751899 0 -0.23678260725675321 -0.27179976177941018 0 -0.24970680178845411 -0.27577633039306748 0 -0.23017194693216 -0.28158129573021562 0 -0.24970680178845411 -0.27577633039306748 0 -0.23017194693216 -0.28158129573021562 0 -0.2360332131627044 -0.25942361848391121 0 -0.23678260725675321 -0.27179976177941018 0 -0.24970680178845411 -0.27577633039306748 0 -0.23678260725675321 -0.27179976177941018 0 -0.2267237209175213 -0.26932080107363088 0 -0.23017194693216 -0.28158129573021562 0 -0.2267237209175213 -0.26932080107363088 0 -0.2160001109742955 -0.27270056804151638 0 -0.21358999384310021 -0.25689926786046863 0 -0.23017194693216 -0.28158129573021562 0 -0.21063709207586531 -0.28738626106736159 0 -0.2160001109742955 -0.27270056804151638 0 -0.2360332131627044 -0.25942361848391121 0 -0.23678260725675321 -0.27179976177941018 0 -0.2267237209175213 -0.26932080107363088 0 -0.2267237209175213 -0.26932080107363088 0 -0.23017194693216 -0.28158129573021562 0 -0.2160001109742955 -0.27270056804151638 0 -0.2225599861398562 -0.29268634001850458 0 -0.2441131929561885 -0.2913008731843042 0 -0.2225599861398562 -0.29268634001850458 0 -0.23017194693216 -0.28158129573021562 0 -0.21063709207586531 -0.28738626106736159 0 -0.23017194693216 -0.28158129573021562 0 -0.21063709207586531 -0.28738626106736159 0 -0.2225599861398562 -0.29268634001850458 0 -0.23017194693216 -0.28158129573021562 0 -0.2441131929561885 -0.2913008731843042 0 -0.2225599861398562 -0.29268634001850458 0 -0.2441131929561885 -0.2913008731843042 0 -0.23186232437955831 -0.30105171259613672 0 -0.24970680178845411 -0.27577633039306748 0 -0.23017194693216 -0.28158129573021562 0 -0.2441131929561885 -0.2913008731843042 0 -0.24970680178845411 -0.27577633039306748 0 -0.2441131929561885 -0.2913008731843042 0 -0.25520955760751529 -0.28320891992735048 0 -0.24970680178845411 -0.27577633039306748 0 -0.2441131929561885 -0.2913008731843042 0 -0.25170461348194412 -0.30483746849924931 0 -0.23483505622643339 -0.31705148160249202 0 -0.2441131929561885 -0.2913008731843042 0 -0.23483505622643339 -0.31705148160249202 0 -0.2441131929561885 -0.2913008731843042 0 -0.23186232437955831 -0.30105171259613672 0 -0.23483505622643339 -0.31705148160249202 0 -0.2441131929561885 -0.2913008731843042 0 -0.23483505622643339 -0.31705148160249202 0 -0.23186232437955831 -0.30105171259613672 0 -0.22294526975884049 -0.30775204159848529 0 -0.2225599861398562 -0.29268634001850458 0 -0.23186232437955831 -0.30105171259613672 0 -0.22294526975884049 -0.30775204159848529 0 -0.2075933987904722 -0.31622167467334378 0 -0.22294526975884049 -0.30775204159848529 0 -0.20786086798891679 -0.30116059161661918 0 -0.2225599861398562 -0.29268634001850458 0 -0.22294526975884049 -0.30775204159848529 0 -0.20786086798891679 -0.30116059161661918 0 -0.20786086798891679 -0.30116059161661918 0 -0.19049325429031541 -0.31063512056280151 0 -0.19110223721957059 -0.29319122640450768 0 -0.2075933987904722 -0.31622167467334378 0 -0.20786086798891679 -0.30116059161661918 0 -0.19049325429031541 -0.31063512056280151 0 -0.19110223721957059 -0.29319122640450768 0 -0.1985377304192299 -0.28220774306135438 0 -0.21063709207586531 -0.28738626106736159 0 -0.19110223721957059 -0.29319122640450768 0 -0.21063709207586531 -0.28738626106736159 0 -0.19110223721957059 -0.29319122640450768 0 -0.1985377304192299 -0.28220774306135438 0 -0.1830757192931384 -0.28110297222479003 0 -0.20786086798891679 -0.30116059161661918 0 -0.19110223721957059 -0.29319122640450768 0 -0.21063709207586531 -0.28738626106736159 0 -0.1985377304192299 -0.28220774306135438 0 -0.21063709207586531 -0.28738626106736159 0 -0.2062249328149337 -0.27791959374468522 0 -0.2225599861398562 -0.29268634001850458 0 -0.20786086798891679 -0.30116059161661918 0 -0.21063709207586531 -0.28738626106736159 0 -0.2160001109742955 -0.27270056804151638 0 -0.2062249328149337 -0.27791959374468522 0 -0.19972479779034419 -0.26938380280850832 0 -0.2160001109742955 -0.27270056804151638 0 -0.19972479779034419 -0.26938380280850832 0 -0.21358999384310021 -0.25689926786046863 0 -0.21063709207586531 -0.28738626106736159 0 -0.2160001109742955 -0.27270056804151638 0 -0.2062249328149337 -0.27791959374468522 0 -0.19972479779034419 -0.26938380280850832 0 -0.18112238236422029 -0.26159635856386693 0 -0.1830757192931384 -0.28110297222479003 0 -0.1985377304192299 -0.28220774306135438 0 -0.19972479779034419 -0.26938380280850832 0 -0.1830757192931384 -0.28110297222479003 0 -0.1985377304192299 -0.28220774306135438 0 -0.2062249328149337 -0.27791959374468522 0 -0.19972479779034419 -0.26938380280850832 0 -0.19972479779034419 -0.26938380280850832 0 -0.19609548341644081 -0.25599629824461512 0 -0.18112238236422029 -0.26159635856386693 0 -0.19609548341644081 -0.25599629824461512 0 -0.18112238236422029 -0.26159635856386693 0 -0.18629174983565491 -0.24918474395853071 0 -0.19609548341644081 -0.25599629824461512 0 -0.21358999384310021 -0.25689926786046863 0 -0.20025444320941699 -0.24247199835325051 0 -0.19972479779034419 -0.26938380280850832 0 -0.19609548341644081 -0.25599629824461512 0 -0.21358999384310021 -0.25689926786046863 0 -0.18112238236422029 -0.26159635856386693 0 -0.15331173291770259 -0.26501990304145179 0 -0.18112238236422029 -0.26159635856386693 0 -0.15331173291770259 -0.26501990304145179 0 -0.17341083026098211 -0.24493974356303991 0 -0.1481706981822106 -0.25391549304090061 0 -0.15331173291770259 -0.26501990304145179 0 -0.17341083026098211 -0.24493974356303991 0 -0.18112238236422029 -0.26159635856386693 0 -0.18629174983565491 -0.24918474395853071 0 -0.17341083026098211 -0.24493974356303991 0 -0.18112238236422029 -0.26159635856386693 0 -0.1830757192931384 -0.28110297222479003 0 -0.1678833675243481 -0.27375803572763407 0 -0.1830757192931384 -0.28110297222479003 0 -0.1678833675243481 -0.27375803572763407 0 -0.16734616803810051 -0.28448645660800348 0 -0.18112238236422029 -0.26159635856386693 0 -0.1678833675243481 -0.27375803572763407 0 -0.15331173291770259 -0.26501990304145179 0 -0.1678833675243481 -0.27375803572763407 0 -0.15413853448117901 -0.27946789349540768 0 -0.15331173291770259 -0.26501990304145179 0 -0.1678833675243481 -0.27375803572763407 0 -0.16734616803810051 -0.28448645660800348 0 -0.15413853448117901 -0.27946789349540768 0 -0.16734616803810051 -0.28448645660800348 0 -0.17387085103042149 -0.30011676377321189 0 -0.155902336750703 -0.29573753389439478 0 -0.16734616803810051 -0.28448645660800348 0 -0.155902336750703 -0.29573753389439478 0 -0.15413853448117901 -0.27946789349540768 0 -0.19110223721957059 -0.29319122640450768 0 -0.1830757192931384 -0.28110297222479003 0 -0.17387085103042149 -0.30011676377321189 0 -0.1830757192931384 -0.28110297222479003 0 -0.16734616803810051 -0.28448645660800348 0 -0.17387085103042149 -0.30011676377321189 0 -0.19049325429031541 -0.31063512056280151 0 -0.17387085103042149 -0.30011676377321189 0 -0.17387674757932661 -0.32425583578956568 0 -0.19049325429031541 -0.31063512056280151 0 -0.19110223721957059 -0.29319122640450768 0 -0.17387085103042149 -0.30011676377321189 0 -0.17387085103042149 -0.30011676377321189 0 -0.155902336750703 -0.29573753389439478 0 -0.15567354028513661 -0.31451860964625472 0 -0.1426910064015347 -0.30661654290367002 0 -0.155902336750703 -0.29573753389439478 0 -0.15567354028513661 -0.31451860964625472 0 -0.1426910064015347 -0.30661654290367002 0 -0.155902336750703 -0.29573753389439478 0 -0.141693920267846 -0.28921893693982093 0 -0.1426910064015347 -0.30661654290367002 0 -0.1300124057053805 -0.30215799657955328 0 -0.13484272447668391 -0.32114714454713461 0 -0.1426910064015347 -0.30661654290367002 0 -0.1300124057053805 -0.30215799657955328 0 -0.141693920267846 -0.28921893693982093 0 -0.1300124057053805 -0.30215799657955328 0 -0.12780266264122561 -0.28404870646598129 0 -0.141693920267846 -0.28921893693982093 0 -0.12780266264122561 -0.28404870646598129 0 -0.141693920267846 -0.28921893693982093 0 -0.14048942015514609 -0.27714776986158529 0 -0.155902336750703 -0.29573753389439478 0 -0.141693920267846 -0.28921893693982093 0 -0.15413853448117901 -0.27946789349540768 0 -0.141693920267846 -0.28921893693982093 0 -0.15413853448117901 -0.27946789349540768 0 -0.14048942015514609 -0.27714776986158529 0 -0.15413853448117901 -0.27946789349540768 0 -0.14048942015514609 -0.27714776986158529 0 -0.15331173291770259 -0.26501990304145179 0 -0.14048942015514609 -0.27714776986158529 0 -0.12550108347118491 -0.26844344751903659 0 -0.15331173291770259 -0.26501990304145179 0 -0.12550108347118491 -0.26844344751903659 0 -0.15331173291770259 -0.26501990304145179 0 -0.12780266264122561 -0.28404870646598129 0 -0.14048942015514609 -0.27714776986158529 0 -0.12550108347118491 -0.26844344751903659 0 -0.1481706981822106 -0.25391549304090061 0 -0.1229305661034389 -0.26289124251876123 0 -0.1481706981822106 -0.25391549304090061 0 -0.1229305661034389 -0.26289124251876123 0 -0.136861712177654 -0.24989241414590191 0 -0.12550108347118491 -0.26844344751903659 0 -0.1481706981822106 -0.25391549304090061 0 -0.1229305661034389 -0.26289124251876123 0 -0.12596474988764531 -0.25359426986989281 0 -0.1229305661034389 -0.26289124251876123 0 -0.136861712177654 -0.24989241414590191 0 -0.12550108347118491 -0.26844344751903659 0 -0.1481706981822106 -0.25391549304090061 0 -0.15331173291770259 -0.26501990304145179 0 -0.17690723306151221 -0.36515160886020048 0 -0.15488251750438781 -0.34062908832013838 0 -0.14559957831924539 -0.36846438571333268 0 -0.1643681432670695 -0.38703849469541968 0 -0.17690723306151221 -0.36515160886020048 0 -0.14559957831924539 -0.36846438571333268 0 -0.17690723306151221 -0.36515160886020048 0 -0.17671204935838319 -0.34328793573905259 0 -0.15488251750438781 -0.34062908832013838 0 -0.19645890744654479 -0.3427455401058162 0 -0.17690723306151221 -0.36515160886020048 0 -0.17671204935838319 -0.34328793573905259 0 -0.19645890744654479 -0.3427455401058162 0 -0.19049325429031541 -0.31063512056280151 0 -0.17387674757932661 -0.32425583578956568 0 -0.19645890744654479 -0.3427455401058162 0 -0.17671204935838319 -0.34328793573905259 0 -0.17387674757932661 -0.32425583578956568 0 -0.17387085103042149 -0.30011676377321189 0 -0.17387674757932661 -0.32425583578956568 0 -0.15567354028513661 -0.31451860964625472 0 -0.17387674757932661 -0.32425583578956568 0 -0.15488251750438781 -0.34062908832013838 0 -0.15567354028513661 -0.31451860964625472 0 -0.17671204935838319 -0.34328793573905259 0 -0.17387674757932661 -0.32425583578956568 0 -0.15488251750438781 -0.34062908832013838 0 -0.15488251750438781 -0.34062908832013838 0 -0.13484272447668391 -0.32114714454713461 0 -0.1205657494504265 -0.34757809794542871 0 -0.1426910064015347 -0.30661654290367002 0 -0.15567354028513661 -0.31451860964625472 0 -0.13484272447668391 -0.32114714454713461 0 -0.15488251750438781 -0.34062908832013838 0 -0.15567354028513661 -0.31451860964625472 0 -0.13484272447668391 -0.32114714454713461 0 -0.1300124057053805 -0.30215799657955328 0 -0.13484272447668391 -0.32114714454713461 0 -0.117343293211884 -0.31589934320780871 0 -0.13484272447668391 -0.32114714454713461 0 -0.1205657494504265 -0.34757809794542871 0 -0.15488251750438781 -0.34062908832013838 0 -0.14559957831924539 -0.36846438571333268 0 -0.1205657494504265 -0.34757809794542871 0 -0.14559957831924539 -0.36846438571333268 0 -0.12494586055660151 -0.36847844765690407 0 -0.1205657494504265 -0.34757809794542871 0 -0.12732934003256491 -0.38386225562513221 0 -0.14559957831924539 -0.36846438571333268 0 -0.12494586055660151 -0.36847844765690407 0 -0.12494586055660151 -0.36847844765690407 0 -0.1062887744241693 -0.3740090513437227 0 -0.1205657494504265 -0.34757809794542871 0 -0.1062887744241693 -0.3740090513437227 0 -0.1205657494504265 -0.34757809794542871 0 -0.083010904076029554 -0.37319932732524758 0 -0.10548400453837629 -0.37549892124323342 0 -0.095857933794861239 -0.36748248506793502 0 -0.083010904076029554 -0.37319932732524758 0 -0.10548400453837629 -0.37549892124323342 0 -0.1062887744241693 -0.3740090513437227 0 -0.1007936977993419 -0.35950605128373342 0 -0.1205657494504265 -0.34757809794542871 0 -0.1062887744241693 -0.3740090513437227 0 -0.095857933794861239 -0.36748248506793502 0 -0.10548400453837629 -0.37549892124323342 0 -0.1062887744241693 -0.3740090513437227 0 -0.10548400453837629 -0.37549892124323342 0 -0.1062887744241693 -0.3740090513437227 0 -0.1007936977993419 -0.35950605128373342 0 -0.095857933794861239 -0.36748248506793502 0 -0.1007936977993419 -0.35950605128373342 0 -0.1205657494504265 -0.34757809794542871 0 -0.093389322854735723 -0.34057854501601958 0 -0.13484272447668391 -0.32114714454713461 0 -0.1205657494504265 -0.34757809794542871 0 -0.117343293211884 -0.31589934320780871 0 -0.1205657494504265 -0.34757809794542871 0 -0.117343293211884 -0.31589934320780871 0 -0.10139053017923361 -0.3247341532456326 0 -0.10139053017923361 -0.3247341532456326 0 -0.080312959992603489 -0.3141884797735533 0 -0.1005382078379421 -0.30492799407159588 0 -0.117343293211884 -0.31589934320780871 0 -0.10139053017923361 -0.3247341532456326 0 -0.1005382078379421 -0.30492799407159588 0 -0.1205657494504265 -0.34757809794542871 0 -0.10139053017923361 -0.3247341532456326 0 -0.093389322854735723 -0.34057854501601958 0 -0.093389322854735723 -0.34057854501601958 0 -0.070739751596784473 -0.33403349067992971 0 -0.084334231073798144 -0.35549032728434748 0 -0.093389322854735723 -0.34057854501601958 0 -0.080312959992603489 -0.3141884797735533 0 -0.070739751596784473 -0.33403349067992971 0 -0.10139053017923361 -0.3247341532456326 0 -0.093389322854735723 -0.34057854501601958 0 -0.080312959992603489 -0.3141884797735533 0 -0.070739751596784473 -0.33403349067992971 0 -0.057145272119770808 -0.31257665407551177 0 -0.080312959992603489 -0.3141884797735533 0 -0.070739751596784473 -0.33403349067992971 0 -0.057145272119770808 -0.31257665407551177 0 -0.070739751596784473 -0.33403349067992971 0 -0.084334231073798144 -0.35549032728434748 0 -0.070739751596784473 -0.33403349067992971 0 -0.065503432233276301 -0.35315609693881078 0 -0.084334231073798144 -0.35549032728434748 0 -0.083010904076029554 -0.37319932732524758 0 -0.060537803613682738 -0.37089973340726251 0 -0.065503432233276301 -0.35315609693881078 0 -0.083010904076029554 -0.37319932732524758 0 -0.060537803613682738 -0.37089973340726251 0 -0.065503432233276301 -0.35315609693881078 0 -0.083010904076029554 -0.37319932732524758 0 -0.084334231073798144 -0.35549032728434748 0 -0.1007936977993419 -0.35950605128373342 0 -0.095857933794861239 -0.36748248506793502 0 -0.084334231073798144 -0.35549032728434748 0 -0.095857933794861239 -0.36748248506793502 0 -0.083010904076029554 -0.37319932732524758 0 -0.084334231073798144 -0.35549032728434748 0 -0.1007936977993419 -0.35950605128373342 0 -0.093389322854735723 -0.34057854501601958 0 -0.084334231073798144 -0.35549032728434748 0 -0.104024341703259 -0.26188523649843748 0 -0.1229305661034389 -0.26289124251876123 0 -0.097690434024667178 -0.27186699199662162 0 -0.097691375586914153 -0.25108440143873079 0 -0.1053874089635983 -0.25363140700924042 0 -0.091622325018646048 -0.25883909035570318 0 -0.104024341703259 -0.26188523649843748 0 -0.093282969796072035 -0.26619929648514418 0 -0.091622325018646048 -0.25883909035570318 0 -0.104024341703259 -0.26188523649843748 0 -0.1053874089635983 -0.25363140700924042 0 -0.091622325018646048 -0.25883909035570318 0 -0.104024341703259 -0.26188523649843748 0 -0.1053874089635983 -0.25363140700924042 0 -0.1141786098400477 -0.25745865897843928 0 -0.097691375586914153 -0.25108440143873079 0 -0.1053874089635983 -0.25363140700924042 0 -0.10703026499437129 -0.24602360214435379 0 -0.1053874089635983 -0.25363140700924042 0 -0.1141786098400477 -0.25745865897843928 0 -0.1183971611162466 -0.25023516984361371 0 -0.104024341703259 -0.26188523649843748 0 -0.1141786098400477 -0.25745865897843928 0 -0.1229305661034389 -0.26289124251876123 0 -0.12596474988764531 -0.25359426986989281 0 -0.1203677717368446 -0.25604483530267669 0 -0.1229305661034389 -0.26289124251876123 0 -0.1141786098400477 -0.25745865897843928 0 -0.1183971611162466 -0.25023516984361371 0 -0.1203677717368446 -0.25604483530267669 0 -0.12596474988764531 -0.25359426986989281 0 -0.1183971611162466 -0.25023516984361371 0 -0.1203677717368446 -0.25604483530267669 0 -0.1141786098400477 -0.25745865897843928 0 -0.1203677717368446 -0.25604483530267669 0 -0.1229305661034389 -0.26289124251876123 0 -0.12550108347118491 -0.26844344751903659 0 -0.1229305661034389 -0.26289124251876123 0 -0.097690434024667178 -0.27186699199662162 0 -0.12550108347118491 -0.26844344751903659 0 -0.097690434024667178 -0.27186699199662162 0 -0.12550108347118491 -0.26844344751903659 0 -0.10969443399926131 -0.27717729499632121 0 -0.097690434024667178 -0.27186699199662162 0 -0.12550108347118491 -0.26844344751903659 0 -0.10969443399926131 -0.27717729499632121 0 -0.11457254370766599 -0.28235012060010822 0 -0.1229305661034389 -0.26289124251876123 0 -0.097690434024667178 -0.27186699199662162 0 -0.12780266264122561 -0.28404870646598129 0 -0.12550108347118491 -0.26844344751903659 0 -0.11457254370766599 -0.28235012060010822 0 -0.10969443399926131 -0.27717729499632121 0 -0.097690434024667178 -0.27186699199662162 0 -0.1010136747935272 -0.28604861986951807 0 -0.104024341703259 -0.26188523649843748 0 -0.097690434024667178 -0.27186699199662162 0 -0.093282969796072035 -0.26619929648514418 0 -0.1010136747935272 -0.28604861986951807 0 -0.1149798883841605 -0.29685061438104532 0 -0.1005382078379421 -0.30492799407159588 0 -0.097690434024667178 -0.27186699199662162 0 -0.1010136747935272 -0.28604861986951807 0 -0.087467961617295198 -0.2926800629201588 0 -0.1010136747935272 -0.28604861986951807 0 -0.1005382078379421 -0.30492799407159588 0 -0.087467961617295198 -0.2926800629201588 0 -0.10969443399926131 -0.27717729499632121 0 -0.1010136747935272 -0.28604861986951807 0 -0.11457254370766599 -0.28235012060010822 0 -0.1010136747935272 -0.28604861986951807 0 -0.11457254370766599 -0.28235012060010822 0 -0.1149798883841605 -0.29685061438104532 0 -0.1300124057053805 -0.30215799657955328 0 -0.12780266264122561 -0.28404870646598129 0 -0.1149798883841605 -0.29685061438104532 0 -0.12780266264122561 -0.28404870646598129 0 -0.11457254370766599 -0.28235012060010822 0 -0.1149798883841605 -0.29685061438104532 0 -0.1300124057053805 -0.30215799657955328 0 -0.117343293211884 -0.31589934320780871 0 -0.1149798883841605 -0.29685061438104532 0 -0.117343293211884 -0.31589934320780871 0 -0.1149798883841605 -0.29685061438104532 0 -0.1005382078379421 -0.30492799407159588 0 -0.080312959992603489 -0.3141884797735533 0 -0.074414476730886608 -0.29676036037383258 0 -0.087467961617295198 -0.2926800629201588 0 -0.080312959992603489 -0.3141884797735533 0 -0.1005382078379421 -0.30492799407159588 0 -0.087467961617295198 -0.2926800629201588 0 -0.080312959992603489 -0.3141884797735533 0 -0.074414476730886608 -0.29676036037383258 0 -0.057145272119770808 -0.31257665407551177 0 -0.074414476730886608 -0.29676036037383258 0 -0.060357349493534808 -0.29550659937226431 0 -0.057145272119770808 -0.31257665407551177 0 -0.074414476730886608 -0.29676036037383258 0 -0.070620613333711335 -0.2814934047338587 0 -0.087467961617295198 -0.2926800629201588 0 -0.074414476730886608 -0.29676036037383258 0 -0.070620613333711335 -0.2814934047338587 0 -0.060357349493534808 -0.29550659937226431 0 -0.097690434024667178 -0.27186699199662162 0 -0.070620613333711335 -0.2814934047338587 0 -0.087467961617295198 -0.2926800629201588 0 -0.097690434024667178 -0.27186699199662162 0 -0.070620613333711335 -0.2814934047338587 0 -0.097690434024667178 -0.27186699199662162 0 -0.070620613333711335 -0.2814934047338587 0 -0.088414386404617393 -0.27300889131344641 0 -0.097690434024667178 -0.27186699199662162 0 -0.093282969796072035 -0.26619929648514418 0 -0.088414386404617393 -0.27300889131344641 0 -0.093282969796072035 -0.26619929648514418 0 -0.088414386404617393 -0.27300889131344641 0 -0.08466336182917053 -0.26539627226151252 0 -0.097690434024667178 -0.27186699199662162 0 -0.088414386404617393 -0.27300889131344641 0 -0.088414386404617393 -0.27300889131344641 0 -0.075057457088933549 -0.26943113266903651 0 -0.08466336182917053 -0.26539627226151252 0 -0.075057457088933549 -0.26943113266903651 0 -0.067521163804752801 -0.26368844606836439 0 -0.059016618693161702 -0.26873700800542749 0 -0.070620613333711335 -0.2814934047338587 0 -0.075057457088933549 -0.26943113266903651 0 -0.059016618693161702 -0.26873700800542749 0 -0.070620613333711335 -0.2814934047338587 0 -0.088414386404617393 -0.27300889131344641 0 -0.075057457088933549 -0.26943113266903651 0 -0.076570473518617649 -0.2601100403863234 0 -0.059440105918298319 -0.25647560321267038 0 -0.086725503371041027 -0.24584350624562601 0 -0.059440105918298319 -0.25647560321267038 0 -0.086725503371041027 -0.24584350624562601 0 -0.075057457088933549 -0.26943113266903651 0 -0.076570473518617649 -0.2601100403863234 0 -0.067521163804752801 -0.26368844606836439 0 -0.076570473518617649 -0.2601100403863234 0 -0.067521163804752801 -0.26368844606836439 0 -0.059440105918298319 -0.25647560321267038 0 -0.076570473518617649 -0.2601100403863234 0 -0.091622325018646048 -0.25883909035570318 0 -0.086725503371041027 -0.24584350624562601 0 -0.075057457088933549 -0.26943113266903651 0 -0.076570473518617649 -0.2601100403863234 0 -0.08466336182917053 -0.26539627226151252 0 -0.076570473518617649 -0.2601100403863234 0 -0.08466336182917053 -0.26539627226151252 0 -0.091622325018646048 -0.25883909035570318 0 -0.093282969796072035 -0.26619929648514418 0 -0.08466336182917053 -0.26539627226151252 0 -0.091622325018646048 -0.25883909035570318 0 -0.097691375586914153 -0.25108440143873079 0 -0.091622325018646048 -0.25883909035570318 0 -0.086725503371041027 -0.24584350624562601 0 -0.036162823767009522 -0.25305497854019099 0 -0.047559167271075287 -0.26434973142054907 0 -0.046193192448442319 -0.23987409348431549 0 -0.036162823767009522 -0.25305497854019099 0 -0.047559167271075287 -0.26434973142054907 0 -0.025273142543699129 -0.26306143372283552 0 -0.059440105918298319 -0.25647560321267038 0 -0.047559167271075287 -0.26434973142054907 0 -0.068820710881476413 -0.24728130066608739 0 -0.047559167271075287 -0.26434973142054907 0 -0.046193192448442319 -0.23987409348431549 0 -0.068820710881476413 -0.24728130066608739 0 -0.047559167271075287 -0.26434973142054907 0 -0.068820710881476413 -0.24728130066608739 0 -0.059440105918298319 -0.25647560321267038 0 -0.047559167271075287 -0.26434973142054907 0 -0.059016618693161702 -0.26873700800542749 0 -0.067521163804752801 -0.26368844606836439 0 -0.059440105918298319 -0.25647560321267038 0 -0.059016618693161702 -0.26873700800542749 0 -0.047559167271075287 -0.26434973142054907 0 -0.051819213954987328 -0.27867273917915608 0 -0.044929456184984638 -0.28193016051779962 0 -0.047559167271075287 -0.26434973142054907 0 -0.059016618693161702 -0.26873700800542749 0 -0.051819213954987328 -0.27867273917915608 0 -0.070620613333711335 -0.2814934047338587 0 -0.059016618693161702 -0.26873700800542749 0 -0.051819213954987328 -0.27867273917915608 0 -0.047559167271075287 -0.26434973142054907 0 -0.037032999413510209 -0.28083246335961071 0 -0.044929456184984638 -0.28193016051779962 0 -0.047559167271075287 -0.26434973142054907 0 -0.02629762366067372 -0.2814181621750102 0 -0.047559167271075287 -0.26434973142054907 0 -0.02629762366067372 -0.2814181621750102 0 -0.025273142543699129 -0.26306143372283552 0 -0.047559167271075287 -0.26434973142054907 0 -0.037032999413510209 -0.28083246335961071 0 -0.02629762366067372 -0.2814181621750102 0 -0.037032999413510209 -0.28083246335961071 0 -0.032039187239688321 -0.2879781457365721 0 -0.03944298653359625 -0.29258061167076022 0 -0.037032999413510209 -0.28083246335961071 0 -0.032039187239688321 -0.2879781457365721 0 -0.02629762366067372 -0.2814181621750102 0 -0.032039187239688321 -0.2879781457365721 0 -0.033103025560806659 -0.29459709329062073 0 -0.03944298653359625 -0.29258061167076022 0 -0.033103025560806659 -0.29459709329062073 0 -0.03944298653359625 -0.29258061167076022 0 -0.033686125850188188 -0.29945774898643918 0 -0.03944298653359625 -0.29258061167076022 0 -0.043550792642755257 -0.29111981747109522 0 -0.039819929368250323 -0.30393491494282282 0 -0.03944298653359625 -0.29258061167076022 0 -0.043550792642755257 -0.29111981747109522 0 -0.037032999413510209 -0.28083246335961071 0 -0.043550792642755257 -0.29111981747109522 0 -0.037032999413510209 -0.28083246335961071 0 -0.03944298653359625 -0.29258061167076022 0 -0.043550792642755257 -0.29111981747109522 0 -0.037032999413510209 -0.28083246335961071 0 -0.043550792642755257 -0.29111981747109522 0 -0.044929456184984638 -0.28193016051779962 0 -0.051819213954987328 -0.27867273917915608 0 -0.043550792642755257 -0.29111981747109522 0 -0.044929456184984638 -0.28193016051779962 0 -0.070620613333711335 -0.2814934047338587 0 -0.043550792642755257 -0.29111981747109522 0 -0.070620613333711335 -0.2814934047338587 0 -0.043550792642755257 -0.29111981747109522 0 -0.060357349493534808 -0.29550659937226431 0 -0.070620613333711335 -0.2814934047338587 0 -0.051819213954987328 -0.27867273917915608 0 -0.043550792642755257 -0.29111981747109522 0 -0.043550792642755257 -0.29111981747109522 0 -0.060357349493534808 -0.29550659937226431 0 -0.057145272119770808 -0.31257665407551177 0 -0.043550792642755257 -0.29111981747109522 0 -0.057145272119770808 -0.31257665407551177 0 -0.039819929368250323 -0.30393491494282282 0 -0.057145272119770808 -0.31257665407551177 0 -0.035607167147457361 -0.3193408566289605 0 -0.043550792642755257 -0.29111981747109522 0 -0.039819929368250323 -0.30393491494282282 0 -0.057145272119770808 -0.31257665407551177 0 -0.03944298653359625 -0.29258061167076022 0 -0.039819929368250323 -0.30393491494282282 0 -0.033686125850188188 -0.29945774898643918 0 -0.039819929368250323 -0.30393491494282282 0 -0.033686125850188188 -0.29945774898643918 0 -0.028914038409564601 -0.30844460979708649 0 -0.033103025560806659 -0.29459709329062073 0 -0.033686125850188188 -0.29945774898643918 0 -0.027243802619753898 -0.29837186676871141 0 -0.039819929368250323 -0.30393491494282282 0 -0.028914038409564601 -0.30844460979708649 0 -0.035607167147457361 -0.3193408566289605 0 -0.027243802619753898 -0.29837186676871141 0 -0.0046092996018311516 -0.29882920551984088 0 -0.019141436198175699 -0.31371400313264231 0 -0.028914038409564601 -0.30844460979708649 0 -0.027243802619753898 -0.29837186676871141 0 -0.019141436198175699 -0.31371400313264231 0 -0.033686125850188188 -0.29945774898643918 0 -0.028914038409564601 -0.30844460979708649 0 -0.027243802619753898 -0.29837186676871141 0 -0.0046092996018311516 -0.29882920551984088 0 -0.019141436198175699 -0.31371400313264231 0 -0.0086647082469044727 -0.3211738011338432 0 -0.0046092996018311516 -0.29882920551984088 0 -0.0079636674341436228 -0.28068859351338271 0 0.0079062469165253179 -0.28474643039931202 0 -0.0046092996018311516 -0.29882920551984088 0 -0.02629762366067372 -0.2814181621750102 0 -0.0079636674341436228 -0.28068859351338271 0 -0.0046092996018311516 -0.29882920551984088 0 -0.02629762366067372 -0.2814181621750102 0 -0.027243802619753898 -0.29837186676871141 0 -0.02629762366067372 -0.2814181621750102 0 -0.032039187239688321 -0.2879781457365721 0 -0.027243802619753898 -0.29837186676871141 0 -0.02629762366067372 -0.2814181621750102 0 -0.027243802619753898 -0.29837186676871141 0 -0.0046092996018311516 -0.29882920551984088 0 -0.02629762366067372 -0.2814181621750102 0 -0.032039187239688321 -0.2879781457365721 0 -0.033103025560806659 -0.29459709329062073 0 -0.027243802619753898 -0.29837186676871141 0 -0.02629762366067372 -0.2814181621750102 0 -0.016778496607065829 -0.27203537899008601 0 -0.025273142543699129 -0.26306143372283552 0 -0.02629762366067372 -0.2814181621750102 0 -0.025273142543699129 -0.26306143372283552 0 -0.02629762366067372 -0.2814181621750102 0 -0.016778496607065829 -0.27203537899008601 0 -0.0079636674341436228 -0.28068859351338271 0 -0.0079636674341436228 -0.28068859351338271 0 -0.001975110980140441 -0.26735231920009622 0 0.0079062469165253179 -0.28474643039931202 0 -0.016778496607065829 -0.27203537899008601 0 -0.001975110980140441 -0.26735231920009622 0 -0.015192462276943951 -0.25801135725452939 0 -0.016778496607065829 -0.27203537899008601 0 -0.0079636674341436228 -0.28068859351338271 0 -0.001975110980140441 -0.26735231920009622 0 -0.001975110980140441 -0.26735231920009622 0 -0.015192462276943951 -0.25801135725452939 0 -0.0044629633579056169 -0.25454707667659571 0 -0.015192462276943951 -0.25801135725452939 0 -0.0044629633579056169 -0.25454707667659571 0 -0.01501226857376438 -0.24673789650790759 0 -0.036162823767009522 -0.25305497854019099 0 -0.025273142543699129 -0.26306143372283552 0 -0.024248661426725091 -0.24470470527066079 0 -0.015192462276943951 -0.25801135725452939 0 -0.025273142543699129 -0.26306143372283552 0 -0.024248661426725091 -0.24470470527066079 0 -0.025273142543699129 -0.26306143372283552 0 -0.024248661426725091 -0.24470470527066079 0 -0.016778496607065829 -0.27203537899008601 0 -0.015192462276943951 -0.25801135725452939 0 -0.025273142543699129 -0.26306143372283552 0 -0.038064703151335942 -0.36860013948927739 0 -0.048010371803464187 -0.35666549999208069 0 -0.027471777501908351 -0.34974506233337282 0 -0.048010371803464187 -0.35666549999208069 0 -0.045915673051090067 -0.3416048197469555 0 -0.027471777501908351 -0.34974506233337282 0 -0.038064703151335942 -0.36860013948927739 0 -0.060537803613682738 -0.37089973340726251 0 -0.038064703151335942 -0.36860013948927739 0 -0.060537803613682738 -0.37089973340726251 0 -0.049601654960910138 -0.38225458098986448 0 -0.065503432233276301 -0.35315609693881078 0 -0.060537803613682738 -0.37089973340726251 0 -0.048010371803464187 -0.35666549999208069 0 -0.038064703151335942 -0.36860013948927739 0 -0.060537803613682738 -0.37089973340726251 0 -0.048010371803464187 -0.35666549999208069 0 -0.065503432233276301 -0.35315609693881078 0 -0.048010371803464187 -0.35666549999208069 0 -0.045915673051090067 -0.3416048197469555 0 -0.070739751596784473 -0.33403349067992971 0 -0.049662392304780839 -0.32642235862098379 0 -0.045915673051090067 -0.3416048197469555 0 -0.070739751596784473 -0.33403349067992971 0 -0.065503432233276301 -0.35315609693881078 0 -0.045915673051090067 -0.3416048197469555 0 -0.057145272119770808 -0.31257665407551177 0 -0.049662392304780839 -0.32642235862098379 0 -0.035607167147457361 -0.3193408566289605 0 -0.070739751596784473 -0.33403349067992971 0 -0.057145272119770808 -0.31257665407551177 0 -0.049662392304780839 -0.32642235862098379 0 -0.049662392304780839 -0.32642235862098379 0 -0.035607167147457361 -0.3193408566289605 0 -0.032667382661614272 -0.33476507630108399 0 -0.049662392304780839 -0.32642235862098379 0 -0.045915673051090067 -0.3416048197469555 0 -0.032667382661614272 -0.33476507630108399 0 -0.045915673051090067 -0.3416048197469555 0 -0.032667382661614272 -0.33476507630108399 0 -0.027471777501908351 -0.34974506233337282 0 -0.01719337681999741 -0.33165734455499007 0 -0.0070070330593946526 -0.34953659234509182 0 -0.027471777501908351 -0.34974506233337282 0 -0.032667382661614272 -0.33476507630108399 0 -0.01719337681999741 -0.33165734455499007 0 -0.027471777501908351 -0.34974506233337282 0 -0.035607167147457361 -0.3193408566289605 0 -0.032667382661614272 -0.33476507630108399 0 -0.01719337681999741 -0.33165734455499007 0 -0.035607167147457361 -0.3193408566289605 0 -0.01719337681999741 -0.33165734455499007 0 -0.019141436198175699 -0.31371400313264231 0 -0.028914038409564601 -0.30844460979708649 0 -0.035607167147457361 -0.3193408566289605 0 -0.019141436198175699 -0.31371400313264231 0 -0.0046092996018311516 -0.29882920551984088 0 -0.0086647082469044727 -0.3211738011338432 0 0.0054964724966803189 -0.32189142404520621 0 -0.01719337681999741 -0.33165734455499007 0 -0.019141436198175699 -0.31371400313264231 0 -0.0086647082469044727 -0.3211738011338432 0 -0.0086647082469044727 -0.3211738011338432 0 -0.0037061884844986999 -0.33299113331812491 0 0.0054964724966803189 -0.32189142404520621 0 -0.0037061884844986999 -0.33299113331812491 0 -0.0070070330593946526 -0.34953659234509182 0 0.006084384167342651 -0.34141036157792293 0 -0.01719337681999741 -0.33165734455499007 0 -0.0037061884844986999 -0.33299113331812491 0 -0.0070070330593946526 -0.34953659234509182 0 -0.01719337681999741 -0.33165734455499007 0 -0.0086647082469044727 -0.3211738011338432 0 -0.0037061884844986999 -0.33299113331812491 0 -0.0070070330593946526 -0.34953659234509182 0 -0.027471777501908351 -0.34974506233337282 0 -0.015591602688989121 -0.36630054557129232 0 -0.038064703151335942 -0.36860013948927739 0 -0.027471777501908351 -0.34974506233337282 0 -0.015591602688989121 -0.36630054557129232 0 -0.038064703151335942 -0.36860013948927739 0 -0.015591602688989121 -0.36630054557129232 0 -0.038064703151335942 -0.36860013948927739 0 -0.015591602688989121 -0.36630054557129232 0 -0.02619824455232302 -0.37788080144180097 0 -0.0070070330593946526 -0.34953659234509182 0 -0.015591602688989121 -0.36630054557129232 0 -0.00053198488732736707 -0.36743247430582238 0 -0.015591602688989121 -0.36630054557129232 0 -0.00053198488732736707 -0.36743247430582238 0 -0.015754328856684961 -0.38843068236968359 0 -0.00053198488732736707 -0.36743247430582238 0 -0.00033266791181115168 -0.39127596109595009 0 -0.015754328856684961 -0.38843068236968359 0 -0.00053198488732736707 -0.36743247430582238 0 -0.015754328856684961 -0.38843068236968359 0 -0.00033266791181115168 -0.39127596109595009 0 -0.0091916898023426726 -0.40169963093878919 0 0.0054934001634961531 -0.40356547128093029 0 -0.00033266791181115168 -0.39127596109595009 0 -0.0091916898023426726 -0.40169963093878919 0 -0.015754328856684961 -0.38843068236968359 0 -0.0091916898023426726 -0.40169963093878919 0 -0.015754328856684961 -0.38843068236968359 0 -0.030976672826042519 -0.40942889043354458 0 -0.015754328856684961 -0.38843068236968359 0 -0.035382343512282088 -0.38819183833695098 0 -0.030976672826042519 -0.40942889043354458 0 -0.015754328856684961 -0.38843068236968359 0 -0.030976672826042519 -0.40942889043354458 0 -0.02619824455232302 -0.37788080144180097 0 -0.015754328856684961 -0.38843068236968359 0 -0.035382343512282088 -0.38819183833695098 0 -0.015591602688989121 -0.36630054557129232 0 -0.02619824455232302 -0.37788080144180097 0 -0.015754328856684961 -0.38843068236968359 0 -0.035382343512282088 -0.38819183833695098 0 -0.045747118906584228 -0.40053612433585839 0 -0.049601654960910138 -0.38225458098986448 0 -0.038064703151335942 -0.36860013948927739 0 -0.035382343512282088 -0.38819183833695098 0 -0.049601654960910138 -0.38225458098986448 0 -0.038064703151335942 -0.36860013948927739 0 -0.02619824455232302 -0.37788080144180097 0 -0.035382343512282088 -0.38819183833695098 0 -0.035382343512282088 -0.38819183833695098 0 -0.045747118906584228 -0.40053612433585839 0 -0.030976672826042519 -0.40942889043354458 0 -0.045747118906584228 -0.40053612433585839 0 -0.059536783621923557 -0.39321315616864888 0 -0.049601654960910138 -0.38225458098986448 0 -0.045747118906584228 -0.40053612433585839 0 -0.059536783621923557 -0.39321315616864888 0 -0.057838077575116283 -0.40805884829437339 0 -0.060537803613682738 -0.37089973340726251 0 -0.059536783621923557 -0.39321315616864888 0 -0.049601654960910138 -0.38225458098986448 0 -0.052257381390554129 -0.42377957646268821 0 -0.047799416538043392 -0.41504057851997089 0 -0.046199016795400047 -0.43042709849740562 0 -0.052257381390554129 -0.42377957646268821 0 -0.054390282975736157 -0.43038624734699438 0 -0.046199016795400047 -0.43042709849740562 0 -0.054390282975736157 -0.43038624734699438 0 -0.046199016795400047 -0.43042709849740562 0 -0.057090934320250523 -0.43759998979751658 0 -0.046199016795400047 -0.43042709849740562 0 -0.057090934320250523 -0.43759998979751658 0 -0.058203520774887108 -0.44199737174605819 0 -0.054390282975736157 -0.43038624734699438 0 -0.059398721742610627 -0.43277757463457478 0 -0.057090934320250523 -0.43759998979751658 0 -0.059398721742610627 -0.43277757463457478 0 -0.057090934320250523 -0.43759998979751658 0 -0.063091827842687354 -0.43943874696047153 0 -0.059398721742610627 -0.43277757463457478 0 -0.058190998880906127 -0.42522846501604572 0 -0.065814556673435762 -0.42740524321420797 0 -0.052257381390554129 -0.42377957646268821 0 -0.054390282975736157 -0.43038624734699438 0 -0.058190998880906127 -0.42522846501604572 0 -0.054390282975736157 -0.43038624734699438 0 -0.059398721742610627 -0.43277757463457478 0 -0.058190998880906127 -0.42522846501604572 0 -0.052257381390554129 -0.42377957646268821 0 -0.058190998880906127 -0.42522846501604572 0 -0.056410431037079163 -0.41750106212927401 0 -0.058190998880906127 -0.42522846501604572 0 -0.056410431037079163 -0.41750106212927401 0 -0.065709602577856865 -0.4173189345171015 0 -0.056410431037079163 -0.41750106212927401 0 -0.057838077575116283 -0.40805884829437339 0 -0.065709602577856865 -0.4173189345171015 0 -0.045747118906584228 -0.40053612433585839 0 -0.057838077575116283 -0.40805884829437339 0 -0.047799416538043392 -0.41504057851997089 0 -0.056410431037079163 -0.41750106212927401 0 -0.057838077575116283 -0.40805884829437339 0 -0.047799416538043392 -0.41504057851997089 0 -0.052257381390554129 -0.42377957646268821 0 -0.056410431037079163 -0.41750106212927401 0 -0.047799416538043392 -0.41504057851997089 0 -0.039778201709150092 -0.42482554249325738 0 -0.043197019884313917 -0.42628604401375009 0 -0.030976672826042519 -0.40942889043354458 0 -0.047799416538043392 -0.41504057851997089 0 -0.043197019884313917 -0.42628604401375009 0 -0.030976672826042519 -0.40942889043354458 0 -0.043197019884313917 -0.42628604401375009 0 -0.030976672826042519 -0.40942889043354458 0 -0.045747118906584228 -0.40053612433585839 0 -0.047799416538043392 -0.41504057851997089 0 -0.030976672826042519 -0.40942889043354458 0 -0.039778201709150092 -0.42482554249325738 0 -0.021114657344821059 -0.43249535090781832 0 -0.036419963231674728 -0.44444296036378672 0 -0.039778201709150092 -0.42482554249325738 0 -0.036419963231674728 -0.44444296036378672 0 -0.039778201709150092 -0.42482554249325738 0 -0.042657036955805243 -0.43406103492441822 0 -0.036419963231674728 -0.44444296036378672 0 -0.039778201709150092 -0.42482554249325738 0 -0.043197019884313917 -0.42628604401375009 0 -0.042657036955805243 -0.43406103492441822 0 -0.047799416538043392 -0.41504057851997089 0 -0.043197019884313917 -0.42628604401375009 0 -0.046199016795400047 -0.43042709849740562 0 -0.039778201709150092 -0.42482554249325738 0 -0.043197019884313917 -0.42628604401375009 0 -0.043197019884313917 -0.42628604401375009 0 -0.046199016795400047 -0.43042709849740562 0 -0.046199016795400047 -0.43042709849740562 0 -0.042657036955805243 -0.43406103492441822 0 -0.047783911585980401 -0.4442561621488732 0 -0.043197019884313917 -0.42628604401375009 0 -0.046199016795400047 -0.43042709849740562 0 -0.042657036955805243 -0.43406103492441822 0 -0.021114657344821059 -0.43249535090781832 0 -0.01714848964286254 -0.41418252178126003 0 -0.0096275898833630188 -0.42647247509023128 0 -0.039778201709150092 -0.42482554249325738 0 -0.021114657344821059 -0.43249535090781832 0 -0.01714848964286254 -0.41418252178126003 0 -0.0091916898023426726 -0.40169963093878919 0 -0.030976672826042519 -0.40942889043354458 0 -0.01714848964286254 -0.41418252178126003 0 -0.039778201709150092 -0.42482554249325738 0 -0.030976672826042519 -0.40942889043354458 0 -0.01714848964286254 -0.41418252178126003 0 -0.039778201709150092 -0.42482554249325738 0 -0.01714848964286254 -0.41418252178126003 0 -0.0091916898023426726 -0.40169963093878919 0 -0.01714848964286254 -0.41418252178126003 0 0.0054934001634961531 -0.40356547128093029 0 -0.01714848964286254 -0.41418252178126003 0 0.0054934001634961531 -0.40356547128093029 0 -0.01714848964286254 -0.41418252178126003 0 -0.00068239153719094989 -0.4198465346992093 0 -0.0096275898833630188 -0.42647247509023128 0 -0.01714848964286254 -0.41418252178126003 0 -0.00068239153719094989 -0.4198465346992093 0 0.0054934001634961531 -0.40356547128093029 0 -0.00068239153719094989 -0.4198465346992093 0 -0.0096275898833630188 -0.42647247509023128 0 0.00043517899142246982 -0.43936549297263772 0 -0.021114657344821059 -0.43249535090781832 0 -0.0096275898833630188 -0.42647247509023128 0 0.00043517899142246982 -0.43936549297263772 0 -0.015828219470052949 -0.45994055073280421 0 -0.021929302788196051 -0.44661811415244829 0 0.00043517899142246982 -0.43936549297263772 0 -0.021114657344821059 -0.43249535090781832 0 -0.021929302788196051 -0.44661811415244829 0 0.00043517899142246982 -0.43936549297263772 0 -0.015828219470052949 -0.45994055073280421 0 0.00043517899142246982 -0.43936549297263772 0 -0.015828219470052949 -0.45994055073280421 0 0.00043517899142246982 -0.43936549297263772 0 0.00085444750090718133 -0.46129944656225891 0 -0.015828219470052949 -0.45994055073280421 0 -0.006583924585268134 -0.47585703538303958 0 0.00085444750090718133 -0.46129944656225891 0 -0.015828219470052949 -0.45994055073280421 0 -0.006583924585268134 -0.47585703538303958 0 -0.033061724754199252 -0.4640603782343159 0 -0.015828219470052949 -0.45994055073280421 0 -0.021929302788196051 -0.44661811415244829 0 -0.033061724754199252 -0.4640603782343159 0 -0.021929302788196051 -0.44661811415244829 0 -0.036419963231674728 -0.44444296036378672 0 -0.033061724754199252 -0.4640603782343159 0 -0.021114657344821059 -0.43249535090781832 0 -0.021929302788196051 -0.44661811415244829 0 -0.036419963231674728 -0.44444296036378672 0 -0.006583924585268134 -0.47585703538303958 0 -0.015677051325722339 -0.48882897564005762 0 0.001901865054427021 -0.5 0 -0.015677051325722339 -0.48882897564005762 0 -0.026909344177103431 -0.49999999999999828 0 0.001901865054427021 -0.5 0 -0.006583924585268134 -0.47585703538303958 0 -0.029985534465651269 -0.48203018911715712 0 -0.015677051325722339 -0.48882897564005762 0 -0.006583924585268134 -0.47585703538303958 0 -0.033061724754199252 -0.4640603782343159 0 -0.006583924585268134 -0.47585703538303958 0 -0.029985534465651269 -0.48203018911715712 0 -0.033061724754199252 -0.4640603782343159 0 -0.029985534465651269 -0.48203018911715712 0 -0.026909344177103431 -0.49999999999999828 0 -0.029985534465651269 -0.48203018911715712 0 -0.015677051325722339 -0.48882897564005762 0 -0.026909344177103431 -0.49999999999999828 0 -0.029985534465651269 -0.48203018911715712 0 -0.026909344177103431 -0.49999999999999828 0 -0.056504661361216402 -0.5 0 -0.029985534465651269 -0.48203018911715712 0 -0.046720674336978602 -0.47495636797234969 0 -0.056504661361216402 -0.5 0 -0.029985534465651269 -0.48203018911715712 0 -0.046720674336978602 -0.47495636797234969 0 -0.033061724754199252 -0.4640603782343159 0 -0.029985534465651269 -0.48203018911715712 0 -0.033061724754199252 -0.4640603782343159 0 -0.046720674336978602 -0.47495636797234969 0 -0.062421899353891551 -0.47797844891966812 0 -0.056504661361216402 -0.5 0 -0.046720674336978602 -0.47495636797234969 0 -0.062421899353891551 -0.47797844891966812 0 -0.055666720746504063 -0.46823481812412998 0 -0.062421899353891551 -0.47797844891966812 0 -0.055666720746504063 -0.46823481812412998 0 -0.064348359441110864 -0.4670827796423565 0 -0.036419963231674728 -0.44444296036378672 0 -0.0472415427594799 -0.45774284239778962 0 -0.047783911585980401 -0.4442561621488732 0 -0.042657036955805243 -0.43406103492441822 0 -0.036419963231674728 -0.44444296036378672 0 -0.047783911585980401 -0.4442561621488732 0 -0.036419963231674728 -0.44444296036378672 0 -0.033061724754199252 -0.4640603782343159 0 -0.046720674336978602 -0.47495636797234969 0 -0.033061724754199252 -0.4640603782343159 0 -0.0472415427594799 -0.45774284239778962 0 -0.036419963231674728 -0.44444296036378672 0 -0.033061724754199252 -0.4640603782343159 0 -0.0472415427594799 -0.45774284239778962 0 -0.033061724754199252 -0.4640603782343159 0 -0.0472415427594799 -0.45774284239778962 0 -0.0472415427594799 -0.45774284239778962 0 -0.061421360764760957 -0.45142530656126417 0 -0.046720674336978602 -0.47495636797234969 0 -0.0472415427594799 -0.45774284239778962 0 -0.055666720746504063 -0.46823481812412998 0 -0.0472415427594799 -0.45774284239778962 0 -0.055666720746504063 -0.46823481812412998 0 -0.058409495044349703 -0.45981505653181309 0 -0.055666720746504063 -0.46823481812412998 0 -0.058409495044349703 -0.45981505653181309 0 -0.064348359441110864 -0.4670827796423565 0 -0.058409495044349703 -0.45981505653181309 0 -0.061421360764760957 -0.45142530656126417 0 -0.062703669760032221 -0.45319416628084341 0 -0.0472415427594799 -0.45774284239778962 0 -0.058409495044349703 -0.45981505653181309 0 -0.061421360764760957 -0.45142530656126417 0 -0.058409495044349703 -0.45981505653181309 0 -0.062703669760032221 -0.45319416628084341 0 -0.065801173003136176 -0.45879799363356411 0 -0.061421360764760957 -0.45142530656126417 0 -0.062392457962510209 -0.44677757857236822 0 -0.058203520774887108 -0.44199737174605819 0 -0.046199016795400047 -0.43042709849740562 0 -0.061421360764760957 -0.45142530656126417 0 -0.047783911585980401 -0.4442561621488732 0 -0.061421360764760957 -0.45142530656126417 0 -0.062703669760032221 -0.45319416628084341 0 -0.046199016795400047 -0.43042709849740562 0 -0.061421360764760957 -0.45142530656126417 0 -0.046199016795400047 -0.43042709849740562 0 -0.061421360764760957 -0.45142530656126417 0 -0.058203520774887108 -0.44199737174605819 0 -0.0472415427594799 -0.45774284239778962 0 -0.061421360764760957 -0.45142530656126417 0 -0.047783911585980401 -0.4442561621488732 0 -0.057090934320250523 -0.43759998979751658 0 -0.058203520774887108 -0.44199737174605819 0 -0.060065390113105063 -0.44074071893674699 0 -0.058203520774887108 -0.44199737174605819 0 -0.060065390113105063 -0.44074071893674699 0 -0.0625478488110814 -0.44331690160997123 0 -0.062392457962510209 -0.44677757857236822 0 -0.058203520774887108 -0.44199737174605819 0 -0.0625478488110814 -0.44331690160997123 0 -0.057090934320250523 -0.43759998979751658 0 -0.060065390113105063 -0.44074071893674699 0 -0.063091827842687354 -0.43943874696047153 0 -0.060065390113105063 -0.44074071893674699 0 -0.063091827842687354 -0.43943874696047153 0 -0.0625478488110814 -0.44331690160997123 0 -0.063091827842687354 -0.43943874696047153 0 -0.066916259851721879 -0.44388958759222891 0 -0.072478359615838761 -0.43977736010477952 0 -0.066916259851721879 -0.44388958759222891 0 -0.072478359615838761 -0.43977736010477952 0 -0.070246452010019639 -0.44838297406781219 0 -0.063091827842687354 -0.43943874696047153 0 -0.0625478488110814 -0.44331690160997123 0 -0.066916259851721879 -0.44388958759222891 0 -0.0625478488110814 -0.44331690160997123 0 -0.066916259851721879 -0.44388958759222891 0 -0.065037993381880668 -0.44667623983134652 0 -0.072478359615838761 -0.43977736010477952 0 -0.070246452010019639 -0.44838297406781219 0 -0.082394391556965263 -0.44635005843620101 0 -0.070246452010019639 -0.44838297406781219 0 -0.073189432352252309 -0.45526058813715431 0 -0.082394391556965263 -0.44635005843620101 0 -0.070246452010019639 -0.44838297406781219 0 -0.067073436028247488 -0.45338880308409779 0 -0.073189432352252309 -0.45526058813715431 0 -0.070246452010019639 -0.44838297406781219 0 -0.064127444467163591 -0.45021966479913339 0 -0.067073436028247488 -0.45338880308409779 0 -0.070246452010019639 -0.44838297406781219 0 -0.065037993381880668 -0.44667623983134652 0 -0.064127444467163591 -0.45021966479913339 0 -0.066916259851721879 -0.44388958759222891 0 -0.070246452010019639 -0.44838297406781219 0 -0.065037993381880668 -0.44667623983134652 0 -0.062392457962510209 -0.44677757857236822 0 -0.065037993381880668 -0.44667623983134652 0 -0.064127444467163591 -0.45021966479913339 0 -0.062392457962510209 -0.44677757857236822 0 -0.0625478488110814 -0.44331690160997123 0 -0.065037993381880668 -0.44667623983134652 0 -0.061421360764760957 -0.45142530656126417 0 -0.062392457962510209 -0.44677757857236822 0 -0.064127444467163591 -0.45021966479913339 0 -0.064127444467163591 -0.45021966479913339 0 -0.062703669760032221 -0.45319416628084341 0 -0.067073436028247488 -0.45338880308409779 0 -0.061421360764760957 -0.45142530656126417 0 -0.064127444467163591 -0.45021966479913339 0 -0.061421360764760957 -0.45142530656126417 0 -0.064127444467163591 -0.45021966479913339 0 -0.062703669760032221 -0.45319416628084341 0 -0.062703669760032221 -0.45319416628084341 0 -0.065801173003136176 -0.45879799363356411 0 -0.067073436028247488 -0.45338880308409779 0 -0.065801173003136176 -0.45879799363356411 0 -0.067073436028247488 -0.45338880308409779 0 -0.073189432352252309 -0.45526058813715431 0 -0.058409495044349703 -0.45981505653181309 0 -0.065801173003136176 -0.45879799363356411 0 -0.064348359441110864 -0.4670827796423565 0 -0.065801173003136176 -0.45879799363356411 0 -0.064348359441110864 -0.4670827796423565 0 -0.072171841814746174 -0.46277472270339393 0 -0.064348359441110864 -0.4670827796423565 0 -0.072171841814746174 -0.46277472270339393 0 -0.075462127845187882 -0.47196991367611868 0 -0.072171841814746174 -0.46277472270339393 0 -0.082200903539651704 -0.45927788421074051 0 -0.075462127845187882 -0.47196991367611868 0 -0.072171841814746174 -0.46277472270339393 0 -0.073189432352252309 -0.45526058813715431 0 -0.082200903539651704 -0.45927788421074051 0 -0.065801173003136176 -0.45879799363356411 0 -0.072171841814746174 -0.46277472270339393 0 -0.073189432352252309 -0.45526058813715431 0 -0.073189432352252309 -0.45526058813715431 0 -0.082200903539651704 -0.45927788421074051 0 -0.082394391556965263 -0.44635005843620101 0 -0.082200903539651704 -0.45927788421074051 0 -0.092689266424917288 -0.4698946297147592 0 -0.097865673214483695 -0.45150451621353871 0 -0.082200903539651704 -0.45927788421074051 0 -0.075462127845187882 -0.47196991367611868 0 -0.092689266424917288 -0.4698946297147592 0 -0.082200903539651704 -0.45927788421074051 0 -0.082394391556965263 -0.44635005843620101 0 -0.097865673214483695 -0.45150451621353871 0 -0.082394391556965263 -0.44635005843620101 0 -0.097865673214483695 -0.45150451621353871 0 -0.096863204418995832 -0.43573756439281081 0 -0.082394391556965263 -0.44635005843620101 0 -0.096863204418995832 -0.43573756439281081 0 -0.081770445700303104 -0.43076382120095291 0 -0.072478359615838761 -0.43977736010477952 0 -0.082394391556965263 -0.44635005843620101 0 -0.081770445700303104 -0.43076382120095291 0 -0.062421899353891551 -0.47797844891966812 0 -0.056504661361216402 -0.5 0 -0.074821410404450187 -0.48602803035332198 0 -0.056504661361216402 -0.5 0 -0.074821410404450187 -0.48602803035332198 0 -0.086099978545329414 -0.5 0 -0.062421899353891551 -0.47797844891966812 0 -0.074821410404450187 -0.48602803035332198 0 -0.075462127845187882 -0.47196991367611868 0 -0.062421899353891551 -0.47797844891966812 0 -0.064348359441110864 -0.4670827796423565 0 -0.075462127845187882 -0.47196991367611868 0 -0.074821410404450187 -0.48602803035332198 0 -0.075462127845187882 -0.47196991367611868 0 -0.092689266424917288 -0.4698946297147592 0 -0.074821410404450187 -0.48602803035332198 0 -0.092689266424917288 -0.4698946297147592 0 -0.086099978545329414 -0.5 0 -0.086099978545329414 -0.5 0 -0.10756671343328721 -0.48294777516562271 0 -0.1156952957294424 -0.5 0 -0.092689266424917288 -0.4698946297147592 0 -0.10756671343328721 -0.48294777516562271 0 -0.1178101528851597 -0.46655943912836878 0 -0.092689266424917288 -0.4698946297147592 0 -0.086099978545329414 -0.5 0 -0.10756671343328721 -0.48294777516562271 0 -0.1312079227153958 -0.4821811201316929 0 -0.10756671343328721 -0.48294777516562271 0 -0.1178101528851597 -0.46655943912836878 0 -0.1312079227153958 -0.4821811201316929 0 -0.10756671343328721 -0.48294777516562271 0 -0.1156952957294424 -0.5 0 -0.097865673214483695 -0.45150451621353871 0 -0.11194117792919819 -0.44227037476229408 0 -0.096863204418995832 -0.43573756439281081 0 -0.092689266424917288 -0.4698946297147592 0 -0.097865673214483695 -0.45150451621353871 0 -0.1178101528851597 -0.46655943912836878 0 -0.097865673214483695 -0.45150451621353871 0 -0.1178101528851597 -0.46655943912836878 0 -0.11194117792919819 -0.44227037476229408 0 -0.092689266424917288 -0.4698946297147592 0 -0.1178101528851597 -0.46655943912836878 0 -0.1302076740279518 -0.44055256524749392 0 -0.1178101528851597 -0.46655943912836878 0 -0.11194117792919819 -0.44227037476229408 0 -0.1302076740279518 -0.44055256524749392 0 -0.12858747969712031 -0.42101394573331269 0 -0.11244021093124611 -0.42497026811325489 0 -0.1302076740279518 -0.44055256524749392 0 -0.11194117792919819 -0.44227037476229408 0 -0.11244021093124611 -0.42497026811325489 0 -0.11194117792919819 -0.44227037476229408 0 -0.11244021093124611 -0.42497026811325489 0 -0.096863204418995832 -0.43573756439281081 0 -0.11244021093124611 -0.42497026811325489 0 -0.096863204418995832 -0.43573756439281081 0 -0.093825874230080042 -0.42022728081478888 0 -0.11244021093124611 -0.42497026811325489 0 -0.093825874230080042 -0.42022728081478888 0 -0.1031712336528865 -0.40754115549172643 0 -0.093825874230080042 -0.42022728081478888 0 -0.1031712336528865 -0.40754115549172643 0 -0.089240671486348733 -0.40557019181291459 0 -0.12858747969712031 -0.42101394573331269 0 -0.11244021093124611 -0.42497026811325489 0 -0.1189942540355351 -0.40690069624525421 0 -0.11244021093124611 -0.42497026811325489 0 -0.1031712336528865 -0.40754115549172643 0 -0.1189942540355351 -0.40690069624525421 0 -0.12732934003256491 -0.38386225562513221 0 -0.1189942540355351 -0.40690069624525421 0 -0.11086204573521161 -0.39475617710432798 0 -0.1031712336528865 -0.40754115549172643 0 -0.1189942540355351 -0.40690069624525421 0 -0.11086204573521161 -0.39475617710432798 0 -0.12732934003256491 -0.38386225562513221 0 -0.10803489284605609 -0.37575994473875018 0 -0.1074530629427079 -0.38494222163145309 0 -0.12732934003256491 -0.38386225562513221 0 -0.12494586055660151 -0.36847844765690407 0 -0.1062887744241693 -0.3740090513437227 0 -0.12732934003256491 -0.38386225562513221 0 -0.11086204573521161 -0.39475617710432798 0 -0.1074530629427079 -0.38494222163145309 0 -0.12732934003256491 -0.38386225562513221 0 -0.1062887744241693 -0.3740090513437227 0 -0.10803489284605609 -0.37575994473875018 0 -0.12732934003256491 -0.38386225562513221 0 -0.1062887744241693 -0.3740090513437227 0 -0.10548400453837629 -0.37549892124323342 0 -0.10803489284605609 -0.37575994473875018 0 -0.1074530629427079 -0.38494222163145309 0 -0.1062887744241693 -0.3740090513437227 0 -0.10548400453837629 -0.37549892124323342 0 -0.10803489284605609 -0.37575994473875018 0 -0.10548400453837629 -0.37549892124323342 0 -0.10803489284605609 -0.37575994473875018 0 -0.11086204573521161 -0.39475617710432798 0 -0.1074530629427079 -0.38494222163145309 0 -0.097362338012363339 -0.39053455652807451 0 -0.10548400453837629 -0.37549892124323342 0 -0.1074530629427079 -0.38494222163145309 0 -0.097362338012363339 -0.39053455652807451 0 -0.10548400453837629 -0.37549892124323342 0 -0.097362338012363339 -0.39053455652807451 0 -0.10548400453837629 -0.37549892124323342 0 -0.097362338012363339 -0.39053455652807451 0 -0.091156722057413625 -0.38205601132936351 0 -0.1031712336528865 -0.40754115549172643 0 -0.11086204573521161 -0.39475617710432798 0 -0.097362338012363339 -0.39053455652807451 0 -0.1031712336528865 -0.40754115549172643 0 -0.097362338012363339 -0.39053455652807451 0 -0.089240671486348733 -0.40557019181291459 0 -0.097362338012363339 -0.39053455652807451 0 -0.089240671486348733 -0.40557019181291459 0 -0.078769641602885326 -0.38899124022089848 0 -0.089240671486348733 -0.40557019181291459 0 -0.078769641602885326 -0.38899124022089848 0 -0.071825112769210414 -0.40474323409538709 0 -0.097362338012363339 -0.39053455652807451 0 -0.089240671486348733 -0.40557019181291459 0 -0.097362338012363339 -0.39053455652807451 0 -0.078769641602885326 -0.38899124022089848 0 -0.091156722057413625 -0.38205601132936351 0 -0.083010904076029554 -0.37319932732524758 0 -0.10548400453837629 -0.37549892124323342 0 -0.091156722057413625 -0.38205601132936351 0 -0.083010904076029554 -0.37319932732524758 0 -0.078769641602885326 -0.38899124022089848 0 -0.091156722057413625 -0.38205601132936351 0 -0.083010904076029554 -0.37319932732524758 0 -0.060537803613682738 -0.37089973340726251 0 -0.078769641602885326 -0.38899124022089848 0 -0.060537803613682738 -0.37089973340726251 0 -0.059536783621923557 -0.39321315616864888 0 -0.078769641602885326 -0.38899124022089848 0 -0.059536783621923557 -0.39321315616864888 0 -0.078769641602885326 -0.38899124022089848 0 -0.071825112769210414 -0.40474323409538709 0 -0.059536783621923557 -0.39321315616864888 0 -0.057838077575116283 -0.40805884829437339 0 -0.071825112769210414 -0.40474323409538709 0 -0.057838077575116283 -0.40805884829437339 0 -0.071825112769210414 -0.40474323409538709 0 -0.065709602577856865 -0.4173189345171015 0 -0.071825112769210414 -0.40474323409538709 0 -0.065709602577856865 -0.4173189345171015 0 -0.079599221528212902 -0.41722812572219659 0 -0.065709602577856865 -0.4173189345171015 0 -0.073048522203577451 -0.42453598789904551 0 -0.079599221528212902 -0.41722812572219659 0 -0.065709602577856865 -0.4173189345171015 0 -0.065814556673435762 -0.42740524321420797 0 -0.073048522203577451 -0.42453598789904551 0 -0.058190998880906127 -0.42522846501604572 0 -0.065709602577856865 -0.4173189345171015 0 -0.065814556673435762 -0.42740524321420797 0 -0.063091827842687354 -0.43943874696047153 0 -0.072478359615838761 -0.43977736010477952 0 -0.065862136928741835 -0.43307475196666212 0 -0.059398721742610627 -0.43277757463457478 0 -0.063091827842687354 -0.43943874696047153 0 -0.065862136928741835 -0.43307475196666212 0 -0.059398721742610627 -0.43277757463457478 0 -0.065814556673435762 -0.42740524321420797 0 -0.065862136928741835 -0.43307475196666212 0 -0.065814556673435762 -0.42740524321420797 0 -0.065862136928741835 -0.43307475196666212 0 -0.072677357706921686 -0.43149574525181827 0 -0.072478359615838761 -0.43977736010477952 0 -0.072677357706921686 -0.43149574525181827 0 -0.081770445700303104 -0.43076382120095291 0 -0.072478359615838761 -0.43977736010477952 0 -0.065862136928741835 -0.43307475196666212 0 -0.072677357706921686 -0.43149574525181827 0 -0.072677357706921686 -0.43149574525181827 0 -0.073048522203577451 -0.42453598789904551 0 -0.081770445700303104 -0.43076382120095291 0 -0.065814556673435762 -0.42740524321420797 0 -0.072677357706921686 -0.43149574525181827 0 -0.073048522203577451 -0.42453598789904551 0 -0.093825874230080042 -0.42022728081478888 0 -0.081770445700303104 -0.43076382120095291 0 -0.079599221528212902 -0.41722812572219659 0 -0.073048522203577451 -0.42453598789904551 0 -0.081770445700303104 -0.43076382120095291 0 -0.079599221528212902 -0.41722812572219659 0 -0.096863204418995832 -0.43573756439281081 0 -0.093825874230080042 -0.42022728081478888 0 -0.081770445700303104 -0.43076382120095291 0 -0.089240671486348733 -0.40557019181291459 0 -0.071825112769210414 -0.40474323409538709 0 -0.079599221528212902 -0.41722812572219659 0 -0.093825874230080042 -0.42022728081478888 0 -0.089240671486348733 -0.40557019181291459 0 -0.079599221528212902 -0.41722812572219659 0 -0.090922104045730187 -0.08436791794510215 0 -0.086436353566942695 -0.074116565833273335 0 -0.077431000326925653 -0.083050625998214445 0 -0.084854560419851344 -0.092535959244133034 0 -0.090922104045730187 -0.08436791794510215 0 -0.077431000326925653 -0.083050625998214445 0 -0.084854560419851344 -0.092535959244133034 0 -0.077431000326925653 -0.083050625998214445 0 -0.072954982612303737 -0.096025156006045526 0 -0.084854560419851344 -0.092535959244133034 0 -0.09193719265837931 -0.091300738060852565 0 -0.090922104045730187 -0.08436791794510215 0 -0.09193719265837931 -0.091300738060852565 0 -0.090922104045730187 -0.08436791794510215 0 -0.098318958869570289 -0.089739891466693283 0 -0.090922104045730187 -0.08436791794510215 0 -0.092014805956459084 -0.07779982532156493 0 -0.086436353566942695 -0.074116565833273335 0 -0.090922104045730187 -0.08436791794510215 0 -0.092014805956459084 -0.07779982532156493 0 -0.096605111966441976 -0.081003354968904748 0 -0.086436353566942695 -0.074116565833273335 0 -0.090155983156668215 -0.062738550335962665 0 -0.095951431338383283 -0.074127867564574929 0 -0.086436353566942695 -0.074116565833273335 0 -0.072240923625163017 -0.065169421218936416 0 -0.077431000326925653 -0.083050625998214445 0 -0.086436353566942695 -0.074116565833273335 0 -0.090155983156668215 -0.062738550335962665 0 -0.072240923625163017 -0.065169421218936416 0 -0.092014805956459084 -0.07779982532156493 0 -0.086436353566942695 -0.074116565833273335 0 -0.095951431338383283 -0.074127867564574929 0 -0.072240923625163017 -0.065169421218936416 0 -0.077431000326925653 -0.083050625998214445 0 -0.061881508185981968 -0.079173629315254054 0 -0.077431000326925653 -0.083050625998214445 0 -0.072954982612303737 -0.096025156006045526 0 -0.061881508185981968 -0.079173629315254054 0 -0.072954982612303737 -0.096025156006045526 0 -0.077798671115793319 -0.1141618115094708 0 -0.051345769721934907 -0.1028984487244736 0 -0.077798671115793319 -0.1141618115094708 0 -0.056241956889293232 -0.12629065496697531 0 -0.082460437126670866 -0.13030587969105289 0 -0.077798671115793319 -0.1141618115094708 0 -0.097066715411537705 -0.1225381822580586 0 -0.082460437126670866 -0.13030587969105289 0 -0.077798671115793319 -0.1141618115094708 0 -0.092562650851985034 -0.11019606308779729 0 -0.097066715411537705 -0.1225381822580586 0 -0.072954982612303737 -0.096025156006045526 0 -0.077798671115793319 -0.1141618115094708 0 -0.085848547374660925 -0.1022475216114748 0 -0.084854560419851344 -0.092535959244133034 0 -0.072954982612303737 -0.096025156006045526 0 -0.085848547374660925 -0.1022475216114748 0 -0.077798671115793319 -0.1141618115094708 0 -0.092562650851985034 -0.11019606308779729 0 -0.085848547374660925 -0.1022475216114748 0 -0.092562650851985034 -0.11019606308779729 0 -0.085848547374660925 -0.1022475216114748 0 -0.093535844445866753 -0.1029884163232076 0 -0.084854560419851344 -0.092535959244133034 0 -0.085848547374660925 -0.1022475216114748 0 -0.092384133517157352 -0.097652099535289541 0 -0.085848547374660925 -0.1022475216114748 0 -0.093535844445866753 -0.1029884163232076 0 -0.092384133517157352 -0.097652099535289541 0 -0.084854560419851344 -0.092535959244133034 0 -0.09193719265837931 -0.091300738060852565 0 -0.092384133517157352 -0.097652099535289541 0 -0.09193719265837931 -0.091300738060852565 0 -0.092384133517157352 -0.097652099535289541 0 -0.096784363881443514 -0.095261832995719609 0 -0.096784363881443514 -0.095261832995719609 0 -0.1020903793111505 -0.097631037356355477 0 -0.098318958869570289 -0.089739891466693283 0 -0.1065567667095083 -0.108987558098729 0 -0.1091619524019775 -0.1103348647998285 0 -0.10630595242612199 -0.08583726923175955 0 -0.1091619524019775 -0.1103348647998285 0 -0.11038826192807059 -0.10182075904914011 0 -0.10630595242612199 -0.08583726923175955 0 -0.1065567667095083 -0.108987558098729 0 -0.1020903793111505 -0.097631037356355477 0 -0.10443461605496999 -0.083654011782326954 0 -0.1091619524019775 -0.1103348647998285 0 -0.10630595242612199 -0.08583726923175955 0 -0.092384133517157352 -0.097652099535289541 0 -0.096784363881443514 -0.095261832995719609 0 -0.097113175487692785 -0.099717567925825645 0 -0.1065567667095083 -0.108987558098729 0 -0.10443461605496999 -0.083654011782326954 0 -0.1104660425509697 -0.094057404793709026 0 -0.11038826192807059 -0.10182075904914011 0 -0.10630595242612199 -0.08583726923175955 0 -0.096784363881443514 -0.095261832995719609 0 -0.097113175487692785 -0.099717567925825645 0 -0.1020903793111505 -0.097631037356355477 0 -0.097113175487692785 -0.099717567925825645 0 -0.099770714997837684 -0.1051288294556509 0 -0.1020903793111505 -0.097631037356355477 0 -0.093535844445866753 -0.1029884163232076 0 -0.092384133517157352 -0.097652099535289541 0 -0.097113175487692785 -0.099717567925825645 0 -0.093535844445866753 -0.1029884163232076 0 -0.097113175487692785 -0.099717567925825645 0 -0.099770714997837684 -0.1051288294556509 0 -0.092562650851985034 -0.11019606308779729 0 -0.093535844445866753 -0.1029884163232076 0 -0.099770714997837684 -0.1051288294556509 0 -0.092562650851985034 -0.11019606308779729 0 -0.099770714997837684 -0.1051288294556509 0 -0.098989211992717166 -0.11171265822505889 0 -0.099770714997837684 -0.1051288294556509 0 -0.1065567667095083 -0.108987558098729 0 -0.1020903793111505 -0.097631037356355477 0 -0.099770714997837684 -0.1051288294556509 0 -0.1065567667095083 -0.108987558098729 0 -0.098989211992717166 -0.11171265822505889 0 -0.1065567667095083 -0.108987558098729 0 -0.1086789173640484 -0.1343211044151309 0 -0.1065567667095083 -0.108987558098729 0 -0.1091619524019775 -0.1103348647998285 0 -0.1086789173640484 -0.1343211044151309 0 -0.1065567667095083 -0.108987558098729 0 -0.097066715411537705 -0.1225381822580586 0 -0.1086789173640484 -0.1343211044151309 0 -0.1065567667095083 -0.108987558098729 0 -0.097066715411537705 -0.1225381822580586 0 -0.098989211992717166 -0.11171265822505889 0 -0.092562650851985034 -0.11019606308779729 0 -0.097066715411537705 -0.1225381822580586 0 -0.098989211992717166 -0.11171265822505889 0 -0.1091619524019775 -0.1103348647998285 0 -0.1130957479095262 -0.12618652358123969 0 -0.1120179523778314 -0.13483246036789759 0 -0.1091619524019775 -0.1103348647998285 0 -0.11421419763790649 -0.1204942196834326 0 -0.1130957479095262 -0.12618652358123969 0 -0.1091619524019775 -0.1103348647998285 0 -0.1120179523778314 -0.13483246036789759 0 -0.116962289602545 -0.1246422661194878 0 -0.11421419763790649 -0.1204942196834326 0 -0.1130957479095262 -0.12618652358123969 0 -0.116962289602545 -0.1246422661194878 0 -0.11421419763790649 -0.1204942196834326 0 -0.1200877919474734 -0.1230236574711794 0 -0.11421419763790649 -0.1204942196834326 0 -0.11348149926329271 -0.1152076435141824 0 -0.1176029256604557 -0.1165391888837399 0 -0.1091619524019775 -0.1103348647998285 0 -0.11421419763790649 -0.1204942196834326 0 -0.11348149926329271 -0.1152076435141824 0 -0.1143914024452781 -0.1116883858772085 0 -0.119065358640032 -0.1116638140421915 0 -0.1176029256604557 -0.1165391888837399 0 -0.11348149926329271 -0.1152076435141824 0 -0.1143914024452781 -0.1116883858772085 0 -0.1176029256604557 -0.1165391888837399 0 -0.1091619524019775 -0.1103348647998285 0 -0.1143914024452781 -0.1116883858772085 0 -0.1120865817909226 -0.10758667235656701 0 -0.1091619524019775 -0.1103348647998285 0 -0.11348149926329271 -0.1152076435141824 0 -0.1143914024452781 -0.1116883858772085 0 -0.1143914024452781 -0.1116883858772085 0 -0.119065358640032 -0.1116638140421915 0 -0.1150138921842164 -0.10851399691537179 0 -0.119065358640032 -0.1116638140421915 0 -0.1249996317091196 -0.1103184121040176 0 -0.12437730402875161 -0.1171574127142449 0 -0.119065358640032 -0.1116638140421915 0 -0.12437730402875161 -0.1171574127142449 0 -0.1176029256604557 -0.1165391888837399 0 -0.12437730402875161 -0.1171574127142449 0 -0.1200877919474734 -0.1230236574711794 0 -0.12872657756983999 -0.12565653950385669 0 -0.11421419763790649 -0.1204942196834326 0 -0.1176029256604557 -0.1165391888837399 0 -0.1200877919474734 -0.1230236574711794 0 -0.12437730402875161 -0.1171574127142449 0 -0.1176029256604557 -0.1165391888837399 0 -0.1200877919474734 -0.1230236574711794 0 -0.1152156932237178 -0.099473888575843578 0 -0.1156504166037977 -0.1027116393584598 0 -0.1197656675825971 -0.10116440868842511 0 -0.1152156932237178 -0.099473888575843578 0 -0.1142085831798046 -0.095906069031308272 0 -0.11202335310319241 -0.098909306467928518 0 -0.1152156932237178 -0.099473888575843578 0 -0.1131969786106178 -0.10156695164673329 0 -0.1156504166037977 -0.1027116393584598 0 -0.1152156932237178 -0.099473888575843578 0 -0.11202335310319241 -0.098909306467928518 0 -0.1131969786106178 -0.10156695164673329 0 -0.1142085831798046 -0.095906069031308272 0 -0.1176212581153737 -0.097258293857863332 0 -0.11782114769358799 -0.093260098020518004 0 -0.1152156932237178 -0.099473888575843578 0 -0.1142085831798046 -0.095906069031308272 0 -0.1176212581153737 -0.097258293857863332 0 -0.1142085831798046 -0.095906069031308272 0 -0.11782114769358799 -0.093260098020518004 0 -0.1133854379771063 -0.092404678986243785 0 -0.1142085831798046 -0.095906069031308272 0 -0.1104660425509697 -0.094057404793709026 0 -0.11202335310319241 -0.098909306467928518 0 -0.1142085831798046 -0.095906069031308272 0 -0.1104660425509697 -0.094057404793709026 0 -0.1133854379771063 -0.092404678986243785 0 -0.1104660425509697 -0.094057404793709026 0 -0.11202335310319241 -0.098909306467928518 0 -0.11038826192807059 -0.10182075904914011 0 -0.11202335310319241 -0.098909306467928518 0 -0.11038826192807059 -0.10182075904914011 0 -0.1131969786106178 -0.10156695164673329 0 -0.1091619524019775 -0.1103348647998285 0 -0.11038826192807059 -0.10182075904914011 0 -0.1120865817909226 -0.10758667235656701 0 -0.11038826192807059 -0.10182075904914011 0 -0.11319554229975901 -0.10519972211381851 0 -0.1120865817909226 -0.10758667235656701 0 -0.11038826192807059 -0.10182075904914011 0 -0.11319554229975901 -0.10519972211381851 0 -0.1131969786106178 -0.10156695164673329 0 -0.1143914024452781 -0.1116883858772085 0 -0.1120865817909226 -0.10758667235656701 0 -0.1150138921842164 -0.10851399691537179 0 -0.11319554229975901 -0.10519972211381851 0 -0.1150138921842164 -0.10851399691537179 0 -0.1185687826485111 -0.1057636327284717 0 -0.11319554229975901 -0.10519972211381851 0 -0.1120865817909226 -0.10758667235656701 0 -0.1150138921842164 -0.10851399691537179 0 -0.11319554229975901 -0.10519972211381851 0 -0.1156504166037977 -0.1027116393584598 0 -0.1185687826485111 -0.1057636327284717 0 -0.11319554229975901 -0.10519972211381851 0 -0.1131969786106178 -0.10156695164673329 0 -0.1156504166037977 -0.1027116393584598 0 -0.1156504166037977 -0.1027116393584598 0 -0.1185687826485111 -0.1057636327284717 0 -0.1197656675825971 -0.10116440868842511 0 -0.1185687826485111 -0.1057636327284717 0 -0.1239251154810906 -0.10490651537085779 0 -0.1197656675825971 -0.10116440868842511 0 -0.119065358640032 -0.1116638140421915 0 -0.1249996317091196 -0.1103184121040176 0 -0.1185687826485111 -0.1057636327284717 0 -0.119065358640032 -0.1116638140421915 0 -0.1150138921842164 -0.10851399691537179 0 -0.1185687826485111 -0.1057636327284717 0 -0.1249996317091196 -0.1103184121040176 0 -0.1185687826485111 -0.1057636327284717 0 -0.1239251154810906 -0.10490651537085779 0 -0.1239251154810906 -0.10490651537085779 0 -0.1197656675825971 -0.10116440868842511 0 -0.12706176868148189 -0.1004810418394689 0 -0.1197656675825971 -0.10116440868842511 0 -0.12210798138404701 -0.096649311949532052 0 -0.12706176868148189 -0.1004810418394689 0 -0.1197656675825971 -0.10116440868842511 0 -0.1176212581153737 -0.097258293857863332 0 -0.12210798138404701 -0.096649311949532052 0 -0.1152156932237178 -0.099473888575843578 0 -0.1197656675825971 -0.10116440868842511 0 -0.1176212581153737 -0.097258293857863332 0 -0.12210798138404701 -0.096649311949532052 0 -0.1232527796169428 -0.091780550957147128 0 -0.11782114769358799 -0.093260098020518004 0 -0.1176212581153737 -0.097258293857863332 0 -0.12210798138404701 -0.096649311949532052 0 -0.11782114769358799 -0.093260098020518004 0 -0.12210798138404701 -0.096649311949532052 0 -0.1232527796169428 -0.091780550957147128 0 -0.12760939696134641 -0.095408231323638099 0 -0.1232527796169428 -0.091780550957147128 0 -0.1242414856777138 -0.085970221122840987 0 -0.1199710031645262 -0.088877742029206508 0 -0.1199710031645262 -0.088877742029206508 0 -0.1189689585908307 -0.084181065360341631 0 -0.1158056988375684 -0.088883712029956527 0 -0.1242414856777138 -0.085970221122840987 0 -0.1199710031645262 -0.088877742029206508 0 -0.1189689585908307 -0.084181065360341631 0 -0.1232527796169428 -0.091780550957147128 0 -0.1199710031645262 -0.088877742029206508 0 -0.11782114769358799 -0.093260098020518004 0 -0.1199710031645262 -0.088877742029206508 0 -0.11782114769358799 -0.093260098020518004 0 -0.1158056988375684 -0.088883712029956527 0 -0.1242414856777138 -0.085970221122840987 0 -0.12164788136128001 -0.080298806487184474 0 -0.1274250413206478 -0.079273622385691966 0 -0.1242414856777138 -0.085970221122840987 0 -0.12164788136128001 -0.080298806487184474 0 -0.1189689585908307 -0.084181065360341631 0 -0.12164788136128001 -0.080298806487184474 0 -0.1189689585908307 -0.084181065360341631 0 -0.1167758376942459 -0.080150052495688087 0 -0.12164788136128001 -0.080298806487184474 0 -0.1167758376942459 -0.080150052495688087 0 -0.118695074184255 -0.076758074999068948 0 -0.1167758376942459 -0.080150052495688087 0 -0.11458315181598169 -0.083526501676118553 0 -0.1120310882528619 -0.079790497645095618 0 -0.1167758376942459 -0.080150052495688087 0 -0.1120310882528619 -0.079790497645095618 0 -0.1147288719602664 -0.076345368806319383 0 -0.1189689585908307 -0.084181065360341631 0 -0.1167758376942459 -0.080150052495688087 0 -0.11458315181598169 -0.083526501676118553 0 -0.1189689585908307 -0.084181065360341631 0 -0.11458315181598169 -0.083526501676118553 0 -0.1158056988375684 -0.088883712029956527 0 -0.11458315181598169 -0.083526501676118553 0 -0.1106383049318141 -0.083611079199917365 0 -0.1120310882528619 -0.079790497645095618 0 -0.11458315181598169 -0.083526501676118553 0 -0.1106383049318141 -0.083611079199917365 0 -0.1124924950326161 -0.086540934309991518 0 -0.1106383049318141 -0.083611079199917365 0 -0.1124924950326161 -0.086540934309991518 0 -0.1099750930949021 -0.087026826350054251 0 -0.1120310882528619 -0.079790497645095618 0 -0.1093554855650051 -0.080082677905288058 0 -0.11108474834977219 -0.076052061893740322 0 -0.1106383049318141 -0.083611079199917365 0 -0.1120310882528619 -0.079790497645095618 0 -0.1093554855650051 -0.080082677905288058 0 -0.11782114769358799 -0.093260098020518004 0 -0.1133854379771063 -0.092404678986243785 0 -0.1158056988375684 -0.088883712029956527 0 -0.1133854379771063 -0.092404678986243785 0 -0.1158056988375684 -0.088883712029956527 0 -0.1120644899499551 -0.089536516210935349 0 -0.11458315181598169 -0.083526501676118553 0 -0.1158056988375684 -0.088883712029956527 0 -0.1124924950326161 -0.086540934309991518 0 -0.1158056988375684 -0.088883712029956527 0 -0.1120644899499551 -0.089536516210935349 0 -0.1124924950326161 -0.086540934309991518 0 -0.1120644899499551 -0.089536516210935349 0 -0.1124924950326161 -0.086540934309991518 0 -0.1099750930949021 -0.087026826350054251 0 -0.1120644899499551 -0.089536516210935349 0 -0.1099750930949021 -0.087026826350054251 0 -0.109705187332513 -0.089809369199162381 0 -0.1120644899499551 -0.089536516210935349 0 -0.109705187332513 -0.089809369199162381 0 -0.111405289452636 -0.091451992297512621 0 -0.1104660425509697 -0.094057404793709026 0 -0.109705187332513 -0.089809369199162381 0 -0.111405289452636 -0.091451992297512621 0 -0.1133854379771063 -0.092404678986243785 0 -0.1120644899499551 -0.089536516210935349 0 -0.111405289452636 -0.091451992297512621 0 -0.1104660425509697 -0.094057404793709026 0 -0.1133854379771063 -0.092404678986243785 0 -0.111405289452636 -0.091451992297512621 0 -0.1020903793111505 -0.097631037356355477 0 -0.10443461605496999 -0.083654011782326954 0 -0.098318958869570289 -0.089739891466693283 0 -0.1104660425509697 -0.094057404793709026 0 -0.109705187332513 -0.089809369199162381 0 -0.10630595242612199 -0.08583726923175955 0 -0.1065567667095083 -0.108987558098729 0 -0.10630595242612199 -0.08583726923175955 0 -0.10443461605496999 -0.083654011782326954 0 -0.1099750930949021 -0.087026826350054251 0 -0.109705187332513 -0.089809369199162381 0 -0.10630595242612199 -0.08583726923175955 0 -0.10630595242612199 -0.08583726923175955 0 -0.1093554855650051 -0.080082677905288058 0 -0.10734435322594631 -0.074609789696804124 0 -0.1106383049318141 -0.083611079199917365 0 -0.1099750930949021 -0.087026826350054251 0 -0.10630595242612199 -0.08583726923175955 0 -0.1106383049318141 -0.083611079199917365 0 -0.10630595242612199 -0.08583726923175955 0 -0.1093554855650051 -0.080082677905288058 0 -0.10443461605496999 -0.083654011782326954 0 -0.098694609185417184 -0.08497951451263791 0 -0.096605111966441976 -0.081003354968904748 0 -0.10443461605496999 -0.083654011782326954 0 -0.096605111966441976 -0.081003354968904748 0 -0.095951431338383283 -0.074127867564574929 0 -0.090922104045730187 -0.08436791794510215 0 -0.098694609185417184 -0.08497951451263791 0 -0.096605111966441976 -0.081003354968904748 0 -0.090922104045730187 -0.08436791794510215 0 -0.098694609185417184 -0.08497951451263791 0 -0.098318958869570289 -0.089739891466693283 0 -0.09193719265837931 -0.091300738060852565 0 -0.096784363881443514 -0.095261832995719609 0 -0.098318958869570289 -0.089739891466693283 0 -0.10443461605496999 -0.083654011782326954 0 -0.098694609185417184 -0.08497951451263791 0 -0.098318958869570289 -0.089739891466693283 0 -0.10630595242612199 -0.08583726923175955 0 -0.1034499524502666 -0.061339673663690628 0 -0.10443461605496999 -0.083654011782326954 0 -0.1004403038613579 -0.067906950855349618 0 -0.1023124654004318 -0.058320465465925023 0 -0.10630595242612199 -0.08583726923175955 0 -0.10443461605496999 -0.083654011782326954 0 -0.1034499524502666 -0.061339673663690628 0 -0.10443461605496999 -0.083654011782326954 0 -0.1023124654004318 -0.058320465465925023 0 -0.10443461605496999 -0.083654011782326954 0 -0.1023124654004318 -0.058320465465925023 0 -0.1034499524502666 -0.061339673663690628 0 -0.10443461605496999 -0.083654011782326954 0 -0.1004403038613579 -0.067906950855349618 0 -0.097773398183819582 -0.06872340732258346 0 -0.10630595242612199 -0.08583726923175955 0 -0.10734435322594631 -0.074609789696804124 0 -0.1034499524502666 -0.061339673663690628 0 -0.090155983156668215 -0.062738550335962665 0 -0.097773398183819582 -0.06872340732258346 0 -0.095951431338383283 -0.074127867564574929 0 -0.1004403038613579 -0.067906950855349618 0 -0.097773398183819582 -0.06872340732258346 0 -0.097240735806210288 -0.060929918850563022 0 -0.090155983156668215 -0.062738550335962665 0 -0.097773398183819582 -0.06872340732258346 0 -0.097240735806210288 -0.060929918850563022 0 -0.10443461605496999 -0.083654011782326954 0 -0.097773398183819582 -0.06872340732258346 0 -0.095951431338383283 -0.074127867564574929 0 -0.092014805956459084 -0.07779982532156493 0 -0.096605111966441976 -0.081003354968904748 0 -0.095951431338383283 -0.074127867564574929 0 -0.10734435322594631 -0.074609789696804124 0 -0.1087402226581111 -0.066785177403272 0 -0.1108895205276348 -0.071689410017503202 0 -0.1093554855650051 -0.080082677905288058 0 -0.10734435322594631 -0.074609789696804124 0 -0.11108474834977219 -0.076052061893740322 0 -0.10734435322594631 -0.074609789696804124 0 -0.1087402226581111 -0.066785177403272 0 -0.1034499524502666 -0.061339673663690628 0 -0.1087402226581111 -0.066785177403272 0 -0.1034499524502666 -0.061339673663690628 0 -0.10817920652106471 -0.061515404230244208 0 -0.1087402226581111 -0.066785177403272 0 -0.114355459771652 -0.061675423788026422 0 -0.10817920652106471 -0.061515404230244208 0 -0.1087402226581111 -0.066785177403272 0 -0.1142412807313377 -0.067923162405040483 0 -0.114355459771652 -0.061675423788026422 0 -0.1087402226581111 -0.066785177403272 0 -0.1142412807313377 -0.067923162405040483 0 -0.1108895205276348 -0.071689410017503202 0 -0.1142412807313377 -0.067923162405040483 0 -0.1209479878461024 -0.067268253131841177 0 -0.114355459771652 -0.061675423788026422 0 -0.1120310882528619 -0.079790497645095618 0 -0.11108474834977219 -0.076052061893740322 0 -0.1147288719602664 -0.076345368806319383 0 -0.11108474834977219 -0.076052061893740322 0 -0.1136640170344974 -0.072564166829535814 0 -0.1147288719602664 -0.076345368806319383 0 -0.11108474834977219 -0.076052061893740322 0 -0.1108895205276348 -0.071689410017503202 0 -0.1136640170344974 -0.072564166829535814 0 -0.10734435322594631 -0.074609789696804124 0 -0.11108474834977219 -0.076052061893740322 0 -0.1108895205276348 -0.071689410017503202 0 -0.1142412807313377 -0.067923162405040483 0 -0.1108895205276348 -0.071689410017503202 0 -0.1136640170344974 -0.072564166829535814 0 -0.1136640170344974 -0.072564166829535814 0 -0.1147288719602664 -0.076345368806319383 0 -0.118108333083826 -0.072556828794244146 0 -0.1142412807313377 -0.067923162405040483 0 -0.1136640170344974 -0.072564166829535814 0 -0.118108333083826 -0.072556828794244146 0 -0.1167758376942459 -0.080150052495688087 0 -0.1147288719602664 -0.076345368806319383 0 -0.118695074184255 -0.076758074999068948 0 -0.1147288719602664 -0.076345368806319383 0 -0.118695074184255 -0.076758074999068948 0 -0.118108333083826 -0.072556828794244146 0 -0.12348330458607849 -0.074281081908948166 0 -0.1209479878461024 -0.067268253131841177 0 -0.1291119775455111 -0.070903208105215415 0 -0.118695074184255 -0.076758074999068948 0 -0.118108333083826 -0.072556828794244146 0 -0.12348330458607849 -0.074281081908948166 0 -0.118108333083826 -0.072556828794244146 0 -0.12348330458607849 -0.074281081908948166 0 -0.1209479878461024 -0.067268253131841177 0 -0.12164788136128001 -0.080298806487184474 0 -0.12348330458607849 -0.074281081908948166 0 -0.1274250413206478 -0.079273622385691966 0 -0.12164788136128001 -0.080298806487184474 0 -0.118695074184255 -0.076758074999068948 0 -0.12348330458607849 -0.074281081908948166 0 -0.1209479878461024 -0.067268253131841177 0 -0.1208238342742944 -0.060394095470299433 0 -0.114355459771652 -0.061675423788026422 0 -0.1142412807313377 -0.067923162405040483 0 -0.118108333083826 -0.072556828794244146 0 -0.1209479878461024 -0.067268253131841177 0 -0.1209479878461024 -0.067268253131841177 0 -0.1208238342742944 -0.060394095470299433 0 -0.1282912522128381 -0.060413946548779622 0 -0.1208238342742944 -0.060394095470299433 0 -0.1203928351808662 -0.05399645031333801 0 -0.1282912522128381 -0.060413946548779622 0 -0.1208238342742944 -0.060394095470299433 0 -0.1149081953897035 -0.056780629686202733 0 -0.1203928351808662 -0.05399645031333801 0 -0.1208238342742944 -0.060394095470299433 0 -0.114355459771652 -0.061675423788026422 0 -0.1149081953897035 -0.056780629686202733 0 -0.1149081953897035 -0.056780629686202733 0 -0.11208243789838809 -0.051326084468843777 0 -0.1093732370909585 -0.057399498146148142 0 -0.114355459771652 -0.061675423788026422 0 -0.10817920652106471 -0.061515404230244208 0 -0.1093732370909585 -0.057399498146148142 0 -0.114355459771652 -0.061675423788026422 0 -0.1149081953897035 -0.056780629686202733 0 -0.1093732370909585 -0.057399498146148142 0 -0.1149081953897035 -0.056780629686202733 0 -0.11208243789838809 -0.051326084468843777 0 -0.1203928351808662 -0.05399645031333801 0 -0.11208243789838809 -0.051326084468843777 0 -0.1203928351808662 -0.05399645031333801 0 -0.1179953464473087 -0.045998554504227893 0 -0.1203928351808662 -0.05399645031333801 0 -0.1179953464473087 -0.045998554504227893 0 -0.12938523232112359 -0.048342410291037433 0 -0.1179953464473087 -0.045998554504227893 0 -0.12155058262699429 -0.035987982289753563 0 -0.12938523232112359 -0.048342410291037433 0 -0.12155058262699429 -0.035987982289753563 0 -0.10656564420917131 -0.040339845158166701 0 -0.10983961613658751 -0.019854362109569521 0 -0.11208243789838809 -0.051326084468843777 0 -0.1179953464473087 -0.045998554504227893 0 -0.10656564420917131 -0.040339845158166701 0 -0.1179953464473087 -0.045998554504227893 0 -0.12155058262699429 -0.035987982289753563 0 -0.10656564420917131 -0.040339845158166701 0 -0.10656564420917131 -0.040339845158166701 0 -0.096124308261089059 -0.045668467658199319 0 -0.084912849849739236 -0.031089587164757591 0 -0.10656564420917131 -0.040339845158166701 0 -0.096124308261089059 -0.045668467658199319 0 -0.10491705548694021 -0.05314189283787997 0 -0.096124308261089059 -0.045668467658199319 0 -0.096509882268938987 -0.05382817259662627 0 -0.10491705548694021 -0.05314189283787997 0 -0.096509882268938987 -0.05382817259662627 0 -0.1023124654004318 -0.058320465465925023 0 -0.10491705548694021 -0.05314189283787997 0 -0.1004403038613579 -0.067906950855349618 0 -0.097240735806210288 -0.060929918850563022 0 -0.1023124654004318 -0.058320465465925023 0 -0.090155983156668215 -0.062738550335962665 0 -0.096509882268938987 -0.05382817259662627 0 -0.097240735806210288 -0.060929918850563022 0 -0.096509882268938987 -0.05382817259662627 0 -0.097240735806210288 -0.060929918850563022 0 -0.1023124654004318 -0.058320465465925023 0 -0.1023124654004318 -0.058320465465925023 0 -0.1056463833899324 -0.058343386868777602 0 -0.10491705548694021 -0.05314189283787997 0 -0.1023124654004318 -0.058320465465925023 0 -0.1034499524502666 -0.061339673663690628 0 -0.1056463833899324 -0.058343386868777602 0 -0.10817920652106471 -0.061515404230244208 0 -0.1093732370909585 -0.057399498146148142 0 -0.1056463833899324 -0.058343386868777602 0 -0.1034499524502666 -0.061339673663690628 0 -0.10817920652106471 -0.061515404230244208 0 -0.1056463833899324 -0.058343386868777602 0 -0.1093732370909585 -0.057399498146148142 0 -0.1056463833899324 -0.058343386868777602 0 -0.10491705548694021 -0.05314189283787997 0 -0.11208243789838809 -0.051326084468843777 0 -0.1093732370909585 -0.057399498146148142 0 -0.10491705548694021 -0.05314189283787997 0 -0.11208243789838809 -0.051326084468843777 0 -0.10656564420917131 -0.040339845158166701 0 -0.10491705548694021 -0.05314189283787997 0 -0.1051994580364817 -0.00092346104686816765 0 -0.1347663824234358 -0.0086191370543814583 0 -0.118526810679334 0.0084000441138782373 0 -0.10983961613658751 -0.019854362109569521 0 -0.1347663824234358 -0.0086191370543814583 0 -0.10983961613658751 -0.019854362109569521 0 -0.1051994580364817 -0.00092346104686816765 0 -0.1347663824234358 -0.0086191370543814583 0 -0.10983961613658751 -0.019854362109569521 0 -0.1347663824234358 -0.0086191370543814583 0 -0.1299298254867722 -0.024571168630476699 0 -0.12155058262699429 -0.035987982289753563 0 -0.10983961613658751 -0.019854362109569521 0 -0.1299298254867722 -0.024571168630476699 0 -0.10983961613658751 -0.019854362109569521 0 -0.090295246540969668 -0.0095966479819053468 0 -0.084912849849739236 -0.031089587164757591 0 -0.10656564420917131 -0.040339845158166701 0 -0.10983961613658751 -0.019854362109569521 0 -0.084912849849739236 -0.031089587164757591 0 -0.10983961613658751 -0.019854362109569521 0 -0.084912849849739236 -0.031089587164757591 0 -0.1051994580364817 -0.00092346104686816765 0 -0.090295246540969668 -0.0095966479819053468 0 -0.088450201082161103 0.01016635114223682 0 -0.10983961613658751 -0.019854362109569521 0 -0.1051994580364817 -0.00092346104686816765 0 -0.090295246540969668 -0.0095966479819053468 0 -0.090295246540969668 -0.0095966479819053468 0 -0.07750990505967971 -0.00046715560165415219 0 -0.071610729911524618 -0.014011860084363101 0 -0.090295246540969668 -0.0095966479819053468 0 -0.084912849849739236 -0.031089587164757591 0 -0.071610729911524618 -0.014011860084363101 0 -0.084912849849739236 -0.031089587164757591 0 -0.071610729911524618 -0.014011860084363101 0 -0.069941652260196316 -0.031385585156195689 0 -0.071610729911524618 -0.014011860084363101 0 -0.069941652260196316 -0.031385585156195689 0 -0.051565800288744357 -0.01921448364668691 0 -0.07750990505967971 -0.00046715560165415219 0 -0.071610729911524618 -0.014011860084363101 0 -0.060206107372613032 0.00036943130591901569 0 -0.071610729911524618 -0.014011860084363101 0 -0.060206107372613032 0.00036943130591901569 0 -0.090155983156668215 -0.062738550335962665 0 -0.072240923625163017 -0.065169421218936416 0 -0.085222600698360476 -0.050239218533620761 0 -0.090155983156668215 -0.062738550335962665 0 -0.096509882268938987 -0.05382817259662627 0 -0.085222600698360476 -0.050239218533620761 0 -0.096124308261089059 -0.045668467658199319 0 -0.096509882268938987 -0.05382817259662627 0 -0.085222600698360476 -0.050239218533620761 0 -0.084912849849739236 -0.031089587164757591 0 -0.085222600698360476 -0.050239218533620761 0 -0.069941652260196316 -0.031385585156195689 0 -0.096124308261089059 -0.045668467658199319 0 -0.084912849849739236 -0.031089587164757591 0 -0.085222600698360476 -0.050239218533620761 0 -0.085222600698360476 -0.050239218533620761 0 -0.069941652260196316 -0.031385585156195689 0 -0.056396280552612893 -0.042372776351550109 0 -0.085222600698360476 -0.050239218533620761 0 -0.056396280552612893 -0.042372776351550109 0 -0.072240923625163017 -0.065169421218936416 0 -0.085222600698360476 -0.050239218533620761 0 -0.056396280552612893 -0.042372776351550109 0 -0.072240923625163017 -0.065169421218936416 0 -0.056396280552612893 -0.042372776351550109 0 -0.045932608608558537 -0.060573075055842897 0 -0.056396280552612893 -0.042372776351550109 0 -0.045932608608558537 -0.060573075055842897 0 -0.027569960406865289 -0.034506334169479458 0 -0.056396280552612893 -0.042372776351550109 0 -0.027569960406865289 -0.034506334169479458 0 -0.056396280552612893 -0.042372776351550109 0 -0.051565800288744357 -0.01921448364668691 0 -0.027569960406865289 -0.034506334169479458 0 -0.045932608608558537 -0.060573075055842897 0 -0.024259397667121149 -0.061123519580161371 0 -0.027569960406865289 -0.034506334169479458 0 -0.051565800288744357 -0.01921448364668691 0 -0.04578715617007402 -0.0002170549965922427 0 -0.060206107372613032 0.00036943130591901569 0 -0.071610729911524618 -0.014011860084363101 0 -0.051565800288744357 -0.01921448364668691 0 -0.060206107372613032 0.00036943130591901569 0 -0.069941652260196316 -0.031385585156195689 0 -0.056396280552612893 -0.042372776351550109 0 -0.051565800288744357 -0.01921448364668691 0 -0.051565800288744357 -0.01921448364668691 0 -0.03271043313576736 -0.013822819165237751 0 -0.027569960406865289 -0.034506334169479458 0 -0.051565800288744357 -0.01921448364668691 0 -0.03271043313576736 -0.013822819165237751 0 -0.04578715617007402 -0.0002170549965922427 0 -0.03271043313576736 -0.013822819165237751 0 -0.04578715617007402 -0.0002170549965922427 0 -0.032115536642839802 0.00095385113499676932 0 -0.03271043313576736 -0.013822819165237751 0 -0.01542958845197878 -0.01284302042620713 0 -0.032115536642839802 0.00095385113499676932 0 -0.01542958845197878 -0.01284302042620713 0 -0.0062998144708789772 -0.0011194360634266729 0 -0.032115536642839802 0.00095385113499676932 0 -0.01542958845197878 -0.01284302042620713 0 -0.032115536642839802 0.00095385113499676932 0 -0.03271043313576736 -0.013822819165237751 0 -0.01542958845197878 -0.01284302042620713 0 -0.027569960406865289 -0.034506334169479458 0 -0.01542958845197878 -0.01284302042620713 0 0.0012563597388827331 -0.026639891987410302 0 -0.01542958845197878 -0.01284302042620713 0 -0.027569960406865289 -0.034506334169479458 0 0.0012563597388827331 -0.026639891987410302 0 -0.01542958845197878 -0.01284302042620713 0 -0.0001507084278736439 -0.013177645526827811 0 0.0012563597388827331 -0.026639891987410302 0 -0.027569960406865289 -0.034506334169479458 0 0.0012563597388827331 -0.026639891987410302 0 -0.01542958845197878 -0.01284302042620713 0 -0.0001507084278736439 -0.013177645526827811 0 -0.0062998144708789772 -0.0011194360634266729 0 -0.024259397667121149 -0.061123519580161371 0 -0.027569960406865289 -0.034506334169479458 0 -0.0099386450820317558 -0.042360671728869911 0 -0.027569960406865289 -0.034506334169479458 0 -0.0099386450820317558 -0.042360671728869911 0 0.0012563597388827331 -0.026639891987410302 0 -0.0099386450820317558 -0.042360671728869911 0 0.0012563597388827331 -0.026639891987410302 0 0.002821630474760614 -0.03678418574817708 0 -0.0099386450820317558 -0.042360671728869911 0 -0.000126683113691724 -0.043594032714851912 0 0.002821630474760614 -0.03678418574817708 0 -0.0099386450820317558 -0.042360671728869911 0 -0.000126683113691724 -0.043594032714851912 0 -0.00072492440534363545 -0.059318808416363632 0 -0.024259397667121149 -0.061123519580161371 0 -0.0099386450820317558 -0.042360671728869911 0 -0.00072492440534363545 -0.059318808416363632 0 -0.00072492440534363545 -0.059318808416363632 0 -0.011453861250534211 -0.072915582103425358 0 0.011616949138340721 -0.077696251041571865 0 -0.024259397667121149 -0.061123519580161371 0 -0.00072492440534363545 -0.059318808416363632 0 -0.011453861250534211 -0.072915582103425358 0 -0.011453861250534211 -0.072915582103425358 0 -0.0092379116821658322 -0.091803344529635594 0 0.011616949138340721 -0.077696251041571865 0 -0.0092379116821658322 -0.091803344529635594 0 -0.033247581213606929 -0.081092769699675993 0 -0.026662953401781372 -0.1011963134039404 0 -0.011453861250534211 -0.072915582103425358 0 -0.0092379116821658322 -0.091803344529635594 0 -0.033247581213606929 -0.081092769699675993 0 -0.024259397667121149 -0.061123519580161371 0 -0.011453861250534211 -0.072915582103425358 0 -0.033247581213606929 -0.081092769699675993 0 -0.045932608608558537 -0.060573075055842897 0 -0.024259397667121149 -0.061123519580161371 0 -0.033247581213606929 -0.081092769699675993 0 -0.033247581213606929 -0.081092769699675993 0 -0.061881508185981968 -0.079173629315254054 0 -0.051345769721934907 -0.1028984487244736 0 -0.072954982612303737 -0.096025156006045526 0 -0.061881508185981968 -0.079173629315254054 0 -0.051345769721934907 -0.1028984487244736 0 -0.045932608608558537 -0.060573075055842897 0 -0.033247581213606929 -0.081092769699675993 0 -0.061881508185981968 -0.079173629315254054 0 -0.072240923625163017 -0.065169421218936416 0 -0.045932608608558537 -0.060573075055842897 0 -0.061881508185981968 -0.079173629315254054 0 -0.077798671115793319 -0.1141618115094708 0 -0.051345769721934907 -0.1028984487244736 0 -0.056241956889293232 -0.12629065496697531 0 -0.033247581213606929 -0.081092769699675993 0 -0.051345769721934907 -0.1028984487244736 0 -0.026662953401781372 -0.1011963134039404 0 -0.051345769721934907 -0.1028984487244736 0 -0.030023476651915602 -0.1222754302428978 0 -0.026662953401781372 -0.1011963134039404 0 -0.030023476651915602 -0.1222754302428978 0 -0.056241956889293232 -0.12629065496697531 0 -0.051345769721934907 -0.1028984487244736 0 -0.030023476651915602 -0.1222754302428978 0 -0.056241956889293232 -0.12629065496697531 0 -0.030023476651915602 -0.1222754302428978 0 -0.026662953401781372 -0.1011963134039404 0 -0.008925905503112487 -0.1122397962034857 0 -0.030023476651915602 -0.1222754302428978 0 -0.008925905503112487 -0.1122397962034857 0 0.001268257977927676 -0.13389869310551211 0 -0.0092379116821658322 -0.091803344529635594 0 -0.026662953401781372 -0.1011963134039404 0 -0.008925905503112487 -0.1122397962034857 0 -0.0092379116821658322 -0.091803344529635594 0 -0.008925905503112487 -0.1122397962034857 0 0.0140204212057463 -0.1058515207086964 0 -0.015137782262197121 -0.14725636272136361 0 0.00790421353160101 -0.16658142381344729 0 0.001268257977927676 -0.13389869310551211 0 -0.030023476651915602 -0.1222754302428978 0 -0.015137782262197121 -0.14725636272136361 0 0.001268257977927676 -0.13389869310551211 0 -0.030023476651915602 -0.1222754302428978 0 -0.015137782262197121 -0.14725636272136361 0 -0.036710526217482532 -0.14767367406467141 0 -0.015137782262197121 -0.14725636272136361 0 -0.019855823386117469 -0.1659935082463708 0 -0.036710526217482532 -0.14767367406467141 0 -0.015137782262197121 -0.14725636272136361 0 -0.019855823386117469 -0.1659935082463708 0 0.00790421353160101 -0.16658142381344729 0 -0.019855823386117469 -0.1659935082463708 0 0.0052902082976982352 -0.1917964838121318 0 0.00790421353160101 -0.16658142381344729 0 -0.019855823386117469 -0.1659935082463708 0 -0.021320102732986641 -0.1922305739211341 0 0.0052902082976982352 -0.1917964838121318 0 -0.019855823386117469 -0.1659935082463708 0 -0.021320102732986641 -0.1922305739211341 0 -0.019855823386117469 -0.1659935082463708 0 -0.036784983830026687 -0.17222935568817949 0 -0.021320102732986641 -0.1922305739211341 0 -0.019855823386117469 -0.1659935082463708 0 -0.036784983830026687 -0.17222935568817949 0 -0.036710526217482532 -0.14767367406467141 0 -0.036784983830026687 -0.17222935568817949 0 -0.051506196047372853 -0.16302400456146629 0 -0.036710526217482532 -0.14767367406467141 0 -0.036784983830026687 -0.17222935568817949 0 -0.047448915031846298 -0.1874366959952663 0 -0.051506196047372853 -0.16302400456146629 0 -0.036784983830026687 -0.17222935568817949 0 -0.047448915031846298 -0.1874366959952663 0 -0.021320102732986641 -0.1922305739211341 0 -0.047448915031846298 -0.1874366959952663 0 -0.051506196047372853 -0.16302400456146629 0 -0.067289712694418732 -0.17218973736309059 0 -0.047448915031846298 -0.1874366959952663 0 -0.066571868246649499 -0.19488981712661349 0 -0.067289712694418732 -0.17218973736309059 0 -0.051506196047372853 -0.16302400456146629 0 -0.067390322932688956 -0.14654647064094339 0 -0.067289712694418732 -0.17218973736309059 0 -0.051506196047372853 -0.16302400456146629 0 -0.036710526217482532 -0.14767367406467141 0 -0.067390322932688956 -0.14654647064094339 0 -0.056241956889293232 -0.12629065496697531 0 -0.036710526217482532 -0.14767367406467141 0 -0.067390322932688956 -0.14654647064094339 0 -0.030023476651915602 -0.1222754302428978 0 -0.056241956889293232 -0.12629065496697531 0 -0.036710526217482532 -0.14767367406467141 0 -0.024248661426725091 -0.24470470527066079 0 -0.01501226857376438 -0.24673789650790759 0 -0.01186138223733142 -0.23382967779895661 0 -0.015192462276943951 -0.25801135725452939 0 -0.024248661426725091 -0.24470470527066079 0 -0.01501226857376438 -0.24673789650790759 0 -0.024248661426725091 -0.24470470527066079 0 -0.01501226857376438 -0.24673789650790759 0 -0.0044629633579056169 -0.25454707667659571 0 -0.01501226857376438 -0.24673789650790759 0 6.2197829892665819e-05 -0.2422266038095009 0 -0.01501226857376438 -0.24673789650790759 0 -0.01186138223733142 -0.23382967779895661 0 6.2197829892665819e-05 -0.2422266038095009 0 -0.01186138223733142 -0.23382967779895661 0 -0.022784382079855819 -0.21846763959589741 0 0.0026762030637954449 -0.21701154381081639 0 -0.01186138223733142 -0.23382967779895661 0 6.2197829892665819e-05 -0.2422266038095009 0 0.0026762030637954449 -0.21701154381081639 0 -0.024248661426725091 -0.24470470527066079 0 -0.022784382079855819 -0.21846763959589741 0 -0.033637305983883453 -0.22932688647639879 0 -0.024248661426725091 -0.24470470527066079 0 -0.022784382079855819 -0.21846763959589741 0 -0.024248661426725091 -0.24470470527066079 0 -0.01186138223733142 -0.23382967779895661 0 -0.022784382079855819 -0.21846763959589741 0 -0.022784382079855819 -0.21846763959589741 0 -0.021320102732986641 -0.1922305739211341 0 -0.022784382079855819 -0.21846763959589741 0 -0.035490748727205951 -0.20599265995110599 0 -0.033637305983883453 -0.22932688647639879 0 -0.022784382079855819 -0.21846763959589741 0 -0.021320102732986641 -0.1922305739211341 0 -0.035490748727205951 -0.20599265995110599 0 -0.022784382079855819 -0.21846763959589741 0 -0.021320102732986641 -0.1922305739211341 0 0.0026762030637954449 -0.21701154381081639 0 -0.021320102732986641 -0.1922305739211341 0 0.0052902082976982352 -0.1917964838121318 0 0.0026762030637954449 -0.21701154381081639 0 -0.047448915031846298 -0.1874366959952663 0 -0.052002302176016132 -0.2155330170693425 0 -0.035490748727205951 -0.20599265995110599 0 -0.047448915031846298 -0.1874366959952663 0 -0.021320102732986641 -0.1922305739211341 0 -0.035490748727205951 -0.20599265995110599 0 -0.047448915031846298 -0.1874366959952663 0 -0.052002302176016132 -0.2155330170693425 0 -0.066571868246649499 -0.19488981712661349 0 -0.052002302176016132 -0.2155330170693425 0 -0.035490748727205951 -0.20599265995110599 0 -0.033637305983883453 -0.22932688647639879 0 -0.052002302176016132 -0.2155330170693425 0 -0.033637305983883453 -0.22932688647639879 0 -0.046193192448442319 -0.23987409348431549 0 -0.052002302176016132 -0.2155330170693425 0 -0.046193192448442319 -0.23987409348431549 0 -0.068137723470159436 -0.2350434816979696 0 -0.046193192448442319 -0.23987409348431549 0 -0.068820710881476413 -0.24728130066608739 0 -0.068137723470159436 -0.2350434816979696 0 -0.046193192448442319 -0.23987409348431549 0 -0.068137723470159436 -0.2350434816979696 0 -0.036162823767009522 -0.25305497854019099 0 -0.024248661426725091 -0.24470470527066079 0 -0.046193192448442319 -0.23987409348431549 0 -0.024248661426725091 -0.24470470527066079 0 -0.046193192448442319 -0.23987409348431549 0 -0.024248661426725091 -0.24470470527066079 0 -0.033637305983883453 -0.22932688647639879 0 -0.046193192448442319 -0.23987409348431549 0 -0.086725503371041027 -0.24584350624562601 0 -0.068820710881476413 -0.24728130066608739 0 -0.090082254491876762 -0.23021286991162471 0 -0.068820710881476413 -0.24728130066608739 0 -0.090082254491876762 -0.23021286991162471 0 -0.068820710881476413 -0.24728130066608739 0 -0.068137723470159436 -0.2350434816979696 0 -0.090082254491876762 -0.23021286991162471 0 -0.059440105918298319 -0.25647560321267038 0 -0.086725503371041027 -0.24584350624562601 0 -0.068820710881476413 -0.24728130066608739 0 -0.068137723470159436 -0.2350434816979696 0 -0.090082254491876762 -0.23021286991162471 0 -0.071159296623765564 -0.21561338269381991 0 -0.052002302176016132 -0.2155330170693425 0 -0.068137723470159436 -0.2350434816979696 0 -0.071159296623765564 -0.21561338269381991 0 -0.068137723470159436 -0.2350434816979696 0 -0.090082254491876762 -0.23021286991162471 0 -0.090082254491876762 -0.23021286991162471 0 -0.086592689849698812 -0.21048439645957809 0 -0.071159296623765564 -0.21561338269381991 0 -0.086592689849698812 -0.21048439645957809 0 -0.071159296623765564 -0.21561338269381991 0 -0.080730659392827045 -0.198874012136388 0 -0.090082254491876762 -0.23021286991162471 0 -0.086592689849698812 -0.21048439645957809 0 -0.097896814927338038 -0.21068871460937191 0 -0.086592689849698812 -0.21048439645957809 0 -0.094734496240499788 -0.19620705667743971 0 -0.097896814927338038 -0.21068871460937191 0 -0.071159296623765564 -0.21561338269381991 0 -0.066571868246649499 -0.19488981712661349 0 -0.080730659392827045 -0.198874012136388 0 -0.052002302176016132 -0.2155330170693425 0 -0.071159296623765564 -0.21561338269381991 0 -0.066571868246649499 -0.19488981712661349 0 -0.066571868246649499 -0.19488981712661349 0 -0.080730659392827045 -0.198874012136388 0 -0.081808017035589806 -0.18309262727914219 0 -0.080730659392827045 -0.198874012136388 0 -0.094734496240499788 -0.19620705667743971 0 -0.081808017035589806 -0.18309262727914219 0 -0.086592689849698812 -0.21048439645957809 0 -0.080730659392827045 -0.198874012136388 0 -0.094734496240499788 -0.19620705667743971 0 -0.094734496240499788 -0.19620705667743971 0 -0.1062833212318588 -0.20216264878086451 0 -0.11039667108601151 -0.19049385677865349 0 -0.094734496240499788 -0.19620705667743971 0 -0.1062833212318588 -0.20216264878086451 0 -0.097896814927338038 -0.21068871460937191 0 -0.11039667108601151 -0.19049385677865349 0 -0.11865096428695179 -0.2031364960817813 0 -0.12664681243758191 -0.19024734359994019 0 -0.1062833212318588 -0.20216264878086451 0 -0.11039667108601151 -0.19049385677865349 0 -0.11865096428695179 -0.2031364960817813 0 -0.1062833212318588 -0.20216264878086451 0 -0.1096341178042077 -0.21063958343824779 0 -0.11865096428695179 -0.2031364960817813 0 -0.1096341178042077 -0.21063958343824779 0 -0.11865096428695179 -0.2031364960817813 0 -0.1171265803926957 -0.21585028076192589 0 -0.11865096428695179 -0.2031364960817813 0 -0.1171265803926957 -0.21585028076192589 0 -0.12688592276597391 -0.21013636989106449 0 -0.1171265803926957 -0.21585028076192589 0 -0.12880141615332691 -0.22168968759826571 0 -0.12688592276597391 -0.21013636989106449 0 -0.1096341178042077 -0.21063958343824779 0 -0.1171265803926957 -0.21585028076192589 0 -0.1050247846111876 -0.21821724319178881 0 -0.1096341178042077 -0.21063958343824779 0 -0.1050247846111876 -0.21821724319178881 0 -0.097896814927338038 -0.21068871460937191 0 -0.1062833212318588 -0.20216264878086451 0 -0.1096341178042077 -0.21063958343824779 0 -0.097896814927338038 -0.21068871460937191 0 -0.090082254491876762 -0.23021286991162471 0 -0.1094418353226017 -0.2259512787549447 0 -0.090082254491876762 -0.23021286991162471 0 -0.1050247846111876 -0.21821724319178881 0 -0.1094418353226017 -0.2259512787549447 0 -0.090082254491876762 -0.23021286991162471 0 -0.1050247846111876 -0.21821724319178881 0 -0.097896814927338038 -0.21068871460937191 0 -0.090082254491876762 -0.23021286991162471 0 -0.1094418353226017 -0.2259512787549447 0 -0.11401090082378371 -0.23521140927858161 0 -0.090082254491876762 -0.23021286991162471 0 -0.1050247846111876 -0.21821724319178881 0 -0.1094418353226017 -0.2259512787549447 0 -0.12880141615332691 -0.22168968759826571 0 -0.1171265803926957 -0.21585028076192589 0 -0.1050247846111876 -0.21821724319178881 0 -0.1094418353226017 -0.2259512787549447 0 -0.1171265803926957 -0.21585028076192589 0 -0.1094418353226017 -0.2259512787549447 0 -0.12880141615332691 -0.22168968759826571 0 -0.1094418353226017 -0.2259512787549447 0 -0.11401090082378371 -0.23521140927858161 0 -0.12880141615332691 -0.22168968759826571 0 -0.11401090082378371 -0.23521140927858161 0 -0.1218666275244174 -0.24107006683358559 0 -0.10703026499437129 -0.24602360214435379 0 -0.1183971611162466 -0.25023516984361371 0 -0.1218666275244174 -0.24107006683358559 0 -0.13081080727919431 -0.24507480887972269 0 -0.1053874089635983 -0.25363140700924042 0 -0.1183971611162466 -0.25023516984361371 0 -0.10703026499437129 -0.24602360214435379 0 -0.1183971611162466 -0.25023516984361371 0 -0.1218666275244174 -0.24107006683358559 0 -0.10703026499437129 -0.24602360214435379 0 -0.097691375586914153 -0.25108440143873079 0 -0.086725503371041027 -0.24584350624562601 0 -0.10703026499437129 -0.24602360214435379 0 -0.086725503371041027 -0.24584350624562601 0 -0.11401090082378371 -0.23521140927858161 0 -0.086725503371041027 -0.24584350624562601 0 -0.11401090082378371 -0.23521140927858161 0 -0.10703026499437129 -0.24602360214435379 0 -0.086725503371041027 -0.24584350624562601 0 -0.090082254491876762 -0.23021286991162471 0 -0.11401090082378371 -0.23521140927858161 0 -0.084142398157692894 -0.16104588828018429 0 -0.1005777735667842 -0.1545437433144905 0 -0.094369758011507252 -0.14014868457184471 0 -0.067390322932688956 -0.14654647064094339 0 -0.084142398157692894 -0.16104588828018429 0 -0.094369758011507252 -0.14014868457184471 0 -0.082460437126670866 -0.13030587969105289 0 -0.067390322932688956 -0.14654647064094339 0 -0.094369758011507252 -0.14014868457184471 0 -0.056241956889293232 -0.12629065496697531 0 -0.082460437126670866 -0.13030587969105289 0 -0.067390322932688956 -0.14654647064094339 0 -0.056241956889293232 -0.12629065496697531 0 -0.082460437126670866 -0.13030587969105289 0 -0.067390322932688956 -0.14654647064094339 0 -0.067289712694418732 -0.17218973736309059 0 -0.084142398157692894 -0.16104588828018429 0 -0.066571868246649499 -0.19488981712661349 0 -0.067289712694418732 -0.17218973736309059 0 -0.081808017035589806 -0.18309262727914219 0 -0.067289712694418732 -0.17218973736309059 0 -0.081808017035589806 -0.18309262727914219 0 -0.084142398157692894 -0.16104588828018429 0 -0.081808017035589806 -0.18309262727914219 0 -0.084142398157692894 -0.16104588828018429 0 -0.09737896748145089 -0.17534925209113719 0 -0.094734496240499788 -0.19620705667743971 0 -0.081808017035589806 -0.18309262727914219 0 -0.09737896748145089 -0.17534925209113719 0 -0.1070120645849291 -0.16551740077847829 0 -0.09737896748145089 -0.17534925209113719 0 -0.1005777735667842 -0.1545437433144905 0 -0.084142398157692894 -0.16104588828018429 0 -0.09737896748145089 -0.17534925209113719 0 -0.1005777735667842 -0.1545437433144905 0 -0.1070120645849291 -0.16551740077847829 0 -0.11443220087491469 -0.15554089306478919 0 -0.1005777735667842 -0.1545437433144905 0 -0.094734496240499788 -0.19620705667743971 0 -0.11039667108601151 -0.19049385677865349 0 -0.09737896748145089 -0.17534925209113719 0 -0.11039667108601151 -0.19049385677865349 0 -0.09737896748145089 -0.17534925209113719 0 -0.11684644937199649 -0.17624932576168109 0 -0.1070120645849291 -0.16551740077847829 0 -0.09737896748145089 -0.17534925209113719 0 -0.11684644937199649 -0.17624932576168109 0 -0.11039667108601151 -0.19049385677865349 0 -0.11684644937199649 -0.17624932576168109 0 -0.12664681243758191 -0.19024734359994019 0 -0.11684644937199649 -0.17624932576168109 0 -0.11443220087491469 -0.15554089306478919 0 -0.1070120645849291 -0.16551740077847829 0 -0.11684644937199649 -0.17624932576168109 0 -0.11443220087491469 -0.15554089306478919 0 -0.11684644937199649 -0.17624932576168109 0 -0.11443220087491469 -0.15554089306478919 0 -0.1324556432864829 -0.15712742469166291 0 -0.11443220087491469 -0.15554089306478919 0 -0.1120179523778314 -0.13483246036789759 0 -0.1220611354192757 -0.1452245707936145 0 -0.11443220087491469 -0.15554089306478919 0 -0.1120179523778314 -0.13483246036789759 0 -0.10944902862909869 -0.14351444295603999 0 -0.11443220087491469 -0.15554089306478919 0 -0.1120179523778314 -0.13483246036789759 0 -0.1220611354192757 -0.1452245707936145 0 -0.11443220087491469 -0.15554089306478919 0 -0.1324556432864829 -0.15712742469166291 0 -0.10944902862909869 -0.14351444295603999 0 -0.11443220087491469 -0.15554089306478919 0 -0.1005777735667842 -0.1545437433144905 0 -0.10944902862909869 -0.14351444295603999 0 -0.10286085227570479 -0.14133983468103761 0 -0.1005777735667842 -0.1545437433144905 0 -0.10286085227570479 -0.14133983468103761 0 -0.1005777735667842 -0.1545437433144905 0 -0.094369758011507252 -0.14014868457184471 0 -0.082460437126670866 -0.13030587969105289 0 -0.1086789173640484 -0.1343211044151309 0 -0.097066715411537705 -0.1225381822580586 0 -0.082460437126670866 -0.13030587969105289 0 -0.1086789173640484 -0.1343211044151309 0 -0.082460437126670866 -0.13030587969105289 0 -0.094369758011507252 -0.14014868457184471 0 -0.1086789173640484 -0.1343211044151309 0 -0.10944902862909869 -0.14351444295603999 0 -0.1086789173640484 -0.1343211044151309 0 -0.10944902862909869 -0.14351444295603999 0 -0.10286085227570479 -0.14133983468103761 0 -0.1086789173640484 -0.1343211044151309 0 -0.10286085227570479 -0.14133983468103761 0 -0.094369758011507252 -0.14014868457184471 0 -0.1086789173640484 -0.1343211044151309 0 -0.1120179523778314 -0.13483246036789759 0 -0.1204514209152739 -0.12886466374209951 0 -0.1331520328124989 -0.13806903554363781 0 -0.1130957479095262 -0.12618652358123969 0 -0.1120179523778314 -0.13483246036789759 0 -0.1204514209152739 -0.12886466374209951 0 -0.1091619524019775 -0.1103348647998285 0 -0.1086789173640484 -0.1343211044151309 0 -0.1120179523778314 -0.13483246036789759 0 -0.1220611354192757 -0.1452245707936145 0 -0.1120179523778314 -0.13483246036789759 0 -0.1331520328124989 -0.13806903554363781 0 -0.1120179523778314 -0.13483246036789759 0 -0.1331520328124989 -0.13806903554363781 0 -0.116962289602545 -0.1246422661194878 0 -0.1130957479095262 -0.12618652358123969 0 -0.1204514209152739 -0.12886466374209951 0 -0.10944902862909869 -0.14351444295603999 0 -0.1086789173640484 -0.1343211044151309 0 -0.1120179523778314 -0.13483246036789759 0 -0.1086789173640484 -0.1343211044151309 0 -0.1120179523778314 -0.13483246036789759 0 -0.1200877919474734 -0.1230236574711794 0 -0.1204514209152739 -0.12886466374209951 0 -0.12872657756983999 -0.12565653950385669 0 -0.116962289602545 -0.1246422661194878 0 -0.1200877919474734 -0.1230236574711794 0 -0.1204514209152739 -0.12886466374209951 0 -0.1204514209152739 -0.12886466374209951 0 -0.12872657756983999 -0.12565653950385669 0 -0.1331520328124989 -0.13806903554363781 0 -0.12872657756983999 -0.12565653950385669 0 -0.1331520328124989 -0.13806903554363781 0 -0.14368964208298879 -0.12404892209183629 0 -0.1331520328124989 -0.13806903554363781 0 -0.15428611324716651 -0.14130561071937761 0 -0.15571180621920669 -0.12566252811065501 0 -0.15428611324716651 -0.14130561071937761 0 -0.14368964208298879 -0.12404892209183629 0 -0.1331520328124989 -0.13806903554363781 0 -0.15428611324716651 -0.14130561071937761 0 -0.14368964208298879 -0.12404892209183629 0 -0.15428611324716651 -0.14130561071937761 0 -0.1324556432864829 -0.15712742469166291 0 -0.15138048731847659 -0.16599331950461241 0 -0.1220611354192757 -0.1452245707936145 0 -0.1331520328124989 -0.13806903554363781 0 -0.1324556432864829 -0.15712742469166291 0 -0.1331520328124989 -0.13806903554363781 0 -0.15428611324716651 -0.14130561071937761 0 -0.1324556432864829 -0.15712742469166291 0 -0.1324556432864829 -0.15712742469166291 0 -0.13625200469425661 -0.17753915020738889 0 -0.15138048731847659 -0.16599331950461241 0 -0.11684644937199649 -0.17624932576168109 0 -0.1324556432864829 -0.15712742469166291 0 -0.13625200469425661 -0.17753915020738889 0 -0.11684644937199649 -0.17624932576168109 0 -0.13625200469425661 -0.17753915020738889 0 -0.12664681243758191 -0.19024734359994019 0 -0.13625200469425661 -0.17753915020738889 0 -0.12664681243758191 -0.19024734359994019 0 -0.14167480047917611 -0.19448358910770169 0 -0.13625200469425661 -0.17753915020738889 0 -0.15224496186616801 -0.1826629035133962 0 -0.15138048731847659 -0.16599331950461241 0 -0.13625200469425661 -0.17753915020738889 0 -0.15224496186616801 -0.1826629035133962 0 -0.14167480047917611 -0.19448358910770169 0 -0.15138048731847659 -0.16599331950461241 0 -0.16904795417767249 -0.15951929464616599 0 -0.16872976007628751 -0.1789717657799117 0 -0.15224496186616801 -0.1826629035133962 0 -0.15138048731847659 -0.16599331950461241 0 -0.16872976007628751 -0.1789717657799117 0 -0.15224496186616801 -0.1826629035133962 0 -0.16872976007628751 -0.1789717657799117 0 -0.1631877567626431 -0.19632669296736641 0 -0.15138048731847659 -0.16599331950461241 0 -0.16872976007628751 -0.1789717657799117 0 -0.16872976007628751 -0.1789717657799117 0 -0.18607903283409849 -0.19195021205521121 0 -0.16872976007628751 -0.1789717657799117 0 -0.1829028686600197 -0.1728441321058308 0 -0.18607903283409849 -0.19195021205521121 0 -0.16904795417767249 -0.15951929464616599 0 -0.1829028686600197 -0.1728441321058308 0 -0.1848622744504905 -0.1573375224268436 0 -0.16904795417767249 -0.15951929464616599 0 -0.16872976007628751 -0.1789717657799117 0 -0.1829028686600197 -0.1728441321058308 0 -0.16904795417767249 -0.15951929464616599 0 -0.1848622744504905 -0.1573375224268436 0 -0.17427843418204081 -0.14209194977767869 0 -0.1848622744504905 -0.1573375224268436 0 -0.17427843418204081 -0.14209194977767869 0 -0.18850036707356149 -0.14383603774804091 0 -0.17427843418204081 -0.14209194977767869 0 -0.18640108281034459 -0.1282986989612909 0 -0.18850036707356149 -0.14383603774804091 0 -0.17427843418204081 -0.14209194977767869 0 -0.18640108281034459 -0.1282986989612909 0 -0.16811901330994569 -0.12574352398013669 0 -0.15571180621920669 -0.12566252811065501 0 -0.15428611324716651 -0.14130561071937761 0 -0.16811901330994569 -0.12574352398013669 0 -0.15428611324716651 -0.14130561071937761 0 -0.17427843418204081 -0.14209194977767869 0 -0.16811901330994569 -0.12574352398013669 0 -0.15428611324716651 -0.14130561071937761 0 -0.16904795417767249 -0.15951929464616599 0 -0.17427843418204081 -0.14209194977767869 0 -0.15428611324716651 -0.14130561071937761 0 -0.15138048731847659 -0.16599331950461241 0 -0.16904795417767249 -0.15951929464616599 0 -0.15146509007726269 -0.24434081124376289 0 -0.14303090986992481 -0.23953649334039021 0 -0.15585129989554189 -0.23341991212858201 0 -0.15146509007726269 -0.24434081124376289 0 -0.14303090986992481 -0.23953649334039021 0 -0.136861712177654 -0.24989241414590191 0 -0.1481706981822106 -0.25391549304090061 0 -0.15146509007726269 -0.24434081124376289 0 -0.136861712177654 -0.24989241414590191 0 -0.14303090986992481 -0.23953649334039021 0 -0.13081080727919431 -0.24507480887972269 0 -0.1412962982765264 -0.22457931231153719 0 -0.1218666275244174 -0.24107006683358559 0 -0.13081080727919431 -0.24507480887972269 0 -0.1412962982765264 -0.22457931231153719 0 -0.14303090986992481 -0.23953649334039021 0 -0.136861712177654 -0.24989241414590191 0 -0.13081080727919431 -0.24507480887972269 0 -0.12596474988764531 -0.25359426986989281 0 -0.1183971611162466 -0.25023516984361371 0 -0.13081080727919431 -0.24507480887972269 0 -0.12596474988764531 -0.25359426986989281 0 -0.136861712177654 -0.24989241414590191 0 -0.13081080727919431 -0.24507480887972269 0 -0.11401090082378371 -0.23521140927858161 0 -0.1218666275244174 -0.24107006683358559 0 -0.1412962982765264 -0.22457931231153719 0 -0.11401090082378371 -0.23521140927858161 0 -0.12880141615332691 -0.22168968759826571 0 -0.1412962982765264 -0.22457931231153719 0 -0.11401090082378371 -0.23521140927858161 0 -0.1412962982765264 -0.22457931231153719 0 -0.14303090986992481 -0.23953649334039021 0 -0.1412962982765264 -0.22457931231153719 0 -0.15585129989554189 -0.23341991212858201 0 -0.1412962982765264 -0.22457931231153719 0 -0.15585129989554189 -0.23341991212858201 0 -0.15658655794890841 -0.22119570163405139 0 -0.1412962982765264 -0.22457931231153719 0 -0.15117053691495311 -0.20932242977612689 0 -0.15658655794890841 -0.22119570163405139 0 -0.15117053691495311 -0.20932242977612689 0 -0.13820430540754719 -0.20949018378070131 0 -0.14167480047917611 -0.19448358910770169 0 -0.1412962982765264 -0.22457931231153719 0 -0.15117053691495311 -0.20932242977612689 0 -0.13820430540754719 -0.20949018378070131 0 -0.12880141615332691 -0.22168968759826571 0 -0.1412962982765264 -0.22457931231153719 0 -0.13820430540754719 -0.20949018378070131 0 -0.12880141615332691 -0.22168968759826571 0 -0.12688592276597391 -0.21013636989106449 0 -0.13820430540754719 -0.20949018378070131 0 -0.11865096428695179 -0.2031364960817813 0 -0.12688592276597391 -0.21013636989106449 0 -0.13164634758934801 -0.20051520123264871 0 -0.12688592276597391 -0.21013636989106449 0 -0.13820430540754719 -0.20949018378070131 0 -0.13164634758934801 -0.20051520123264871 0 -0.13820430540754719 -0.20949018378070131 0 -0.13164634758934801 -0.20051520123264871 0 -0.14167480047917611 -0.19448358910770169 0 -0.11865096428695179 -0.2031364960817813 0 -0.13164634758934801 -0.20051520123264871 0 -0.12664681243758191 -0.19024734359994019 0 -0.13164634758934801 -0.20051520123264871 0 -0.12664681243758191 -0.19024734359994019 0 -0.14167480047917611 -0.19448358910770169 0 -0.15117053691495311 -0.20932242977612689 0 -0.14167480047917611 -0.19448358910770169 0 -0.1631877567626431 -0.19632669296736641 0 -0.15224496186616801 -0.1826629035133962 0 -0.14167480047917611 -0.19448358910770169 0 -0.1631877567626431 -0.19632669296736641 0 -0.16872976007628751 -0.1789717657799117 0 -0.1631877567626431 -0.19632669296736641 0 -0.18607903283409849 -0.19195021205521121 0 -0.1631877567626431 -0.19632669296736641 0 -0.18607903283409849 -0.19195021205521121 0 -0.18046834817389421 -0.20741608316806689 0 -0.18046834817389421 -0.20741608316806689 0 -0.1716266145342541 -0.22676885659609339 0 -0.19121367096196229 -0.21919319192527059 0 -0.18046834817389421 -0.20741608316806689 0 -0.16405306076988649 -0.2111025728062137 0 -0.1716266145342541 -0.22676885659609339 0 -0.1631877567626431 -0.19632669296736641 0 -0.18046834817389421 -0.20741608316806689 0 -0.16405306076988649 -0.2111025728062137 0 -0.15117053691495311 -0.20932242977612689 0 -0.1631877567626431 -0.19632669296736641 0 -0.16405306076988649 -0.2111025728062137 0 -0.15117053691495311 -0.20932242977612689 0 -0.16405306076988649 -0.2111025728062137 0 -0.15658655794890841 -0.22119570163405139 0 -0.16405306076988649 -0.2111025728062137 0 -0.1716266145342541 -0.22676885659609339 0 -0.15658655794890841 -0.22119570163405139 0 -0.15585129989554189 -0.23341991212858201 0 -0.1716266145342541 -0.22676885659609339 0 -0.15658655794890841 -0.22119570163405139 0 -0.1716266145342541 -0.22676885659609339 0 -0.18776414696646049 -0.23459221907646391 0 -0.19121367096196229 -0.21919319192527059 0 -0.1716266145342541 -0.22676885659609339 0 -0.17341083026098211 -0.24493974356303991 0 -0.18776414696646049 -0.23459221907646391 0 -0.18629174983565491 -0.24918474395853071 0 -0.17341083026098211 -0.24493974356303991 0 -0.18776414696646049 -0.23459221907646391 0 -0.1481706981822106 -0.25391549304090061 0 -0.17341083026098211 -0.24493974356303991 0 -0.1481706981822106 -0.25391549304090061 0 -0.15146509007726269 -0.24434081124376289 0 -0.17341083026098211 -0.24493974356303991 0 -0.15585129989554189 -0.23341991212858201 0 -0.1716266145342541 -0.22676885659609339 0 -0.17341083026098211 -0.24493974356303991 0 -0.15146509007726269 -0.24434081124376289 0 -0.15585129989554189 -0.23341991212858201 0 -0.17341083026098211 -0.24493974356303991 0 -0.21358999384310021 -0.25689926786046863 0 -0.21498465461191391 -0.23609349453863651 0 -0.2268249172093626 -0.24538517399888801 0 -0.21358999384310021 -0.25689926786046863 0 -0.21498465461191391 -0.23609349453863651 0 -0.20025444320941699 -0.24247199835325051 0 -0.19609548341644081 -0.25599629824461512 0 -0.18629174983565491 -0.24918474395853071 0 -0.20025444320941699 -0.24247199835325051 0 -0.18629174983565491 -0.24918474395853071 0 -0.20025444320941699 -0.24247199835325051 0 -0.18776414696646049 -0.23459221907646391 0 -0.20025444320941699 -0.24247199835325051 0 -0.18776414696646049 -0.23459221907646391 0 -0.20429352295702541 -0.2245494603841485 0 -0.18776414696646049 -0.23459221907646391 0 -0.19121367096196229 -0.21919319192527059 0 -0.20429352295702541 -0.2245494603841485 0 -0.21498465461191391 -0.23609349453863651 0 -0.20429352295702541 -0.2245494603841485 0 -0.21826632122397829 -0.21602851199014919 0 -0.21498465461191391 -0.23609349453863651 0 -0.20025444320941699 -0.24247199835325051 0 -0.20429352295702541 -0.2245494603841485 0 -0.20429352295702541 -0.2245494603841485 0 -0.21826632122397829 -0.21602851199014919 0 -0.20342830559190961 -0.2049286583305106 0 -0.21826632122397829 -0.21602851199014919 0 -0.20342830559190961 -0.2049286583305106 0 -0.2165398144312031 -0.18961673423435069 0 -0.21826632122397829 -0.21602851199014919 0 -0.20342830559190961 -0.2049286583305106 0 -0.19121367096196229 -0.21919319192527059 0 -0.20429352295702541 -0.2245494603841485 0 -0.20342830559190961 -0.2049286583305106 0 -0.19121367096196229 -0.21919319192527059 0 -0.20342830559190961 -0.2049286583305106 0 -0.18046834817389421 -0.20741608316806689 0 -0.19121367096196229 -0.21919319192527059 0 -0.20342830559190961 -0.2049286583305106 0 -0.18607903283409849 -0.19195021205521121 0 -0.18046834817389421 -0.20741608316806689 0 -0.20342830559190961 -0.2049286583305106 0 -0.18607903283409849 -0.19195021205521121 0 -0.20342830559190961 -0.2049286583305106 0 -0.18607903283409849 -0.19195021205521121 0 -0.20342830559190961 -0.2049286583305106 0 -0.20185630894150139 -0.18917788501242369 0 -0.20342830559190961 -0.2049286583305106 0 -0.20185630894150139 -0.18917788501242369 0 -0.2165398144312031 -0.18961673423435069 0 -0.20342830559190961 -0.2049286583305106 0 -0.2165398144312031 -0.18961673423435069 0 -0.2165398144312031 -0.18961673423435069 0 -0.2326161327625412 -0.19927034308692909 0 -0.22965132327049539 -0.17430481013818991 0 -0.21826632122397829 -0.21602851199014919 0 -0.2165398144312031 -0.18961673423435069 0 -0.2326161327625412 -0.19927034308692909 0 -0.2326161327625412 -0.19927034308692909 0 -0.24907535009219139 -0.19039852006507901 0 -0.22965132327049539 -0.17430481013818991 0 -0.2326161327625412 -0.19927034308692909 0 -0.24907535009219139 -0.19039852006507901 0 -0.2478153528869568 -0.21168785482111879 0 -0.2326161327625412 -0.19927034308692909 0 -0.2478153528869568 -0.21168785482111879 0 -0.2329505359323808 -0.21352876888699621 0 -0.2478153528869568 -0.21168785482111879 0 -0.2329505359323808 -0.21352876888699621 0 -0.23310433685604701 -0.22712836564978781 0 -0.21826632122397829 -0.21602851199014919 0 -0.2326161327625412 -0.19927034308692909 0 -0.2329505359323808 -0.21352876888699621 0 -0.21498465461191391 -0.23609349453863651 0 -0.21826632122397829 -0.21602851199014919 0 -0.23310433685604701 -0.22712836564978781 0 -0.21826632122397829 -0.21602851199014919 0 -0.23310433685604701 -0.22712836564978781 0 -0.21826632122397829 -0.21602851199014919 0 -0.2329505359323808 -0.21352876888699621 0 -0.23310433685604701 -0.22712836564978781 0 -0.2478153528869568 -0.21168785482111879 0 -0.23310433685604701 -0.22712836564978781 0 -0.25139261250481881 -0.2292467695384228 0 -0.23310433685604701 -0.22712836564978781 0 -0.24086100655331991 -0.2426135927544267 0 -0.25139261250481881 -0.2292467695384228 0 -0.2360332131627044 -0.25942361848391121 0 -0.24086100655331991 -0.2426135927544267 0 -0.2268249172093626 -0.24538517399888801 0 -0.21498465461191391 -0.23609349453863651 0 -0.23310433685604701 -0.22712836564978781 0 -0.2268249172093626 -0.24538517399888801 0 -0.23310433685604701 -0.22712836564978781 0 -0.24086100655331991 -0.2426135927544267 0 -0.2268249172093626 -0.24538517399888801 0 -0.21291056337676581 -0.14772834205566551 0 -0.20225642963473289 -0.13788575087845689 0 -0.20011528651877339 -0.1544260207140277 0 -0.21291056337676581 -0.14772834205566551 0 -0.20011528651877339 -0.1544260207140277 0 -0.2137761204040198 -0.16115146596764929 0 -0.21291056337676581 -0.14772834205566551 0 -0.2137761204040198 -0.16115146596764929 0 -0.2263226198608162 -0.15381857514500311 0 -0.20225642963473289 -0.13788575087845689 0 -0.2217299430829045 -0.12939514409728289 0 -0.2032414926057777 -0.11936298747696129 0 -0.21291056337676581 -0.14772834205566551 0 -0.20225642963473289 -0.13788575087845689 0 -0.2217299430829045 -0.12939514409728289 0 -0.18640108281034459 -0.1282986989612909 0 -0.20225642963473289 -0.13788575087845689 0 -0.2032414926057777 -0.11936298747696129 0 -0.18640108281034459 -0.1282986989612909 0 -0.20225642963473289 -0.13788575087845689 0 -0.18850036707356149 -0.14383603774804091 0 -0.20225642963473289 -0.13788575087845689 0 -0.18850036707356149 -0.14383603774804091 0 -0.20011528651877339 -0.1544260207140277 0 -0.1848622744504905 -0.1573375224268436 0 -0.18850036707356149 -0.14383603774804091 0 -0.20011528651877339 -0.1544260207140277 0 -0.1848622744504905 -0.1573375224268436 0 -0.20011528651877339 -0.1544260207140277 0 -0.1979210515475375 -0.17396210883169519 0 -0.1829028686600197 -0.1728441321058308 0 -0.1848622744504905 -0.1573375224268436 0 -0.1979210515475375 -0.17396210883169519 0 -0.1829028686600197 -0.1728441321058308 0 -0.18607903283409849 -0.19195021205521121 0 -0.1979210515475375 -0.17396210883169519 0 -0.18607903283409849 -0.19195021205521121 0 -0.20185630894150139 -0.18917788501242369 0 -0.1979210515475375 -0.17396210883169519 0 -0.20185630894150139 -0.18917788501242369 0 -0.2165398144312031 -0.18961673423435069 0 -0.21269256168769099 -0.17562346644128971 0 -0.20185630894150139 -0.18917788501242369 0 -0.1979210515475375 -0.17396210883169519 0 -0.21269256168769099 -0.17562346644128971 0 -0.1979210515475375 -0.17396210883169519 0 -0.21269256168769099 -0.17562346644128971 0 -0.2137761204040198 -0.16115146596764929 0 -0.21269256168769099 -0.17562346644128971 0 -0.2137761204040198 -0.16115146596764929 0 -0.22965132327049539 -0.17430481013818991 0 -0.20011528651877339 -0.1544260207140277 0 -0.1979210515475375 -0.17396210883169519 0 -0.2137761204040198 -0.16115146596764929 0 -0.22965132327049539 -0.17430481013818991 0 -0.24431817534001621 -0.1571765201472573 0 -0.2263226198608162 -0.15381857514500311 0 -0.2137761204040198 -0.16115146596764929 0 -0.22965132327049539 -0.17430481013818991 0 -0.2137761204040198 -0.16115146596764929 0 -0.22965132327049539 -0.17430481013818991 0 -0.2263226198608162 -0.15381857514500311 0 -0.2165398144312031 -0.18961673423435069 0 -0.21269256168769099 -0.17562346644128971 0 -0.22965132327049539 -0.17430481013818991 0 -0.2165398144312031 -0.18961673423435069 0 -0.22965132327049539 -0.17430481013818991 0 -0.24907535009219139 -0.19039852006507901 0 -0.22965132327049539 -0.17430481013818991 0 -0.25463265201391838 -0.17584064310544509 0 -0.24907535009219139 -0.19039852006507901 0 -0.22965132327049539 -0.17430481013818991 0 -0.22965132327049539 -0.17430481013818991 0 -0.24431817534001621 -0.1571765201472573 0 -0.25463265201391838 -0.17584064310544509 0 -0.22965132327049539 -0.17430481013818991 0 -0.24431817534001621 -0.1571765201472573 0 -0.24431817534001621 -0.1571765201472573 0 -0.2440082302640538 -0.14206740227634521 0 -0.2263226198608162 -0.15381857514500311 0 -0.24431817534001621 -0.1571765201472573 0 -0.2440082302640538 -0.14206740227634521 0 -0.25898502740953722 -0.140048230156325 0 -0.2263226198608162 -0.15381857514500311 0 -0.2217299430829045 -0.12939514409728289 0 -0.2440082302640538 -0.14206740227634521 0 -0.2263226198608162 -0.15381857514500311 0 -0.2217299430829045 -0.12939514409728289 0 -0.21291056337676581 -0.14772834205566551 0 -0.2263226198608162 -0.15381857514500311 0 -0.2217299430829045 -0.12939514409728289 0 -0.2440082302640538 -0.14206740227634521 0 -0.2217299430829045 -0.12939514409728289 0 -0.24263170904470269 -0.12770838245900429 0 -0.2440082302640538 -0.14206740227634521 0 -0.24263170904470269 -0.12770838245900429 0 -0.2501451975651609 -0.13561873606436639 0 -0.24263170904470269 -0.12770838245900429 0 -0.2535096958820014 -0.12926038938568929 0 -0.2501451975651609 -0.13561873606436639 0 -0.24263170904470269 -0.12770838245900429 0 -0.23551958235062839 -0.1109825154808589 0 -0.25158081910917091 -0.1161265066150594 0 -0.24263170904470269 -0.12770838245900429 0 -0.25158081910917091 -0.1161265066150594 0 -0.2535096958820014 -0.12926038938568929 0 -0.23551958235062839 -0.1109825154808589 0 -0.24917697453230511 -0.098279470442215633 0 -0.23086078202969429 -0.089413876222028454 0 -0.24917697453230511 -0.098279470442215633 0 -0.23086078202969429 -0.089413876222028454 0 -0.23551958235062839 -0.1109825154808589 0 -0.24917697453230511 -0.098279470442215633 0 -0.25158081910917091 -0.1161265066150594 0 -0.23551958235062839 -0.1109825154808589 0 -0.23086078202969429 -0.089413876222028454 0 -0.21713726630499289 -0.1049717130495627 0 -0.2217299430829045 -0.12939514409728289 0 -0.23551958235062839 -0.1109825154808589 0 -0.21713726630499289 -0.1049717130495627 0 -0.2217299430829045 -0.12939514409728289 0 -0.21713726630499289 -0.1049717130495627 0 -0.2217299430829045 -0.12939514409728289 0 -0.24263170904470269 -0.12770838245900429 0 -0.23551958235062839 -0.1109825154808589 0 -0.24009848566549311 -0.07883885372162705 0 -0.23986334067550999 -0.062454063903286373 0 -0.25036632481932708 -0.070946818256236305 0 -0.24009848566549311 -0.07883885372162705 0 -0.2296763039178141 -0.068508394330410061 0 -0.23986334067550999 -0.062454063903286373 0 -0.23986334067550999 -0.062454063903286373 0 -0.25206909905032387 -0.059404341778679842 0 -0.25036632481932708 -0.070946818256236305 0 -0.24009848566549311 -0.07883885372162705 0 -0.25036632481932708 -0.070946818256236305 0 -0.25805232596233257 -0.086055080061886946 0 -0.24917697453230511 -0.098279470442215633 0 -0.24009848566549311 -0.07883885372162705 0 -0.23086078202969429 -0.089413876222028454 0 -0.24917697453230511 -0.098279470442215633 0 -0.24009848566549311 -0.07883885372162705 0 -0.25805232596233257 -0.086055080061886946 0 -0.24009848566549311 -0.07883885372162705 0 -0.23086078202969429 -0.089413876222028454 0 -0.22269334772146829 -0.076214272835325669 0 -0.23086078202969429 -0.089413876222028454 0 -0.21254458952708299 -0.080548282001842289 0 -0.21713726630499289 -0.1049717130495627 0 -0.23086078202969429 -0.089413876222028454 0 -0.21254458952708299 -0.080548282001842289 0 -0.23086078202969429 -0.089413876222028454 0 -0.22269334772146829 -0.076214272835325669 0 -0.21254458952708299 -0.080548282001842289 0 -0.24009848566549311 -0.07883885372162705 0 -0.22269334772146829 -0.076214272835325669 0 -0.2296763039178141 -0.068508394330410061 0 -0.22269334772146829 -0.076214272835325669 0 -0.22258161866300699 -0.065832428678576069 0 -0.21828506527293801 -0.069891268051433128 0 -0.22269334772146829 -0.076214272835325669 0 -0.21828506527293801 -0.069891268051433128 0 -0.21629717680012309 -0.07563206910468484 0 -0.22258161866300699 -0.065832428678576069 0 -0.2296763039178141 -0.068508394330410061 0 -0.22648985934470331 -0.058820683388514233 0 -0.22258161866300699 -0.065832428678576069 0 -0.21828506527293801 -0.069891268051433128 0 -0.21755863959755359 -0.054549947874594107 0 -0.22269334772146829 -0.076214272835325669 0 -0.22258161866300699 -0.065832428678576069 0 -0.2296763039178141 -0.068508394330410061 0 -0.2296763039178141 -0.068508394330410061 0 -0.22648985934470331 -0.058820683388514233 0 -0.23986334067550999 -0.062454063903286373 0 -0.21828506527293801 -0.069891268051433128 0 -0.21166570467900209 -0.075874453530139357 0 -0.21755863959755359 -0.054549947874594107 0 -0.20659498582722691 -0.067724789139184977 0 -0.21166570467900209 -0.075874453530139357 0 -0.2085171826278501 -0.059130903975686572 0 -0.21166570467900209 -0.075874453530139357 0 -0.21755863959755359 -0.054549947874594107 0 -0.21166570467900209 -0.075874453530139357 0 -0.21755863959755359 -0.054549947874594107 0 -0.2085171826278501 -0.059130903975686572 0 -0.21166570467900209 -0.075874453530139357 0 -0.2085171826278501 -0.059130903975686572 0 -0.20659498582722691 -0.067724789139184977 0 -0.20157254233762009 -0.061514367739799729 0 -0.2085171826278501 -0.059130903975686572 0 -0.20659498582722691 -0.067724789139184977 0 -0.20502343827080649 -0.07223166470970932 0 -0.19886596831317729 -0.068672933032613195 0 -0.22269334772146829 -0.076214272835325669 0 -0.21629717680012309 -0.07563206910468484 0 -0.21254458952708299 -0.080548282001842289 0 -0.21828506527293801 -0.069891268051433128 0 -0.21629717680012309 -0.07563206910468484 0 -0.21166570467900209 -0.075874453530139357 0 -0.21629717680012309 -0.07563206910468484 0 -0.21166570467900209 -0.075874453530139357 0 -0.21254458952708299 -0.080548282001842289 0 -0.21166570467900209 -0.075874453530139357 0 -0.21051721288122521 -0.07956697004679919 0 -0.21166570467900209 -0.075874453530139357 0 -0.20864323922664729 -0.077204570305284326 0 -0.21051721288122521 -0.07956697004679919 0 -0.20659498582722691 -0.067724789139184977 0 -0.21166570467900209 -0.075874453530139357 0 -0.2077299339704769 -0.073936759294939772 0 -0.21166570467900209 -0.075874453530139357 0 -0.20864323922664729 -0.077204570305284326 0 -0.2077299339704769 -0.073936759294939772 0 -0.20864323922664729 -0.077204570305284326 0 -0.20602360407571241 -0.076603919013600474 0 -0.2071667705335597 -0.079986068728457746 0 -0.20864323922664729 -0.077204570305284326 0 -0.2077299339704769 -0.073936759294939772 0 -0.20602360407571241 -0.076603919013600474 0 -0.20659498582722691 -0.067724789139184977 0 -0.2077299339704769 -0.073936759294939772 0 -0.20502343827080649 -0.07223166470970932 0 -0.20502343827080649 -0.07223166470970932 0 -0.20602360407571241 -0.076603919013600474 0 -0.20174962981615041 -0.075410451396676903 0 -0.2077299339704769 -0.073936759294939772 0 -0.20502343827080649 -0.07223166470970932 0 -0.20602360407571241 -0.076603919013600474 0 -0.20602360407571241 -0.076603919013600474 0 -0.20367152707403169 -0.081358716118718644 0 -0.20174962981615041 -0.075410451396676903 0 -0.21254458952708299 -0.080548282001842289 0 -0.20865171294467849 -0.086781053496481117 0 -0.21713726630499289 -0.1049717130495627 0 -0.21254458952708299 -0.080548282001842289 0 -0.21713726630499289 -0.1049717130495627 0 -0.20367152707403169 -0.081358716118718644 0 -0.20865171294467849 -0.086781053496481117 0 -0.19969480013327931 -0.089136467226325913 0 -0.20602360407571241 -0.076603919013600474 0 -0.20367152707403169 -0.081358716118718644 0 -0.2071667705335597 -0.079986068728457746 0 -0.20367152707403169 -0.081358716118718644 0 -0.2071667705335597 -0.079986068728457746 0 -0.20865171294467849 -0.086781053496481117 0 -0.21051721288122521 -0.07956697004679919 0 -0.21254458952708299 -0.080548282001842289 0 -0.20865171294467849 -0.086781053496481117 0 -0.21051721288122521 -0.07956697004679919 0 -0.20865171294467849 -0.086781053496481117 0 -0.2071667705335597 -0.079986068728457746 0 -0.21051721288122521 -0.07956697004679919 0 -0.20865171294467849 -0.086781053496481117 0 -0.20864323922664729 -0.077204570305284326 0 -0.2071667705335597 -0.079986068728457746 0 -0.21051721288122521 -0.07956697004679919 0 -0.21166570467900209 -0.075874453530139357 0 -0.21051721288122521 -0.07956697004679919 0 -0.21254458952708299 -0.080548282001842289 0 -0.21051721288122521 -0.07956697004679919 0 -0.21254458952708299 -0.080548282001842289 0 -0.21166570467900209 -0.075874453530139357 0 -0.21254458952708299 -0.080548282001842289 0 -0.20865171294467849 -0.086781053496481117 0 -0.19969480013327931 -0.089136467226325913 0 -0.20202281262695551 -0.10094778791409149 0 -0.19969480013327931 -0.089136467226325913 0 -0.1930441297091362 -0.087143419580378009 0 -0.19189802644738399 -0.096076386700952809 0 -0.1930441297091362 -0.087143419580378009 0 -0.19189802644738399 -0.096076386700952809 0 -0.1846713063337847 -0.089920736357024564 0 -0.1930441297091362 -0.087143419580378009 0 -0.1897605314667456 -0.078961271408006073 0 -0.1977112327869143 -0.081197627046314363 0 -0.1897605314667456 -0.078961271408006073 0 -0.1977112327869143 -0.081197627046314363 0 -0.1966310944435781 -0.075455492317201861 0 -0.1930441297091362 -0.087143419580378009 0 -0.1897605314667456 -0.078961271408006073 0 -0.1846713063337847 -0.089920736357024564 0 -0.20367152707403169 -0.081358716118718644 0 -0.19969480013327931 -0.089136467226325913 0 -0.1977112327869143 -0.081197627046314363 0 -0.19969480013327931 -0.089136467226325913 0 -0.1930441297091362 -0.087143419580378009 0 -0.1977112327869143 -0.081197627046314363 0 -0.20367152707403169 -0.081358716118718644 0 -0.1977112327869143 -0.081197627046314363 0 -0.20174962981615041 -0.075410451396676903 0 -0.20502343827080649 -0.07223166470970932 0 -0.20174962981615041 -0.075410451396676903 0 -0.19886596831317729 -0.068672933032613195 0 -0.1966310944435781 -0.075455492317201861 0 -0.1924503101055933 -0.07234554019622666 0 -0.19886596831317729 -0.068672933032613195 0 -0.20174962981615041 -0.075410451396676903 0 -0.1966310944435781 -0.075455492317201861 0 -0.19886596831317729 -0.068672933032613195 0 -0.1977112327869143 -0.081197627046314363 0 -0.20174962981615041 -0.075410451396676903 0 -0.1966310944435781 -0.075455492317201861 0 -0.1897605314667456 -0.078961271408006073 0 -0.1966310944435781 -0.075455492317201861 0 -0.1924503101055933 -0.07234554019622666 0 -0.1897605314667456 -0.078961271408006073 0 -0.1924503101055933 -0.07234554019622666 0 -0.1854441232742649 -0.072315705077069442 0 -0.1924503101055933 -0.07234554019622666 0 -0.1910662812459481 -0.066637275644645291 0 -0.1854441232742649 -0.072315705077069442 0 -0.1910662812459481 -0.066637275644645291 0 -0.18308401943524921 -0.063814395276864971 0 -0.19336859895872741 -0.058615845021254581 0 -0.1910662812459481 -0.066637275644645291 0 -0.19886596831317729 -0.068672933032613195 0 -0.19336859895872741 -0.058615845021254581 0 -0.1924503101055933 -0.07234554019622666 0 -0.1910662812459481 -0.066637275644645291 0 -0.19886596831317729 -0.068672933032613195 0 -0.19886596831317729 -0.068672933032613195 0 -0.20157254233762009 -0.061514367739799729 0 -0.19336859895872741 -0.058615845021254581 0 -0.20659498582722691 -0.067724789139184977 0 -0.19886596831317729 -0.068672933032613195 0 -0.20157254233762009 -0.061514367739799729 0 -0.2217299430829045 -0.12939514409728289 0 -0.2032414926057777 -0.11936298747696129 0 -0.21713726630499289 -0.1049717130495627 0 -0.2032414926057777 -0.11936298747696129 0 -0.21713726630499289 -0.1049717130495627 0 -0.20202281262695551 -0.10094778791409149 0 -0.20865171294467849 -0.086781053496481117 0 -0.21713726630499289 -0.1049717130495627 0 -0.20202281262695551 -0.10094778791409149 0 -0.19969480013327931 -0.089136467226325913 0 -0.20202281262695551 -0.10094778791409149 0 -0.19189802644738399 -0.096076386700952809 0 -0.19189802644738399 -0.096076386700952809 0 -0.19184723664662059 -0.1091825810447232 0 -0.18010787323452801 -0.10012732808317371 0 -0.20202281262695551 -0.10094778791409149 0 -0.19189802644738399 -0.096076386700952809 0 -0.19184723664662059 -0.1091825810447232 0 -0.2032414926057777 -0.11936298747696129 0 -0.20202281262695551 -0.10094778791409149 0 -0.19184723664662059 -0.1091825810447232 0 -0.18640108281034459 -0.1282986989612909 0 -0.2032414926057777 -0.11936298747696129 0 -0.19184723664662059 -0.1091825810447232 0 -0.18640108281034459 -0.1282986989612909 0 -0.16811901330994569 -0.12574352398013669 0 -0.17928903672270161 -0.1140755894026233 0 -0.18640108281034459 -0.1282986989612909 0 -0.19184723664662059 -0.1091825810447232 0 -0.17928903672270161 -0.1140755894026233 0 -0.16811901330994569 -0.12574352398013669 0 -0.17928903672270161 -0.1140755894026233 0 -0.1685838642025185 -0.1057533433677738 0 -0.16811901330994569 -0.12574352398013669 0 -0.15675245623672571 -0.1115520556512694 0 -0.1685838642025185 -0.1057533433677738 0 -0.15571180621920669 -0.12566252811065501 0 -0.16811901330994569 -0.12574352398013669 0 -0.15675245623672571 -0.1115520556512694 0 -0.16214023301053529 -0.1005930217958655 0 -0.1622182973256962 -0.089989244570940208 0 -0.15379484700907259 -0.098979362254739023 0 -0.15675245623672571 -0.1115520556512694 0 -0.16214023301053529 -0.1005930217958655 0 -0.15379484700907259 -0.098979362254739023 0 -0.15675245623672571 -0.1115520556512694 0 -0.16214023301053529 -0.1005930217958655 0 -0.1685838642025185 -0.1057533433677738 0 -0.16214023301053529 -0.1005930217958655 0 -0.1693517002786635 -0.096691103134605119 0 -0.1622182973256962 -0.089989244570940208 0 -0.16214023301053529 -0.1005930217958655 0 -0.1685838642025185 -0.1057533433677738 0 -0.1693517002786635 -0.096691103134605119 0 -0.1685838642025185 -0.1057533433677738 0 -0.1693517002786635 -0.096691103134605119 0 -0.18010787323452801 -0.10012732808317371 0 -0.1693517002786635 -0.096691103134605119 0 -0.18010787323452801 -0.10012732808317371 0 -0.17473004659996391 -0.090185595155094389 0 -0.17928903672270161 -0.1140755894026233 0 -0.1685838642025185 -0.1057533433677738 0 -0.18010787323452801 -0.10012732808317371 0 -0.19184723664662059 -0.1091825810447232 0 -0.17928903672270161 -0.1140755894026233 0 -0.18010787323452801 -0.10012732808317371 0 -0.19189802644738399 -0.096076386700952809 0 -0.18010787323452801 -0.10012732808317371 0 -0.1846713063337847 -0.089920736357024564 0 -0.18010787323452801 -0.10012732808317371 0 -0.1846713063337847 -0.089920736357024564 0 -0.17473004659996391 -0.090185595155094389 0 -0.1846713063337847 -0.089920736357024564 0 -0.17985397354372901 -0.080999848302923255 0 -0.17473004659996391 -0.090185595155094389 0 -0.1897605314667456 -0.078961271408006073 0 -0.1846713063337847 -0.089920736357024564 0 -0.17985397354372901 -0.080999848302923255 0 -0.17985397354372901 -0.080999848302923255 0 -0.17473004659996391 -0.090185595155094389 0 -0.17022046866170881 -0.081219748722934526 0 -0.17985397354372901 -0.080999848302923255 0 -0.17539043077696009 -0.072424919824151723 0 -0.17022046866170881 -0.081219748722934526 0 -0.1910662812459481 -0.066637275644645291 0 -0.18308401943524921 -0.063814395276864971 0 -0.1854441232742649 -0.072315705077069442 0 -0.18308401943524921 -0.063814395276864971 0 -0.1854441232742649 -0.072315705077069442 0 -0.17539043077696009 -0.072424919824151723 0 -0.1897605314667456 -0.078961271408006073 0 -0.17985397354372901 -0.080999848302923255 0 -0.1854441232742649 -0.072315705077069442 0 -0.17985397354372901 -0.080999848302923255 0 -0.1854441232742649 -0.072315705077069442 0 -0.17539043077696009 -0.072424919824151723 0 -0.18308401943524921 -0.063814395276864971 0 -0.17539043077696009 -0.072424919824151723 0 -0.17142609427428651 -0.061772722076740373 0 -0.17539043077696009 -0.072424919824151723 0 -0.1672898671736657 -0.071844720196229908 0 -0.17142609427428651 -0.061772722076740373 0 -0.1672898671736657 -0.071844720196229908 0 -0.16012025641927111 -0.066682056257770503 0 -0.17142609427428651 -0.061772722076740373 0 -0.17539043077696009 -0.072424919824151723 0 -0.1672898671736657 -0.071844720196229908 0 -0.17022046866170881 -0.081219748722934526 0 -0.1672898671736657 -0.071844720196229908 0 -0.16208979717321051 -0.077905625961444597 0 -0.17022046866170881 -0.081219748722934526 0 -0.1672898671736657 -0.071844720196229908 0 -0.16208979717321051 -0.077905625961444597 0 -0.16012025641927111 -0.066682056257770503 0 -0.16208979717321051 -0.077905625961444597 0 -0.16012025641927111 -0.066682056257770503 0 -0.1505339489637976 -0.071241594575010836 0 -0.1693517002786635 -0.096691103134605119 0 -0.17473004659996391 -0.090185595155094389 0 -0.1622182973256962 -0.089989244570940208 0 -0.17473004659996391 -0.090185595155094389 0 -0.17022046866170881 -0.081219748722934526 0 -0.1622182973256962 -0.089989244570940208 0 -0.16208979717321051 -0.077905625961444597 0 -0.17022046866170881 -0.081219748722934526 0 -0.1622182973256962 -0.089989244570940208 0 -0.16208979717321051 -0.077905625961444597 0 -0.1622182973256962 -0.089989244570940208 0 -0.15378710437624951 -0.080847295208479567 0 -0.1622182973256962 -0.089989244570940208 0 -0.1512206021764114 -0.088844374270096921 0 -0.15378710437624951 -0.080847295208479567 0 -0.1622182973256962 -0.089989244570940208 0 -0.1512206021764114 -0.088844374270096921 0 -0.15379484700907259 -0.098979362254739023 0 -0.1512206021764114 -0.088844374270096921 0 -0.15378710437624951 -0.080847295208479567 0 -0.14493942908228749 -0.083277118516121199 0 -0.14493942908228749 -0.083277118516121199 0 -0.14484175030062379 -0.076272615915666975 0 -0.13642518396629211 -0.079171460318491094 0 -0.15378710437624951 -0.080847295208479567 0 -0.14493942908228749 -0.083277118516121199 0 -0.14484175030062379 -0.076272615915666975 0 -0.1512206021764114 -0.088844374270096921 0 -0.1434545483251061 -0.093516827148931905 0 -0.14688332082295569 -0.098452240607513591 0 -0.14493942908228749 -0.083277118516121199 0 -0.14496094613301089 -0.088265637684878773 0 -0.1387527050197781 -0.087984711421874945 0 -0.1434545483251061 -0.093516827148931905 0 -0.14496094613301089 -0.088265637684878773 0 -0.1387527050197781 -0.087984711421874945 0 -0.1512206021764114 -0.088844374270096921 0 -0.1434545483251061 -0.093516827148931905 0 -0.14496094613301089 -0.088265637684878773 0 -0.1512206021764114 -0.088844374270096921 0 -0.14493942908228749 -0.083277118516121199 0 -0.14496094613301089 -0.088265637684878773 0 -0.16012025641927111 -0.066682056257770503 0 -0.1505339489637976 -0.071241594575010836 0 -0.15042692994792781 -0.062134088172797891 0 -0.16208979717321051 -0.077905625961444597 0 -0.15378710437624951 -0.080847295208479567 0 -0.1505339489637976 -0.071241594575010836 0 -0.15378710437624951 -0.080847295208479567 0 -0.1505339489637976 -0.071241594575010836 0 -0.14484175030062379 -0.076272615915666975 0 -0.1505339489637976 -0.071241594575010836 0 -0.14484175030062379 -0.076272615915666975 0 -0.13936476829078159 -0.070974364640941562 0 -0.1505339489637976 -0.071241594575010836 0 -0.1427443006867804 -0.064181972965863782 0 -0.13936476829078159 -0.070974364640941562 0 -0.1505339489637976 -0.071241594575010836 0 -0.1427443006867804 -0.064181972965863782 0 -0.15042692994792781 -0.062134088172797891 0 -0.1360449612206619 -0.064363881564284048 0 -0.13936476829078159 -0.070974364640941562 0 -0.1291119775455111 -0.070903208105215415 0 -0.1427443006867804 -0.064181972965863782 0 -0.1360449612206619 -0.064363881564284048 0 -0.13936476829078159 -0.070974364640941562 0 -0.13936476829078159 -0.070974364640941562 0 -0.1291119775455111 -0.070903208105215415 0 -0.13642518396629211 -0.079171460318491094 0 -0.14484175030062379 -0.076272615915666975 0 -0.13936476829078159 -0.070974364640941562 0 -0.13642518396629211 -0.079171460318491094 0 -0.12348330458607849 -0.074281081908948166 0 -0.1291119775455111 -0.070903208105215415 0 -0.1274250413206478 -0.079273622385691966 0 -0.1291119775455111 -0.070903208105215415 0 -0.13642518396629211 -0.079171460318491094 0 -0.1274250413206478 -0.079273622385691966 0 -0.1209479878461024 -0.067268253131841177 0 -0.1291119775455111 -0.070903208105215415 0 -0.1282912522128381 -0.060413946548779622 0 -0.1360449612206619 -0.064363881564284048 0 -0.1291119775455111 -0.070903208105215415 0 -0.1282912522128381 -0.060413946548779622 0 -0.1387527050197781 -0.087984711421874945 0 -0.1325726218492036 -0.092653374139582495 0 -0.13748947160220151 -0.095846963256363604 0 -0.1434545483251061 -0.093516827148931905 0 -0.1387527050197781 -0.087984711421874945 0 -0.13748947160220151 -0.095846963256363604 0 -0.1387527050197781 -0.087984711421874945 0 -0.13063713950444841 -0.085990355748594052 0 -0.1325726218492036 -0.092653374139582495 0 -0.1387527050197781 -0.087984711421874945 0 -0.13642518396629211 -0.079171460318491094 0 -0.13063713950444841 -0.085990355748594052 0 -0.14493942908228749 -0.083277118516121199 0 -0.1387527050197781 -0.087984711421874945 0 -0.13642518396629211 -0.079171460318491094 0 -0.13642518396629211 -0.079171460318491094 0 -0.1274250413206478 -0.079273622385691966 0 -0.13063713950444841 -0.085990355748594052 0 -0.1242414856777138 -0.085970221122840987 0 -0.1274250413206478 -0.079273622385691966 0 -0.13063713950444841 -0.085990355748594052 0 -0.1242414856777138 -0.085970221122840987 0 -0.13063713950444841 -0.085990355748594052 0 -0.1277656628204358 -0.090517701297147229 0 -0.1232527796169428 -0.091780550957147128 0 -0.1242414856777138 -0.085970221122840987 0 -0.1277656628204358 -0.090517701297147229 0 -0.13063713950444841 -0.085990355748594052 0 -0.1325726218492036 -0.092653374139582495 0 -0.1277656628204358 -0.090517701297147229 0 -0.1325726218492036 -0.092653374139582495 0 -0.1277656628204358 -0.090517701297147229 0 -0.12760939696134641 -0.095408231323638099 0 -0.1232527796169428 -0.091780550957147128 0 -0.1277656628204358 -0.090517701297147229 0 -0.12760939696134641 -0.095408231323638099 0 -0.12210798138404701 -0.096649311949532052 0 -0.12760939696134641 -0.095408231323638099 0 -0.12706176868148189 -0.1004810418394689 0 -0.12760939696134641 -0.095408231323638099 0 -0.12706176868148189 -0.1004810418394689 0 -0.13303193236819619 -0.099638181451179836 0 -0.1325726218492036 -0.092653374139582495 0 -0.12760939696134641 -0.095408231323638099 0 -0.13303193236819619 -0.099638181451179836 0 -0.1325726218492036 -0.092653374139582495 0 -0.13303193236819619 -0.099638181451179836 0 -0.13748947160220151 -0.095846963256363604 0 -0.13303193236819619 -0.099638181451179836 0 -0.14020896565396879 -0.10078510059278591 0 -0.13748947160220151 -0.095846963256363604 0 -0.1434545483251061 -0.093516827148931905 0 -0.14020896565396879 -0.10078510059278591 0 -0.13748947160220151 -0.095846963256363604 0 -0.14020896565396879 -0.10078510059278591 0 -0.13242215440005001 -0.1057550336788768 0 -0.1448950149609648 -0.10749814859556529 0 -0.13303193236819619 -0.099638181451179836 0 -0.14020896565396879 -0.10078510059278591 0 -0.13242215440005001 -0.1057550336788768 0 -0.1239251154810906 -0.10490651537085779 0 -0.12706176868148189 -0.1004810418394689 0 -0.13242215440005001 -0.1057550336788768 0 -0.1249996317091196 -0.1103184121040176 0 -0.1239251154810906 -0.10490651537085779 0 -0.13242215440005001 -0.1057550336788768 0 -0.12706176868148189 -0.1004810418394689 0 -0.13303193236819619 -0.099638181451179836 0 -0.13242215440005001 -0.1057550336788768 0 -0.13231745003794201 -0.1161509371348044 0 -0.14368964208298879 -0.12404892209183629 0 -0.1448950149609648 -0.10749814859556529 0 -0.1249996317091196 -0.1103184121040176 0 -0.13242215440005001 -0.1057550336788768 0 -0.13231745003794201 -0.1161509371348044 0 -0.1249996317091196 -0.1103184121040176 0 -0.12437730402875161 -0.1171574127142449 0 -0.13231745003794201 -0.1161509371348044 0 -0.12437730402875161 -0.1171574127142449 0 -0.12872657756983999 -0.12565653950385669 0 -0.13231745003794201 -0.1161509371348044 0 -0.12872657756983999 -0.12565653950385669 0 -0.13231745003794201 -0.1161509371348044 0 -0.14368964208298879 -0.12404892209183629 0 -0.13242215440005001 -0.1057550336788768 0 -0.13231745003794201 -0.1161509371348044 0 -0.1448950149609648 -0.10749814859556529 0 -0.15675245623672571 -0.1115520556512694 0 -0.14368964208298879 -0.12404892209183629 0 -0.1448950149609648 -0.10749814859556529 0 -0.15571180621920669 -0.12566252811065501 0 -0.15675245623672571 -0.1115520556512694 0 -0.14368964208298879 -0.12404892209183629 0 -0.15379484700907259 -0.098979362254739023 0 -0.14688332082295569 -0.098452240607513591 0 -0.1448950149609648 -0.10749814859556529 0 -0.15675245623672571 -0.1115520556512694 0 -0.15379484700907259 -0.098979362254739023 0 -0.1448950149609648 -0.10749814859556529 0 -0.1512206021764114 -0.088844374270096921 0 -0.15379484700907259 -0.098979362254739023 0 -0.14688332082295569 -0.098452240607513591 0 -0.1434545483251061 -0.093516827148931905 0 -0.14020896565396879 -0.10078510059278591 0 -0.14688332082295569 -0.098452240607513591 0 -0.14020896565396879 -0.10078510059278591 0 -0.14688332082295569 -0.098452240607513591 0 -0.1448950149609648 -0.10749814859556529 0 -0.15090034545138981 -0.016668823347716941 0 -0.1299298254867722 -0.024571168630476699 0 -0.14210754219249561 -0.035953734696240441 0 -0.15090034545138981 -0.016668823347716941 0 -0.14210754219249561 -0.035953734696240441 0 -0.1562573676794998 -0.029780639626766969 0 -0.15090034545138981 -0.016668823347716941 0 -0.14210754219249561 -0.035953734696240441 0 -0.15090034545138981 -0.016668823347716941 0 -0.15969314871028401 0.0026160880008064958 0 -0.15090034545138981 -0.016668823347716941 0 -0.1347663824234358 -0.0086191370543814583 0 -0.15969314871028401 0.0026160880008064958 0 -0.1347663824234358 -0.0086191370543814583 0 -0.15969314871028401 0.0026160880008064958 0 -0.15090034545138981 -0.016668823347716941 0 -0.1347663824234358 -0.0086191370543814583 0 -0.1299298254867722 -0.024571168630476699 0 -0.12938523232112359 -0.048342410291037433 0 -0.14114794938251049 -0.055753944017139991 0 -0.14210754219249561 -0.035953734696240441 0 -0.12155058262699429 -0.035987982289753563 0 -0.1299298254867722 -0.024571168630476699 0 -0.14210754219249561 -0.035953734696240441 0 -0.12155058262699429 -0.035987982289753563 0 -0.12938523232112359 -0.048342410291037433 0 -0.14210754219249561 -0.035953734696240441 0 -0.1203928351808662 -0.05399645031333801 0 -0.1282912522128381 -0.060413946548779622 0 -0.12938523232112359 -0.048342410291037433 0 -0.1360449612206619 -0.064363881564284048 0 -0.1282912522128381 -0.060413946548779622 0 -0.14114794938251049 -0.055753944017139991 0 -0.1427443006867804 -0.064181972965863782 0 -0.1360449612206619 -0.064363881564284048 0 -0.14114794938251049 -0.055753944017139991 0 -0.1282912522128381 -0.060413946548779622 0 -0.12938523232112359 -0.048342410291037433 0 -0.14114794938251049 -0.055753944017139991 0 -0.14114794938251049 -0.055753944017139991 0 -0.1507620309183629 -0.050352720733863432 0 -0.14210754219249561 -0.035953734696240441 0 -0.14114794938251049 -0.055753944017139991 0 -0.1507620309183629 -0.050352720733863432 0 -0.15042692994792781 -0.062134088172797891 0 -0.1427443006867804 -0.064181972965863782 0 -0.14114794938251049 -0.055753944017139991 0 -0.15042692994792781 -0.062134088172797891 0 -0.1507620309183629 -0.050352720733863432 0 -0.15042692994792781 -0.062134088172797891 0 -0.1618506703912683 -0.055419140331591572 0 -0.1507620309183629 -0.050352720733863432 0 -0.14210754219249561 -0.035953734696240441 0 -0.1582770626776123 -0.042502696451547223 0 -0.14210754219249561 -0.035953734696240441 0 -0.1582770626776123 -0.042502696451547223 0 -0.1562573676794998 -0.029780639626766969 0 -0.1582770626776123 -0.042502696451547223 0 -0.16736693026218349 -0.035169665128056721 0 -0.1562573676794998 -0.029780639626766969 0 -0.1582770626776123 -0.042502696451547223 0 -0.16736693026218349 -0.035169665128056721 0 -0.17061364521192879 -0.046984943636185869 0 -0.16012025641927111 -0.066682056257770503 0 -0.15042692994792781 -0.062134088172797891 0 -0.1618506703912683 -0.055419140331591572 0 -0.1582770626776123 -0.042502696451547223 0 -0.1618506703912683 -0.055419140331591572 0 -0.17061364521192879 -0.046984943636185869 0 -0.1507620309183629 -0.050352720733863432 0 -0.1582770626776123 -0.042502696451547223 0 -0.1618506703912683 -0.055419140331591572 0 -0.16012025641927111 -0.066682056257770503 0 -0.1618506703912683 -0.055419140331591572 0 -0.17142609427428651 -0.061772722076740373 0 -0.1618506703912683 -0.055419140331591572 0 -0.17061364521192879 -0.046984943636185869 0 -0.17142609427428651 -0.061772722076740373 0 -0.18308401943524921 -0.063814395276864971 0 -0.17142609427428651 -0.061772722076740373 0 -0.1820419843150915 -0.052194629382000077 0 -0.17061364521192879 -0.046984943636185869 0 -0.17142609427428651 -0.061772722076740373 0 -0.1820419843150915 -0.052194629382000077 0 -0.18308401943524921 -0.063814395276864971 0 -0.1820419843150915 -0.052194629382000077 0 -0.19336859895872741 -0.058615845021254581 0 -0.16736693026218349 -0.035169665128056721 0 -0.17905774408019329 -0.039861977821885143 0 -0.17767580649444251 -0.028021023233833989 0 -0.16736693026218349 -0.035169665128056721 0 -0.17061364521192879 -0.046984943636185869 0 -0.17905774408019329 -0.039861977821885143 0 -0.17061364521192879 -0.046984943636185869 0 -0.1820419843150915 -0.052194629382000077 0 -0.17905774408019329 -0.039861977821885143 0 -0.17905774408019329 -0.039861977821885143 0 -0.18747564280913059 -0.032708067794628648 0 -0.1928745231838167 -0.044716762486668782 0 -0.1820419843150915 -0.052194629382000077 0 -0.17905774408019329 -0.039861977821885143 0 -0.1928745231838167 -0.044716762486668782 0 -0.17905774408019329 -0.039861977821885143 0 -0.18747564280913059 -0.032708067794628648 0 -0.17767580649444251 -0.028021023233833989 0 -0.18747564280913059 -0.032708067794628648 0 -0.17767580649444251 -0.028021023233833989 0 -0.188760880263137 -0.02134520527665186 0 -0.17667222613741079 -0.014721286073698971 0 -0.1859956172710481 -0.011531491416789609 0 -0.188760880263137 -0.02134520527665186 0 -0.17767580649444251 -0.028021023233833989 0 -0.17667222613741079 -0.014721286073698971 0 -0.188760880263137 -0.02134520527665186 0 -0.17767580649444251 -0.028021023233833989 0 -0.16616203733837279 -0.023480233387311741 0 -0.17667222613741079 -0.014721286073698971 0 -0.16736693026218349 -0.035169665128056721 0 -0.17767580649444251 -0.028021023233833989 0 -0.16616203733837279 -0.023480233387311741 0 -0.16616203733837279 -0.023480233387311741 0 -0.16487753028624311 -0.01168326833015639 0 -0.17667222613741079 -0.014721286073698971 0 -0.15090034545138981 -0.016668823347716941 0 -0.16616203733837279 -0.023480233387311741 0 -0.1562573676794998 -0.029780639626766969 0 -0.15090034545138981 -0.016668823347716941 0 -0.16616203733837279 -0.023480233387311741 0 -0.16487753028624311 -0.01168326833015639 0 -0.16736693026218349 -0.035169665128056721 0 -0.16616203733837279 -0.023480233387311741 0 -0.1562573676794998 -0.029780639626766969 0 -0.15090034545138981 -0.016668823347716941 0 -0.16487753028624311 -0.01168326833015639 0 -0.15969314871028401 0.0026160880008064958 0 -0.16487753028624311 -0.01168326833015639 0 -0.1711376540497144 -0.0013880640890970521 0 -0.17667222613741079 -0.014721286073698971 0 -0.16487753028624311 -0.01168326833015639 0 -0.1711376540497144 -0.0013880640890970521 0 -0.15969314871028401 0.0026160880008064958 0 -0.1711376540497144 -0.0013880640890970521 0 -0.18028927669704009 -0.0055694305511308833 0 -0.18265227592653671 1.922431750578952e-05 0 -0.1711376540497144 -0.0013880640890970521 0 -0.17667222613741079 -0.014721286073698971 0 -0.18028927669704009 -0.0055694305511308833 0 -0.17667222613741079 -0.014721286073698971 0 -0.1859956172710481 -0.011531491416789609 0 -0.18028927669704009 -0.0055694305511308833 0 -0.18028927669704009 -0.0055694305511308833 0 -0.18902608590152231 -0.0048034925554038023 0 -0.18265227592653671 1.922431750578952e-05 0 -0.1859956172710481 -0.011531491416789609 0 -0.18028927669704009 -0.0055694305511308833 0 -0.18902608590152231 -0.0048034925554038023 0 -0.18902608590152231 -0.0048034925554038023 0 -0.1966855937605469 -0.0054375105508502634 0 -0.19709117593895281 0.0020185164704496542 0 -0.18902608590152231 -0.0048034925554038023 0 -0.18265227592653671 1.922431750578952e-05 0 -0.19709117593895281 0.0020185164704496542 0 -0.18902608590152231 -0.0048034925554038023 0 -0.1966855937605469 -0.0054375105508502634 0 -0.19522961735613009 -0.0112180426270625 0 -0.1966855937605469 -0.0054375105508502634 0 -0.20539549584558259 -0.0077470234913844024 0 -0.19709117593895281 0.0020185164704496542 0 -0.1966855937605469 -0.0054375105508502634 0 -0.19522961735613009 -0.0112180426270625 0 -0.20539549584558259 -0.0077470234913844024 0 -0.19522961735613009 -0.0112180426270625 0 -0.20143019927670411 -0.01983344334867217 0 -0.20539549584558259 -0.0077470234913844024 0 -0.1859956172710481 -0.011531491416789609 0 -0.18902608590152231 -0.0048034925554038023 0 -0.19522961735613009 -0.0112180426270625 0 -0.1859956172710481 -0.011531491416789609 0 -0.19522961735613009 -0.0112180426270625 0 -0.188760880263137 -0.02134520527665186 0 -0.19522961735613009 -0.0112180426270625 0 -0.188760880263137 -0.02134520527665186 0 -0.20143019927670411 -0.01983344334867217 0 -0.18747564280913059 -0.032708067794628648 0 -0.188760880263137 -0.02134520527665186 0 -0.19835237448507659 -0.031356680257810167 0 -0.20143019927670411 -0.01983344334867217 0 -0.20864066401809581 -0.028909990048058401 0 -0.19835237448507659 -0.031356680257810167 0 -0.188760880263137 -0.02134520527665186 0 -0.20143019927670411 -0.01983344334867217 0 -0.19835237448507659 -0.031356680257810167 0 -0.20143019927670411 -0.01983344334867217 0 -0.20864066401809581 -0.028909990048058401 0 -0.2142741882263888 -0.017850301731811031 0 -0.20864066401809581 -0.028909990048058401 0 -0.2142741882263888 -0.017850301731811031 0 -0.2234515745161057 -0.033225442219049037 0 -0.2184651648324516 -0.0058015593718069407 0 -0.23139486210364779 -0.0049359056054505074 0 -0.2044898647592637 0.0028722525289364069 0 -0.2184651648324516 -0.0058015593718069407 0 -0.19709117593895281 0.0020185164704496542 0 -0.2044898647592637 0.0028722525289364069 0 -0.2184651648324516 -0.0058015593718069407 0 -0.20539549584558259 -0.0077470234913844024 0 -0.19709117593895281 0.0020185164704496542 0 -0.2184651648324516 -0.0058015593718069407 0 -0.19709117593895281 0.0020185164704496542 0 -0.23139486210364779 -0.0049359056054505074 0 -0.2044898647592637 0.0028722525289364069 0 -0.2142741882263888 -0.017850301731811031 0 -0.2184651648324516 -0.0058015593718069407 0 -0.20539549584558259 -0.0077470234913844024 0 -0.20143019927670411 -0.01983344334867217 0 -0.2142741882263888 -0.017850301731811031 0 -0.20539549584558259 -0.0077470234913844024 0 -0.20157254233762009 -0.061514367739799729 0 -0.19336859895872741 -0.058615845021254581 0 -0.20051597596111909 -0.053427367530259333 0 -0.1820419843150915 -0.052194629382000077 0 -0.19336859895872741 -0.058615845021254581 0 -0.1928745231838167 -0.044716762486668782 0 -0.19336859895872741 -0.058615845021254581 0 -0.20051597596111909 -0.053427367530259333 0 -0.1928745231838167 -0.044716762486668782 0 -0.20051597596111909 -0.053427367530259333 0 -0.1928745231838167 -0.044716762486668782 0 -0.2053686605766977 -0.042387354421233918 0 -0.1928745231838167 -0.044716762486668782 0 -0.19835237448507659 -0.031356680257810167 0 -0.2053686605766977 -0.042387354421233918 0 -0.18747564280913059 -0.032708067794628648 0 -0.1928745231838167 -0.044716762486668782 0 -0.19835237448507659 -0.031356680257810167 0 -0.2053686605766977 -0.042387354421233918 0 -0.21755863959755359 -0.054549947874594107 0 -0.2234515745161057 -0.033225442219049037 0 -0.20864066401809581 -0.028909990048058401 0 -0.2053686605766977 -0.042387354421233918 0 -0.2234515745161057 -0.033225442219049037 0 -0.20864066401809581 -0.028909990048058401 0 -0.19835237448507659 -0.031356680257810167 0 -0.2053686605766977 -0.042387354421233918 0 -0.2053686605766977 -0.042387354421233918 0 -0.21755863959755359 -0.054549947874594107 0 -0.2085171826278501 -0.059130903975686572 0 -0.20051597596111909 -0.053427367530259333 0 -0.2053686605766977 -0.042387354421233918 0 -0.2085171826278501 -0.059130903975686572 0 -0.2053686605766977 -0.042387354421233918 0 -0.2085171826278501 -0.059130903975686572 0 -0.20157254233762009 -0.061514367739799729 0 -0.20051597596111909 -0.053427367530259333 0 -0.2085171826278501 -0.059130903975686572 0 -0.22648985934470331 -0.058820683388514233 0 -0.2319712282252894 -0.049669483452186122 0 -0.23986334067550999 -0.062454063903286373 0 -0.22258161866300699 -0.065832428678576069 0 -0.21755863959755359 -0.054549947874594107 0 -0.22648985934470331 -0.058820683388514233 0 -0.21755863959755359 -0.054549947874594107 0 -0.22648985934470331 -0.058820683388514233 0 -0.2319712282252894 -0.049669483452186122 0 -0.21755863959755359 -0.054549947874594107 0 -0.2234515745161057 -0.033225442219049037 0 -0.2319712282252894 -0.049669483452186122 0 -0.2234515745161057 -0.033225442219049037 0 -0.23888334569762409 -0.037482399369074923 0 -0.21755863959755359 -0.054549947874594107 0 -0.2319712282252894 -0.049669483452186122 0 -0.2234515745161057 -0.033225442219049037 0 -0.2234515745161057 -0.033225442219049037 0 -0.23888334569762409 -0.037482399369074923 0 -0.23723616678984161 -0.02452249943547493 0 -0.2319712282252894 -0.049669483452186122 0 -0.23888334569762409 -0.037482399369074923 0 -0.24808446040289531 -0.048203887986131462 0 -0.23888334569762409 -0.037482399369074923 0 -0.2459062726126561 -0.030158810122296459 0 -0.25009143046900179 -0.038416179838352223 0 -0.23888334569762409 -0.037482399369074923 0 -0.24808446040289531 -0.048203887986131462 0 -0.25009143046900179 -0.038416179838352223 0 -0.2319712282252894 -0.049669483452186122 0 -0.24808446040289531 -0.048203887986131462 0 -0.23986334067550999 -0.062454063903286373 0 -0.24808446040289531 -0.048203887986131462 0 -0.23986334067550999 -0.062454063903286373 0 -0.25206909905032387 -0.059404341778679842 0 -0.2184651648324516 -0.0058015593718069407 0 -0.22934450943465781 -0.01190093656350401 0 -0.23983915372595041 -0.013621635214063531 0 -0.2184651648324516 -0.0058015593718069407 0 -0.23983915372595041 -0.013621635214063531 0 -0.2184651648324516 -0.0058015593718069407 0 -0.23139486210364779 -0.0049359056054505074 0 -0.23983915372595041 -0.013621635214063531 0 -0.2142741882263888 -0.017850301731811031 0 -0.2184651648324516 -0.0058015593718069407 0 -0.22934450943465781 -0.01190093656350401 0 -0.2142741882263888 -0.017850301731811031 0 -0.2234515745161057 -0.033225442219049037 0 -0.22934450943465781 -0.01190093656350401 0 -0.2234515745161057 -0.033225442219049037 0 -0.22934450943465781 -0.01190093656350401 0 -0.2234515745161057 -0.033225442219049037 0 -0.22934450943465781 -0.01190093656350401 0 -0.23723616678984161 -0.02452249943547493 0 -0.22934450943465781 -0.01190093656350401 0 -0.23723616678984161 -0.02452249943547493 0 -0.23983915372595041 -0.013621635214063531 0 -0.24707879934140031 -0.022495431246372651 0 -0.23983915372595041 -0.013621635214063531 0 -0.26121314261944922 -0.021441711056320131 0 -0.23723616678984161 -0.02452249943547493 0 -0.24707879934140031 -0.022495431246372651 0 -0.23983915372595041 -0.013621635214063531 0 -0.23888334569762409 -0.037482399369074923 0 -0.23723616678984161 -0.02452249943547493 0 -0.2459062726126561 -0.030158810122296459 0 -0.23723616678984161 -0.02452249943547493 0 -0.2459062726126561 -0.030158810122296459 0 -0.24707879934140031 -0.022495431246372651 0 -0.2459062726126561 -0.030158810122296459 0 -0.24707879934140031 -0.022495431246372651 0 -0.25337257013779302 -0.026231816646730251 0 -0.23139486210364779 -0.0049359056054505074 0 -0.25829985944803191 -0.01274406373983742 0 -0.23139486210364779 -0.0049359056054505074 0 -0.23983915372595041 -0.013621635214063531 0 -0.25829985944803191 -0.01274406373983742 0 -0.23139486210364779 -0.0049359056054505074 0 -0.24804227674092971 -0.00031708200868342171 0 -0.25829985944803191 -0.01274406373983742 0 -0.24804227674092971 -0.00031708200868342171 0 -0.25829985944803191 -0.01274406373983742 0 -0.25953781208095539 -0.0020107338640790451 0 -0.25953781208095539 -0.0020107338640790451 0 -0.26614310066784319 -0.0050272043182092458 0 -0.26759804820177369 0.002971281458658047 0 -0.25829985944803191 -0.01274406373983742 0 -0.25953781208095539 -0.0020107338640790451 0 -0.26614310066784319 -0.0050272043182092458 0 -0.23983915372595041 -0.013621635214063531 0 -0.25829985944803191 -0.01274406373983742 0 -0.26121314261944922 -0.021441711056320131 0 -0.23983915372595041 -0.013621635214063531 0 -0.26121314261944922 -0.021441711056320131 0 -0.25337257013779302 -0.026231816646730251 0 -0.26121314261944922 -0.021441711056320131 0 -0.25786939435945 -0.033477586838514907 0 -0.2459062726126561 -0.030158810122296459 0 -0.25337257013779302 -0.026231816646730251 0 -0.25786939435945 -0.033477586838514907 0 -0.24707879934140031 -0.022495431246372651 0 -0.25337257013779302 -0.026231816646730251 0 -0.26121314261944922 -0.021441711056320131 0 -0.26121314261944922 -0.021441711056320131 0 -0.26950962833213821 -0.033046459883662643 0 -0.25786939435945 -0.033477586838514907 0 -0.25829985944803191 -0.01274406373983742 0 -0.28520485679241581 -0.020552221874224289 0 -0.26121314261944922 -0.021441711056320131 0 -0.28520485679241581 -0.020552221874224289 0 -0.26950962833213821 -0.033046459883662643 0 -0.25829985944803191 -0.01274406373983742 0 -0.26121314261944922 -0.021441711056320131 0 -0.28520485679241581 -0.020552221874224289 0 -0.25829985944803191 -0.01274406373983742 0 -0.26614310066784319 -0.0050272043182092458 0 -0.27741585206503488 -0.0070968897521936254 0 -0.25829985944803191 -0.01274406373983742 0 -0.27741585206503488 -0.0070968897521936254 0 -0.28520485679241581 -0.020552221874224289 0 -0.26614310066784319 -0.0050272043182092458 0 -0.27741585206503488 -0.0070968897521936254 0 -0.26759804820177369 0.002971281458658047 0 -0.27741585206503488 -0.0070968897521936254 0 -0.29044537269527321 -0.0004936292284561238 0 -0.28520485679241581 -0.020552221874224289 0 -0.27741585206503488 -0.0070968897521936254 0 -0.29044537269527321 -0.0004936292284561238 0 -0.27879710030283722 0.0061185958209352574 0 -0.29044537269527321 -0.0004936292284561238 0 -0.28520485679241581 -0.020552221874224289 0 -0.30681683022732759 -0.0079804318099269255 0 -0.28520485679241581 -0.020552221874224289 0 -0.31210985413679981 -0.028360380008611338 0 -0.29317711790457063 -0.044756334117594443 0 -0.28520485679241581 -0.020552221874224289 0 -0.31210985413679981 -0.028360380008611338 0 -0.30681683022732759 -0.0079804318099269255 0 -0.28520485679241581 -0.020552221874224289 0 -0.31210985413679981 -0.028360380008611338 0 -0.29830831266693802 -0.061371783732528717 0 -0.29317711790457063 -0.044756334117594443 0 -0.31380382668592399 -0.054995286025037303 0 -0.29317711790457063 -0.044756334117594443 0 -0.31768658438130309 -0.041752363479164403 0 -0.31380382668592399 -0.054995286025037303 0 -0.29830831266693802 -0.061371783732528717 0 -0.30845557212800068 -0.070725127735024401 0 -0.31380382668592399 -0.054995286025037303 0 -0.31210985413679981 -0.028360380008611338 0 -0.29317711790457063 -0.044756334117594443 0 -0.31210985413679981 -0.028360380008611338 0 -0.29317711790457063 -0.044756334117594443 0 -0.31768658438130309 -0.041752363479164403 0 -0.28520485679241581 -0.020552221874224289 0 -0.29317711790457063 -0.044756334117594443 0 -0.27994329975758342 -0.042319237262650772 0 -0.29830831266693802 -0.061371783732528717 0 -0.29317711790457063 -0.044756334117594443 0 -0.28699408600739168 -0.058786015275906371 0 -0.29317711790457063 -0.044756334117594443 0 -0.27424438167234111 -0.06115228822657752 0 -0.27994329975758342 -0.042319237262650772 0 -0.29317711790457063 -0.044756334117594443 0 -0.28699408600739168 -0.058786015275906371 0 -0.27424438167234111 -0.06115228822657752 0 -0.29317711790457063 -0.044756334117594443 0 -0.27424438167234111 -0.06115228822657752 0 -0.28699408600739168 -0.058786015275906371 0 -0.27424438167234111 -0.06115228822657752 0 -0.27878741760074771 -0.063467291158434566 0 -0.27424438167234111 -0.06115228822657752 0 -0.27161683888876759 -0.050025139282008517 0 -0.27994329975758342 -0.042319237262650772 0 -0.27161683888876759 -0.050025139282008517 0 -0.26812342377572318 -0.057252674673328667 0 -0.26521190069063161 -0.047610196533115198 0 -0.27424438167234111 -0.06115228822657752 0 -0.27161683888876759 -0.050025139282008517 0 -0.26812342377572318 -0.057252674673328667 0 -0.27424438167234111 -0.06115228822657752 0 -0.26812342377572318 -0.057252674673328667 0 -0.26440169541208902 -0.067232707617329746 0 -0.28520485679241581 -0.020552221874224289 0 -0.27994329975758342 -0.042319237262650772 0 -0.26950962833213821 -0.033046459883662643 0 -0.27161683888876759 -0.050025139282008517 0 -0.27994329975758342 -0.042319237262650772 0 -0.26943952436448299 -0.04166320768824297 0 -0.26943952436448299 -0.04166320768824297 0 -0.26322563280695149 -0.039346575013622292 0 -0.26521190069063161 -0.047610196533115198 0 -0.27161683888876759 -0.050025139282008517 0 -0.26943952436448299 -0.04166320768824297 0 -0.26521190069063161 -0.047610196533115198 0 -0.26943952436448299 -0.04166320768824297 0 -0.26950962833213821 -0.033046459883662643 0 -0.26322563280695149 -0.039346575013622292 0 -0.27994329975758342 -0.042319237262650772 0 -0.26943952436448299 -0.04166320768824297 0 -0.26950962833213821 -0.033046459883662643 0 -0.26950962833213821 -0.033046459883662643 0 -0.25786939435945 -0.033477586838514907 0 -0.26322563280695149 -0.039346575013622292 0 -0.25786939435945 -0.033477586838514907 0 -0.26322563280695149 -0.039346575013622292 0 -0.25795661026931588 -0.044205671914607267 0 -0.26322563280695149 -0.039346575013622292 0 -0.25795661026931588 -0.044205671914607267 0 -0.26521190069063161 -0.047610196533115198 0 -0.24808446040289531 -0.048203887986131462 0 -0.25795661026931588 -0.044205671914607267 0 -0.25009143046900179 -0.038416179838352223 0 -0.2459062726126561 -0.030158810122296459 0 -0.25786939435945 -0.033477586838514907 0 -0.25009143046900179 -0.038416179838352223 0 -0.25786939435945 -0.033477586838514907 0 -0.25795661026931588 -0.044205671914607267 0 -0.25009143046900179 -0.038416179838352223 0 -0.26171331028464428 -0.053849212249804761 0 -0.25206909905032387 -0.059404341778679842 0 -0.26440169541208902 -0.067232707617329746 0 -0.26812342377572318 -0.057252674673328667 0 -0.26171331028464428 -0.053849212249804761 0 -0.26440169541208902 -0.067232707617329746 0 -0.25795661026931588 -0.044205671914607267 0 -0.26171331028464428 -0.053849212249804761 0 -0.25495587000179482 -0.051415778482305829 0 -0.26812342377572318 -0.057252674673328667 0 -0.26171331028464428 -0.053849212249804761 0 -0.26521190069063161 -0.047610196533115198 0 -0.25795661026931588 -0.044205671914607267 0 -0.26171331028464428 -0.053849212249804761 0 -0.26521190069063161 -0.047610196533115198 0 -0.24808446040289531 -0.048203887986131462 0 -0.25795661026931588 -0.044205671914607267 0 -0.25495587000179482 -0.051415778482305829 0 -0.24808446040289531 -0.048203887986131462 0 -0.25495587000179482 -0.051415778482305829 0 -0.25206909905032387 -0.059404341778679842 0 -0.26171331028464428 -0.053849212249804761 0 -0.25495587000179482 -0.051415778482305829 0 -0.25206909905032387 -0.059404341778679842 0 -0.25206909905032387 -0.059404341778679842 0 -0.26440169541208902 -0.067232707617329746 0 -0.25036632481932708 -0.070946818256236305 0 -0.26440169541208902 -0.067232707617329746 0 -0.25036632481932708 -0.070946818256236305 0 -0.25805232596233257 -0.086055080061886946 0 -0.26440169541208902 -0.067232707617329746 0 -0.25805232596233257 -0.086055080061886946 0 -0.27314029231783199 -0.085306177910418376 0 -0.25805232596233257 -0.086055080061886946 0 -0.27314029231783199 -0.085306177910418376 0 -0.26749316703491621 -0.1071450646624021 0 -0.26440169541208902 -0.067232707617329746 0 -0.27314029231783199 -0.085306177910418376 0 -0.27878741760074771 -0.063467291158434566 0 -0.27314029231783199 -0.085306177910418376 0 -0.27878741760074771 -0.063467291158434566 0 -0.28772275290515442 -0.070771125947016289 0 -0.27314029231783199 -0.085306177910418376 0 -0.27878741760074771 -0.063467291158434566 0 -0.27424438167234111 -0.06115228822657752 0 -0.26440169541208902 -0.067232707617329746 0 -0.27878741760074771 -0.063467291158434566 0 -0.26323909722222738 -0.1235966474093637 0 -0.26749316703491621 -0.1071450646624021 0 -0.26323909722222738 -0.1235966474093637 0 -0.25158081910917091 -0.1161265066150594 0 -0.26749316703491621 -0.1071450646624021 0 -0.26323909722222738 -0.1235966474093637 0 -0.25158081910917091 -0.1161265066150594 0 -0.2535096958820014 -0.12926038938568929 0 -0.24917697453230511 -0.098279470442215633 0 -0.25805232596233257 -0.086055080061886946 0 -0.26749316703491621 -0.1071450646624021 0 -0.24917697453230511 -0.098279470442215633 0 -0.26749316703491621 -0.1071450646624021 0 -0.24917697453230511 -0.098279470442215633 0 -0.25158081910917091 -0.1161265066150594 0 -0.26749316703491621 -0.1071450646624021 0 -0.27314029231783199 -0.085306177910418376 0 -0.26749316703491621 -0.1071450646624021 0 -0.28485854003624478 -0.099044181545316301 0 -0.27314029231783199 -0.085306177910418376 0 -0.26749316703491621 -0.1071450646624021 0 -0.26749316703491621 -0.1071450646624021 0 -0.28252947826038233 -0.1144230965936805 0 -0.28485854003624478 -0.099044181545316301 0 -0.26323909722222738 -0.1235966474093637 0 -0.26749316703491621 -0.1071450646624021 0 -0.27207181313961121 -0.1178010595920435 0 -0.26749316703491621 -0.1071450646624021 0 -0.27207181313961121 -0.1178010595920435 0 -0.28252947826038233 -0.1144230965936805 0 -0.26749316703491621 -0.1071450646624021 0 -0.28252947826038233 -0.1144230965936805 0 -0.28252947826038233 -0.1144230965936805 0 -0.27502551004091891 -0.12603942970272769 0 -0.28470819890308541 -0.12700026088490229 0 -0.27207181313961121 -0.1178010595920435 0 -0.28252947826038233 -0.1144230965936805 0 -0.27502551004091891 -0.12603942970272769 0 -0.26323909722222738 -0.1235966474093637 0 -0.27207181313961121 -0.1178010595920435 0 -0.27502551004091891 -0.12603942970272769 0 -0.28252947826038233 -0.1144230965936805 0 -0.29756578948584872 -0.12170112852495819 0 -0.28252947826038233 -0.1144230965936805 0 -0.29756578948584872 -0.12170112852495819 0 -0.28470819890308541 -0.12700026088490229 0 -0.28252947826038233 -0.1144230965936805 0 -0.29742151491954433 -0.1079672890533717 0 -0.29756578948584872 -0.12170112852495819 0 -0.28252947826038233 -0.1144230965936805 0 -0.28485854003624478 -0.099044181545316301 0 -0.29742151491954433 -0.1079672890533717 0 -0.28485854003624478 -0.099044181545316301 0 -0.29798144252554543 -0.095462889988634919 0 -0.29742151491954433 -0.1079672890533717 0 -0.29798144252554543 -0.095462889988634919 0 -0.31094463136875072 -0.10136127808961801 0 -0.31362325109836792 -0.090715866226103559 0 -0.31094463136875072 -0.10136127808961801 0 -0.29742151491954433 -0.1079672890533717 0 -0.31229368991014889 -0.11529751146119641 0 -0.29798144252554543 -0.095462889988634919 0 -0.31094463136875072 -0.10136127808961801 0 -0.29742151491954433 -0.1079672890533717 0 -0.31229368991014889 -0.11529751146119641 0 -0.29756578948584872 -0.12170112852495819 0 -0.29307334394473877 -0.13547855534261249 0 -0.29742151491954433 -0.1079672890533717 0 -0.31229368991014889 -0.11529751146119641 0 -0.29756578948584872 -0.12170112852495819 0 -0.28772275290515442 -0.070771125947016289 0 -0.29058534515924872 -0.083960571063390124 0 -0.29808966605176118 -0.07318628496537366 0 -0.29830831266693802 -0.061371783732528717 0 -0.28772275290515442 -0.070771125947016289 0 -0.29808966605176118 -0.07318628496537366 0 -0.29830831266693802 -0.061371783732528717 0 -0.28699408600739168 -0.058786015275906371 0 -0.28772275290515442 -0.070771125947016289 0 -0.28699408600739168 -0.058786015275906371 0 -0.27878741760074771 -0.063467291158434566 0 -0.28772275290515442 -0.070771125947016289 0 -0.27314029231783199 -0.085306177910418376 0 -0.28772275290515442 -0.070771125947016289 0 -0.29058534515924872 -0.083960571063390124 0 -0.27314029231783199 -0.085306177910418376 0 -0.28485854003624478 -0.099044181545316301 0 -0.29058534515924872 -0.083960571063390124 0 -0.28485854003624478 -0.099044181545316301 0 -0.29798144252554543 -0.095462889988634919 0 -0.29058534515924872 -0.083960571063390124 0 -0.29058534515924872 -0.083960571063390124 0 -0.30451355214544928 -0.082005553196816849 0 -0.29808966605176118 -0.07318628496537366 0 -0.29798144252554543 -0.095462889988634919 0 -0.30451355214544928 -0.082005553196816849 0 -0.31362325109836792 -0.090715866226103559 0 -0.29798144252554543 -0.095462889988634919 0 -0.29058534515924872 -0.083960571063390124 0 -0.30451355214544928 -0.082005553196816849 0 -0.30451355214544928 -0.082005553196816849 0 -0.31791463828276428 -0.079433947626328494 0 -0.31362325109836792 -0.090715866226103559 0 -0.30451355214544928 -0.082005553196816849 0 -0.30845557212800068 -0.070725127735024401 0 -0.31791463828276428 -0.079433947626328494 0 -0.30451355214544928 -0.082005553196816849 0 -0.30845557212800068 -0.070725127735024401 0 -0.29808966605176118 -0.07318628496537366 0 -0.29830831266693802 -0.061371783732528717 0 -0.30845557212800068 -0.070725127735024401 0 -0.29808966605176118 -0.07318628496537366 0 -0.30845557212800068 -0.070725127735024401 0 -0.32073799771075778 -0.066965930335769558 0 -0.31380382668592399 -0.054995286025037303 0 -0.32073799771075778 -0.066965930335769558 0 -0.31791463828276428 -0.079433947626328494 0 -0.33116856325250749 -0.075021476050646685 0 -0.30845557212800068 -0.070725127735024401 0 -0.32073799771075778 -0.066965930335769558 0 -0.31791463828276428 -0.079433947626328494 0 -0.31791463828276428 -0.079433947626328494 0 -0.33116856325250749 -0.075021476050646685 0 -0.33151403587555911 -0.095116467579780262 0 -0.31791463828276428 -0.079433947626328494 0 -0.31362325109836792 -0.090715866226103559 0 -0.33151403587555911 -0.095116467579780262 0 -0.33151403587555911 -0.095116467579780262 0 -0.34870206020766942 -0.098451640004875635 0 -0.34788251414777438 -0.08233293572668253 0 -0.33116856325250749 -0.075021476050646685 0 -0.33151403587555911 -0.095116467579780262 0 -0.34788251414777438 -0.08233293572668253 0 -0.33116856325250749 -0.075021476050646685 0 -0.34484230094385732 -0.06886081458395385 0 -0.33502619368418418 -0.056241543438902579 0 -0.32073799771075778 -0.066965930335769558 0 -0.33116856325250749 -0.075021476050646685 0 -0.33502619368418418 -0.056241543438902579 0 -0.33116856325250749 -0.075021476050646685 0 -0.34484230094385732 -0.06886081458395385 0 -0.34788251414777438 -0.08233293572668253 0 -0.31229368991014889 -0.11529751146119641 0 -0.33397747800908262 -0.1113077957129293 0 -0.32443224486335542 -0.1375645952135362 0 -0.31229368991014889 -0.11529751146119641 0 -0.33151403587555911 -0.095116467579780262 0 -0.31094463136875072 -0.10136127808961801 0 -0.31229368991014889 -0.11529751146119641 0 -0.33151403587555911 -0.095116467579780262 0 -0.31229368991014889 -0.11529751146119641 0 -0.33151403587555911 -0.095116467579780262 0 -0.33397747800908262 -0.1113077957129293 0 -0.31094463136875072 -0.10136127808961801 0 -0.31362325109836792 -0.090715866226103559 0 -0.33151403587555911 -0.095116467579780262 0 -0.33151403587555911 -0.095116467579780262 0 -0.33397747800908262 -0.1113077957129293 0 -0.34870206020766942 -0.098451640004875635 0 -0.33397747800908262 -0.1113077957129293 0 -0.35078796636534021 -0.1135897571610431 0 -0.34228780395322539 -0.13061591495175459 0 -0.33397747800908262 -0.1113077957129293 0 -0.32443224486335542 -0.1375645952135362 0 -0.35078796636534021 -0.1135897571610431 0 -0.34228780395322539 -0.13061591495175459 0 -0.36161142950844288 -0.12515988463917799 0 -0.35078796636534021 -0.1135897571610431 0 -0.34870206020766942 -0.098451640004875635 0 -0.36736106014828029 -0.10241355049647791 0 -0.33397747800908262 -0.1113077957129293 0 -0.35078796636534021 -0.1135897571610431 0 -0.34870206020766942 -0.098451640004875635 0 -0.34870206020766942 -0.098451640004875635 0 -0.36736106014828029 -0.10241355049647791 0 -0.36216482185615662 -0.085670991061400373 0 -0.36736106014828029 -0.10241355049647791 0 -0.36161142950844288 -0.12515988463917799 0 -0.37916404471623671 -0.1184823420087618 0 -0.35078796636534021 -0.1135897571610431 0 -0.36736106014828029 -0.10241355049647791 0 -0.36161142950844288 -0.12515988463917799 0 -0.34484230094385732 -0.06886081458395385 0 -0.36347043810030338 -0.070558683556003976 0 -0.35326811559987631 -0.059089272821842877 0 -0.34484230094385732 -0.06886081458395385 0 -0.34788251414777438 -0.08233293572668253 0 -0.36347043810030338 -0.070558683556003976 0 -0.34870206020766942 -0.098451640004875635 0 -0.34788251414777438 -0.08233293572668253 0 -0.36216482185615662 -0.085670991061400373 0 -0.34788251414777438 -0.08233293572668253 0 -0.36216482185615662 -0.085670991061400373 0 -0.36347043810030338 -0.070558683556003976 0 -0.36736106014828029 -0.10241355049647791 0 -0.36216482185615662 -0.085670991061400373 0 -0.37847506502252598 -0.083164668799446159 0 -0.36216482185615662 -0.085670991061400373 0 -0.36347043810030338 -0.070558683556003976 0 -0.37847506502252598 -0.083164668799446159 0 -0.36347043810030338 -0.070558683556003976 0 -0.36802622345098462 -0.057496424605880829 0 -0.37942262488152467 -0.06705025033207844 0 -0.36347043810030338 -0.070558683556003976 0 -0.37942262488152467 -0.06705025033207844 0 -0.37847506502252598 -0.083164668799446159 0 -0.36802622345098462 -0.057496424605880829 0 -0.35326811559987631 -0.059089272821842877 0 -0.35827758185273118 -0.041758817261627848 0 -0.36802622345098462 -0.057496424605880829 0 -0.35827758185273118 -0.041758817261627848 0 -0.38662206548218231 -0.049984731859701238 0 -0.36347043810030338 -0.070558683556003976 0 -0.36802622345098462 -0.057496424605880829 0 -0.35326811559987631 -0.059089272821842877 0 -0.35326811559987631 -0.059089272821842877 0 -0.35827758185273118 -0.041758817261627848 0 -0.33502619368418418 -0.056241543438902579 0 -0.34484230094385732 -0.06886081458395385 0 -0.35326811559987631 -0.059089272821842877 0 -0.33502619368418418 -0.056241543438902579 0 -0.35827758185273118 -0.041758817261627848 0 -0.35238538071992093 -0.029135427520006672 0 -0.32993309822328021 -0.033532902663554298 0 -0.35827758185273118 -0.041758817261627848 0 -0.32993309822328021 -0.033532902663554298 0 -0.35827758185273118 -0.041758817261627848 0 -0.36333499061955632 -0.0326015067031835 0 -0.35238538071992093 -0.029135427520006672 0 -0.35827758185273118 -0.041758817261627848 0 -0.36333499061955632 -0.0326015067031835 0 -0.37634413670845102 -0.037599745208359382 0 -0.35827758185273118 -0.041758817261627848 0 -0.38662206548218231 -0.049984731859701238 0 -0.35827758185273118 -0.041758817261627848 0 -0.37634413670845102 -0.037599745208359382 0 -0.38662206548218231 -0.049984731859701238 0 -0.3652365351132088 -0.02231472641792295 0 -0.36649899415509363 -0.01742233054803833 0 -0.37634413670845102 -0.037599745208359382 0 -0.36649899415509363 -0.01742233054803833 0 -0.37634413670845102 -0.037599745208359382 0 -0.36649899415509363 -0.01742233054803833 0 -0.38012587732132941 -0.025420808446996752 0 -0.37634413670845102 -0.037599745208359382 0 -0.36333499061955632 -0.0326015067031835 0 -0.3652365351132088 -0.02231472641792295 0 -0.37634413670845102 -0.037599745208359382 0 -0.3652365351132088 -0.02231472641792295 0 -0.36649899415509363 -0.01742233054803833 0 -0.36649899415509363 -0.01742233054803833 0 -0.36134301914955858 -0.018578872815818728 0 -0.35637290237077968 -0.01159965091052784 0 -0.3652365351132088 -0.02231472641792295 0 -0.36649899415509363 -0.01742233054803833 0 -0.36134301914955858 -0.018578872815818728 0 -0.3652365351132088 -0.02231472641792295 0 -0.36134301914955858 -0.018578872815818728 0 -0.35881091859190067 -0.023493030246035239 0 -0.36333499061955632 -0.0326015067031835 0 -0.3652365351132088 -0.02231472641792295 0 -0.35881091859190067 -0.023493030246035239 0 -0.36649899415509363 -0.01742233054803833 0 -0.35653611893116932 0.0029963747691135359 0 -0.36649899415509363 -0.01742233054803833 0 -0.37358375636666019 0.010033183043397309 0 -0.36649899415509363 -0.01742233054803833 0 -0.37903097770980249 -0.0054786151453708708 0 -0.37358375636666019 0.010033183043397309 0 -0.36649899415509363 -0.01742233054803833 0 -0.35653611893116932 0.0029963747691135359 0 -0.37358375636666019 0.010033183043397309 0 -0.36649899415509363 -0.01742233054803833 0 -0.35637290237077968 -0.01159965091052784 0 -0.35653611893116932 0.0029963747691135359 0 -0.35637290237077968 -0.01159965091052784 0 -0.35188222252052193 -0.017625044169304872 0 -0.34333134315565561 -0.001322233230025182 0 -0.35188222252052193 -0.017625044169304872 0 -0.34071899209012529 -0.019578497085613138 0 -0.34333134315565561 -0.001322233230025182 0 -0.35637290237077968 -0.01159965091052784 0 -0.34333134315565561 -0.001322233230025182 0 -0.35653611893116932 0.0029963747691135359 0 -0.35637290237077968 -0.01159965091052784 0 -0.3574956871085489 -0.017226972981617631 0 -0.35188222252052193 -0.017625044169304872 0 -0.36333499061955632 -0.0326015067031835 0 -0.35238538071992093 -0.029135427520006672 0 -0.35881091859190067 -0.023493030246035239 0 -0.35238538071992093 -0.029135427520006672 0 -0.35881091859190067 -0.023493030246035239 0 -0.35188222252052193 -0.017625044169304872 0 -0.36134301914955858 -0.018578872815818728 0 -0.35881091859190067 -0.023493030246035239 0 -0.3574956871085489 -0.017226972981617631 0 -0.36134301914955858 -0.018578872815818728 0 -0.35637290237077968 -0.01159965091052784 0 -0.3574956871085489 -0.017226972981617631 0 -0.35881091859190067 -0.023493030246035239 0 -0.3574956871085489 -0.017226972981617631 0 -0.35188222252052193 -0.017625044169304872 0 -0.35238538071992093 -0.029135427520006672 0 -0.35188222252052193 -0.017625044169304872 0 -0.34071899209012529 -0.019578497085613138 0 -0.34071899209012529 -0.019578497085613138 0 -0.32606291583124719 -0.016276877845174901 0 -0.32993309822328021 -0.033532902663554298 0 -0.35238538071992093 -0.029135427520006672 0 -0.34071899209012529 -0.019578497085613138 0 -0.32993309822328021 -0.033532902663554298 0 -0.34333134315565561 -0.001322233230025182 0 -0.32606291583124719 -0.016276877845174901 0 -0.34333134315565561 -0.001322233230025182 0 -0.32606291583124719 -0.016276877845174901 0 -0.32081930115796109 0.0071028845987215622 0 -0.34071899209012529 -0.019578497085613138 0 -0.34333134315565561 -0.001322233230025182 0 -0.32606291583124719 -0.016276877845174901 0 -0.30681683022732759 -0.0079804318099269255 0 -0.32606291583124719 -0.016276877845174901 0 -0.32081930115796109 0.0071028845987215622 0 -0.32606291583124719 -0.016276877845174901 0 -0.32081930115796109 0.0071028845987215622 0 -0.31210985413679981 -0.028360380008611338 0 -0.32606291583124719 -0.016276877845174901 0 -0.32993309822328021 -0.033532902663554298 0 -0.32606291583124719 -0.016276877845174901 0 -0.32993309822328021 -0.033532902663554298 0 -0.31210985413679981 -0.028360380008611338 0 -0.30681683022732759 -0.0079804318099269255 0 -0.32606291583124719 -0.016276877845174901 0 -0.31210985413679981 -0.028360380008611338 0 -0.32993309822328021 -0.033532902663554298 0 -0.31210985413679981 -0.028360380008611338 0 -0.32606291583124719 -0.016276877845174901 0 -0.31768658438130309 -0.041752363479164403 0 -0.33502619368418418 -0.056241543438902579 0 -0.32993309822328021 -0.033532902663554298 0 -0.31210985413679981 -0.028360380008611338 0 -0.31768658438130309 -0.041752363479164403 0 -0.32993309822328021 -0.033532902663554298 0 -0.31768658438130309 -0.041752363479164403 0 -0.31380382668592399 -0.054995286025037303 0 -0.33502619368418418 -0.056241543438902579 0 -0.32073799771075778 -0.066965930335769558 0 -0.31380382668592399 -0.054995286025037303 0 -0.33502619368418418 -0.056241543438902579 0 -0.35827758185273118 -0.041758817261627848 0 -0.33502619368418418 -0.056241543438902579 0 -0.32993309822328021 -0.033532902663554298 0 -0.33502619368418418 -0.056241543438902579 0 -0.32993309822328021 -0.033532902663554298 0 -0.30104833582341312 -0.2531585029490166 0 -0.29736026340746802 -0.2409492657373718 0 -0.31119823653221867 -0.2487251291273504 0 -0.29736026340746802 -0.2409492657373718 0 -0.31119823653221867 -0.2487251291273504 0 -0.31045133211681047 -0.23478025696940019 0 -0.29736026340746802 -0.2409492657373718 0 -0.31045133211681047 -0.23478025696940019 0 -0.30088890444773431 -0.21923430536152011 0 -0.29736026340746802 -0.2409492657373718 0 -0.30088890444773431 -0.21923430536152011 0 -0.31045133211681047 -0.23478025696940019 0 -0.30088890444773431 -0.21923430536152011 0 -0.32109557317377829 -0.22558967697981649 0 -0.28792340373558323 -0.22258593991885711 0 -0.28591666447659481 -0.24434983848872399 0 -0.27860684507410233 -0.2327013719943703 0 -0.30088890444773431 -0.21923430536152011 0 -0.28792340373558323 -0.22258593991885711 0 -0.28591666447659481 -0.24434983848872399 0 -0.30088890444773431 -0.21923430536152011 0 -0.28591666447659481 -0.24434983848872399 0 -0.29383162236720062 -0.26266422611322338 0 -0.29736026340746802 -0.2409492657373718 0 -0.28591666447659481 -0.24434983848872399 0 -0.29736026340746802 -0.2409492657373718 0 -0.30088890444773431 -0.21923430536152011 0 -0.28591666447659481 -0.24434983848872399 0 -0.28591666447659481 -0.24434983848872399 0 -0.25917426252380321 -0.24950027074751899 0 -0.27860684507410233 -0.2327013719943703 0 -0.25917426252380321 -0.24950027074751899 0 -0.27860684507410233 -0.2327013719943703 0 -0.26864172325915547 -0.2232242111019718 0 -0.24086100655331991 -0.2426135927544267 0 -0.25917426252380321 -0.24950027074751899 0 -0.25139261250481881 -0.2292467695384228 0 -0.25917426252380321 -0.24950027074751899 0 -0.26864172325915547 -0.2232242111019718 0 -0.25917426252380321 -0.24950027074751899 0 -0.25139261250481881 -0.2292467695384228 0 -0.26864172325915547 -0.2232242111019718 0 -0.25139261250481881 -0.2292467695384228 0 -0.26864172325915547 -0.2232242111019718 0 -0.25908726639120461 -0.21766276636337031 0 -0.2478153528869568 -0.21168785482111879 0 -0.25139261250481881 -0.2292467695384228 0 -0.25908726639120461 -0.21766276636337031 0 -0.28792340373558323 -0.22258593991885711 0 -0.27860684507410233 -0.2327013719943703 0 -0.26864172325915547 -0.2232242111019718 0 -0.28792340373558323 -0.22258593991885711 0 -0.26849937691388731 -0.20649222999196801 0 -0.28792340373558323 -0.22258593991885711 0 -0.26864172325915547 -0.2232242111019718 0 -0.26849937691388731 -0.20649222999196801 0 -0.26849937691388731 -0.20649222999196801 0 -0.27678558148807242 -0.19838294359870839 0 -0.2842401991633009 -0.207262717659422 0 -0.28792340373558323 -0.22258593991885711 0 -0.26849937691388731 -0.20649222999196801 0 -0.2842401991633009 -0.207262717659422 0 -0.2478153528869568 -0.21168785482111879 0 -0.26849937691388731 -0.20649222999196801 0 -0.25908726639120461 -0.21766276636337031 0 -0.26864172325915547 -0.2232242111019718 0 -0.26849937691388731 -0.20649222999196801 0 -0.25908726639120461 -0.21766276636337031 0 -0.24907535009219139 -0.19039852006507901 0 -0.2478153528869568 -0.21168785482111879 0 -0.26849937691388731 -0.20649222999196801 0 -0.24907535009219139 -0.19039852006507901 0 -0.26849937691388731 -0.20649222999196801 0 -0.2657504713300915 -0.19149893526027581 0 -0.24907535009219139 -0.19039852006507901 0 -0.26849937691388731 -0.20649222999196801 0 -0.2657504713300915 -0.19149893526027581 0 -0.28554612495099629 -0.19078856473751329 0 -0.2657504713300915 -0.19149893526027581 0 -0.27678558148807242 -0.19838294359870839 0 -0.28554612495099629 -0.19078856473751329 0 -0.26849937691388731 -0.20649222999196801 0 -0.2657504713300915 -0.19149893526027581 0 -0.27678558148807242 -0.19838294359870839 0 -0.28554612495099629 -0.19078856473751329 0 -0.30534177857190098 -0.19007819421475031 0 -0.29218706032906999 -0.18283761311952609 0 -0.28554612495099629 -0.19078856473751329 0 -0.2907835658447232 -0.2007357697751268 0 -0.30534177857190098 -0.19007819421475031 0 -0.28554612495099629 -0.19078856473751329 0 -0.30534177857190098 -0.19007819421475031 0 -0.27678558148807242 -0.19838294359870839 0 -0.2907835658447232 -0.2007357697751268 0 -0.2842401991633009 -0.207262717659422 0 -0.27678558148807242 -0.19838294359870839 0 -0.28554612495099629 -0.19078856473751329 0 -0.2907835658447232 -0.2007357697751268 0 -0.28792340373558323 -0.22258593991885711 0 -0.2842401991633009 -0.207262717659422 0 -0.29292873060248448 -0.21274205358589071 0 -0.30088890444773431 -0.21923430536152011 0 -0.28792340373558323 -0.22258593991885711 0 -0.29292873060248448 -0.21274205358589071 0 -0.2907835658447232 -0.2007357697751268 0 -0.2842401991633009 -0.207262717659422 0 -0.29292873060248448 -0.21274205358589071 0 -0.2907835658447232 -0.2007357697751268 0 -0.29292873060248448 -0.21274205358589071 0 -0.29985898029158459 -0.20516014485447631 0 -0.30088890444773431 -0.21923430536152011 0 -0.31036950065388319 -0.20333085814586349 0 -0.30088890444773431 -0.21923430536152011 0 -0.30448507154181792 -0.19710379532610561 0 -0.30088890444773431 -0.21923430536152011 0 -0.31036950065388319 -0.20333085814586349 0 -0.31697120924354788 -0.21314811915899179 0 -0.30088890444773431 -0.21923430536152011 0 -0.29985898029158459 -0.20516014485447631 0 -0.30448507154181792 -0.19710379532610561 0 -0.30088890444773431 -0.21923430536152011 0 -0.31036950065388319 -0.20333085814586349 0 -0.30448507154181792 -0.19710379532610561 0 -0.30088890444773431 -0.21923430536152011 0 -0.29292873060248448 -0.21274205358589071 0 -0.29985898029158459 -0.20516014485447631 0 -0.31036950065388319 -0.20333085814586349 0 -0.30448507154181792 -0.19710379532610561 0 -0.31268653949982023 -0.19628984939999569 0 -0.30534177857190098 -0.19007819421475031 0 -0.30448507154181792 -0.19710379532610561 0 -0.31268653949982023 -0.19628984939999569 0 -0.29985898029158459 -0.20516014485447631 0 -0.30534177857190098 -0.19007819421475031 0 -0.30448507154181792 -0.19710379532610561 0 -0.29985898029158459 -0.20516014485447631 0 -0.30534177857190098 -0.19007819421475031 0 -0.2907835658447232 -0.2007357697751268 0 -0.29985898029158459 -0.20516014485447631 0 -0.30534177857190098 -0.19007819421475031 0 -0.30534177857190098 -0.19007819421475031 0 -0.29475978274910453 -0.17136787442977319 0 -0.29218706032906999 -0.18283761311952609 0 -0.30534177857190098 -0.19007819421475031 0 -0.31488701171762812 -0.1638213947141432 0 -0.30534177857190098 -0.19007819421475031 0 -0.29475978274910453 -0.17136787442977319 0 -0.31488701171762812 -0.1638213947141432 0 -0.29475978274910453 -0.17136787442977319 0 -0.29443139888978981 -0.15396224002114831 0 -0.31488701171762812 -0.1638213947141432 0 -0.29475978274910453 -0.17136787442977319 0 -0.27385299797932861 -0.15565959922402881 0 -0.29443139888978981 -0.15396224002114831 0 -0.29475978274910453 -0.17136787442977319 0 -0.27828934886870682 -0.17810424404703459 0 -0.27385299797932861 -0.15565959922402881 0 -0.29475978274910453 -0.17136787442977319 0 -0.29218706032906999 -0.18283761311952609 0 -0.27828934886870682 -0.17810424404703459 0 -0.28554612495099629 -0.19078856473751329 0 -0.29218706032906999 -0.18283761311952609 0 -0.27828934886870682 -0.17810424404703459 0 -0.2657504713300915 -0.19149893526027581 0 -0.27828934886870682 -0.17810424404703459 0 -0.25463265201391838 -0.17584064310544509 0 -0.2657504713300915 -0.19149893526027581 0 -0.28554612495099629 -0.19078856473751329 0 -0.27828934886870682 -0.17810424404703459 0 -0.24907535009219139 -0.19039852006507901 0 -0.2657504713300915 -0.19149893526027581 0 -0.25463265201391838 -0.17584064310544509 0 -0.24431817534001621 -0.1571765201472573 0 -0.25463265201391838 -0.17584064310544509 0 -0.25894052478874918 -0.15985618874070459 0 -0.25463265201391838 -0.17584064310544509 0 -0.25894052478874918 -0.15985618874070459 0 -0.27385299797932861 -0.15565959922402881 0 -0.25463265201391838 -0.17584064310544509 0 -0.27385299797932861 -0.15565959922402881 0 -0.27828934886870682 -0.17810424404703459 0 -0.25463265201391838 -0.17584064310544509 0 -0.27385299797932861 -0.15565959922402881 0 -0.27385299797932861 -0.15565959922402881 0 -0.2753468727835382 -0.13735909426053261 0 -0.29307334394473877 -0.13547855534261249 0 -0.27385299797932861 -0.15565959922402881 0 -0.26800597707195117 -0.1459562901065202 0 -0.2753468727835382 -0.13735909426053261 0 -0.26800597707195117 -0.1459562901065202 0 -0.26557275649408119 -0.13979820701214021 0 -0.2753468727835382 -0.13735909426053261 0 -0.27385299797932861 -0.15565959922402881 0 -0.26800597707195117 -0.1459562901065202 0 -0.26357808930660809 -0.1516540669204556 0 -0.24431817534001621 -0.1571765201472573 0 -0.25745850185392788 -0.14595169732994109 0 -0.25898502740953722 -0.140048230156325 0 -0.25894052478874918 -0.15985618874070459 0 -0.27385299797932861 -0.15565959922402881 0 -0.26357808930660809 -0.1516540669204556 0 -0.25894052478874918 -0.15985618874070459 0 -0.26357808930660809 -0.1516540669204556 0 -0.25745850185392788 -0.14595169732994109 0 -0.24431817534001621 -0.1571765201472573 0 -0.25898502740953722 -0.140048230156325 0 -0.26800597707195117 -0.1459562901065202 0 -0.26357808930660809 -0.1516540669204556 0 -0.26272007042722118 -0.14468169830507641 0 -0.26800597707195117 -0.1459562901065202 0 -0.26272007042722118 -0.14468169830507641 0 -0.26557275649408119 -0.13979820701214021 0 -0.26272007042722118 -0.14468169830507641 0 -0.25898502740953722 -0.140048230156325 0 -0.26557275649408119 -0.13979820701214021 0 -0.26272007042722118 -0.14468169830507641 0 -0.25745850185392788 -0.14595169732994109 0 -0.25898502740953722 -0.140048230156325 0 -0.25745850185392788 -0.14595169732994109 0 -0.25898502740953722 -0.140048230156325 0 -0.26357808930660809 -0.1516540669204556 0 -0.26272007042722118 -0.14468169830507641 0 -0.25745850185392788 -0.14595169732994109 0 -0.24431817534001621 -0.1571765201472573 0 -0.25894052478874918 -0.15985618874070459 0 -0.25745850185392788 -0.14595169732994109 0 -0.26323909722222738 -0.1235966474093637 0 -0.2535096958820014 -0.12926038938568929 0 -0.25898502740953722 -0.140048230156325 0 -0.26323909722222738 -0.1235966474093637 0 -0.25898502740953722 -0.140048230156325 0 -0.26323909722222738 -0.1235966474093637 0 -0.25898502740953722 -0.140048230156325 0 -0.26482617864573882 -0.13322679827848469 0 -0.2535096958820014 -0.12926038938568929 0 -0.2501451975651609 -0.13561873606436639 0 -0.25898502740953722 -0.140048230156325 0 -0.2440082302640538 -0.14206740227634521 0 -0.2501451975651609 -0.13561873606436639 0 -0.25898502740953722 -0.140048230156325 0 -0.25898502740953722 -0.140048230156325 0 -0.26557275649408119 -0.13979820701214021 0 -0.26482617864573882 -0.13322679827848469 0 -0.25898502740953722 -0.140048230156325 0 -0.26482617864573882 -0.13322679827848469 0 -0.26323909722222738 -0.1235966474093637 0 -0.26482617864573882 -0.13322679827848469 0 -0.27502551004091891 -0.12603942970272769 0 -0.26482617864573882 -0.13322679827848469 0 -0.2753468727835382 -0.13735909426053261 0 -0.27502551004091891 -0.12603942970272769 0 -0.26557275649408119 -0.13979820701214021 0 -0.26482617864573882 -0.13322679827848469 0 -0.2753468727835382 -0.13735909426053261 0 -0.2753468727835382 -0.13735909426053261 0 -0.27502551004091891 -0.12603942970272769 0 -0.28470819890308541 -0.12700026088490229 0 -0.2753468727835382 -0.13735909426053261 0 -0.28470819890308541 -0.12700026088490229 0 -0.29307334394473877 -0.13547855534261249 0 -0.29756578948584872 -0.12170112852495819 0 -0.28470819890308541 -0.12700026088490229 0 -0.29307334394473877 -0.13547855534261249 0 -0.27385299797932861 -0.15565959922402881 0 -0.29307334394473877 -0.13547855534261249 0 -0.27385299797932861 -0.15565959922402881 0 -0.29307334394473877 -0.13547855534261249 0 -0.29443139888978981 -0.15396224002114831 0 -0.29307334394473877 -0.13547855534261249 0 -0.29443139888978981 -0.15396224002114831 0 -0.3068892373452009 -0.144183677746617 0 -0.29443139888978981 -0.15396224002114831 0 -0.3068892373452009 -0.144183677746617 0 -0.31488701171762812 -0.1638213947141432 0 -0.31229368991014889 -0.11529751146119641 0 -0.29307334394473877 -0.13547855534261249 0 -0.309172129015861 -0.13313108494099049 0 -0.29307334394473877 -0.13547855534261249 0 -0.3068892373452009 -0.144183677746617 0 -0.309172129015861 -0.13313108494099049 0 -0.31229368991014889 -0.11529751146119641 0 -0.29307334394473877 -0.13547855534261249 0 -0.31229368991014889 -0.11529751146119641 0 -0.309172129015861 -0.13313108494099049 0 -0.32443224486335542 -0.1375645952135362 0 -0.3068892373452009 -0.144183677746617 0 -0.309172129015861 -0.13313108494099049 0 -0.32443224486335542 -0.1375645952135362 0 -0.32443224486335542 -0.1375645952135362 0 -0.33622634202947121 -0.1542851843832487 0 -0.31488701171762812 -0.1638213947141432 0 -0.32443224486335542 -0.1375645952135362 0 -0.31488701171762812 -0.1638213947141432 0 -0.3068892373452009 -0.144183677746617 0 -0.32443224486335542 -0.1375645952135362 0 -0.31488701171762812 -0.1638213947141432 0 -0.32443224486335542 -0.1375645952135362 0 -0.33622634202947121 -0.1542851843832487 0 -0.34228780395322539 -0.13061591495175459 0 -0.33397747800908262 -0.1113077957129293 0 -0.32443224486335542 -0.1375645952135362 0 -0.34228780395322539 -0.13061591495175459 0 -0.34228780395322539 -0.13061591495175459 0 -0.36161142950844288 -0.12515988463917799 0 -0.35767173121632417 -0.1510070666272722 0 -0.36161142950844288 -0.12515988463917799 0 -0.37695802557535368 -0.13673044309901411 0 -0.37916404471623671 -0.1184823420087618 0 -0.36161142950844288 -0.12515988463917799 0 -0.35767173121632417 -0.1510070666272722 0 -0.37695802557535368 -0.13673044309901411 0 -0.35767173121632417 -0.1510070666272722 0 -0.38280621010014482 -0.15740116330508819 0 -0.37695802557535368 -0.13673044309901411 0 -0.33622634202947121 -0.1542851843832487 0 -0.34228780395322539 -0.13061591495175459 0 -0.35767173121632417 -0.1510070666272722 0 -0.33622634202947121 -0.1542851843832487 0 -0.35767173121632417 -0.1510070666272722 0 -0.34680471510596678 -0.16872778487700291 0 -0.35767173121632417 -0.1510070666272722 0 -0.34680471510596678 -0.16872778487700291 0 -0.36357981074127682 -0.1689870737818247 0 -0.35767173121632417 -0.1510070666272722 0 -0.36357981074127682 -0.1689870737818247 0 -0.38280621010014482 -0.15740116330508819 0 -0.36357981074127682 -0.1689870737818247 0 -0.36308016568295631 -0.18429921469147989 0 -0.38000260744158187 -0.1835545396621644 0 -0.34680471510596678 -0.16872778487700291 0 -0.36357981074127682 -0.1689870737818247 0 -0.35130261761769122 -0.18065419409435909 0 -0.36308016568295631 -0.18429921469147989 0 -0.35130261761769122 -0.18065419409435909 0 -0.35207360440488189 -0.19144325488630859 0 -0.36357981074127682 -0.1689870737818247 0 -0.36308016568295631 -0.18429921469147989 0 -0.35130261761769122 -0.18065419409435909 0 -0.34680471510596678 -0.16872778487700291 0 -0.35130261761769122 -0.18065419409435909 0 -0.34334091257520188 -0.17851484603105469 0 -0.35130261761769122 -0.18065419409435909 0 -0.34251004470673108 -0.18874440442685031 0 -0.35207360440488189 -0.19144325488630859 0 -0.35130261761769122 -0.18065419409435909 0 -0.34334091257520188 -0.17851484603105469 0 -0.34251004470673108 -0.18874440442685031 0 -0.33274627287041858 -0.17593300072600659 0 -0.34334091257520188 -0.17851484603105469 0 -0.34251004470673108 -0.18874440442685031 0 -0.33274627287041858 -0.17593300072600659 0 -0.32392591163931611 -0.1894112993208005 0 -0.34251004470673108 -0.18874440442685031 0 -0.34680471510596678 -0.16872778487700291 0 -0.33274627287041858 -0.17593300072600659 0 -0.34334091257520188 -0.17851484603105469 0 -0.33622634202947121 -0.1542851843832487 0 -0.34680471510596678 -0.16872778487700291 0 -0.33274627287041858 -0.17593300072600659 0 -0.33622634202947121 -0.1542851843832487 0 -0.33274627287041858 -0.17593300072600659 0 -0.31488701171762812 -0.1638213947141432 0 -0.30534177857190098 -0.19007819421475031 0 -0.31488701171762812 -0.1638213947141432 0 -0.32392591163931611 -0.1894112993208005 0 -0.33274627287041858 -0.17593300072600659 0 -0.31488701171762812 -0.1638213947141432 0 -0.32392591163931611 -0.1894112993208005 0 -0.30534177857190098 -0.19007819421475031 0 -0.32392591163931611 -0.1894112993208005 0 -0.30534177857190098 -0.19007819421475031 0 -0.32392591163931611 -0.1894112993208005 0 -0.31268653949982023 -0.19628984939999569 0 -0.32038640479408848 -0.2011931649893928 0 -0.32890807239602537 -0.20796243925249419 0 -0.32945719533193879 -0.1970164246582112 0 -0.32038640479408848 -0.2011931649893928 0 -0.32392591163931611 -0.1894112993208005 0 -0.32945719533193879 -0.1970164246582112 0 -0.31036950065388319 -0.20333085814586349 0 -0.32038640479408848 -0.2011931649893928 0 -0.31268653949982023 -0.19628984939999569 0 -0.32038640479408848 -0.2011931649893928 0 -0.32392591163931611 -0.1894112993208005 0 -0.31268653949982023 -0.19628984939999569 0 -0.31036950065388319 -0.20333085814586349 0 -0.32038640479408848 -0.2011931649893928 0 -0.31697120924354788 -0.21314811915899179 0 -0.31697120924354788 -0.21314811915899179 0 -0.32890807239602537 -0.20796243925249419 0 -0.32109557317377829 -0.22558967697981649 0 -0.32038640479408848 -0.2011931649893928 0 -0.31697120924354788 -0.21314811915899179 0 -0.32890807239602537 -0.20796243925249419 0 -0.32890807239602537 -0.20796243925249419 0 -0.34407769698637292 -0.21771383013627649 0 -0.32109557317377829 -0.22558967697981649 0 -0.32890807239602537 -0.20796243925249419 0 -0.33987714487152632 -0.20393403838259441 0 -0.33459886019269541 -0.20024378091580081 0 -0.32890807239602537 -0.20796243925249419 0 -0.33987714487152632 -0.20393403838259441 0 -0.34407769698637292 -0.21771383013627649 0 -0.32392591163931611 -0.1894112993208005 0 -0.34251004470673108 -0.18874440442685031 0 -0.33987714487152632 -0.20393403838259441 0 -0.33459886019269541 -0.20024378091580081 0 -0.33791490488685422 -0.1929054418352486 0 -0.32392591163931611 -0.1894112993208005 0 -0.33791490488685422 -0.1929054418352486 0 -0.34251004470673108 -0.18874440442685031 0 -0.33987714487152632 -0.20393403838259441 0 -0.33791490488685422 -0.1929054418352486 0 -0.35248736284291082 -0.20137171256399281 0 -0.32890807239602537 -0.20796243925249419 0 -0.32945719533193879 -0.1970164246582112 0 -0.33459886019269541 -0.20024378091580081 0 -0.32945719533193879 -0.1970164246582112 0 -0.33459886019269541 -0.20024378091580081 0 -0.33791490488685422 -0.1929054418352486 0 -0.32392591163931611 -0.1894112993208005 0 -0.32945719533193879 -0.1970164246582112 0 -0.33791490488685422 -0.1929054418352486 0 -0.33791490488685422 -0.1929054418352486 0 -0.34251004470673108 -0.18874440442685031 0 -0.35207360440488189 -0.19144325488630859 0 -0.33791490488685422 -0.1929054418352486 0 -0.35248736284291082 -0.20137171256399281 0 -0.35207360440488189 -0.19144325488630859 0 -0.33791490488685422 -0.1929054418352486 0 -0.35248736284291082 -0.20137171256399281 0 -0.35248736284291082 -0.20137171256399281 0 -0.35207360440488189 -0.19144325488630859 0 -0.36567626874020442 -0.1960219205897375 0 -0.36308016568295631 -0.18429921469147989 0 -0.36567626874020442 -0.1960219205897375 0 -0.38000260744158187 -0.1835545396621644 0 -0.36308016568295631 -0.18429921469147989 0 -0.35207360440488189 -0.19144325488630859 0 -0.36567626874020442 -0.1960219205897375 0 -0.35248736284291082 -0.20137171256399281 0 -0.36567626874020442 -0.1960219205897375 0 -0.36705982079896748 -0.2098379832927367 0 -0.36705982079896748 -0.2098379832927367 0 -0.36429970014290392 -0.22057881160727369 0 -0.37106888415280342 -0.21957726016243431 0 -0.36705982079896748 -0.2098379832927367 0 -0.37106888415280342 -0.21957726016243431 0 -0.37902595071388179 -0.21679003597599081 0 -0.36705982079896748 -0.2098379832927367 0 -0.37902595071388179 -0.21679003597599081 0 -0.36705982079896748 -0.2098379832927367 0 -0.37935405126992772 -0.2056248184417423 0 -0.36567626874020442 -0.1960219205897375 0 -0.36705982079896748 -0.2098379832927367 0 -0.37935405126992772 -0.2056248184417423 0 -0.35248736284291082 -0.20137171256399281 0 -0.36705982079896748 -0.2098379832927367 0 -0.36705982079896748 -0.2098379832927367 0 -0.34407769698637292 -0.21771383013627649 0 -0.35248736284291082 -0.20137171256399281 0 -0.36705982079896748 -0.2098379832927367 0 -0.34407769698637292 -0.21771383013627649 0 -0.33987714487152632 -0.20393403838259441 0 -0.35248736284291082 -0.20137171256399281 0 -0.34407769698637292 -0.21771383013627649 0 -0.36705982079896748 -0.2098379832927367 0 -0.34407769698637292 -0.21771383013627649 0 -0.36429970014290392 -0.22057881160727369 0 -0.34407769698637292 -0.21771383013627649 0 -0.35419888565044749 -0.22637839873109239 0 -0.36429970014290392 -0.22057881160727369 0 -0.34407769698637292 -0.21771383013627649 0 -0.35419888565044749 -0.22637839873109239 0 -0.33931067565229622 -0.23439976748513441 0 -0.35419888565044749 -0.22637839873109239 0 -0.35426528492176879 -0.23553137803165569 0 -0.33931067565229622 -0.23439976748513441 0 -0.35419888565044749 -0.22637839873109239 0 -0.36324600567118648 -0.2316184396299312 0 -0.35426528492176879 -0.23553137803165569 0 -0.35419888565044749 -0.22637839873109239 0 -0.36429970014290392 -0.22057881160727369 0 -0.36529218994660101 -0.2262436411060785 0 -0.36429970014290392 -0.22057881160727369 0 -0.36529218994660101 -0.2262436411060785 0 -0.37106888415280342 -0.21957726016243431 0 -0.35419888565044749 -0.22637839873109239 0 -0.36529218994660101 -0.2262436411060785 0 -0.36324600567118648 -0.2316184396299312 0 -0.36324600567118648 -0.2316184396299312 0 -0.36918918150998692 -0.23129041679713719 0 -0.36718904450574069 -0.23618887516676479 0 -0.36529218994660101 -0.2262436411060785 0 -0.36324600567118648 -0.2316184396299312 0 -0.36918918150998692 -0.23129041679713719 0 -0.36918918150998692 -0.23129041679713719 0 -0.37310049294416331 -0.2268299746232296 0 -0.37829551493504182 -0.2416466667107931 0 -0.36529218994660101 -0.2262436411060785 0 -0.36918918150998692 -0.23129041679713719 0 -0.37310049294416331 -0.2268299746232296 0 -0.37310049294416331 -0.2268299746232296 0 -0.37106888415280342 -0.21957726016243431 0 -0.37902595071388179 -0.21679003597599081 0 -0.36529218994660101 -0.2262436411060785 0 -0.37310049294416331 -0.2268299746232296 0 -0.37106888415280342 -0.21957726016243431 0 -0.37781541239333349 -0.25798449125307071 0 -0.36324600567118648 -0.2316184396299312 0 -0.36718904450574069 -0.23618887516676479 0 -0.37781541239333349 -0.25798449125307071 0 -0.36324600567118648 -0.2316184396299312 0 -0.37781541239333349 -0.25798449125307071 0 -0.36324600567118648 -0.2316184396299312 0 -0.36641932906039282 -0.24980620289221331 0 -0.37781541239333349 -0.25798449125307071 0 -0.36718904450574069 -0.23618887516676479 0 -0.37829551493504182 -0.2416466667107931 0 -0.36324600567118648 -0.2316184396299312 0 -0.36641932906039282 -0.24980620289221331 0 -0.35929200264517802 -0.24049181634377931 0 -0.36918918150998692 -0.23129041679713719 0 -0.36718904450574069 -0.23618887516676479 0 -0.37829551493504182 -0.2416466667107931 0 -0.36718904450574069 -0.23618887516676479 0 -0.37829551493504182 -0.2416466667107931 0 -0.36641932906039282 -0.24980620289221331 0 -0.35323739092736361 -0.24501124482131681 0 -0.35929200264517802 -0.24049181634377931 0 -0.35323739092736361 -0.24501124482131681 0 -0.35426528492176879 -0.23553137803165569 0 -0.35929200264517802 -0.24049181634377931 0 -0.36324600567118648 -0.2316184396299312 0 -0.35426528492176879 -0.23553137803165569 0 -0.35929200264517802 -0.24049181634377931 0 -0.35323739092736361 -0.24501124482131681 0 -0.35426528492176879 -0.23553137803165569 0 -0.33931067565229622 -0.23439976748513441 0 -0.32752030595706499 -0.25265331781972028 0 -0.35323739092736361 -0.24501124482131681 0 -0.32752030595706499 -0.25265331781972028 0 -0.35323739092736361 -0.24501124482131681 0 -0.33931067565229622 -0.23439976748513441 0 -0.32752030595706499 -0.25265331781972028 0 -0.33931067565229622 -0.23439976748513441 0 -0.32171368302285341 -0.23940290764094199 0 -0.34407769698637292 -0.21771383013627649 0 -0.33931067565229622 -0.23439976748513441 0 -0.32109557317377829 -0.22558967697981649 0 -0.34407769698637292 -0.21771383013627649 0 -0.32109557317377829 -0.22558967697981649 0 -0.33931067565229622 -0.23439976748513441 0 -0.32109557317377829 -0.22558967697981649 0 -0.32171368302285341 -0.23940290764094199 0 -0.30088890444773431 -0.21923430536152011 0 -0.31697120924354788 -0.21314811915899179 0 -0.32109557317377829 -0.22558967697981649 0 -0.31045133211681047 -0.23478025696940019 0 -0.32109557317377829 -0.22558967697981649 0 -0.32171368302285341 -0.23940290764094199 0 -0.31119823653221867 -0.2487251291273504 0 -0.31045133211681047 -0.23478025696940019 0 -0.32171368302285341 -0.23940290764094199 0 -0.32752030595706499 -0.25265331781972028 0 -0.31119823653221867 -0.2487251291273504 0 -0.32171368302285341 -0.23940290764094199 0 -0.42857562708177188 -0.24118552624039141 0 -0.42974296170692228 -0.2462554800976734 0 -0.40891792087332002 -0.23415659916996079 0 -0.42857562708177188 -0.24118552624039141 0 -0.42690644514314741 -0.23227937371514629 0 -0.41356711505918697 -0.22969148425060429 0 -0.42923298166873619 -0.25262009663155832 0 -0.42974296170692228 -0.2462554800976734 0 -0.42097071053777319 -0.24682494042986561 0 -0.44358413910435768 -0.25267956823017751 0 -0.42857562708177188 -0.24118552624039141 0 -0.44358413910435768 -0.25267956823017751 0 -0.42857562708177188 -0.24118552624039141 0 -0.43759573338841101 -0.24108367247259829 0 -0.44358413910435768 -0.25267956823017751 0 -0.43556852841349247 -0.25182683078220058 0 -0.42857562708177188 -0.24118552624039141 0 -0.43556852841349247 -0.25182683078220058 0 -0.42857562708177188 -0.24118552624039141 0 -0.42974296170692228 -0.2462554800976734 0 -0.42857562708177188 -0.24118552624039141 0 -0.43483722955847037 -0.23307703508730959 0 -0.42690644514314741 -0.23227937371514629 0 -0.42857562708177188 -0.24118552624039141 0 -0.43483722955847037 -0.23307703508730959 0 -0.43759573338841101 -0.24108367247259829 0 -0.43483722955847037 -0.23307703508730959 0 -0.43064580887316051 -0.22516344928227999 0 -0.44230581757335141 -0.2234809424145176 0 -0.43064580887316051 -0.22516344928227999 0 -0.42690644514314741 -0.23227937371514629 0 -0.41356711505918697 -0.22969148425060429 0 -0.41356711505918697 -0.22969148425060429 0 -0.43517533629438881 -0.20893881461349009 0 -0.43483722955847037 -0.23307703508730959 0 -0.43064580887316051 -0.22516344928227999 0 -0.42690644514314741 -0.23227937371514629 0 -0.43064580887316051 -0.22516344928227999 0 -0.43517533629438881 -0.20893881461349009 0 -0.44230581757335141 -0.2234809424145176 0 -0.43064580887316051 -0.22516344928227999 0 -0.41356711505918697 -0.22969148425060429 0 -0.43517533629438881 -0.20893881461349009 0 -0.41356711505918697 -0.22969148425060429 0 -0.40457539461560171 -0.2228053111120899 0 -0.41356711505918697 -0.22969148425060429 0 -0.40457539461560171 -0.2228053111120899 0 -0.41525435259211579 -0.215679544734135 0 -0.41356711505918697 -0.22969148425060429 0 -0.40891792087332002 -0.23415659916996079 0 -0.40457539461560171 -0.2228053111120899 0 -0.41356711505918697 -0.22969148425060429 0 -0.40891792087332002 -0.23415659916996079 0 -0.42974296170692228 -0.2462554800976734 0 -0.40891792087332002 -0.23415659916996079 0 -0.42097071053777319 -0.24682494042986561 0 -0.40891792087332002 -0.23415659916996079 0 -0.41508950118529342 -0.2475057024194558 0 -0.40813033781330482 -0.24341508299171211 0 -0.42974296170692228 -0.2462554800976734 0 -0.40891792087332002 -0.23415659916996079 0 -0.42857562708177188 -0.24118552624039141 0 -0.41356711505918697 -0.22969148425060429 0 -0.40891792087332002 -0.23415659916996079 0 -0.42857562708177188 -0.24118552624039141 0 -0.41356711505918697 -0.22969148425060429 0 -0.40891792087332002 -0.23415659916996079 0 -0.42097071053777319 -0.24682494042986561 0 -0.41508950118529342 -0.2475057024194558 0 -0.42187018725459419 -0.25358682383067987 0 -0.42097071053777319 -0.24682494042986561 0 -0.41508950118529342 -0.2475057024194558 0 -0.41193914988415259 -0.25070470746742468 0 -0.40813033781330482 -0.24341508299171211 0 -0.40046141999257878 -0.242278275042943 0 -0.41193914988415259 -0.25070470746742468 0 -0.41508950118529342 -0.2475057024194558 0 -0.40813033781330482 -0.24341508299171211 0 -0.40145965599806233 -0.25302967574351681 0 -0.40046141999257878 -0.242278275042943 0 -0.38952424945029701 -0.23684634192942111 0 -0.40145965599806233 -0.25302967574351681 0 -0.41193914988415259 -0.25070470746742468 0 -0.40046141999257878 -0.242278275042943 0 -0.40891792087332002 -0.23415659916996079 0 -0.40046141999257878 -0.242278275042943 0 -0.39821888152744922 -0.23468863342882509 0 -0.40891792087332002 -0.23415659916996079 0 -0.40813033781330482 -0.24341508299171211 0 -0.40046141999257878 -0.242278275042943 0 -0.40891792087332002 -0.23415659916996079 0 -0.40046141999257878 -0.242278275042943 0 -0.40046141999257878 -0.242278275042943 0 -0.39821888152744922 -0.23468863342882509 0 -0.38952424945029701 -0.23684634192942111 0 -0.40145965599806233 -0.25302967574351681 0 -0.37829551493504182 -0.2416466667107931 0 -0.40145965599806233 -0.25302967574351681 0 -0.38952424945029701 -0.23684634192942111 0 -0.37829551493504182 -0.2416466667107931 0 -0.37781541239333349 -0.25798449125307071 0 -0.37829551493504182 -0.2416466667107931 0 -0.38952424945029701 -0.23684634192942111 0 -0.39397193579360118 -0.2254733175729752 0 -0.37902595071388179 -0.21679003597599081 0 -0.37310049294416331 -0.2268299746232296 0 -0.37829551493504182 -0.2416466667107931 0 -0.37902595071388179 -0.21679003597599081 0 -0.38952424945029701 -0.23684634192942111 0 -0.37829551493504182 -0.2416466667107931 0 -0.37902595071388179 -0.21679003597599081 0 -0.37829551493504182 -0.2416466667107931 0 -0.37902595071388179 -0.21679003597599081 0 -0.39397193579360118 -0.2254733175729752 0 -0.37902595071388179 -0.21679003597599081 0 -0.39397193579360118 -0.2254733175729752 0 -0.40457539461560171 -0.2228053111120899 0 -0.39278397083977162 -0.2130759592619389 0 -0.39821888152744922 -0.23468863342882509 0 -0.38952424945029701 -0.23684634192942111 0 -0.39397193579360118 -0.2254733175729752 0 -0.40891792087332002 -0.23415659916996079 0 -0.39821888152744922 -0.23468863342882509 0 -0.39397193579360118 -0.2254733175729752 0 -0.40891792087332002 -0.23415659916996079 0 -0.39397193579360118 -0.2254733175729752 0 -0.40891792087332002 -0.23415659916996079 0 -0.39397193579360118 -0.2254733175729752 0 -0.40457539461560171 -0.2228053111120899 0 -0.40457539461560171 -0.2228053111120899 0 -0.40537505304968008 -0.21156306107354991 0 -0.39278397083977162 -0.2130759592619389 0 -0.40537505304968008 -0.21156306107354991 0 -0.39278397083977162 -0.2130759592619389 0 -0.3968222633393344 -0.1996385586856366 0 -0.39278397083977162 -0.2130759592619389 0 -0.37935405126992772 -0.2056248184417423 0 -0.37902595071388179 -0.21679003597599081 0 -0.39278397083977162 -0.2130759592619389 0 -0.37935405126992772 -0.2056248184417423 0 -0.3968222633393344 -0.1996385586856366 0 -0.39397193579360118 -0.2254733175729752 0 -0.39278397083977162 -0.2130759592619389 0 -0.37902595071388179 -0.21679003597599081 0 -0.36705982079896748 -0.2098379832927367 0 -0.37935405126992772 -0.2056248184417423 0 -0.37902595071388179 -0.21679003597599081 0 -0.37935405126992772 -0.2056248184417423 0 -0.37902595071388179 -0.21679003597599081 0 -0.36567626874020442 -0.1960219205897375 0 -0.37935405126992772 -0.2056248184417423 0 -0.38000260744158187 -0.1835545396621644 0 -0.37935405126992772 -0.2056248184417423 0 -0.38000260744158187 -0.1835545396621644 0 -0.37935405126992772 -0.2056248184417423 0 -0.3968222633393344 -0.1996385586856366 0 -0.38000260744158187 -0.1835545396621644 0 -0.37935405126992772 -0.2056248184417423 0 -0.3968222633393344 -0.1996385586856366 0 -0.3968222633393344 -0.1996385586856366 0 -0.4174392838615773 -0.20661593157394931 0 -0.41148177760608112 -0.18169791491604151 0 -0.4174392838615773 -0.20661593157394931 0 -0.41148177760608112 -0.18169791491604151 0 -0.4174392838615773 -0.20661593157394931 0 -0.43064637951019152 -0.190473677503294 0 -0.41148177760608112 -0.18169791491604151 0 -0.40537505304968008 -0.21156306107354991 0 -0.3968222633393344 -0.1996385586856366 0 -0.4174392838615773 -0.20661593157394931 0 -0.41356711505918697 -0.22969148425060429 0 -0.41525435259211579 -0.215679544734135 0 -0.43517533629438881 -0.20893881461349009 0 -0.40537505304968008 -0.21156306107354991 0 -0.41525435259211579 -0.215679544734135 0 -0.4174392838615773 -0.20661593157394931 0 -0.40457539461560171 -0.2228053111120899 0 -0.40537505304968008 -0.21156306107354991 0 -0.41525435259211579 -0.215679544734135 0 -0.41525435259211579 -0.215679544734135 0 -0.4174392838615773 -0.20661593157394931 0 -0.43517533629438881 -0.20893881461349009 0 -0.4174392838615773 -0.20661593157394931 0 -0.43517533629438881 -0.20893881461349009 0 -0.43064637951019152 -0.190473677503294 0 -0.43064637951019152 -0.190473677503294 0 -0.43235194225931922 -0.16692958143661291 0 -0.41148177760608112 -0.18169791491604151 0 -0.43235194225931922 -0.16692958143661291 0 -0.41148177760608112 -0.18169791491604151 0 -0.40552427135058489 -0.1567798982581336 0 -0.41148177760608112 -0.18169791491604151 0 -0.40552427135058489 -0.1567798982581336 0 -0.3968222633393344 -0.1996385586856366 0 -0.41148177760608112 -0.18169791491604151 0 -0.39514103374648701 -0.17243354861914481 0 -0.3968222633393344 -0.1996385586856366 0 -0.39514103374648701 -0.17243354861914481 0 -0.38000260744158187 -0.1835545396621644 0 -0.36357981074127682 -0.1689870737818247 0 -0.38000260744158187 -0.1835545396621644 0 -0.38280621010014482 -0.15740116330508819 0 -0.39514103374648701 -0.17243354861914481 0 -0.38000260744158187 -0.1835545396621644 0 -0.38280621010014482 -0.15740116330508819 0 -0.41148177760608112 -0.18169791491604151 0 -0.39514103374648701 -0.17243354861914481 0 -0.40552427135058489 -0.1567798982581336 0 -0.39514103374648701 -0.17243354861914481 0 -0.38280621010014482 -0.15740116330508819 0 -0.40552427135058489 -0.1567798982581336 0 -0.40552427135058489 -0.1567798982581336 0 -0.39956676509508859 -0.13186188160022569 0 -0.38280621010014482 -0.15740116330508819 0 -0.40552427135058489 -0.1567798982581336 0 -0.39956676509508859 -0.13186188160022569 0 -0.38280621010014482 -0.15740116330508819 0 -0.37695802557535368 -0.13673044309901411 0 -0.39956676509508859 -0.13186188160022569 0 -0.37695802557535368 -0.13673044309901411 0 -0.39956676509508859 -0.13186188160022569 0 -0.37916404471623671 -0.1184823420087618 0 -0.39956676509508859 -0.13186188160022569 0 -0.42266395030379489 -0.14371708850323639 0 -0.42975994856660887 -0.1212194417615414 0 -0.43235194225931922 -0.16692958143661291 0 -0.40552427135058489 -0.1567798982581336 0 -0.42266395030379489 -0.14371708850323639 0 -0.40552427135058489 -0.1567798982581336 0 -0.39956676509508859 -0.13186188160022569 0 -0.42266395030379489 -0.14371708850323639 0 -0.43235194225931922 -0.16692958143661291 0 -0.42266395030379489 -0.14371708850323639 0 -0.44450950728721772 -0.14465525721203479 0 -0.42266395030379489 -0.14371708850323639 0 -0.44450950728721772 -0.14465525721203479 0 -0.42975994856660887 -0.1212194417615414 0 -0.49999999999999672 -0.1466808057021502 0 -0.48450171379976908 -0.1873165939327065 0 -0.5 -0.22760144136205479 0 -0.44450950728721772 -0.14465525721203479 0 -0.45463574466742179 -0.1261268446284616 0 -0.42975994856660887 -0.1212194417615414 0 -0.44450950728721772 -0.14465525721203479 0 -0.47289304874004262 -0.14223320413253879 0 -0.4568556198401626 -0.16287939710022331 0 -0.44450950728721772 -0.14465525721203479 0 -0.45463574466742179 -0.1261268446284616 0 -0.47289304874004262 -0.14223320413253879 0 -0.45463574466742179 -0.1261268446284616 0 -0.47289304874004262 -0.14223320413253879 0 -0.4742988375018336 -0.1167366013185957 0 -0.49999999999999939 -0.129974526391227 0 -0.47289304874004262 -0.14223320413253879 0 -0.4742988375018336 -0.1167366013185957 0 -0.49999999999999939 -0.129974526391227 0 -0.49999999999999672 -0.1466808057021502 0 -0.47289304874004262 -0.14223320413253879 0 -0.49999999999999672 -0.1466808057021502 0 -0.47289304874004262 -0.14223320413253879 0 -0.47839177876479311 -0.16743347533926239 0 -0.49999999999999672 -0.1466808057021502 0 -0.47839177876479311 -0.16743347533926239 0 -0.48450171379976908 -0.1873165939327065 0 -0.47289304874004262 -0.14223320413253879 0 -0.47839177876479311 -0.16743347533926239 0 -0.4568556198401626 -0.16287939710022331 0 -0.49999999999999672 -0.1466808057021502 0 -0.47839177876479311 -0.16743347533926239 0 -0.47839177876479311 -0.16743347533926239 0 -0.48450171379976908 -0.1873165939327065 0 -0.45678355752959088 -0.18818614497637631 0 -0.47839177876479311 -0.16743347533926239 0 -0.4568556198401626 -0.16287939710022331 0 -0.45678355752959088 -0.18818614497637631 0 -0.47839177876479311 -0.16743347533926239 0 -0.45678355752959088 -0.18818614497637631 0 -0.43235194225931922 -0.16692958143661291 0 -0.44450950728721772 -0.14465525721203479 0 -0.4568556198401626 -0.16287939710022331 0 -0.43235194225931922 -0.16692958143661291 0 -0.4568556198401626 -0.16287939710022331 0 -0.45678355752959088 -0.18818614497637631 0 -0.43064637951019152 -0.190473677503294 0 -0.43235194225931922 -0.16692958143661291 0 -0.45678355752959088 -0.18818614497637631 0 -0.43517533629438881 -0.20893881461349009 0 -0.45247011286029148 -0.21212041283345359 0 -0.45678355752959088 -0.18818614497637631 0 -0.43517533629438881 -0.20893881461349009 0 -0.43064637951019152 -0.190473677503294 0 -0.45678355752959088 -0.18818614497637631 0 -0.43517533629438881 -0.20893881461349009 0 -0.45678355752959088 -0.18818614497637631 0 -0.43517533629438881 -0.20893881461349009 0 -0.45247011286029148 -0.21212041283345359 0 -0.44230581757335141 -0.2234809424145176 0 -0.45247011286029148 -0.21212041283345359 0 -0.45678355752959088 -0.18818614497637631 0 -0.47086252223463199 -0.20910425203186361 0 -0.45247011286029148 -0.21212041283345359 0 -0.47086252223463199 -0.20910425203186361 0 -0.45722333066949489 -0.23089191013102059 0 -0.48450171379976908 -0.1873165939327065 0 -0.47086252223463199 -0.20910425203186361 0 -0.48450171379976908 -0.1873165939327065 0 -0.45678355752959088 -0.18818614497637631 0 -0.47086252223463199 -0.20910425203186361 0 -0.48450171379976908 -0.1873165939327065 0 -0.47086252223463199 -0.20910425203186361 0 -0.5 -0.22760144136205479 0 -0.47086252223463199 -0.20910425203186361 0 -0.5 -0.22760144136205479 0 -0.45722333066949489 -0.23089191013102059 0 -0.48014663844908212 -0.25426376959167701 0 -0.5 -0.22760144136205479 0 -0.45722333066949489 -0.23089191013102059 0 -0.46032675430121928 -0.25083923125858781 0 -0.48014663844908212 -0.25426376959167701 0 -0.45722333066949489 -0.23089191013102059 0 -0.44358413910435768 -0.25267956823017751 0 -0.46032675430121928 -0.25083923125858781 0 -0.45722333066949489 -0.23089191013102059 0 -0.47086252223463199 -0.20910425203186361 0 -0.45722333066949489 -0.23089191013102059 0 -0.45247011286029148 -0.21212041283345359 0 -0.45722333066949489 -0.23089191013102059 0 -0.44230581757335141 -0.2234809424145176 0 -0.45722333066949489 -0.23089191013102059 0 -0.44230581757335141 -0.2234809424145176 0 -0.44338593780904401 -0.2373925603325146 0 -0.43483722955847037 -0.23307703508730959 0 -0.44230581757335141 -0.2234809424145176 0 -0.44338593780904401 -0.2373925603325146 0 -0.44358413910435768 -0.25267956823017751 0 -0.45722333066949489 -0.23089191013102059 0 -0.44338593780904401 -0.2373925603325146 0 -0.43483722955847037 -0.23307703508730959 0 -0.43759573338841101 -0.24108367247259829 0 -0.44338593780904401 -0.2373925603325146 0 -0.44358413910435768 -0.25267956823017751 0 -0.45722333066949489 -0.23089191013102059 0 -0.44358413910435768 -0.25267956823017751 0 -0.43759573338841101 -0.24108367247259829 0 -0.44338593780904401 -0.2373925603325146 0 -0.414966549111633 -0.058210646457774552 0 -0.4277418902023723 -0.040918095517652513 0 -0.4031159304537546 -0.034671330839786227 0 -0.4277418902023723 -0.040918095517652513 0 -0.41871658407714618 -0.02354947264688069 0 -0.4031159304537546 -0.034671330839786227 0 -0.414966549111633 -0.058210646457774552 0 -0.4277418902023723 -0.040918095517652513 0 -0.44331103274108391 -0.066436561055847873 0 -0.414966549111633 -0.058210646457774552 0 -0.44331103274108391 -0.066436561055847873 0 -0.43611340460897741 -0.024686988274180231 0 -0.42326125812246912 -0.0058109838342302253 0 -0.41871658407714618 -0.02354947264688069 0 -0.4277418902023723 -0.040918095517652513 0 -0.43611340460897741 -0.024686988274180231 0 -0.41871658407714618 -0.02354947264688069 0 -0.43611340460897741 -0.024686988274180231 0 -0.42326125812246912 -0.0058109838342302253 0 -0.43940379519405159 -0.003847432587525494 0 -0.42326125812246912 -0.0058109838342302253 0 -0.40335043699815742 -0.011659964768554271 0 -0.41186754591880742 0.0075564801545260482 0 -0.42326125812246912 -0.0058109838342302253 0 -0.41871658407714618 -0.02354947264688069 0 -0.40335043699815742 -0.011659964768554271 0 -0.41871658407714618 -0.02354947264688069 0 -0.40335043699815742 -0.011659964768554271 0 -0.4031159304537546 -0.034671330839786227 0 -0.40335043699815742 -0.011659964768554271 0 -0.38992732005258929 -0.02192922919432435 0 -0.4031159304537546 -0.034671330839786227 0 -0.38992732005258929 -0.02192922919432435 0 -0.38735127930499619 -0.034052486057330099 0 -0.4031159304537546 -0.034671330839786227 0 -0.40335043699815742 -0.011659964768554271 0 -0.39019430738709571 -0.0091845918050363368 0 -0.39288339142232498 0.005900296294764012 0 -0.40335043699815742 -0.011659964768554271 0 -0.39019430738709571 -0.0091845918050363368 0 -0.38992732005258929 -0.02192922919432435 0 -0.39019430738709571 -0.0091845918050363368 0 -0.37903097770980249 -0.0054786151453708708 0 -0.39288339142232498 0.005900296294764012 0 -0.39019430738709571 -0.0091845918050363368 0 -0.37903097770980249 -0.0054786151453708708 0 -0.38050765638551631 -0.016100251226931601 0 -0.36649899415509363 -0.01742233054803833 0 -0.37903097770980249 -0.0054786151453708708 0 -0.38050765638551631 -0.016100251226931601 0 -0.38992732005258929 -0.02192922919432435 0 -0.38012587732132941 -0.025420808446996752 0 -0.38735127930499619 -0.034052486057330099 0 -0.38992732005258929 -0.02192922919432435 0 -0.38050765638551631 -0.016100251226931601 0 -0.38012587732132941 -0.025420808446996752 0 -0.39019430738709571 -0.0091845918050363368 0 -0.38992732005258929 -0.02192922919432435 0 -0.38050765638551631 -0.016100251226931601 0 -0.36649899415509363 -0.01742233054803833 0 -0.38050765638551631 -0.016100251226931601 0 -0.38012587732132941 -0.025420808446996752 0 -0.37634413670845102 -0.037599745208359382 0 -0.38735127930499619 -0.034052486057330099 0 -0.38662206548218231 -0.049984731859701238 0 -0.38012587732132941 -0.025420808446996752 0 -0.37634413670845102 -0.037599745208359382 0 -0.38735127930499619 -0.034052486057330099 0 -0.38735127930499619 -0.034052486057330099 0 -0.4031159304537546 -0.034671330839786227 0 -0.38662206548218231 -0.049984731859701238 0 -0.414966549111633 -0.058210646457774552 0 -0.4031159304537546 -0.034671330839786227 0 -0.38662206548218231 -0.049984731859701238 0 -0.414966549111633 -0.058210646457774552 0 -0.38662206548218231 -0.049984731859701238 0 -0.39719535000733652 -0.077022826100701144 0 -0.414966549111633 -0.058210646457774552 0 -0.38662206548218231 -0.049984731859701238 0 -0.36802622345098462 -0.057496424605880829 0 -0.38662206548218231 -0.049984731859701238 0 -0.37942262488152467 -0.06705025033207844 0 -0.38662206548218231 -0.049984731859701238 0 -0.37942262488152467 -0.06705025033207844 0 -0.39719535000733652 -0.077022826100701144 0 -0.37942262488152467 -0.06705025033207844 0 -0.37847506502252598 -0.083164668799446159 0 -0.39719535000733652 -0.077022826100701144 0 -0.37847506502252598 -0.083164668799446159 0 -0.39719535000733652 -0.077022826100701144 0 -0.39389561390239219 -0.1011216338630689 0 -0.39719535000733652 -0.077022826100701144 0 -0.39389561390239219 -0.1011216338630689 0 -0.4228965125055022 -0.090260751173332682 0 -0.36736106014828029 -0.10241355049647791 0 -0.37916404471623671 -0.1184823420087618 0 -0.39389561390239219 -0.1011216338630689 0 -0.36736106014828029 -0.10241355049647791 0 -0.37847506502252598 -0.083164668799446159 0 -0.39389561390239219 -0.1011216338630689 0 -0.39956676509508859 -0.13186188160022569 0 -0.39389561390239219 -0.1011216338630689 0 -0.41217165126480948 -0.1100746365728031 0 -0.39956676509508859 -0.13186188160022569 0 -0.37916404471623671 -0.1184823420087618 0 -0.39389561390239219 -0.1011216338630689 0 -0.39956676509508859 -0.13186188160022569 0 -0.41217165126480948 -0.1100746365728031 0 -0.42975994856660887 -0.1212194417615414 0 -0.39389561390239219 -0.1011216338630689 0 -0.41217165126480948 -0.1100746365728031 0 -0.4228965125055022 -0.090260751173332682 0 -0.41217165126480948 -0.1100746365728031 0 -0.42975994856660887 -0.1212194417615414 0 -0.4228965125055022 -0.090260751173332682 0 -0.4228965125055022 -0.090260751173332682 0 -0.44859767500366787 -0.10349867624596421 0 -0.42975994856660887 -0.1212194417615414 0 -0.4228965125055022 -0.090260751173332682 0 -0.44859767500366787 -0.10349867624596421 0 -0.414966549111633 -0.058210646457774552 0 -0.39719535000733652 -0.077022826100701144 0 -0.4228965125055022 -0.090260751173332682 0 -0.414966549111633 -0.058210646457774552 0 -0.4228965125055022 -0.090260751173332682 0 -0.44331103274108391 -0.066436561055847873 0 -0.39719535000733652 -0.077022826100701144 0 -0.4228965125055022 -0.090260751173332682 0 -0.4228965125055022 -0.090260751173332682 0 -0.44331103274108391 -0.066436561055847873 0 -0.44859767500366787 -0.10349867624596421 0 -0.44331103274108391 -0.066436561055847873 0 -0.44859767500366787 -0.10349867624596421 0 -0.4716555163705346 -0.074662475653921187 0 -0.44331103274108391 -0.066436561055847873 0 -0.4716555163705346 -0.074662475653921187 0 -0.47481077080609402 -0.050341641777474057 0 -0.44859767500366787 -0.10349867624596421 0 -0.47891040577520733 -0.096843520358416202 0 -0.4716555163705346 -0.074662475653921187 0 -0.44331103274108391 -0.066436561055847873 0 -0.4716555163705346 -0.074662475653921187 0 -0.45463574466742179 -0.1261268446284616 0 -0.42975994856660887 -0.1212194417615414 0 -0.44859767500366787 -0.10349867624596421 0 -0.44859767500366787 -0.10349867624596421 0 -0.4742988375018336 -0.1167366013185957 0 -0.47891040577520733 -0.096843520358416202 0 -0.45463574466742179 -0.1261268446284616 0 -0.44859767500366787 -0.10349867624596421 0 -0.4742988375018336 -0.1167366013185957 0 -0.44859767500366787 -0.10349867624596421 0 -0.4742988375018336 -0.1167366013185957 0 -0.4742988375018336 -0.1167366013185957 0 -0.47891040577520733 -0.096843520358416202 0 -0.5 -0.1064314583216089 0 -0.47891040577520733 -0.096843520358416202 0 -0.5 -0.1064314583216089 0 -0.49999999999998651 -0.082888390251990907 0 -0.49999999999999939 -0.129974526391227 0 -0.4742988375018336 -0.1167366013185957 0 -0.5 -0.1064314583216089 0 -0.49999999999999939 -0.129974526391227 0 -0.4742988375018336 -0.1167366013185957 0 -0.47891040577520733 -0.096843520358416202 0 -0.4716555163705346 -0.074662475653921187 0 -0.49999999999998651 -0.082888390251990907 0 -0.4716555163705346 -0.074662475653921187 0 -0.49999999999998651 -0.082888390251990907 0 -0.4716555163705346 -0.074662475653921187 0 -0.49999999999998651 -0.082888390251990907 0 -0.5 -0.057031318922954433 0 -0.5 -0.057031318922954433 0 -0.47481077080609402 -0.050341641777474057 0 -0.5 -0.031174247593917851 0 -0.47481077080609402 -0.050341641777474057 0 -0.47148428300055639 -0.027965024075577289 0 -0.5 -0.031174247593917851 0 -0.4716555163705346 -0.074662475653921187 0 -0.5 -0.057031318922954433 0 -0.47481077080609402 -0.050341641777474057 0 -0.44331103274108391 -0.066436561055847873 0 -0.47481077080609402 -0.050341641777474057 0 -0.45109516104381769 -0.039290835651254137 0 -0.47481077080609402 -0.050341641777474057 0 -0.45109516104381769 -0.039290835651254137 0 -0.47148428300055639 -0.027965024075577289 0 -0.4277418902023723 -0.040918095517652513 0 -0.43611340460897741 -0.024686988274180231 0 -0.45109516104381769 -0.039290835651254137 0 -0.4277418902023723 -0.040918095517652513 0 -0.44331103274108391 -0.066436561055847873 0 -0.45109516104381769 -0.039290835651254137 0 -0.43940379519405159 -0.003847432587525494 0 -0.45357834893417942 -0.01587927655485144 0 -0.45374908912181211 0.0061484975930937887 0 -0.43611340460897741 -0.024686988274180231 0 -0.43940379519405159 -0.003847432587525494 0 -0.45357834893417942 -0.01587927655485144 0 -0.43611340460897741 -0.024686988274180231 0 -0.45109516104381769 -0.039290835651254137 0 -0.45357834893417942 -0.01587927655485144 0 -0.45357834893417942 -0.01587927655485144 0 -0.46803960987327481 -0.0037167553609028128 0 -0.47148428300055639 -0.027965024075577289 0 -0.45109516104381769 -0.039290835651254137 0 -0.45357834893417942 -0.01587927655485144 0 -0.47148428300055639 -0.027965024075577289 0 -0.45357834893417942 -0.01587927655485144 0 -0.46803960987327481 -0.0037167553609028128 0 -0.45374908912181211 0.0061484975930937887 0 -0.46803960987327481 -0.0037167553609028128 0 -0.48387674517294832 -0.01317199730479748 0 -0.47148428300055639 -0.027965024075577289 0 -0.46803960987327481 -0.0037167553609028128 0 -0.48387674517294832 -0.01317199730479748 0 -0.48449019969035362 0.0124017731734485 0 -0.46803960987327481 -0.0037167553609028128 0 -0.47148428300055639 -0.027965024075577289 0 -0.48387674517294832 -0.01317199730479748 0 -0.47148428300055639 -0.027965024075577289 0 -0.5 -0.031174247593917851 0 -0.48387674517294832 -0.01317199730479748 0 -0.5 -0.031174247593917851 0 -0.5 -0.0053171762648813736 0 -0.48387674517294832 -0.01317199730479748 0 -0.5 -0.0053171762648813736 0 -0.48449019969035362 0.0124017731734485 0 -0.5 -0.0053171762648813736 0 -0.48449019969035362 0.0124017731734485 0 -0.5 0.020539895064155159 0 -0.48449019969035362 0.0124017731734485 0 -0.5 0.020539895064155159 0 -0.4808417985407536 0.036405550160303862 0 -0.48449019969035362 0.0124017731734485 0 -0.4808417985407536 0.036405550160303862 0 -0.48449019969035362 0.0124017731734485 0 -0.4808417985407536 0.036405550160303862 0 -0.46459493674599311 0.020531513353771659 0 -0.46803960987327481 -0.0037167553609028128 0 -0.48449019969035362 0.0124017731734485 0 -0.46459493674599311 0.020531513353771659 0 -0.5 0.046396966393191692 0 -0.4808417985407536 0.036405550160303862 0 -0.47719339739115352 0.060409327147159228 0 -0.5 0.046396966393191692 0 -0.47719339739115352 0.060409327147159228 0 -0.49999999999999661 0.072254037722228159 0 -0.5 0.020539895064155159 0 -0.5 0.046396966393191692 0 -0.4808417985407536 0.036405550160303862 0 -0.4808417985407536 0.036405550160303862 0 -0.46115026361871142 0.044779782068446142 0 -0.46459493674599311 0.020531513353771659 0 -0.4808417985407536 0.036405550160303862 0 -0.47719339739115352 0.060409327147159228 0 -0.46115026361871142 0.044779782068446142 0 -0.4808417985407536 0.036405550160303862 0 -0.47719339739115352 0.060409327147159228 0 -0.46115026361871142 0.044779782068446142 0 -0.44756687003766388 0.050340110510305243 0 -0.45770559049142961 0.069028050783120604 0 -0.46115026361871142 0.044779782068446142 0 -0.45770559049142961 0.069028050783120604 0 -0.47719339739115352 0.060409327147159228 0 -0.46115026361871142 0.044779782068446142 0 -0.45770559049142961 0.069028050783120604 0 -0.46115026361871142 0.044779782068446142 0 -0.46459493674599311 0.020531513353771659 0 -0.46115026361871142 0.044779782068446142 0 -0.44756687003766388 0.050340110510305243 0 -0.45371617237759909 0.024507370139167619 0 -0.44290057430727359 0.033499416145380143 0 -0.44756687003766388 0.050340110510305243 0 -0.45371617237759909 0.024507370139167619 0 -0.44756687003766388 0.050340110510305243 0 -0.45371617237759909 0.024507370139167619 0 -0.44290057430727359 0.033499416145380143 0 -0.44756687003766388 0.050340110510305243 0 -0.429617364802728 0.035983422950247632 0 -0.44756687003766388 0.050340110510305243 0 -0.43406137544425138 0.060773491707878567 0 -0.44141756769772872 0.076172850881442863 0 -0.46803960987327481 -0.0037167553609028128 0 -0.46459493674599311 0.020531513353771659 0 -0.46803960987327481 -0.0037167553609028128 0 -0.45670983722662029 0.014599992135380321 0 -0.46459493674599311 0.020531513353771659 0 -0.46803960987327481 -0.0037167553609028128 0 -0.45374908912181211 0.0061484975930937887 0 -0.45670983722662029 0.014599992135380321 0 -0.46115026361871142 0.044779782068446142 0 -0.46459493674599311 0.020531513353771659 0 -0.45371617237759909 0.024507370139167619 0 -0.45670983722662029 0.014599992135380321 0 -0.46459493674599311 0.020531513353771659 0 -0.45371617237759909 0.024507370139167619 0 -0.45670983722662029 0.014599992135380321 0 -0.45371617237759909 0.024507370139167619 0 -0.44431686827323308 0.022011147546613999 0 -0.44290057430727359 0.033499416145380143 0 -0.45371617237759909 0.024507370139167619 0 -0.44431686827323308 0.022011147546613999 0 -0.44290057430727359 0.033499416145380143 0 -0.44431686827323308 0.022011147546613999 0 -0.429617364802728 0.035983422950247632 0 -0.45374908912181211 0.0061484975930937887 0 -0.42938889894061821 0.016595230607006729 0 -0.43940379519405159 -0.003847432587525494 0 -0.45374908912181211 0.0061484975930937887 0 -0.42938889894061821 0.016595230607006729 0 -0.45374908912181211 0.0061484975930937887 0 -0.45670983722662029 0.014599992135380321 0 -0.44431686827323308 0.022011147546613999 0 -0.45374908912181211 0.0061484975930937887 0 -0.44431686827323308 0.022011147546613999 0 -0.42938889894061821 0.016595230607006729 0 -0.42326125812246912 -0.0058109838342302253 0 -0.43940379519405159 -0.003847432587525494 0 -0.42938889894061821 0.016595230607006729 0 -0.42326125812246912 -0.0058109838342302253 0 -0.41186754591880742 0.0075564801545260482 0 -0.42938889894061821 0.016595230607006729 0 -0.42938889894061821 0.016595230607006729 0 -0.40502870875942432 0.027041963620919662 0 -0.41186754591880742 0.0075564801545260482 0 -0.42938889894061821 0.016595230607006729 0 -0.40502870875942432 0.027041963620919662 0 -0.42938889894061821 0.016595230607006729 0 -0.429617364802728 0.035983422950247632 0 -0.40502870875942432 0.027041963620919662 0 -0.44431686827323308 0.022011147546613999 0 -0.42938889894061821 0.016595230607006729 0 -0.429617364802728 0.035983422950247632 0 -0.44756687003766388 0.050340110510305243 0 -0.429617364802728 0.035983422950247632 0 -0.42783439282492303 0.050107320657424882 0 -0.429617364802728 0.035983422950247632 0 -0.42783439282492303 0.050107320657424882 0 -0.41393835718004501 0.041587648960438678 0 -0.43406137544425138 0.060773491707878567 0 -0.42783439282492303 0.050107320657424882 0 -0.41521450108633751 0.057028982612078338 0 -0.44756687003766388 0.050340110510305243 0 -0.43406137544425138 0.060773491707878567 0 -0.42783439282492303 0.050107320657424882 0 -0.41521450108633751 0.057028982612078338 0 -0.41393835718004501 0.041587648960438678 0 -0.39924738536976012 0.046939233192565988 0 -0.42783439282492303 0.050107320657424882 0 -0.41521450108633751 0.057028982612078338 0 -0.41393835718004501 0.041587648960438678 0 -0.41521450108633751 0.057028982612078338 0 -0.40073561153071141 0.059163617439289842 0 -0.40504206850019148 0.069280888836480176 0 -0.429617364802728 0.035983422950247632 0 -0.41393835718004501 0.041587648960438678 0 -0.40502870875942432 0.027041963620919662 0 -0.39924738536976012 0.046939233192565988 0 -0.38066851857823031 0.037488696634832161 0 -0.40502870875942432 0.027041963620919662 0 -0.41393835718004501 0.041587648960438678 0 -0.39924738536976012 0.046939233192565988 0 -0.40502870875942432 0.027041963620919662 0 -0.38066851857823031 0.037488696634832161 0 -0.40502870875942432 0.027041963620919662 0 -0.39924738536976012 0.046939233192565988 0 -0.40073561153071141 0.059163617439289842 0 -0.38751404645122373 0.064017107602616363 0 -0.41521450108633751 0.057028982612078338 0 -0.39924738536976012 0.046939233192565988 0 -0.40073561153071141 0.059163617439289842 0 -0.38066851857823031 0.037488696634832161 0 -0.38751404645122373 0.064017107602616363 0 -0.38414929756282762 0.056492446965361917 0 -0.38066851857823031 0.037488696634832161 0 -0.37323241054370382 0.051514662577670858 0 -0.39924738536976012 0.046939233192565988 0 -0.38066851857823031 0.037488696634832161 0 -0.38751404645122373 0.064017107602616363 0 -0.38414929756282762 0.056492446965361917 0 -0.38066851857823031 0.037488696634832161 0 -0.38751404645122373 0.064017107602616363 0 -0.38414929756282762 0.056492446965361917 0 -0.37714401326192132 0.060996472085924063 0 -0.38751404645122373 0.064017107602616363 0 -0.38414929756282762 0.056492446965361917 0 -0.38751404645122373 0.064017107602616363 0 -0.38414929756282762 0.056492446965361917 0 -0.37714401326192132 0.060996472085924063 0 -0.37323241054370382 0.051514662577670858 0 -0.38066851857823031 0.037488696634832161 0 -0.37358375636666019 0.010033183043397309 0 -0.38066851857823031 0.037488696634832161 0 -0.38804109378166002 0.02011603489847829 0 -0.37358375636666019 0.010033183043397309 0 -0.38804109378166002 0.02011603489847829 0 -0.39288339142232498 0.005900296294764012 0 -0.37358375636666019 0.010033183043397309 0 -0.37903097770980249 -0.0054786151453708708 0 -0.39288339142232498 0.005900296294764012 0 -0.37358375636666019 0.010033183043397309 0 -0.40335043699815742 -0.011659964768554271 0 -0.41186754591880742 0.0075564801545260482 0 -0.39288339142232498 0.005900296294764012 0 -0.41186754591880742 0.0075564801545260482 0 -0.39288339142232498 0.005900296294764012 0 -0.40502870875942432 0.027041963620919662 0 -0.38066851857823031 0.037488696634832161 0 -0.38804109378166002 0.02011603489847829 0 -0.40502870875942432 0.027041963620919662 0 -0.38804109378166002 0.02011603489847829 0 -0.39288339142232498 0.005900296294764012 0 -0.40502870875942432 0.027041963620919662 0 -0.40112275208765608 0.1167547989188748 0 -0.39431839926944062 0.090385953260745444 0 -0.40112275208765608 0.1167547989188748 0 -0.38965913383820427 0.098992367895230832 0 -0.39431839926944062 0.090385953260745444 0 -0.40604684158834298 0.1054623977838781 0 -0.39678044401978269 0.084739752693247516 0 -0.39065092349921371 0.1087286649576525 0 -0.40112275208765608 0.1167547989188748 0 -0.38965913383820427 0.098992367895230832 0 -0.40604684158834298 0.1054623977838781 0 -0.39678044401978269 0.084739752693247516 0 -0.41513015813954579 0.097599374399716055 0 -0.40604684158834298 0.1054623977838781 0 -0.40112275208765608 0.1167547989188748 0 -0.39431839926944062 0.090385953260745444 0 -0.40112275208765608 0.1167547989188748 0 -0.39299135436758681 0.118869901039054 0 -0.39457136054532149 0.12999334139195651 0 -0.39299135436758681 0.118869901039054 0 -0.38876038364994497 0.1232030294436614 0 -0.39457136054532149 0.12999334139195651 0 -0.39065092349921371 0.1087286649576525 0 -0.40112275208765608 0.1167547989188748 0 -0.39299135436758681 0.118869901039054 0 -0.39065092349921371 0.1087286649576525 0 -0.38417058692313588 0.1110931248803988 0 -0.38512514225086197 0.1190419011889424 0 -0.39065092349921371 0.1087286649576525 0 -0.38512514225086197 0.1190419011889424 0 -0.38417058692313588 0.1110931248803988 0 -0.38512514225086197 0.1190419011889424 0 -0.38090411335605701 0.1141722010501808 0 -0.39065092349921371 0.1087286649576525 0 -0.38731244099652179 0.1173946814435866 0 -0.38512514225086197 0.1190419011889424 0 -0.39065092349921371 0.1087286649576525 0 -0.39299135436758681 0.118869901039054 0 -0.38731244099652179 0.1173946814435866 0 -0.38876038364994497 0.1232030294436614 0 -0.38512514225086197 0.1190419011889424 0 -0.37911475636388758 0.13025959633604231 0 -0.39299135436758681 0.118869901039054 0 -0.38876038364994497 0.1232030294436614 0 -0.38731244099652179 0.1173946814435866 0 -0.38876038364994497 0.1232030294436614 0 -0.38731244099652179 0.1173946814435866 0 -0.38512514225086197 0.1190419011889424 0 -0.38731244099652179 0.1173946814435866 0 -0.38512514225086197 0.1190419011889424 0 -0.38512514225086197 0.1190419011889424 0 -0.37911475636388758 0.13025959633604231 0 -0.38512514225086197 0.1190419011889424 0 -0.37781630623795659 0.1245460688386113 0 -0.37911475636388758 0.13025959633604231 0 -0.38512514225086197 0.1190419011889424 0 -0.37895842156273402 0.1205772087017065 0 -0.37781630623795659 0.1245460688386113 0 -0.38512514225086197 0.1190419011889424 0 -0.37781630623795659 0.1245460688386113 0 -0.38512514225086197 0.1190419011889424 0 -0.37895842156273402 0.1205772087017065 0 -0.37815393384914092 0.1177356808483677 0 -0.37815393384914092 0.1177356808483677 0 -0.37486626081068392 0.12154822847063659 0 -0.37276745050485549 0.116694808056333 0 -0.37895842156273402 0.1205772087017065 0 -0.37815393384914092 0.1177356808483677 0 -0.37486626081068392 0.12154822847063659 0 -0.37895842156273402 0.1205772087017065 0 -0.37781630623795659 0.1245460688386113 0 -0.37486626081068392 0.12154822847063659 0 -0.38417058692313588 0.1110931248803988 0 -0.37984497206083079 0.1099652366349073 0 -0.38090411335605701 0.1141722010501808 0 -0.38512514225086197 0.1190419011889424 0 -0.37815393384914092 0.1177356808483677 0 -0.38090411335605701 0.1141722010501808 0 -0.37815393384914092 0.1177356808483677 0 -0.38090411335605701 0.1141722010501808 0 -0.37596750052153538 0.11318892794042081 0 -0.37815393384914092 0.1177356808483677 0 -0.37596750052153538 0.11318892794042081 0 -0.37276745050485549 0.116694808056333 0 -0.37984497206083079 0.1099652366349073 0 -0.38090411335605701 0.1141722010501808 0 -0.37596750052153538 0.11318892794042081 0 -0.37984497206083079 0.1099652366349073 0 -0.37596750052153538 0.11318892794042081 0 -0.37530769651611179 0.107104446043488 0 -0.37530769651611179 0.107104446043488 0 -0.38181092109915538 0.1038853530545768 0 -0.37455653253468418 0.1007513186608863 0 -0.37984497206083079 0.1099652366349073 0 -0.37530769651611179 0.107104446043488 0 -0.38181092109915538 0.1038853530545768 0 -0.38417058692313588 0.1110931248803988 0 -0.37984497206083079 0.1099652366349073 0 -0.38181092109915538 0.1038853530545768 0 -0.39065092349921371 0.1087286649576525 0 -0.38181092109915538 0.1038853530545768 0 -0.38965913383820427 0.098992367895230832 0 -0.39065092349921371 0.1087286649576525 0 -0.38417058692313588 0.1110931248803988 0 -0.38181092109915538 0.1038853530545768 0 -0.38181092109915538 0.1038853530545768 0 -0.376418197287687 0.091288213593508638 0 -0.37455653253468418 0.1007513186608863 0 -0.38181092109915538 0.1038853530545768 0 -0.38965913383820427 0.098992367895230832 0 -0.376418197287687 0.091288213593508638 0 -0.376418197287687 0.091288213593508638 0 -0.38090635614600848 0.079194734301953895 0 -0.39431839926944062 0.090385953260745444 0 -0.38965913383820427 0.098992367895230832 0 -0.376418197287687 0.091288213593508638 0 -0.39431839926944062 0.090385953260745444 0 -0.376418197287687 0.091288213593508638 0 -0.38090635614600848 0.079194734301953895 0 -0.37083957981555932 0.079806517741405916 0 -0.38090635614600848 0.079194734301953895 0 -0.38751404645122373 0.064017107602616363 0 -0.39431839926944062 0.090385953260745444 0 -0.37714401326192132 0.060996472085924063 0 -0.38751404645122373 0.064017107602616363 0 -0.37484658140675331 0.070341644950357718 0 -0.38090635614600848 0.079194734301953895 0 -0.38751404645122373 0.064017107602616363 0 -0.37484658140675331 0.070341644950357718 0 -0.38090635614600848 0.079194734301953895 0 -0.37484658140675331 0.070341644950357718 0 -0.37083957981555932 0.079806517741405916 0 -0.38751404645122373 0.064017107602616363 0 -0.39431839926944062 0.090385953260745444 0 -0.38751404645122373 0.064017107602616363 0 -0.40504206850019148 0.069280888836480176 0 -0.39678044401978269 0.084739752693247516 0 -0.40073561153071141 0.059163617439289842 0 -0.38751404645122373 0.064017107602616363 0 -0.40504206850019148 0.069280888836480176 0 -0.38751404645122373 0.064017107602616363 0 -0.39678044401978269 0.084739752693247516 0 -0.40604684158834298 0.1054623977838781 0 -0.39678044401978269 0.084739752693247516 0 -0.39431839926944062 0.090385953260745444 0 -0.38751404645122373 0.064017107602616363 0 -0.39678044401978269 0.084739752693247516 0 -0.39431839926944062 0.090385953260745444 0 -0.39678044401978269 0.084739752693247516 0 -0.41906719137248349 0.086071131384398342 0 -0.41513015813954579 0.097599374399716055 0 -0.40504206850019148 0.069280888836480176 0 -0.39678044401978269 0.084739752693247516 0 -0.41906719137248349 0.086071131384398342 0 -0.41521450108633751 0.057028982612078338 0 -0.40504206850019148 0.069280888836480176 0 -0.42296054082019863 0.069865469084455664 0 -0.40504206850019148 0.069280888836480176 0 -0.41906719137248349 0.086071131384398342 0 -0.42296054082019863 0.069865469084455664 0 -0.43406137544425138 0.060773491707878567 0 -0.42296054082019863 0.069865469084455664 0 -0.44141756769772872 0.076172850881442863 0 -0.43406137544425138 0.060773491707878567 0 -0.41521450108633751 0.057028982612078338 0 -0.42296054082019863 0.069865469084455664 0 -0.41906719137248349 0.086071131384398342 0 -0.42296054082019863 0.069865469084455664 0 -0.44141756769772872 0.076172850881442863 0 -0.41906719137248349 0.086071131384398342 0 -0.43526826535779112 0.10200559125257989 0 -0.44141756769772872 0.076172850881442863 0 -0.41906719137248349 0.086071131384398342 0 -0.43526826535779112 0.10200559125257989 0 -0.41513015813954579 0.097599374399716055 0 -0.43526826535779112 0.10200559125257989 0 -0.41513015813954579 0.097599374399716055 0 -0.41848804835932668 0.1097179988844757 0 -0.43526826535779112 0.10200559125257989 0 -0.41848804835932668 0.1097179988844757 0 -0.40604684158834298 0.1054623977838781 0 -0.41513015813954579 0.097599374399716055 0 -0.41848804835932668 0.1097179988844757 0 -0.40604684158834298 0.1054623977838781 0 -0.40112275208765608 0.1167547989188748 0 -0.41531323915690332 0.12618504287450871 0 -0.40604684158834298 0.1054623977838781 0 -0.41531323915690332 0.12618504287450871 0 -0.40604684158834298 0.1054623977838781 0 -0.41848804835932668 0.1097179988844757 0 -0.41531323915690332 0.12618504287450871 0 -0.41848804835932668 0.1097179988844757 0 -0.42992395104162751 0.1244566396088601 0 -0.41531323915690332 0.12618504287450871 0 -0.43526826535779112 0.10200559125257989 0 -0.41848804835932668 0.1097179988844757 0 -0.42992395104162751 0.1244566396088601 0 -0.43526826535779112 0.10200559125257989 0 -0.42992395104162751 0.1244566396088601 0 -0.44542343489149677 0.1110668987821784 0 -0.43526826535779112 0.10200559125257989 0 -0.42992395104162751 0.1244566396088601 0 -0.42992395104162751 0.1244566396088601 0 -0.45034942204617318 0.1224733412772354 0 -0.44542343489149677 0.1110668987821784 0 -0.45034942204617318 0.1224733412772354 0 -0.44542343489149677 0.1110668987821784 0 -0.45938331340976057 0.11136598314972709 0 -0.43526826535779112 0.10200559125257989 0 -0.45324786628046898 0.1004075432717397 0 -0.45426091736414642 0.093276319497794885 0 -0.43526826535779112 0.10200559125257989 0 -0.45426091736414642 0.093276319497794885 0 -0.43526826535779112 0.10200559125257989 0 -0.44542343489149677 0.1110668987821784 0 -0.45324786628046898 0.1004075432717397 0 -0.44542343489149677 0.1110668987821784 0 -0.45324786628046898 0.1004075432717397 0 -0.45938331340976057 0.11136598314972709 0 -0.45324786628046898 0.1004075432717397 0 -0.46279724701519548 0.098126545995537495 0 -0.45938331340976057 0.11136598314972709 0 -0.45324786628046898 0.1004075432717397 0 -0.46279724701519548 0.098126545995537495 0 -0.45426091736414642 0.093276319497794885 0 -0.45324786628046898 0.1004075432717397 0 -0.45426091736414642 0.093276319497794885 0 -0.46279724701519548 0.098126545995537495 0 -0.45938331340976057 0.11136598314972709 0 -0.47054384656280102 0.1041584458985411 0 -0.46754269688404859 0.1239037876630677 0 -0.45938331340976057 0.11136598314972709 0 -0.47054384656280102 0.1041584458985411 0 -0.45034942204617318 0.1224733412772354 0 -0.46754269688404859 0.1239037876630677 0 -0.45938331340976057 0.11136598314972709 0 -0.44756687003766388 0.050340110510305243 0 -0.44141756769772872 0.076172850881442863 0 -0.44756687003766388 0.050340110510305243 0 -0.44141756769772872 0.076172850881442863 0 -0.45770559049142961 0.069028050783120604 0 -0.43526826535779112 0.10200559125257989 0 -0.44141756769772872 0.076172850881442863 0 -0.45426091736414642 0.093276319497794885 0 -0.43526826535779112 0.10200559125257989 0 -0.44141756769772872 0.076172850881442863 0 -0.44141756769772872 0.076172850881442863 0 -0.45426091736414642 0.093276319497794885 0 -0.45770559049142961 0.069028050783120604 0 -0.45426091736414642 0.093276319497794885 0 -0.45770559049142961 0.069028050783120604 0 -0.47354499624155399 0.084413104134014691 0 -0.45426091736414642 0.093276319497794885 0 -0.47354499624155399 0.084413104134014691 0 -0.46279724701519548 0.098126545995537495 0 -0.45426091736414642 0.093276319497794885 0 -0.47354499624155399 0.084413104134014691 0 -0.45426091736414642 0.093276319497794885 0 -0.45770559049142961 0.069028050783120604 0 -0.47719339739115352 0.060409327147159228 0 -0.45770559049142961 0.069028050783120604 0 -0.47354499624155399 0.084413104134014691 0 -0.47719339739115352 0.060409327147159228 0 -0.47354499624155399 0.084413104134014691 0 -0.47719339739115352 0.060409327147159228 0 -0.47354499624155399 0.084413104134014691 0 -0.49999999999999661 0.072254037722228159 0 -0.49999999999999661 0.072254037722228159 0 -0.4850320387576823 0.095581151480359061 0 -0.5 0.099666692972992743 0 -0.47354499624155399 0.084413104134014691 0 -0.49999999999999661 0.072254037722228159 0 -0.47354499624155399 0.084413104134014691 0 -0.49999999999999661 0.072254037722228159 0 -0.4850320387576823 0.095581151480359061 0 -0.46754269688404859 0.1239037876630677 0 -0.47054384656280102 0.1041584458985411 0 -0.46754269688404859 0.1239037876630677 0 -0.48412829883192321 0.1146206013031649 0 -0.47054384656280102 0.1041584458985411 0 -0.48412829883192321 0.1146206013031649 0 -0.47054384656280102 0.1041584458985411 0 -0.4850320387576823 0.095581151480359061 0 -0.47354499624155399 0.084413104134014691 0 -0.47054384656280102 0.1041584458985411 0 -0.4850320387576823 0.095581151480359061 0 -0.47354499624155399 0.084413104134014691 0 -0.47054384656280102 0.1041584458985411 0 -0.46279724701519548 0.098126545995537495 0 -0.47354499624155399 0.084413104134014691 0 -0.47054384656280102 0.1041584458985411 0 -0.48412829883192321 0.1146206013031649 0 -0.4850320387576823 0.095581151480359061 0 -0.5 0.099666692972992743 0 -0.48412829883192321 0.1146206013031649 0 -0.5 0.099666692972992743 0 -0.5 0.12707934822375749 0 -0.5 0.12707934822375749 0 -0.48228807492197823 0.1367523325446767 0 -0.5 0.15449200347452241 0 -0.48412829883192321 0.1146206013031649 0 -0.5 0.12707934822375749 0 -0.48228807492197823 0.1367523325446767 0 -0.46754269688404859 0.1239037876630677 0 -0.48412829883192321 0.1146206013031649 0 -0.48228807492197823 0.1367523325446767 0 -0.46754269688404859 0.1239037876630677 0 -0.48228807492197823 0.1367523325446767 0 -0.46129916336549842 0.13873481955256819 0 -0.48228807492197823 0.1367523325446767 0 -0.47676974276846767 0.15442092533359361 0 -0.46129916336549842 0.13873481955256819 0 -0.48228807492197823 0.1367523325446767 0 -0.47676974276846767 0.15442092533359361 0 -0.5 0.15449200347452241 0 -0.47676974276846767 0.15442092533359361 0 -0.5 0.15449200347452241 0 -0.48640799753261987 0.1681983310999047 0 -0.5 0.15449200347452241 0 -0.48640799753261987 0.1681983310999047 0 -0.5 0.18190465872528711 0 -0.48640799753261987 0.1681983310999047 0 -0.5 0.18190465872528711 0 -0.48410972955872372 0.19198981180030891 0 -0.46821945911744528 0.17466230962456669 0 -0.48410972955872372 0.19198981180030891 0 -0.48640799753261987 0.1681983310999047 0 -0.46821945911744528 0.17466230962456669 0 -0.48410972955872372 0.19198981180030891 0 -0.47676974276846767 0.15442092533359361 0 -0.48640799753261987 0.1681983310999047 0 -0.46821945911744528 0.17466230962456669 0 -0.47676974276846767 0.15442092533359361 0 -0.46821945911744528 0.17466230962456669 0 -0.46207344186167759 0.15316221725869411 0 -0.46821945911744528 0.17466230962456669 0 -0.452329188676167 0.15733480744882461 0 -0.46207344186167759 0.15316221725869411 0 -0.46821945911744528 0.17466230962456669 0 -0.45104845678097738 0.17342200846030659 0 -0.452329188676167 0.15733480744882461 0 -0.46821945911744528 0.17466230962456669 0 -0.452329188676167 0.15733480744882461 0 -0.45649820444964062 0.18408099767013811 0 -0.46821945911744528 0.17466230962456669 0 -0.4636004822183033 0.19737488383236229 0 -0.45649820444964062 0.18408099767013811 0 -0.46821945911744528 0.17466230962456669 0 -0.45104845678097738 0.17342200846030659 0 -0.45104845678097738 0.17342200846030659 0 -0.44347993693211579 0.18917483767364049 0 -0.4369354891865655 0.17453934778214769 0 -0.45649820444964062 0.18408099767013811 0 -0.45104845678097738 0.17342200846030659 0 -0.44347993693211579 0.18917483767364049 0 -0.44347993693211579 0.18917483767364049 0 -0.4369354891865655 0.17453934778214769 0 -0.45104845678097738 0.17342200846030659 0 -0.452329188676167 0.15733480744882461 0 -0.44249244996819143 0.16320854649957919 0 -0.452329188676167 0.15733480744882461 0 -0.44249244996819143 0.16320854649957919 0 -0.44411798609316372 0.15149861367333001 0 -0.45104845678097738 0.17342200846030659 0 -0.44249244996819143 0.16320854649957919 0 -0.4369354891865655 0.17453934778214769 0 -0.44249244996819143 0.16320854649957919 0 -0.44411798609316372 0.15149861367333001 0 -0.43039104144101531 0.1599038578906547 0 -0.45259672436918091 0.14808687025334519 0 -0.44246666659028328 0.14033062466327889 0 -0.46129916336549842 0.13873481955256819 0 -0.452329188676167 0.15733480744882461 0 -0.44411798609316372 0.15149861367333001 0 -0.45259672436918091 0.14808687025334519 0 -0.44411798609316372 0.15149861367333001 0 -0.45259672436918091 0.14808687025334519 0 -0.44246666659028328 0.14033062466327889 0 -0.44411798609316372 0.15149861367333001 0 -0.44246666659028328 0.14033062466327889 0 -0.43538883271248091 0.1496601960481008 0 -0.42992395104162751 0.1244566396088601 0 -0.45034942204617318 0.1224733412772354 0 -0.44246666659028328 0.14033062466327889 0 -0.45034942204617318 0.1224733412772354 0 -0.44246666659028328 0.14033062466327889 0 -0.46129916336549842 0.13873481955256819 0 -0.45034942204617318 0.1224733412772354 0 -0.46754269688404859 0.1239037876630677 0 -0.46129916336549842 0.13873481955256819 0 -0.47676974276846767 0.15442092533359361 0 -0.46129916336549842 0.13873481955256819 0 -0.46207344186167759 0.15316221725869411 0 -0.452329188676167 0.15733480744882461 0 -0.45259672436918091 0.14808687025334519 0 -0.46207344186167759 0.15316221725869411 0 -0.45259672436918091 0.14808687025334519 0 -0.46129916336549842 0.13873481955256819 0 -0.46207344186167759 0.15316221725869411 0 -0.47013018740982893 0.23536019814656239 0 -0.48838053570968892 0.22562936649519719 0 -0.48501989922588229 0.25057080601668308 0 -0.5 0.2385872273181088 0 -0.48838053570968892 0.22562936649519719 0 -0.48501989922588229 0.25057080601668308 0 -0.5 0.2385872273181088 0 -0.48838053570968892 0.22562936649519719 0 -0.50000000000000444 0.21267150567228549 0 -0.47013018740982893 0.23536019814656239 0 -0.48838053570968892 0.22562936649519719 0 -0.47547911074548482 0.2139472715891978 0 -0.47547911074548482 0.2139472715891978 0 -0.48660948332365139 0.20564727652962389 0 -0.4636004822183033 0.19737488383236229 0 -0.48838053570968892 0.22562936649519719 0 -0.47547911074548482 0.2139472715891978 0 -0.50000000000000444 0.21267150567228549 0 -0.47547911074548482 0.2139472715891978 0 -0.50000000000000444 0.21267150567228549 0 -0.48660948332365139 0.20564727652962389 0 -0.47547911074548482 0.2139472715891978 0 -0.50000000000000444 0.21267150567228549 0 -0.50000000000000444 0.21267150567228549 0 -0.50000000000000133 0.2093173139760518 0 -0.48660948332365139 0.20564727652962389 0 -0.50000000000000133 0.2093173139760518 0 -0.48660948332365139 0.20564727652962389 0 -0.48410972955872372 0.19198981180030891 0 -0.50000000000000133 0.2093173139760518 0 -0.48410972955872372 0.19198981180030891 0 -0.5 0.18190465872528711 0 -0.50000000000000133 0.2093173139760518 0 -0.48410972955872372 0.19198981180030891 0 -0.48660948332365139 0.20564727652962389 0 -0.48410972955872372 0.19198981180030891 0 -0.4636004822183033 0.19737488383236229 0 -0.46821945911744528 0.17466230962456669 0 -0.48410972955872372 0.19198981180030891 0 -0.4636004822183033 0.19737488383236229 0 -0.45649820444964062 0.18408099767013811 0 -0.4636004822183033 0.19737488383236229 0 -0.44347993693211579 0.18917483767364049 0 -0.4636004822183033 0.19737488383236229 0 -0.44347993693211579 0.18917483767364049 0 -0.44290501737858462 0.2037390975977835 0 -0.44347993693211579 0.18917483767364049 0 -0.44290501737858462 0.2037390975977835 0 -0.43004911401509271 0.20042392555378299 0 -0.4636004822183033 0.19737488383236229 0 -0.45095822149096521 0.21522303750610991 0 -0.44290501737858462 0.2037390975977835 0 -0.45095822149096521 0.21522303750610991 0 -0.44290501737858462 0.2037390975977835 0 -0.42643733223644559 0.21649880342302191 0 -0.45095822149096521 0.21522303750610991 0 -0.42643733223644559 0.21649880342302191 0 -0.47547911074548482 0.2139472715891978 0 -0.4636004822183033 0.19737488383236229 0 -0.45095822149096521 0.21522303750610991 0 -0.47547911074548482 0.2139472715891978 0 -0.45095822149096521 0.21522303750610991 0 -0.47013018740982893 0.23536019814656239 0 -0.45095822149096521 0.21522303750610991 0 -0.45439009818301679 0.2393202575703216 0 -0.47013018740982893 0.23536019814656239 0 -0.47547911074548482 0.2139472715891978 0 -0.45095822149096521 0.21522303750610991 0 -0.45095822149096521 0.21522303750610991 0 -0.43527724311026539 0.22487023214603921 0 -0.42643733223644559 0.21649880342302191 0 -0.45095822149096521 0.21522303750610991 0 -0.44084343893992711 0.2332693015372348 0 -0.43527724311026539 0.22487023214603921 0 -0.45095822149096521 0.21522303750610991 0 -0.44084343893992711 0.2332693015372348 0 -0.45439009818301679 0.2393202575703216 0 -0.44084343893992711 0.2332693015372348 0 -0.45439009818301679 0.2393202575703216 0 -0.44465713381403682 0.25049297684765931 0 -0.47013018740982893 0.23536019814656239 0 -0.45439009818301679 0.2393202575703216 0 -0.46644428785434999 0.26649616757752809 0 -0.41676627263660032 0.24443506279210619 0 -0.40325589615993918 0.23648706190374841 0 -0.40763117909604091 0.25573947588959678 0 -0.41676627263660032 0.24443506279210619 0 -0.43154159994525071 0.2498753023358056 0 -0.42286997977372348 0.23448978611779039 0 -0.43154159994525071 0.2498753023358056 0 -0.42286997977372348 0.23448978611779039 0 -0.44465713381403682 0.25049297684765931 0 -0.42286997977372348 0.23448978611779039 0 -0.44465713381403682 0.25049297684765931 0 -0.44084343893992711 0.2332693015372348 0 -0.42286997977372348 0.23448978611779039 0 -0.44465713381403682 0.25049297684765931 0 -0.44084343893992711 0.2332693015372348 0 -0.42286997977372348 0.23448978611779039 0 -0.43527724311026539 0.22487023214603921 0 -0.42286997977372348 0.23448978611779039 0 -0.43527724311026539 0.22487023214603921 0 -0.42643733223644559 0.21649880342302191 0 -0.41676627263660032 0.24443506279210619 0 -0.40703925367385568 0.2205934715441874 0 -0.41676627263660032 0.24443506279210619 0 -0.42286997977372348 0.23448978611779039 0 -0.40703925367385568 0.2205934715441874 0 -0.42286997977372348 0.23448978611779039 0 -0.40703925367385568 0.2205934715441874 0 -0.42643733223644559 0.21649880342302191 0 -0.41676627263660032 0.24443506279210619 0 -0.40703925367385568 0.2205934715441874 0 -0.40325589615993918 0.23648706190374841 0 -0.40703925367385568 0.2205934715441874 0 -0.42030920695778268 0.2071183903588811 0 -0.41204906343293529 0.1995476507890771 0 -0.40703925367385568 0.2205934715441874 0 -0.41204906343293529 0.1995476507890771 0 -0.40703925367385568 0.2205934715441874 0 -0.42030920695778268 0.2071183903588811 0 -0.42643733223644559 0.21649880342302191 0 -0.42030920695778268 0.2071183903588811 0 -0.42643733223644559 0.21649880342302191 0 -0.43004911401509271 0.20042392555378299 0 -0.44290501737858462 0.2037390975977835 0 -0.42643733223644559 0.21649880342302191 0 -0.43004911401509271 0.20042392555378299 0 -0.42030920695778268 0.2071183903588811 0 -0.43004911401509271 0.20042392555378299 0 -0.41976904360750739 0.18901460030177639 0 -0.44347993693211579 0.18917483767364049 0 -0.43004911401509271 0.20042392555378299 0 -0.43116075452388097 0.18537942414503039 0 -0.43004911401509271 0.20042392555378299 0 -0.41976904360750739 0.18901460030177639 0 -0.43116075452388097 0.18537942414503039 0 -0.41204906343293529 0.1995476507890771 0 -0.40328110070814149 0.18891226009650239 0 -0.4170576110318267 0.1785015295856022 0 -0.42030920695778268 0.2071183903588811 0 -0.41976904360750739 0.18901460030177639 0 -0.41204906343293529 0.1995476507890771 0 -0.41204906343293529 0.1995476507890771 0 -0.4170576110318267 0.1785015295856022 0 -0.41976904360750739 0.18901460030177639 0 -0.41204906343293529 0.1995476507890771 0 -0.4170576110318267 0.1785015295856022 0 -0.39946741733340357 0.2020343808590595 0 -0.3912924291444505 0.1838446104207378 0 -0.39727416265219462 0.21016583616224321 0 -0.3912924291444505 0.1838446104207378 0 -0.40328110070814149 0.18891226009650239 0 -0.39946741733340357 0.2020343808590595 0 -0.3912924291444505 0.1838446104207378 0 -0.39946741733340357 0.2020343808590595 0 -0.39727416265219462 0.21016583616224321 0 -0.3912924291444505 0.1838446104207378 0 -0.41204906343293529 0.1995476507890771 0 -0.40328110070814149 0.18891226009650239 0 -0.39946741733340357 0.2020343808590595 0 -0.3912924291444505 0.1838446104207378 0 -0.36910710722459261 0.18418159539959941 0 -0.37386674318036178 0.1945146575356777 0 -0.39727416265219462 0.21016583616224321 0 -0.3912924291444505 0.1838446104207378 0 -0.37386674318036178 0.1945146575356777 0 -0.3912924291444505 0.1838446104207378 0 -0.37386674318036178 0.1945146575356777 0 -0.3751924715994257 0.21357865753184349 0 -0.39727416265219462 0.21016583616224321 0 -0.37386674318036178 0.1945146575356777 0 -0.3751924715994257 0.21357865753184349 0 -0.39727416265219462 0.21016583616224321 0 -0.38428946164667532 0.22947862156510779 0 -0.40703925367385568 0.2205934715441874 0 -0.39946741733340357 0.2020343808590595 0 -0.40703925367385568 0.2205934715441874 0 -0.41204906343293529 0.1995476507890771 0 -0.39946741733340357 0.2020343808590595 0 -0.40703925367385568 0.2205934715441874 0 -0.39946741733340357 0.2020343808590595 0 -0.39727416265219462 0.21016583616224321 0 -0.39727416265219462 0.21016583616224321 0 -0.38428946164667532 0.22947862156510779 0 -0.40325589615993918 0.23648706190374841 0 -0.40703925367385568 0.2205934715441874 0 -0.40325589615993918 0.23648706190374841 0 -0.40703925367385568 0.2205934715441874 0 -0.39727416265219462 0.21016583616224321 0 -0.40325589615993918 0.23648706190374841 0 -0.39727416265219462 0.21016583616224321 0 -0.40325589615993918 0.23648706190374841 0 -0.38428946164667532 0.22947862156510779 0 -0.38883401816148688 0.2457484078483714 0 -0.37174080938697279 0.25191423084052289 0 -0.38883401816148688 0.2457484078483714 0 -0.40325589615993918 0.23648706190374841 0 -0.39720156058512007 0.26192085428835032 0 -0.40325589615993918 0.23648706190374841 0 -0.40763117909604091 0.25573947588959678 0 -0.38428946164667532 0.22947862156510779 0 -0.38883401816148688 0.2457484078483714 0 -0.40325589615993918 0.23648706190374841 0 -0.40325589615993918 0.23648706190374841 0 -0.39720156058512007 0.26192085428835032 0 -0.40792710490587181 0.1431236445770043 0 -0.42457963672546251 0.14690768796513989 0 -0.41996653687939378 0.16628696126183229 0 -0.40112275208765608 0.1167547989188748 0 -0.40792710490587181 0.1431236445770043 0 -0.41531323915690332 0.12618504287450871 0 -0.40792710490587181 0.1431236445770043 0 -0.41531323915690332 0.12618504287450871 0 -0.42457963672546251 0.14690768796513989 0 -0.41531323915690332 0.12618504287450871 0 -0.42457963672546251 0.14690768796513989 0 -0.42992395104162751 0.1244566396088601 0 -0.42457963672546251 0.14690768796513989 0 -0.42992395104162751 0.1244566396088601 0 -0.41531323915690332 0.12618504287450871 0 -0.42457963672546251 0.14690768796513989 0 -0.42992395104162751 0.1244566396088601 0 -0.44246666659028328 0.14033062466327889 0 -0.42457963672546251 0.14690768796513989 0 -0.44246666659028328 0.14033062466327889 0 -0.42457963672546251 0.14690768796513989 0 -0.43538883271248091 0.1496601960481008 0 -0.42457963672546251 0.14690768796513989 0 -0.43039104144101531 0.1599038578906547 0 -0.44411798609316372 0.15149861367333001 0 -0.43538883271248091 0.1496601960481008 0 -0.43039104144101531 0.1599038578906547 0 -0.44411798609316372 0.15149861367333001 0 -0.43039104144101531 0.1599038578906547 0 -0.42457963672546251 0.14690768796513989 0 -0.43538883271248091 0.1496601960481008 0 -0.43039104144101531 0.1599038578906547 0 -0.42457963672546251 0.14690768796513989 0 -0.41996653687939378 0.16628696126183229 0 -0.42457963672546251 0.14690768796513989 0 -0.43039104144101531 0.1599038578906547 0 -0.41996653687939378 0.16628696126183229 0 -0.43039104144101531 0.1599038578906547 0 -0.42771035618773362 0.17139427413704811 0 -0.4369354891865655 0.17453934778214769 0 -0.44249244996819143 0.16320854649957919 0 -0.43039104144101531 0.1599038578906547 0 -0.4369354891865655 0.17453934778214769 0 -0.43039104144101531 0.1599038578906547 0 -0.4369354891865655 0.17453934778214769 0 -0.42771035618773362 0.17139427413704811 0 -0.42188482357917217 0.17792666364609969 0 -0.41996653687939378 0.16628696126183229 0 -0.43039104144101531 0.1599038578906547 0 -0.42771035618773362 0.17139427413704811 0 -0.41996653687939378 0.16628696126183229 0 -0.43039104144101531 0.1599038578906547 0 -0.41996653687939378 0.16628696126183229 0 -0.44347993693211579 0.18917483767364049 0 -0.43116075452388097 0.18537942414503039 0 -0.4369354891865655 0.17453934778214769 0 -0.43116075452388097 0.18537942414503039 0 -0.4369354891865655 0.17453934778214769 0 -0.42942285586933798 0.1773099274275815 0 -0.42771035618773362 0.17139427413704811 0 -0.4369354891865655 0.17453934778214769 0 -0.42942285586933798 0.1773099274275815 0 -0.42771035618773362 0.17139427413704811 0 -0.42188482357917217 0.17792666364609969 0 -0.42942285586933798 0.1773099274275815 0 -0.41976904360750739 0.18901460030177639 0 -0.43116075452388097 0.18537942414503039 0 -0.42188482357917217 0.17792666364609969 0 -0.43116075452388097 0.18537942414503039 0 -0.42188482357917217 0.17792666364609969 0 -0.42942285586933798 0.1773099274275815 0 -0.4170576110318267 0.1785015295856022 0 -0.41473145772408748 0.1694924902351338 0 -0.39593456858940318 0.18100214862647271 0 -0.4170576110318267 0.1785015295856022 0 -0.39593456858940318 0.18100214862647271 0 -0.41976904360750739 0.18901460030177639 0 -0.42188482357917217 0.17792666364609969 0 -0.4170576110318267 0.1785015295856022 0 -0.41976904360750739 0.18901460030177639 0 -0.4170576110318267 0.1785015295856022 0 -0.4170576110318267 0.1785015295856022 0 -0.41473145772408748 0.1694924902351338 0 -0.42188482357917217 0.17792666364609969 0 -0.4170576110318267 0.1785015295856022 0 -0.41996653687939378 0.16628696126183229 0 -0.4170576110318267 0.1785015295856022 0 -0.41996653687939378 0.16628696126183229 0 -0.42188482357917217 0.17792666364609969 0 -0.4170576110318267 0.1785015295856022 0 -0.40792710490587181 0.1431236445770043 0 -0.41473145772408748 0.1694924902351338 0 -0.40792710490587181 0.1431236445770043 0 -0.41473145772408748 0.1694924902351338 0 -0.40161620080112792 0.15664668232707951 0 -0.40792710490587181 0.1431236445770043 0 -0.41996653687939378 0.16628696126183229 0 -0.41473145772408748 0.1694924902351338 0 -0.4170576110318267 0.1785015295856022 0 -0.41996653687939378 0.16628696126183229 0 -0.41473145772408748 0.1694924902351338 0 -0.41996653687939378 0.16628696126183229 0 -0.41473145772408748 0.1694924902351338 0 -0.39615316265129757 0.1676584867913567 0 -0.39034450783732638 0.1796735033866825 0 -0.3857221901454998 0.15933407046844669 0 -0.41473145772408748 0.1694924902351338 0 -0.40161620080112792 0.15664668232707951 0 -0.39615316265129757 0.1676584867913567 0 -0.40161620080112792 0.15664668232707951 0 -0.39615316265129757 0.1676584867913567 0 -0.38981136225359569 0.1532187951858984 0 -0.41473145772408748 0.1694924902351338 0 -0.39615316265129757 0.1676584867913567 0 -0.39593456858940318 0.18100214862647271 0 -0.40328110070814149 0.18891226009650239 0 -0.4170576110318267 0.1785015295856022 0 -0.39593456858940318 0.18100214862647271 0 -0.41473145772408748 0.1694924902351338 0 -0.39593456858940318 0.18100214862647271 0 -0.39615316265129757 0.1676584867913567 0 -0.39593456858940318 0.18100214862647271 0 -0.39034450783732638 0.1796735033866825 0 -0.40328110070814149 0.18891226009650239 0 -0.39593456858940318 0.18100214862647271 0 -0.3912924291444505 0.1838446104207378 0 -0.39593456858940318 0.18100214862647271 0 -0.3911193997261897 0.18157281660343941 0 -0.39034450783732638 0.1796735033866825 0 -0.39593456858940318 0.18100214862647271 0 -0.3911193997261897 0.18157281660343941 0 -0.39593456858940318 0.18100214862647271 0 -0.3911193997261897 0.18157281660343941 0 -0.3912924291444505 0.1838446104207378 0 -0.39593456858940318 0.18100214862647271 0 -0.3912924291444505 0.1838446104207378 0 -0.3911193997261897 0.18157281660343941 0 -0.39034450783732638 0.1796735033866825 0 -0.3911193997261897 0.18157281660343941 0 -0.3912924291444505 0.1838446104207378 0 -0.3911193997261897 0.18157281660343941 0 -0.3912924291444505 0.1838446104207378 0 -0.36910710722459261 0.18418159539959941 0 -0.3911193997261897 0.18157281660343941 0 -0.39034450783732638 0.1796735033866825 0 -0.36910710722459261 0.18418159539959941 0 -0.3911193997261897 0.18157281660343941 0 -0.36910710722459261 0.18418159539959941 0 -0.39034450783732638 0.1796735033866825 0 -0.38690441987951057 0.17124161163636059 0 -0.36910710722459261 0.18418159539959941 0 -0.39034450783732638 0.1796735033866825 0 -0.38690441987951057 0.17124161163636059 0 -0.39034450783732638 0.1796735033866825 0 -0.3857221901454998 0.15933407046844669 0 -0.3857221901454998 0.15933407046844669 0 -0.36910710722459261 0.18418159539959941 0 -0.3857221901454998 0.15933407046844669 0 -0.38690441987951057 0.17124161163636059 0 -0.36910710722459261 0.18418159539959941 0 -0.39034450783732638 0.1796735033866825 0 -0.3857221901454998 0.15933407046844669 0 -0.38690441987951057 0.17124161163636059 0 -0.39615316265129757 0.1676584867913567 0 -0.3857221901454998 0.15933407046844669 0 -0.38981136225359569 0.1532187951858984 0 -0.3857221901454998 0.15933407046844669 0 -0.38981136225359569 0.1532187951858984 0 -0.3857221901454998 0.15933407046844669 0 -0.38874229435245972 0.1426762059504805 0 -0.38981136225359569 0.1532187951858984 0 -0.3857221901454998 0.15933407046844669 0 -0.38874229435245972 0.1426762059504805 0 -0.37911475636388758 0.13025959633604231 0 -0.3857221901454998 0.15933407046844669 0 -0.37911475636388758 0.13025959633604231 0 -0.3857221901454998 0.15933407046844669 0 -0.37911475636388758 0.13025959633604231 0 -0.36934798596015461 0.1484881518765804 0 -0.40161620080112792 0.15664668232707951 0 -0.38981136225359569 0.1532187951858984 0 -0.3971995956618648 0.1451750554838703 0 -0.38874229435245972 0.1426762059504805 0 -0.38981136225359569 0.1532187951858984 0 -0.3971995956618648 0.1451750554838703 0 -0.40792710490587181 0.1431236445770043 0 -0.40161620080112792 0.15664668232707951 0 -0.3971995956618648 0.1451750554838703 0 -0.40112275208765608 0.1167547989188748 0 -0.40792710490587181 0.1431236445770043 0 -0.40112275208765608 0.1167547989188748 0 -0.40792710490587181 0.1431236445770043 0 -0.39457136054532149 0.12999334139195651 0 -0.40792710490587181 0.1431236445770043 0 -0.3971995956618648 0.1451750554838703 0 -0.39457136054532149 0.12999334139195651 0 -0.38874229435245972 0.1426762059504805 0 -0.3971995956618648 0.1451750554838703 0 -0.39457136054532149 0.12999334139195651 0 -0.38876038364994497 0.1232030294436614 0 -0.39457136054532149 0.12999334139195651 0 -0.37911475636388758 0.13025959633604231 0 -0.38874229435245972 0.1426762059504805 0 -0.39457136054532149 0.12999334139195651 0 -0.37911475636388758 0.13025959633604231 0 -0.37781630623795659 0.1245460688386113 0 -0.37911475636388758 0.13025959633604231 0 -0.37911475636388758 0.13025959633604231 0 -0.35865280453991782 0.1389777958488502 0 -0.36934798596015461 0.1484881518765804 0 -0.37781630623795659 0.1245460688386113 0 -0.35865280453991782 0.1389777958488502 0 -0.36540751910754732 0.1226358477222062 0 -0.37781630623795659 0.1245460688386113 0 -0.37911475636388758 0.13025959633604231 0 -0.35865280453991782 0.1389777958488502 0 -0.37911475636388758 0.13025959633604231 0 -0.36934798596015461 0.1484881518765804 0 -0.35428715371220088 0.1252540881848446 0 -0.35865280453991782 0.1389777958488502 0 -0.36540751910754732 0.1226358477222062 0 -0.37781630623795659 0.1245460688386113 0 -0.35865280453991782 0.1389777958488502 0 -0.35865280453991782 0.1389777958488502 0 -0.33885685803668403 0.13459177451578799 0 -0.33647842539916928 0.14421349963310709 0 -0.35428715371220088 0.1252540881848446 0 -0.35865280453991782 0.1389777958488502 0 -0.34563410027124047 0.1285473905554021 0 -0.35865280453991782 0.1389777958488502 0 -0.34563410027124047 0.1285473905554021 0 -0.33885685803668403 0.13459177451578799 0 -0.35865280453991782 0.1389777958488502 0 -0.33948930284187578 0.15340952285908491 0 -0.35865280453991782 0.1389777958488502 0 -0.3550559976859412 0.15418058699193499 0 -0.33948930284187578 0.15340952285908491 0 -0.35865280453991782 0.1389777958488502 0 -0.33647842539916928 0.14421349963310709 0 -0.33948930284187578 0.15340952285908491 0 -0.35865280453991782 0.1389777958488502 0 -0.3550559976859412 0.15418058699193499 0 -0.36934798596015461 0.1484881518765804 0 -0.36934798596015461 0.1484881518765804 0 -0.35958121555642242 0.16671670741711889 0 -0.3857221901454998 0.15933407046844669 0 -0.36934798596015461 0.1484881518765804 0 -0.35958121555642242 0.16671670741711889 0 -0.3857221901454998 0.15933407046844669 0 -0.35958121555642242 0.16671670741711889 0 -0.36910710722459261 0.18418159539959941 0 -0.3550559976859412 0.15418058699193499 0 -0.36934798596015461 0.1484881518765804 0 -0.35958121555642242 0.16671670741711889 0 -0.35958121555642242 0.16671670741711889 0 -0.36910710722459261 0.18418159539959941 0 -0.34981444515268978 0.18494526295765709 0 -0.36910710722459261 0.18418159539959941 0 -0.35029440106194421 0.1864111763908525 0 -0.36910710722459261 0.18418159539959941 0 -0.34981444515268978 0.18494526295765709 0 -0.35029440106194421 0.1864111763908525 0 -0.35958121555642242 0.16671670741711889 0 -0.34981444515268978 0.18494526295765709 0 -0.34465187399728159 0.16917739290837139 0 -0.34981444515268978 0.18494526295765709 0 -0.34465187399728159 0.16917739290837139 0 -0.34981444515268978 0.18494526295765709 0 -0.34465187399728159 0.16917739290837139 0 -0.34241232001855748 0.18050918502283031 0 -0.35958121555642242 0.16671670741711889 0 -0.34981444515268978 0.18494526295765709 0 -0.34600353423184088 0.1869197069040969 0 -0.34981444515268978 0.18494526295765709 0 -0.34241232001855748 0.18050918502283031 0 -0.34600353423184088 0.1869197069040969 0 -0.34981444515268978 0.18494526295765709 0 -0.35029440106194421 0.1864111763908525 0 -0.34600353423184088 0.1869197069040969 0 -0.35029440106194421 0.1864111763908525 0 -0.34981444515268978 0.18494526295765709 0 -0.35029440106194421 0.1864111763908525 0 -0.3550559976859412 0.15418058699193499 0 -0.34465187399728159 0.16917739290837139 0 -0.33948930284187578 0.15340952285908491 0 -0.3550559976859412 0.15418058699193499 0 -0.35958121555642242 0.16671670741711889 0 -0.34465187399728159 0.16917739290837139 0 -0.34465187399728159 0.16917739290837139 0 -0.3209052775324196 0.16740485545765679 0 -0.33948930284187578 0.15340952285908491 0 -0.34465187399728159 0.16917739290837139 0 -0.33403172293181183 0.178508342473857 0 -0.3209052775324196 0.16740485545765679 0 -0.3209052775324196 0.16740485545765679 0 -0.33948930284187578 0.15340952285908491 0 -0.34465187399728159 0.16917739290837139 0 -0.33948930284187578 0.15340952285908491 0 -0.3209052775324196 0.16740485545765679 0 -0.32782471868156582 0.15007076087567681 0 -0.33948930284187578 0.15340952285908491 0 -0.33840623926350188 0.18688687250349731 0 -0.34241232001855748 0.18050918502283031 0 -0.33403172293181183 0.178508342473857 0 -0.34600353423184088 0.1869197069040969 0 -0.33840623926350188 0.18688687250349731 0 -0.34241232001855748 0.18050918502283031 0 -0.34465187399728159 0.16917739290837139 0 -0.34241232001855748 0.18050918502283031 0 -0.33403172293181183 0.178508342473857 0 -0.33840623926350188 0.18688687250349731 0 -0.33403172293181183 0.178508342473857 0 -0.32395919873986889 0.189374167442206 0 -0.33403172293181183 0.178508342473857 0 -0.3209052775324196 0.16740485545765679 0 -0.32395919873986889 0.189374167442206 0 -0.3209052775324196 0.16740485545765679 0 -0.32395919873986889 0.189374167442206 0 -0.30232125222296308 0.18140018805622821 0 -0.3209052775324196 0.16740485545765679 0 -0.31708087124978102 0.15270164800254771 0 -0.30176242348646171 0.1561273004444573 0 -0.3209052775324196 0.16740485545765679 0 -0.31708087124978102 0.15270164800254771 0 -0.32782471868156582 0.15007076087567681 0 -0.31708087124978102 0.15270164800254771 0 -0.32782471868156582 0.15007076087567681 0 -0.32164370152207239 0.14259898094586601 0 -0.32782471868156582 0.15007076087567681 0 -0.32164370152207239 0.14259898094586601 0 -0.33015036951149401 0.1395797710240734 0 -0.32164370152207239 0.14259898094586601 0 -0.31470160363242999 0.13396383986175789 0 -0.3107545431269893 0.1455439039624323 0 -0.31708087124978102 0.15270164800254771 0 -0.32164370152207239 0.14259898094586601 0 -0.3107545431269893 0.1455439039624323 0 -0.31470160363242999 0.13396383986175789 0 -0.32675063899635359 0.1316087906133111 0 -0.31924031789788238 0.12075286087595941 0 -0.31470160363242999 0.13396383986175789 0 -0.30471851520597742 0.1233522783069506 0 -0.31924031789788238 0.12075286087595941 0 -0.32675063899635359 0.1316087906133111 0 -0.32788998321626489 0.12332644099719441 0 -0.31924031789788238 0.12075286087595941 0 -0.32164370152207239 0.14259898094586601 0 -0.31470160363242999 0.13396383986175789 0 -0.32675063899635359 0.1316087906133111 0 -0.32164370152207239 0.14259898094586601 0 -0.32675063899635359 0.1316087906133111 0 -0.33015036951149401 0.1395797710240734 0 -0.32675063899635359 0.1316087906133111 0 -0.33015036951149401 0.1395797710240734 0 -0.33885685803668403 0.13459177451578799 0 -0.33015036951149401 0.1395797710240734 0 -0.33885685803668403 0.13459177451578799 0 -0.33647842539916928 0.14421349963310709 0 -0.32675063899635359 0.1316087906133111 0 -0.33553129141904459 0.1249883312515848 0 -0.32788998321626489 0.12332644099719441 0 -0.32675063899635359 0.1316087906133111 0 -0.33885685803668403 0.13459177451578799 0 -0.33553129141904459 0.1249883312515848 0 -0.34563410027124047 0.1285473905554021 0 -0.33885685803668403 0.13459177451578799 0 -0.33553129141904459 0.1249883312515848 0 -0.33647842539916928 0.14421349963310709 0 -0.33948930284187578 0.15340952285908491 0 -0.32782471868156582 0.15007076087567681 0 -0.33647842539916928 0.14421349963310709 0 -0.33948930284187578 0.15340952285908491 0 -0.32782471868156582 0.15007076087567681 0 -0.33015036951149401 0.1395797710240734 0 -0.33647842539916928 0.14421349963310709 0 -0.35144182773728189 0.24483629578612651 0 -0.36409093330162329 0.22854946774557069 0 -0.35005294850280871 0.23135854716294901 0 -0.35144182773728189 0.24483629578612651 0 -0.35005294850280871 0.23135854716294901 0 -0.33655308123416389 0.23286549160747741 0 -0.38428946164667532 0.22947862156510779 0 -0.36409093330162329 0.22854946774557069 0 -0.37174080938697279 0.25191423084052289 0 -0.36409093330162329 0.22854946774557069 0 -0.37174080938697279 0.25191423084052289 0 -0.35144182773728189 0.24483629578612651 0 -0.36409093330162329 0.22854946774557069 0 -0.37174080938697279 0.25191423084052289 0 -0.3751924715994257 0.21357865753184349 0 -0.38428946164667532 0.22947862156510779 0 -0.36409093330162329 0.22854946774557069 0 -0.36409093330162329 0.22854946774557069 0 -0.35300643838309848 0.22367973811308581 0 -0.35459511713574382 0.21675348344121939 0 -0.36409093330162329 0.22854946774557069 0 -0.35300643838309848 0.22367973811308581 0 -0.35005294850280871 0.23135854716294901 0 -0.35005294850280871 0.23135854716294901 0 -0.34533007933729593 0.21973966610143331 0 -0.33655308123416389 0.23286549160747741 0 -0.35300643838309848 0.22367973811308581 0 -0.35005294850280871 0.23135854716294901 0 -0.34533007933729593 0.21973966610143331 0 -0.35300643838309848 0.22367973811308581 0 -0.34533007933729593 0.21973966610143331 0 -0.35459511713574382 0.21675348344121939 0 -0.34533007933729593 0.21973966610143331 0 -0.35410707744042819 0.20661384059538951 0 -0.33628498387105299 0.21752661490246791 0 -0.36409093330162329 0.22854946774557069 0 -0.35598800251435841 0.20380095468380091 0 -0.35459511713574382 0.21675348344121939 0 -0.34529090293706027 0.20600480473539581 0 -0.35410707744042819 0.20661384059538951 0 -0.33628498387105299 0.21752661490246791 0 -0.35410707744042819 0.20661384059538951 0 -0.33628498387105299 0.21752661490246791 0 -0.34533007933729593 0.21973966610143331 0 -0.35410707744042819 0.20661384059538951 0 -0.34533007933729593 0.21973966610143331 0 -0.35410707744042819 0.20661384059538951 0 -0.35459511713574382 0.21675348344121939 0 -0.34529090293706027 0.20600480473539581 0 -0.35410707744042819 0.20661384059538951 0 -0.35052257509249279 0.20004872730581441 0 -0.35410707744042819 0.20661384059538951 0 -0.35598800251435841 0.20380095468380091 0 -0.35459511713574382 0.21675348344121939 0 -0.35410707744042819 0.20661384059538951 0 -0.35598800251435841 0.20380095468380091 0 -0.35052257509249279 0.20004872730581441 0 -0.35410707744042819 0.20661384059538951 0 -0.35598800251435841 0.20380095468380091 0 -0.3751924715994257 0.21357865753184349 0 -0.35598800251435841 0.20380095468380091 0 -0.37386674318036178 0.1945146575356777 0 -0.36409093330162329 0.22854946774557069 0 -0.35598800251435841 0.20380095468380091 0 -0.3751924715994257 0.21357865753184349 0 -0.36409093330162329 0.22854946774557069 0 -0.35598800251435841 0.20380095468380091 0 -0.36910710722459261 0.18418159539959941 0 -0.35598800251435841 0.20380095468380091 0 -0.35598800251435841 0.20380095468380091 0 -0.37386674318036178 0.1945146575356777 0 -0.36910710722459261 0.18418159539959941 0 -0.35598800251435841 0.20380095468380091 0 -0.37386674318036178 0.1945146575356777 0 -0.36910710722459261 0.18418159539959941 0 -0.35029440106194421 0.1864111763908525 0 -0.35598800251435841 0.20380095468380091 0 -0.35029440106194421 0.1864111763908525 0 -0.35598800251435841 0.20380095468380091 0 -0.35029440106194421 0.1864111763908525 0 -0.34693249150867439 0.19741286012363429 0 -0.33843890183177727 0.20617640842922741 0 -0.35029440106194421 0.1864111763908525 0 -0.33843890183177727 0.20617640842922741 0 -0.35029440106194421 0.1864111763908525 0 -0.35598800251435841 0.20380095468380091 0 -0.35052257509249279 0.20004872730581441 0 -0.34529090293706027 0.20600480473539581 0 -0.34693249150867439 0.19741286012363429 0 -0.35052257509249279 0.20004872730581441 0 -0.35029440106194421 0.1864111763908525 0 -0.34693249150867439 0.19741286012363429 0 -0.35052257509249279 0.20004872730581441 0 -0.34600353423184088 0.1869197069040969 0 -0.35029440106194421 0.1864111763908525 0 -0.34192612258738941 0.19243540116421479 0 -0.35029440106194421 0.1864111763908525 0 -0.34192612258738941 0.19243540116421479 0 -0.33843890183177727 0.20617640842922741 0 -0.33840623926350188 0.18688687250349731 0 -0.34192612258738941 0.19243540116421479 0 -0.33421869379735342 0.19540175558404499 0 -0.34600353423184088 0.1869197069040969 0 -0.33840623926350188 0.18688687250349731 0 -0.34192612258738941 0.19243540116421479 0 -0.34192612258738941 0.19243540116421479 0 -0.33421869379735342 0.19540175558404499 0 -0.33843890183177727 0.20617640842922741 0 -0.33421869379735342 0.19540175558404499 0 -0.32840732262313321 0.20204695215463189 0 -0.33843890183177727 0.20617640842922741 0 -0.33421869379735342 0.19540175558404499 0 -0.32840732262313321 0.20204695215463189 0 -0.32395919873986889 0.189374167442206 0 -0.33840623926350188 0.18688687250349731 0 -0.33421869379735342 0.19540175558404499 0 -0.32395919873986889 0.189374167442206 0 -0.32840732262313321 0.20204695215463189 0 -0.32395919873986889 0.189374167442206 0 -0.3172856376862534 0.20804684147586611 0 -0.32395919873986889 0.189374167442206 0 -0.3172856376862534 0.20804684147586611 0 -0.30157482939041519 0.199764677207379 0 -0.32840732262313321 0.20204695215463189 0 -0.3172856376862534 0.20804684147586611 0 -0.32777594726277892 0.21244724123434791 0 -0.3172856376862534 0.20804684147586611 0 -0.32777594726277892 0.21244724123434791 0 -0.31846289030167763 0.2284393892095459 0 -0.32777594726277892 0.21244724123434791 0 -0.33843890183177727 0.20617640842922741 0 -0.33628498387105299 0.21752661490246791 0 -0.32840732262313321 0.20204695215463189 0 -0.32777594726277892 0.21244724123434791 0 -0.33843890183177727 0.20617640842922741 0 -0.34529090293706027 0.20600480473539581 0 -0.33843890183177727 0.20617640842922741 0 -0.33628498387105299 0.21752661490246791 0 -0.34529090293706027 0.20600480473539581 0 -0.34693249150867439 0.19741286012363429 0 -0.33843890183177727 0.20617640842922741 0 -0.33628498387105299 0.21752661490246791 0 -0.33655308123416389 0.23286549160747741 0 -0.31846289030167763 0.2284393892095459 0 -0.34533007933729593 0.21973966610143331 0 -0.33655308123416389 0.23286549160747741 0 -0.34533007933729593 0.21973966610143331 0 -0.33628498387105299 0.21752661490246791 0 -0.33655308123416389 0.23286549160747741 0 -0.33628498387105299 0.21752661490246791 0 -0.31846289030167763 0.2284393892095459 0 -0.32777594726277892 0.21244724123434791 0 -0.33628498387105299 0.21752661490246791 0 -0.31846289030167763 0.2284393892095459 0 -0.31846289030167763 0.2284393892095459 0 -0.32294927823697178 0.2492846098040436 0 -0.30878899462702492 0.25107002161014691 0 -0.31846289030167763 0.2284393892095459 0 -0.32294927823697178 0.2492846098040436 0 -0.33339429639452622 0.24377920072147549 0 -0.33655308123416389 0.23286549160747741 0 -0.31846289030167763 0.2284393892095459 0 -0.33339429639452622 0.24377920072147549 0 -0.35144182773728189 0.24483629578612651 0 -0.33339429639452622 0.24377920072147549 0 -0.33639566297611961 0.25803634038796069 0 -0.35144182773728189 0.24483629578612651 0 -0.33655308123416389 0.23286549160747741 0 -0.33339429639452622 0.24377920072147549 0 -0.3006407967323021 0.23935216351662389 0 -0.28214866632169477 0.2307985987071306 0 -0.2831525785100194 0.25563929785384132 0 -0.31846289030167763 0.2284393892095459 0 -0.3006407967323021 0.23935216351662389 0 -0.30878899462702492 0.25107002161014691 0 -0.31846289030167763 0.2284393892095459 0 -0.3006407967323021 0.23935216351662389 0 -0.30036869394725679 0.2190975928256749 0 -0.31846289030167763 0.2284393892095459 0 -0.3006407967323021 0.23935216351662389 0 -0.3006407967323021 0.23935216351662389 0 -0.30036869394725679 0.2190975928256749 0 -0.28214866632169477 0.2307985987071306 0 -0.30036869394725679 0.2190975928256749 0 -0.28214866632169477 0.2307985987071306 0 -0.27814360656007442 0.2096994517961592 0 -0.30036869394725679 0.2190975928256749 0 -0.30157482939041519 0.199764677207379 0 -0.27814360656007442 0.2096994517961592 0 -0.3172856376862534 0.20804684147586611 0 -0.31846289030167763 0.2284393892095459 0 -0.30036869394725679 0.2190975928256749 0 -0.3172856376862534 0.20804684147586611 0 -0.30036869394725679 0.2190975928256749 0 -0.30157482939041519 0.199764677207379 0 -0.32395919873986889 0.189374167442206 0 -0.30157482939041519 0.199764677207379 0 -0.30232125222296308 0.18140018805622821 0 -0.30157482939041519 0.199764677207379 0 -0.28367478784796668 0.19192730246887951 0 -0.27814360656007442 0.2096994517961592 0 -0.30157482939041519 0.199764677207379 0 -0.28367478784796668 0.19192730246887951 0 -0.30232125222296308 0.18140018805622821 0 -0.28367478784796668 0.19192730246887951 0 -0.26409486633127849 0.19449520286752639 0 -0.27814360656007442 0.2096994517961592 0 -0.26409486633127849 0.19449520286752639 0 -0.2538109934186506 0.17800225782543619 0 -0.24243488184305009 0.1991973635701845 0 -0.26409486633127849 0.19449520286752639 0 -0.25787958898325553 0.22069316958933019 0 -0.24243488184305009 0.1991973635701845 0 -0.26409486633127849 0.19449520286752639 0 -0.27814360656007442 0.2096994517961592 0 -0.25787958898325553 0.22069316958933019 0 -0.28214866632169477 0.2307985987071306 0 -0.27814360656007442 0.2096994517961592 0 -0.25787958898325553 0.22069316958933019 0 -0.28214866632169477 0.2307985987071306 0 -0.25787958898325553 0.22069316958933019 0 -0.26578439350058591 0.2440092215719025 0 -0.25787958898325553 0.22069316958933019 0 -0.26578439350058591 0.2440092215719025 0 -0.24198036308279569 0.2445897244070506 0 -0.28214866632169477 0.2307985987071306 0 -0.26578439350058591 0.2440092215719025 0 -0.2831525785100194 0.25563929785384132 0 -0.30176242348646171 0.1561273004444573 0 -0.28324612457052778 0.16079703369481499 0 -0.27677450351055038 0.14444464778726299 0 -0.29999754624230301 0.1397176069869335 0 -0.30176242348646171 0.1561273004444573 0 -0.27677450351055038 0.14444464778726299 0 -0.2916768491067811 0.1276078490901571 0 -0.29999754624230301 0.1397176069869335 0 -0.27677450351055038 0.14444464778726299 0 -0.2916768491067811 0.1276078490901571 0 -0.27677450351055038 0.14444464778726299 0 -0.27531058999002911 0.12878155679708081 0 -0.31470160363242999 0.13396383986175789 0 -0.29999754624230301 0.1397176069869335 0 -0.30471851520597742 0.1233522783069506 0 -0.2916768491067811 0.1276078490901571 0 -0.29999754624230301 0.1397176069869335 0 -0.30471851520597742 0.1233522783069506 0 -0.31470160363242999 0.13396383986175789 0 -0.29999754624230301 0.1397176069869335 0 -0.3107545431269893 0.1455439039624323 0 -0.29999754624230301 0.1397176069869335 0 -0.3107545431269893 0.1455439039624323 0 -0.30176242348646171 0.1561273004444573 0 -0.31708087124978102 0.15270164800254771 0 -0.3107545431269893 0.1455439039624323 0 -0.30176242348646171 0.1561273004444573 0 -0.3209052775324196 0.16740485545765679 0 -0.30176242348646171 0.1561273004444573 0 -0.30232125222296308 0.18140018805622821 0 -0.3209052775324196 0.16740485545765679 0 -0.30232125222296308 0.18140018805622821 0 -0.28367478784796668 0.19192730246887951 0 -0.30232125222296308 0.18140018805622821 0 -0.27249246788402492 0.17471253842451431 0 -0.30232125222296308 0.18140018805622821 0 -0.28324612457052778 0.16079703369481499 0 -0.27249246788402492 0.17471253842451431 0 -0.30176242348646171 0.1561273004444573 0 -0.30232125222296308 0.18140018805622821 0 -0.28324612457052778 0.16079703369481499 0 -0.28324612457052778 0.16079703369481499 0 -0.27249246788402492 0.17471253842451431 0 -0.26032488065504 0.1561472646847501 0 -0.28367478784796668 0.19192730246887951 0 -0.26409486633127849 0.19449520286752639 0 -0.27249246788402492 0.17471253842451431 0 -0.26409486633127849 0.19449520286752639 0 -0.27249246788402492 0.17471253842451431 0 -0.2538109934186506 0.17800225782543619 0 -0.2538109934186506 0.17800225782543619 0 -0.26032488065504 0.1561472646847501 0 -0.2413206034244616 0.16215959223539661 0 -0.27249246788402492 0.17471253842451431 0 -0.2538109934186506 0.17800225782543619 0 -0.26032488065504 0.1561472646847501 0 -0.26032488065504 0.1561472646847501 0 -0.25689016577812218 0.12866084259621921 0 -0.23729146809241669 0.1440889214910214 0 -0.26032488065504 0.1561472646847501 0 -0.27677450351055038 0.14444464778726299 0 -0.25689016577812218 0.12866084259621921 0 -0.28324612457052778 0.16079703369481499 0 -0.26032488065504 0.1561472646847501 0 -0.27677450351055038 0.14444464778726299 0 -0.27677450351055038 0.14444464778726299 0 -0.27531058999002911 0.12878155679708081 0 -0.25689016577812218 0.12866084259621921 0 -0.25689016577812218 0.12866084259621921 0 -0.25865440906908971 0.10333491045194521 0 -0.243730422169222 0.1100246932503654 0 -0.25689016577812218 0.12866084259621921 0 -0.25865440906908971 0.10333491045194521 0 -0.27590084156466249 0.1144128877146839 0 -0.25865440906908971 0.10333491045194521 0 -0.2593504451525615 0.086984460819130763 0 -0.24124134653802451 0.093860440054512453 0 -0.25865440906908971 0.10333491045194521 0 -0.27136104362925978 0.096097633608120597 0 -0.2593504451525615 0.086984460819130763 0 -0.25865440906908971 0.10333491045194521 0 -0.27136104362925978 0.096097633608120597 0 -0.27590084156466249 0.1144128877146839 0 -0.27136104362925978 0.096097633608120597 0 -0.27590084156466249 0.1144128877146839 0 -0.28374674852767179 0.10084071408541601 0 -0.27136104362925978 0.096097633608120597 0 -0.28374674852767179 0.10084071408541601 0 -0.28257840300196768 0.087148144297694935 0 -0.27531058999002911 0.12878155679708081 0 -0.25689016577812218 0.12866084259621921 0 -0.27590084156466249 0.1144128877146839 0 -0.2916768491067811 0.1276078490901571 0 -0.27531058999002911 0.12878155679708081 0 -0.27590084156466249 0.1144128877146839 0 -0.2916768491067811 0.1276078490901571 0 -0.29296218422211612 0.11098464840267649 0 -0.30471851520597742 0.1233522783069506 0 -0.2916768491067811 0.1276078490901571 0 -0.27590084156466249 0.1144128877146839 0 -0.29296218422211612 0.11098464840267649 0 -0.29296218422211612 0.11098464840267649 0 -0.28374674852767179 0.10084071408541601 0 -0.29415507614112008 0.092860255771070085 0 -0.27590084156466249 0.1144128877146839 0 -0.29296218422211612 0.11098464840267649 0 -0.28374674852767179 0.10084071408541601 0 -0.29296218422211612 0.11098464840267649 0 -0.30757507478648383 0.1068339054477811 0 -0.29415507614112008 0.092860255771070085 0 -0.30757507478648383 0.1068339054477811 0 -0.30737402073672959 0.093485651455519458 0 -0.29415507614112008 0.092860255771070085 0 -0.30757507478648383 0.1068339054477811 0 -0.30737402073672959 0.093485651455519458 0 -0.31528996601909282 0.098100856864118333 0 -0.30757507478648383 0.1068339054477811 0 -0.30471851520597742 0.1233522783069506 0 -0.31924031789788238 0.12075286087595941 0 -0.29296218422211612 0.11098464840267649 0 -0.30757507478648383 0.1068339054477811 0 -0.30471851520597742 0.1233522783069506 0 -0.30439669652818402 0.066328176675772191 0 -0.30489585710926681 0.081851530105612746 0 -0.29286814756401658 0.077095236333975109 0 -0.30439669652818402 0.066328176675772191 0 -0.30489585710926681 0.081851530105612746 0 -0.31505868590200009 0.07455197157821368 0 -0.30489585710926681 0.081851530105612746 0 -0.29415507614112008 0.092860255771070085 0 -0.29286814756401658 0.077095236333975109 0 -0.30489585710926681 0.081851530105612746 0 -0.31552251578355073 0.086787888819126052 0 -0.31505868590200009 0.07455197157821368 0 -0.30489585710926681 0.081851530105612746 0 -0.30737402073672959 0.093485651455519458 0 -0.31552251578355073 0.086787888819126052 0 -0.30489585710926681 0.081851530105612746 0 -0.30737402073672959 0.093485651455519458 0 -0.29415507614112008 0.092860255771070085 0 -0.29415507614112008 0.092860255771070085 0 -0.28257840300196768 0.087148144297694935 0 -0.29286814756401658 0.077095236333975109 0 -0.28374674852767179 0.10084071408541601 0 -0.29415507614112008 0.092860255771070085 0 -0.28257840300196768 0.087148144297694935 0 -0.28257840300196768 0.087148144297694935 0 -0.29286814756401658 0.077095236333975109 0 -0.2796891070893936 0.072871773571674819 0 -0.2796891070893936 0.072871773571674819 0 -0.27321428236248668 0.058311522508198849 0 -0.2911607749657828 0.062399511283656763 0 -0.29286814756401658 0.077095236333975109 0 -0.2796891070893936 0.072871773571674819 0 -0.2911607749657828 0.062399511283656763 0 -0.30439669652818402 0.066328176675772191 0 -0.29286814756401658 0.077095236333975109 0 -0.2911607749657828 0.062399511283656763 0 -0.2796891070893936 0.072871773571674819 0 -0.26568831590968711 0.074561810592979907 0 -0.27321428236248668 0.058311522508198849 0 -0.2796891070893936 0.072871773571674819 0 -0.26568831590968711 0.074561810592979907 0 -0.27120367975369841 0.082459219890287885 0 -0.27136104362925978 0.096097633608120597 0 -0.28257840300196768 0.087148144297694935 0 -0.27120367975369841 0.082459219890287885 0 -0.28257840300196768 0.087148144297694935 0 -0.2796891070893936 0.072871773571674819 0 -0.27120367975369841 0.082459219890287885 0 -0.27136104362925978 0.096097633608120597 0 -0.27120367975369841 0.082459219890287885 0 -0.2593504451525615 0.086984460819130763 0 -0.26568831590968711 0.074561810592979907 0 -0.27120367975369841 0.082459219890287885 0 -0.2593504451525615 0.086984460819130763 0 -0.26568831590968711 0.074561810592979907 0 -0.2593504451525615 0.086984460819130763 0 -0.24852128318472311 0.071348746082639039 0 -0.26568831590968711 0.074561810592979907 0 -0.27321428236248668 0.058311522508198849 0 -0.24852128318472311 0.071348746082639039 0 -0.27321428236248668 0.058311522508198849 0 -0.24852128318472311 0.071348746082639039 0 -0.26356609138097481 0.051682144493538293 0 -0.27321428236248668 0.058311522508198849 0 -0.24852128318472311 0.071348746082639039 0 -0.2513519833081283 0.03681729845039633 0 -0.26496765495591551 0.039049161185793942 0 -0.25850219699856702 0.030237307159975919 0 -0.26496765495591551 0.039049161185793942 0 -0.25850219699856702 0.030237307159975919 0 -0.26937001023233809 0.02803678365568333 0 -0.26356609138097481 0.051682144493538293 0 -0.2513519833081283 0.03681729845039633 0 -0.26496765495591551 0.039049161185793942 0 -0.26356609138097481 0.051682144493538293 0 -0.26496765495591551 0.039049161185793942 0 -0.27717234869311408 0.045014983002617789 0 -0.26496765495591551 0.039049161185793942 0 -0.27518219902673102 0.036402247408595732 0 -0.27717234869311408 0.045014983002617789 0 -0.26496765495591551 0.039049161185793942 0 -0.27518219902673102 0.036402247408595732 0 -0.26937001023233809 0.02803678365568333 0 -0.27518219902673102 0.036402247408595732 0 -0.27717234869311408 0.045014983002617789 0 -0.28765174096082502 0.037598353185708727 0 -0.26356609138097481 0.051682144493538293 0 -0.27717234869311408 0.045014983002617789 0 -0.27321428236248668 0.058311522508198849 0 -0.25953781208095539 -0.0020107338640790451 0 -0.25814478694633142 0.0065756551434361541 0 -0.26759804820177369 0.002971281458658047 0 -0.24804227674092971 -0.00031708200868342171 0 -0.25814478694633142 0.0065756551434361541 0 -0.249469601702588 0.010945649488826519 0 -0.24804227674092971 -0.00031708200868342171 0 -0.25953781208095539 -0.0020107338640790451 0 -0.25814478694633142 0.0065756551434361541 0 -0.25814478694633142 0.0065756551434361541 0 -0.26282096259466808 0.015215509990287311 0 -0.249469601702588 0.010945649488826519 0 -0.25814478694633142 0.0065756551434361541 0 -0.26282096259466808 0.015215509990287311 0 -0.26759804820177369 0.002971281458658047 0 -0.26282096259466808 0.015215509990287311 0 -0.25850219699856702 0.030237307159975919 0 -0.24941251396422079 0.02359075707980339 0 -0.26282096259466808 0.015215509990287311 0 -0.24941251396422079 0.02359075707980339 0 -0.249469601702588 0.010945649488826519 0 -0.2513519833081283 0.03681729845039633 0 -0.25850219699856702 0.030237307159975919 0 -0.24941251396422079 0.02359075707980339 0 -0.26282096259466808 0.015215509990287311 0 -0.25850219699856702 0.030237307159975919 0 -0.26937001023233809 0.02803678365568333 0 -0.26937001023233809 0.02803678365568333 0 -0.27510756502896688 0.01831040201350537 0 -0.28174700122307722 0.027528710591857589 0 -0.27518219902673102 0.036402247408595732 0 -0.26937001023233809 0.02803678365568333 0 -0.28174700122307722 0.027528710591857589 0 -0.26282096259466808 0.015215509990287311 0 -0.26937001023233809 0.02803678365568333 0 -0.27510756502896688 0.01831040201350537 0 -0.26282096259466808 0.015215509990287311 0 -0.27108091903206138 0.01065394732084649 0 -0.26759804820177369 0.002971281458658047 0 -0.26282096259466808 0.015215509990287311 0 -0.27510756502896688 0.01831040201350537 0 -0.27108091903206138 0.01065394732084649 0 -0.27510756502896688 0.01831040201350537 0 -0.27879710030283722 0.0061185958209352574 0 -0.28707882525963058 0.015848023125075539 0 -0.27510756502896688 0.01831040201350537 0 -0.27108091903206138 0.01065394732084649 0 -0.27879710030283722 0.0061185958209352574 0 -0.27741585206503488 -0.0070968897521936254 0 -0.27879710030283722 0.0061185958209352574 0 -0.26759804820177369 0.002971281458658047 0 -0.27108091903206138 0.01065394732084649 0 -0.27879710030283722 0.0061185958209352574 0 -0.26759804820177369 0.002971281458658047 0 -0.29044537269527321 -0.0004936292284561238 0 -0.27879710030283722 0.0061185958209352574 0 -0.28707882525963058 0.015848023125075539 0 -0.29044537269527321 -0.0004936292284561238 0 -0.28707882525963058 0.015848023125075539 0 -0.30275076685986052 0.01302793975641137 0 -0.28707882525963058 0.015848023125075539 0 -0.29532257177462762 0.028613411171273331 0 -0.30275076685986052 0.01302793975641137 0 -0.27510756502896688 0.01831040201350537 0 -0.28707882525963058 0.015848023125075539 0 -0.28174700122307722 0.027528710591857589 0 -0.28707882525963058 0.015848023125075539 0 -0.28174700122307722 0.027528710591857589 0 -0.29532257177462762 0.028613411171273331 0 -0.28174700122307722 0.027528710591857589 0 -0.29532257177462762 0.028613411171273331 0 -0.28765174096082502 0.037598353185708727 0 -0.29532257177462762 0.028613411171273331 0 -0.30275076685986052 0.01302793975641137 0 -0.31557568648467399 0.030482647042617762 0 -0.29044537269527321 -0.0004936292284561238 0 -0.30681683022732759 -0.0079804318099269255 0 -0.30275076685986052 0.01302793975641137 0 -0.30681683022732759 -0.0079804318099269255 0 -0.30275076685986052 0.01302793975641137 0 -0.32081930115796109 0.0071028845987215622 0 -0.2911607749657828 0.062399511283656763 0 -0.29790728154025042 0.045274298933758637 0 -0.30094920621140109 0.056966099094925379 0 -0.27321428236248668 0.058311522508198849 0 -0.29790728154025042 0.045274298933758637 0 -0.27717234869311408 0.045014983002617789 0 -0.27321428236248668 0.058311522508198849 0 -0.29790728154025042 0.045274298933758637 0 -0.27321428236248668 0.058311522508198849 0 -0.2911607749657828 0.062399511283656763 0 -0.29790728154025042 0.045274298933758637 0 -0.29532257177462762 0.028613411171273331 0 -0.28765174096082502 0.037598353185708727 0 -0.29790728154025042 0.045274298933758637 0 -0.27717234869311408 0.045014983002617789 0 -0.28765174096082502 0.037598353185708727 0 -0.29790728154025042 0.045274298933758637 0 -0.27518219902673102 0.036402247408595732 0 -0.28174700122307722 0.027528710591857589 0 -0.28765174096082502 0.037598353185708727 0 -0.29790728154025042 0.045274298933758637 0 -0.310332071811387 0.053862409486513933 0 -0.31557568648467399 0.030482647042617762 0 -0.29532257177462762 0.028613411171273331 0 -0.29790728154025042 0.045274298933758637 0 -0.31557568648467399 0.030482647042617762 0 -0.29790728154025042 0.045274298933758637 0 -0.310332071811387 0.053862409486513933 0 -0.30094920621140109 0.056966099094925379 0 -0.30439669652818402 0.066328176675772191 0 -0.2911607749657828 0.062399511283656763 0 -0.30094920621140109 0.056966099094925379 0 -0.30439669652818402 0.066328176675772191 0 -0.310332071811387 0.053862409486513933 0 -0.30094920621140109 0.056966099094925379 0 -0.30439669652818402 0.066328176675772191 0 -0.310332071811387 0.053862409486513933 0 -0.32418857281336733 0.06170980942816838 0 -0.310332071811387 0.053862409486513933 0 -0.32418857281336733 0.06170980942816838 0 -0.32497638658357131 0.04647910105733271 0 -0.310332071811387 0.053862409486513933 0 -0.32497638658357131 0.04647910105733271 0 -0.31557568648467399 0.030482647042617762 0 -0.310332071811387 0.053862409486513933 0 -0.31557568648467399 0.030482647042617762 0 -0.32497638658357131 0.04647910105733271 0 -0.31557568648467399 0.030482647042617762 0 -0.33147053265455362 0.028685971523573509 0 -0.33661036848331283 0.043833785403413407 0 -0.33147053265455362 0.028685971523573509 0 -0.34657324370724107 0.02341508008626348 0 -0.32497638658357131 0.04647910105733271 0 -0.33661036848331283 0.043833785403413407 0 -0.33147053265455362 0.028685971523573509 0 -0.33661036848331283 0.043833785403413407 0 -0.34657324370724107 0.02341508008626348 0 -0.33661036848331283 0.043833785403413407 0 -0.34301522140165502 0.053636105163723143 0 -0.35042388467218172 0.038812958909376853 0 -0.32418857281336733 0.06170980942816838 0 -0.34301522140165502 0.053636105163723143 0 -0.32418857281336733 0.06170980942816838 0 -0.34301522140165502 0.053636105163723143 0 -0.33698940704588759 0.066269876268367403 0 -0.32497638658357131 0.04647910105733271 0 -0.33661036848331283 0.043833785403413407 0 -0.34301522140165502 0.053636105163723143 0 -0.32418857281336733 0.06170980942816838 0 -0.32497638658357131 0.04647910105733271 0 -0.34301522140165502 0.053636105163723143 0 -0.34301522140165502 0.053636105163723143 0 -0.34616977345483618 0.065067785926761004 0 -0.33698940704588759 0.066269876268367403 0 -0.32081930115796109 0.0071028845987215622 0 -0.31557568648467399 0.030482647042617762 0 -0.33147053265455362 0.028685971523573509 0 -0.30275076685986052 0.01302793975641137 0 -0.32081930115796109 0.0071028845987215622 0 -0.31557568648467399 0.030482647042617762 0 -0.32081930115796109 0.0071028845987215622 0 -0.31557568648467399 0.030482647042617762 0 -0.33147053265455362 0.028685971523573509 0 -0.33666970055335488 0.01224821574334606 0 -0.34657324370724107 0.02341508008626348 0 -0.32081930115796109 0.0071028845987215622 0 -0.33147053265455362 0.028685971523573509 0 -0.33666970055335488 0.01224821574334606 0 -0.34333134315565561 -0.001322233230025182 0 -0.32081930115796109 0.0071028845987215622 0 -0.33666970055335488 0.01224821574334606 0 -0.33666970055335488 0.01224821574334606 0 -0.35653611893116932 0.0029963747691135359 0 -0.34657324370724107 0.02341508008626348 0 -0.35653611893116932 0.0029963747691135359 0 -0.34657324370724107 0.02341508008626348 0 -0.36019295969595688 0.01601551522324517 0 -0.35653611893116932 0.0029963747691135359 0 -0.34657324370724107 0.02341508008626348 0 -0.34333134315565561 -0.001322233230025182 0 -0.33666970055335488 0.01224821574334606 0 -0.35653611893116932 0.0029963747691135359 0 -0.34657324370724107 0.02341508008626348 0 -0.36019295969595688 0.01601551522324517 0 -0.36407871977875711 0.027617422994206369 0 -0.34657324370724107 0.02341508008626348 0 -0.36407871977875711 0.027617422994206369 0 -0.35042388467218172 0.038812958909376853 0 -0.38066851857823031 0.037488696634832161 0 -0.36407871977875711 0.027617422994206369 0 -0.37358375636666019 0.010033183043397309 0 -0.36019295969595688 0.01601551522324517 0 -0.36407871977875711 0.027617422994206369 0 -0.37358375636666019 0.010033183043397309 0 -0.35653611893116932 0.0029963747691135359 0 -0.36019295969595688 0.01601551522324517 0 -0.37358375636666019 0.010033183043397309 0 -0.34301522140165502 0.053636105163723143 0 -0.36184186998994272 0.04556240089927787 0 -0.34301522140165502 0.053636105163723143 0 -0.35415606290210239 0.06103381942656786 0 -0.36184186998994272 0.04556240089927787 0 -0.34301522140165502 0.053636105163723143 0 -0.35415606290210239 0.06103381942656786 0 -0.34616977345483618 0.065067785926761004 0 -0.34301522140165502 0.053636105163723143 0 -0.35042388467218172 0.038812958909376853 0 -0.36184186998994272 0.04556240089927787 0 -0.33661036848331283 0.043833785403413407 0 -0.34657324370724107 0.02341508008626348 0 -0.35042388467218172 0.038812958909376853 0 -0.36407871977875711 0.027617422994206369 0 -0.35042388467218172 0.038812958909376853 0 -0.36184186998994272 0.04556240089927787 0 -0.38066851857823031 0.037488696634832161 0 -0.36184186998994272 0.04556240089927787 0 -0.37323241054370382 0.051514662577670858 0 -0.38066851857823031 0.037488696634832161 0 -0.36407871977875711 0.027617422994206369 0 -0.36184186998994272 0.04556240089927787 0 -0.38066851857823031 0.037488696634832161 0 -0.36184186998994272 0.04556240089927787 0 -0.36184186998994272 0.04556240089927787 0 -0.37323241054370382 0.051514662577670858 0 -0.36722158131253541 0.061717853819431727 0 -0.35415606290210239 0.06103381942656786 0 -0.36184186998994272 0.04556240089927787 0 -0.36722158131253541 0.061717853819431727 0 -0.37714401326192132 0.060996472085924063 0 -0.37323241054370382 0.051514662577670858 0 -0.36722158131253541 0.061717853819431727 0 -0.37714401326192132 0.060996472085924063 0 -0.36722158131253541 0.061717853819431727 0 -0.37484658140675331 0.070341644950357718 0 -0.36722158131253541 0.061717853819431727 0 -0.37484658140675331 0.070341644950357718 0 -0.35985000284750462 0.074463233538799203 0 -0.37484658140675331 0.070341644950357718 0 -0.35985000284750462 0.074463233538799203 0 -0.37083957981555932 0.079806517741405916 0 -0.35415606290210239 0.06103381942656786 0 -0.36722158131253541 0.061717853819431727 0 -0.35985000284750462 0.074463233538799203 0 -0.35415606290210239 0.06103381942656786 0 -0.35985000284750462 0.074463233538799203 0 -0.34924139805186888 0.073471286815979003 0 -0.35985000284750462 0.074463233538799203 0 -0.34924139805186888 0.073471286815979003 0 -0.35505270247631232 0.085125160318913082 0 -0.34924139805186888 0.073471286815979003 0 -0.34616977345483618 0.065067785926761004 0 -0.34014937393160721 0.07511381700969573 0 -0.34924139805186888 0.073471286815979003 0 -0.34497218834813193 0.084144576306442037 0 -0.34014937393160721 0.07511381700969573 0 -0.35415606290210239 0.06103381942656786 0 -0.34924139805186888 0.073471286815979003 0 -0.34616977345483618 0.065067785926761004 0 -0.34875734730147551 0.092747500770883812 0 -0.34497218834813193 0.084144576306442037 0 -0.34021039479440601 0.093958854801153749 0 -0.34875734730147551 0.092747500770883812 0 -0.34497218834813193 0.084144576306442037 0 -0.35505270247631232 0.085125160318913082 0 -0.34924139805186888 0.073471286815979003 0 -0.34497218834813193 0.084144576306442037 0 -0.35505270247631232 0.085125160318913082 0 -0.34875734730147551 0.092747500770883812 0 -0.35505270247631232 0.085125160318913082 0 -0.35570553631684693 0.09691680739421038 0 -0.35505270247631232 0.085125160318913082 0 -0.36298078812131501 0.092343525923666958 0 -0.35570553631684693 0.09691680739421038 0 -0.35505270247631232 0.085125160318913082 0 -0.36298078812131501 0.092343525923666958 0 -0.3650282541096756 0.084605330223258751 0 -0.35985000284750462 0.074463233538799203 0 -0.3650282541096756 0.084605330223258751 0 -0.37083957981555932 0.079806517741405916 0 -0.35985000284750462 0.074463233538799203 0 -0.35505270247631232 0.085125160318913082 0 -0.3650282541096756 0.084605330223258751 0 -0.376418197287687 0.091288213593508638 0 -0.3650282541096756 0.084605330223258751 0 -0.37083957981555932 0.079806517741405916 0 -0.376418197287687 0.091288213593508638 0 -0.36298078812131501 0.092343525923666958 0 -0.3650282541096756 0.084605330223258751 0 -0.376418197287687 0.091288213593508638 0 -0.36298078812131501 0.092343525923666958 0 -0.3697506804979514 0.097642995509005487 0 -0.376418197287687 0.091288213593508638 0 -0.3697506804979514 0.097642995509005487 0 -0.37455653253468418 0.1007513186608863 0 -0.3697506804979514 0.097642995509005487 0 -0.36949516727251558 0.1038355851038526 0 -0.36346682384867868 0.1005025757026046 0 -0.3697506804979514 0.097642995509005487 0 -0.37455653253468418 0.1007513186608863 0 -0.36949516727251558 0.1038355851038526 0 -0.37530769651611179 0.107104446043488 0 -0.37455653253468418 0.1007513186608863 0 -0.36949516727251558 0.1038355851038526 0 -0.37530769651611179 0.107104446043488 0 -0.36949516727251558 0.1038355851038526 0 -0.36951712546789889 0.1112114231565809 0 -0.36949516727251558 0.1038355851038526 0 -0.36463544712027818 0.1070738851589608 0 -0.36951712546789889 0.1112114231565809 0 -0.36463544712027818 0.1070738851589608 0 -0.36209787147488109 0.11403928669971081 0 -0.35741831425259091 0.1060756282812505 0 -0.36949516727251558 0.1038355851038526 0 -0.36463544712027818 0.1070738851589608 0 -0.36346682384867868 0.1005025757026046 0 -0.36463544712027818 0.1070738851589608 0 -0.36346682384867868 0.1005025757026046 0 -0.35741831425259091 0.1060756282812505 0 -0.36298078812131501 0.092343525923666958 0 -0.3697506804979514 0.097642995509005487 0 -0.36346682384867868 0.1005025757026046 0 -0.36298078812131501 0.092343525923666958 0 -0.36346682384867868 0.1005025757026046 0 -0.35570553631684693 0.09691680739421038 0 -0.37781630623795659 0.1245460688386113 0 -0.37486626081068392 0.12154822847063659 0 -0.36540751910754732 0.1226358477222062 0 -0.37486626081068392 0.12154822847063659 0 -0.370483532459984 0.11943380789287809 0 -0.36540751910754732 0.1226358477222062 0 -0.37486626081068392 0.12154822847063659 0 -0.370483532459984 0.11943380789287809 0 -0.37276745050485549 0.116694808056333 0 -0.370483532459984 0.11943380789287809 0 -0.36761634991989001 0.117050780029114 0 -0.36540751910754732 0.1226358477222062 0 -0.370483532459984 0.11943380789287809 0 -0.36761634991989001 0.117050780029114 0 -0.37276745050485549 0.116694808056333 0 -0.36761634991989001 0.117050780029114 0 -0.37276745050485549 0.116694808056333 0 -0.36951712546789889 0.1112114231565809 0 -0.37596750052153538 0.11318892794042081 0 -0.37276745050485549 0.116694808056333 0 -0.36951712546789889 0.1112114231565809 0 -0.37596750052153538 0.11318892794042081 0 -0.37530769651611179 0.107104446043488 0 -0.36951712546789889 0.1112114231565809 0 -0.36463544712027818 0.1070738851589608 0 -0.36951712546789889 0.1112114231565809 0 -0.36209787147488109 0.11403928669971081 0 -0.36761634991989001 0.117050780029114 0 -0.36951712546789889 0.1112114231565809 0 -0.36209787147488109 0.11403928669971081 0 -0.35428715371220088 0.1252540881848446 0 -0.36540751910754732 0.1226358477222062 0 -0.35869513995828972 0.1190683399497688 0 -0.36761634991989001 0.117050780029114 0 -0.36209787147488109 0.11403928669971081 0 -0.36540751910754732 0.1226358477222062 0 -0.36209787147488109 0.11403928669971081 0 -0.36540751910754732 0.1226358477222062 0 -0.35869513995828972 0.1190683399497688 0 -0.35428715371220088 0.1252540881848446 0 -0.35869513995828972 0.1190683399497688 0 -0.35298801553852971 0.11434413719231359 0 -0.36209787147488109 0.11403928669971081 0 -0.35298801553852971 0.11434413719231359 0 -0.35741831425259091 0.1060756282812505 0 -0.36209787147488109 0.11403928669971081 0 -0.35869513995828972 0.1190683399497688 0 -0.35298801553852971 0.11434413719231359 0 -0.35298801553852971 0.11434413719231359 0 -0.34655724190070902 0.1047064533679434 0 -0.34345354161376829 0.1177595181240649 0 -0.35428715371220088 0.1252540881848446 0 -0.35298801553852971 0.11434413719231359 0 -0.34345354161376829 0.1177595181240649 0 -0.35428715371220088 0.1252540881848446 0 -0.34563410027124047 0.1285473905554021 0 -0.34345354161376829 0.1177595181240649 0 -0.36346682384867868 0.1005025757026046 0 -0.35570553631684693 0.09691680739421038 0 -0.35741831425259091 0.1060756282812505 0 -0.35298801553852971 0.11434413719231359 0 -0.35741831425259091 0.1060756282812505 0 -0.34655724190070902 0.1047064533679434 0 -0.35570553631684693 0.09691680739421038 0 -0.35741831425259091 0.1060756282812505 0 -0.34655724190070902 0.1047064533679434 0 -0.34875734730147551 0.092747500770883812 0 -0.34655724190070902 0.1047064533679434 0 -0.34021039479440601 0.093958854801153749 0 -0.34875734730147551 0.092747500770883812 0 -0.35570553631684693 0.09691680739421038 0 -0.34655724190070902 0.1047064533679434 0 -0.34655724190070902 0.1047064533679434 0 -0.34021039479440601 0.093958854801153749 0 -0.3359987948202019 0.1017290556813511 0 -0.34655724190070902 0.1047064533679434 0 -0.3359987948202019 0.1017290556813511 0 -0.33759033041021241 0.1098330651922923 0 -0.3359987948202019 0.1017290556813511 0 -0.32963035996594559 0.10712588292270379 0 -0.33759033041021241 0.1098330651922923 0 -0.3359987948202019 0.1017290556813511 0 -0.32963035996594559 0.10712588292270379 0 -0.3274768926412015 0.094246648672998937 0 -0.34021039479440601 0.093958854801153749 0 -0.3359987948202019 0.1017290556813511 0 -0.3274768926412015 0.094246648672998937 0 -0.34345354161376829 0.1177595181240649 0 -0.33046099861251899 0.116179421678883 0 -0.33553129141904459 0.1249883312515848 0 -0.34563410027124047 0.1285473905554021 0 -0.34345354161376829 0.1177595181240649 0 -0.33553129141904459 0.1249883312515848 0 -0.34345354161376829 0.1177595181240649 0 -0.33759033041021241 0.1098330651922923 0 -0.33046099861251899 0.116179421678883 0 -0.34655724190070902 0.1047064533679434 0 -0.34345354161376829 0.1177595181240649 0 -0.33759033041021241 0.1098330651922923 0 -0.32963035996594559 0.10712588292270379 0 -0.33759033041021241 0.1098330651922923 0 -0.33046099861251899 0.116179421678883 0 -0.33046099861251899 0.116179421678883 0 -0.33553129141904459 0.1249883312515848 0 -0.32788998321626489 0.12332644099719441 0 -0.33046099861251899 0.116179421678883 0 -0.32788998321626489 0.12332644099719441 0 -0.31924031789788238 0.12075286087595941 0 -0.33046099861251899 0.116179421678883 0 -0.31924031789788238 0.12075286087595941 0 -0.32011804783567088 0.10721009000571061 0 -0.32963035996594559 0.10712588292270379 0 -0.33046099861251899 0.116179421678883 0 -0.32011804783567088 0.10721009000571061 0 -0.30757507478648383 0.1068339054477811 0 -0.31924031789788238 0.12075286087595941 0 -0.32011804783567088 0.10721009000571061 0 -0.3274768926412015 0.094246648672998937 0 -0.32011804783567088 0.10721009000571061 0 -0.31528996601909282 0.098100856864118333 0 -0.32963035996594559 0.10712588292270379 0 -0.3274768926412015 0.094246648672998937 0 -0.32011804783567088 0.10721009000571061 0 -0.30757507478648383 0.1068339054477811 0 -0.32011804783567088 0.10721009000571061 0 -0.31528996601909282 0.098100856864118333 0 -0.3274768926412015 0.094246648672998937 0 -0.31528996601909282 0.098100856864118333 0 -0.31552251578355073 0.086787888819126052 0 -0.3274768926412015 0.094246648672998937 0 -0.31552251578355073 0.086787888819126052 0 -0.32685817343149831 0.075088632592500079 0 -0.30737402073672959 0.093485651455519458 0 -0.31528996601909282 0.098100856864118333 0 -0.31552251578355073 0.086787888819126052 0 -0.31552251578355073 0.086787888819126052 0 -0.31505868590200009 0.07455197157821368 0 -0.32685817343149831 0.075088632592500079 0 -0.30439669652818402 0.066328176675772191 0 -0.32418857281336733 0.06170980942816838 0 -0.31505868590200009 0.07455197157821368 0 -0.32418857281336733 0.06170980942816838 0 -0.31505868590200009 0.07455197157821368 0 -0.32685817343149831 0.075088632592500079 0 -0.32685817343149831 0.075088632592500079 0 -0.33698940704588759 0.066269876268367403 0 -0.34014937393160721 0.07511381700969573 0 -0.32418857281336733 0.06170980942816838 0 -0.32685817343149831 0.075088632592500079 0 -0.33698940704588759 0.066269876268367403 0 -0.34616977345483618 0.065067785926761004 0 -0.33698940704588759 0.066269876268367403 0 -0.34014937393160721 0.07511381700969573 0 -0.34497218834813193 0.084144576306442037 0 -0.34014937393160721 0.07511381700969573 0 -0.33642191353312162 0.084450838122026958 0 -0.3274768926412015 0.094246648672998937 0 -0.32685817343149831 0.075088632592500079 0 -0.33642191353312162 0.084450838122026958 0 -0.34497218834813193 0.084144576306442037 0 -0.34021039479440601 0.093958854801153749 0 -0.33642191353312162 0.084450838122026958 0 -0.34021039479440601 0.093958854801153749 0 -0.3274768926412015 0.094246648672998937 0 -0.33642191353312162 0.084450838122026958 0 -0.32685817343149831 0.075088632592500079 0 -0.34014937393160721 0.07511381700969573 0 -0.33642191353312162 0.084450838122026958 0 -0.40237755688042071 0.47647571175050801 0 -0.43426384441135463 0.5 0 -0.35281248050387221 0.49999999999999561 0 -0.40237755688042071 0.47647571175050801 0 -0.37702757547555499 0.47148160542588352 0 -0.35281248050387221 0.49999999999999561 0 -0.37702757547555499 0.47148160542588352 0 -0.39267133292169648 0.45362120618310359 0 -0.36797636964281388 0.45103315731918092 0 -0.39267133292169648 0.45362120618310359 0 -0.37555831421228458 0.42654973597877349 0 -0.36797636964281388 0.45103315731918092 0 -0.39267133292169648 0.45362120618310359 0 -0.40759365293195848 0.44255908561333818 0 -0.39725136195344452 0.4292170560783416 0 -0.40237755688042071 0.47647571175050801 0 -0.37702757547555499 0.47148160542588352 0 -0.39267133292169648 0.45362120618310359 0 -0.40237755688042071 0.47647571175050801 0 -0.39267133292169648 0.45362120618310359 0 -0.42150750715808949 0.45551370401399333 0 -0.40237755688042071 0.47647571175050801 0 -0.42150750715808949 0.45551370401399333 0 -0.40237755688042071 0.47647571175050801 0 -0.42150750715808949 0.45551370401399333 0 -0.43274597840955692 0.47328395173391641 0 -0.39267133292169648 0.45362120618310359 0 -0.42150750715808949 0.45551370401399333 0 -0.40759365293195848 0.44255908561333818 0 -0.42150750715808949 0.45551370401399333 0 -0.40759365293195848 0.44255908561333818 0 -0.41894440969460378 0.43188437617791448 0 -0.42150750715808949 0.45551370401399333 0 -0.44592665837245432 0.45541501700687881 0 -0.44063745743576349 0.43455169627748352 0 -0.42150750715808949 0.45551370401399333 0 -0.44063745743576349 0.43455169627748352 0 -0.42150750715808949 0.45551370401399333 0 -0.44063745743576349 0.43455169627748352 0 -0.41894440969460378 0.43188437617791448 0 -0.42150750715808949 0.45551370401399333 0 -0.43274597840955692 0.47328395173391641 0 -0.44592665837245432 0.45541501700687881 0 -0.40237755688042071 0.47647571175050801 0 -0.43274597840955692 0.47328395173391641 0 -0.43426384441135463 0.5 0 -0.43426384441135463 0.5 0 -0.45898111616068848 0.47591484849494009 0 -0.5 0.5 0 -0.43274597840955692 0.47328395173391641 0 -0.43426384441135463 0.5 0 -0.45898111616068848 0.47591484849494009 0 -0.45898111616068848 0.47591484849494009 0 -0.5 0.5 0 -0.47880332468266829 0.47013834022046419 0 -0.5 0.5 0 -0.47880332468266829 0.47013834022046419 0 -0.49764665492472437 0.45615470522391122 0 -0.5 0.5 0 -0.49999999999999661 0.44185075839326848 0 -0.49764665492472437 0.45615470522391122 0 -0.49999999999999661 0.44185075839326848 0 -0.48140761692290601 0.43956468786633279 0 -0.48023094438527048 0.44671666128165222 0 -0.49999999999999661 0.44185075839326848 0 -0.48140761692290601 0.43956468786633279 0 -0.49999999999999661 0.44185075839326848 0 -0.49764665492472437 0.45615470522391122 0 -0.48023094438527048 0.44671666128165222 0 -0.49764665492472437 0.45615470522391122 0 -0.48023094438527048 0.44671666128165222 0 -0.49764665492472437 0.45615470522391122 0 -0.4828616355824138 0.45720767728055001 0 -0.48023094438527048 0.44671666128165222 0 -0.47880332468266829 0.47013834022046419 0 -0.49764665492472437 0.45615470522391122 0 -0.4828616355824138 0.45720767728055001 0 -0.4828616355824138 0.45720767728055001 0 -0.47540177507276732 0.4564025826839081 0 -0.48023094438527048 0.44671666128165222 0 -0.47880332468266829 0.47013834022046419 0 -0.4828616355824138 0.45720767728055001 0 -0.47540177507276732 0.4564025826839081 0 -0.47880332468266829 0.47013834022046419 0 -0.47540177507276732 0.4564025826839081 0 -0.46414902502948352 0.45560475604021122 0 -0.47540177507276732 0.4564025826839081 0 -0.48023094438527048 0.44671666128165222 0 -0.46414902502948352 0.45560475604021122 0 -0.48140761692290601 0.43956468786633279 0 -0.46281523384581558 0.43727861733939488 0 -0.48023094438527048 0.44671666128165222 0 -0.46281523384581558 0.43727861733939488 0 -0.48023094438527048 0.44671666128165222 0 -0.46414902502948352 0.45560475604021122 0 -0.46281523384581558 0.43727861733939488 0 -0.48140761692290601 0.43956468786633279 0 -0.48023094438527048 0.44671666128165222 0 -0.46281523384581558 0.43727861733939488 0 -0.46414902502948352 0.45560475604021122 0 -0.44592665837245432 0.45541501700687881 0 -0.46281523384581558 0.43727861733939488 0 -0.45898111616068848 0.47591484849494009 0 -0.47880332468266829 0.47013834022046419 0 -0.46414902502948352 0.45560475604021122 0 -0.45898111616068848 0.47591484849494009 0 -0.46414902502948352 0.45560475604021122 0 -0.44592665837245432 0.45541501700687881 0 -0.43274597840955692 0.47328395173391641 0 -0.45898111616068848 0.47591484849494009 0 -0.44592665837245432 0.45541501700687881 0 -0.44592665837245432 0.45541501700687881 0 -0.44063745743576349 0.43455169627748352 0 -0.46281523384581558 0.43727861733939488 0 -0.44063745743576349 0.43455169627748352 0 -0.4463111689006512 0.42833461876836199 0 -0.46281523384581558 0.43727861733939488 0 -0.44063745743576349 0.43455169627748352 0 -0.4463111689006512 0.42833461876836199 0 -0.43186831909633761 0.42741921125471338 0 -0.44063745743576349 0.43455169627748352 0 -0.46281523384581558 0.43727861733939488 0 -0.44063745743576349 0.43455169627748352 0 -0.4463111689006512 0.42833461876836199 0 -0.4463111689006512 0.42833461876836199 0 -0.44332127500510549 0.41006374092558601 0 -0.42362385958987792 0.41603975306525931 0 -0.4463111689006512 0.42833461876836199 0 -0.44332127500510549 0.41006374092558601 0 -0.45878472749097682 0.41466647912988541 0 -0.4463111689006512 0.42833461876836199 0 -0.45878472749097682 0.41466647912988541 0 -0.44332127500510549 0.41006374092558601 0 -0.45878472749097682 0.41466647912988541 0 -0.45591092184101378 0.40211498669652979 0 -0.45878472749097682 0.41466647912988541 0 -0.47169038618848808 0.42540698194485232 0 -0.47317105145605959 0.41333623115010482 0 -0.45878472749097682 0.41466647912988541 0 -0.47125828608130282 0.40099833949140928 0 -0.45878472749097682 0.41466647912988541 0 -0.47317105145605959 0.41333623115010482 0 -0.47125828608130282 0.40099833949140928 0 -0.4463111689006512 0.42833461876836199 0 -0.46281523384581558 0.43727861733939488 0 -0.4463111689006512 0.42833461876836199 0 -0.45866114532657981 0.42616685150776462 0 -0.46281523384581558 0.43727861733939488 0 -0.4463111689006512 0.42833461876836199 0 -0.45878472749097682 0.41466647912988541 0 -0.45866114532657981 0.42616685150776462 0 -0.45866114532657981 0.42616685150776462 0 -0.46281523384581558 0.43727861733939488 0 -0.47169038618848808 0.42540698194485232 0 -0.45878472749097682 0.41466647912988541 0 -0.45866114532657981 0.42616685150776462 0 -0.47169038618848808 0.42540698194485232 0 -0.47169038618848808 0.42540698194485232 0 -0.48268992639952218 0.41849221252098351 0 -0.48772627880135028 0.42938969853010978 0 -0.48140761692290601 0.43956468786633279 0 -0.46281523384581558 0.43727861733939488 0 -0.47169038618848808 0.42540698194485232 0 -0.48140761692290601 0.43956468786633279 0 -0.47169038618848808 0.42540698194485232 0 -0.48772627880135028 0.42938969853010978 0 -0.47169038618848808 0.42540698194485232 0 -0.47317105145605959 0.41333623115010482 0 -0.48268992639952218 0.41849221252098351 0 -0.47317105145605959 0.41333623115010482 0 -0.48143193112000798 0.40711714266339388 0 -0.47125828608130282 0.40099833949140928 0 -0.47317105145605959 0.41333623115010482 0 -0.48143193112000798 0.40711714266339388 0 -0.48268992639952218 0.41849221252098351 0 -0.48268992639952218 0.41849221252098351 0 -0.500000000000003 0.41090817670978269 0 -0.5 0.42637946755152573 0 -0.48143193112000798 0.40711714266339388 0 -0.48268992639952218 0.41849221252098351 0 -0.500000000000003 0.41090817670978269 0 -0.48268992639952218 0.41849221252098351 0 -0.5 0.42637946755152573 0 -0.48772627880135028 0.42938969853010978 0 -0.49999999999999661 0.44185075839326848 0 -0.48140761692290601 0.43956468786633279 0 -0.48772627880135028 0.42938969853010978 0 -0.49999999999999661 0.44185075839326848 0 -0.5 0.42637946755152573 0 -0.48772627880135028 0.42938969853010978 0 -0.5 0.38953700612850312 0 -0.48237293129480419 0.39229720736244111 0 -0.48165618669330418 0.37638679948438719 0 -0.5 0.38953700612850312 0 -0.48165618669330418 0.37638679948438719 0 -0.49999999999999961 0.36816583554722371 0 -0.48143193112000798 0.40711714266339388 0 -0.500000000000003 0.41090817670978269 0 -0.48237293129480419 0.39229720736244111 0 -0.500000000000003 0.41090817670978269 0 -0.5 0.38953700612850312 0 -0.48237293129480419 0.39229720736244111 0 -0.500000000000003 0.41090817670978269 0 -0.48237293129480419 0.39229720736244111 0 -0.48237293129480419 0.39229720736244111 0 -0.47125828608130282 0.40099833949140928 0 -0.46120104330672862 0.39015599669109491 0 -0.48143193112000798 0.40711714266339388 0 -0.48237293129480419 0.39229720736244111 0 -0.47125828608130282 0.40099833949140928 0 -0.48237293129480419 0.39229720736244111 0 -0.48165618669330418 0.37638679948438719 0 -0.46474586258960382 0.37368623801510092 0 -0.48237293129480419 0.39229720736244111 0 -0.46120104330672862 0.39015599669109491 0 -0.46474586258960382 0.37368623801510092 0 -0.48237293129480419 0.39229720736244111 0 -0.46474586258960382 0.37368623801510092 0 -0.46120104330672862 0.39015599669109491 0 -0.4446464835324791 0.37675012773805527 0 -0.46474586258960382 0.37368623801510092 0 -0.46120104330672862 0.39015599669109491 0 -0.45591092184101378 0.40211498669652979 0 -0.44498927732095522 0.3946903772446736 0 -0.45878472749097682 0.41466647912988541 0 -0.47125828608130282 0.40099833949140928 0 -0.45591092184101378 0.40211498669652979 0 -0.47125828608130282 0.40099833949140928 0 -0.46120104330672862 0.39015599669109491 0 -0.45591092184101378 0.40211498669652979 0 -0.44332127500510549 0.41006374092558601 0 -0.45591092184101378 0.40211498669652979 0 -0.44498927732095522 0.3946903772446736 0 -0.44332127500510549 0.41006374092558601 0 -0.44498927732095522 0.3946903772446736 0 -0.43251466421840068 0.40190753264619772 0 -0.46120104330672862 0.39015599669109491 0 -0.44498927732095522 0.3946903772446736 0 -0.4446464835324791 0.37675012773805527 0 -0.44498927732095522 0.3946903772446736 0 -0.4446464835324791 0.37675012773805527 0 -0.43082587656277221 0.38918845228914051 0 -0.4446464835324791 0.37675012773805527 0 -0.43082587656277221 0.38918845228914051 0 -0.42542945687033501 0.3754339334755934 0 -0.43082587656277221 0.38918845228914051 0 -0.42542945687033501 0.3754339334755934 0 -0.4179575472350518 0.38857723394174248 0 -0.42542945687033501 0.3754339334755934 0 -0.4179575472350518 0.38857723394174248 0 -0.40733604102589033 0.37437979791976028 0 -0.4179575472350518 0.38857723394174248 0 -0.40555566589572289 0.40309168951792251 0 -0.40733604102589033 0.37437979791976028 0 -0.40555566589572289 0.40309168951792251 0 -0.40733604102589033 0.37437979791976028 0 -0.4179575472350518 0.38857723394174248 0 -0.42064069582053809 0.40079229650629589 0 -0.40555566589572289 0.40309168951792251 0 -0.42064069582053809 0.40079229650629589 0 -0.43251466421840068 0.40190753264619772 0 -0.42362385958987792 0.41603975306525931 0 -0.43082587656277221 0.38918845228914051 0 -0.42064069582053809 0.40079229650629589 0 -0.43251466421840068 0.40190753264619772 0 -0.43082587656277221 0.38918845228914051 0 -0.4179575472350518 0.38857723394174248 0 -0.42064069582053809 0.40079229650629589 0 -0.44498927732095522 0.3946903772446736 0 -0.43082587656277221 0.38918845228914051 0 -0.43251466421840068 0.40190753264619772 0 -0.44332127500510549 0.41006374092558601 0 -0.43251466421840068 0.40190753264619772 0 -0.42362385958987792 0.41603975306525931 0 -0.44063745743576349 0.43455169627748352 0 -0.43186831909633761 0.42741921125471338 0 -0.41894440969460378 0.43188437617791448 0 -0.42362385958987792 0.41603975306525931 0 -0.43186831909633761 0.42741921125471338 0 -0.41894440969460378 0.43188437617791448 0 -0.4463111689006512 0.42833461876836199 0 -0.42362385958987792 0.41603975306525931 0 -0.43186831909633761 0.42741921125471338 0 -0.44063745743576349 0.43455169627748352 0 -0.41894440969460378 0.43188437617791448 0 -0.4463111689006512 0.42833461876836199 0 -0.42362385958987792 0.41603975306525931 0 -0.41894440969460378 0.43188437617791448 0 -0.41098654686088609 0.42328355228730519 0 -0.39725136195344452 0.4292170560783416 0 -0.41894440969460378 0.43188437617791448 0 -0.39725136195344452 0.4292170560783416 0 -0.40759365293195848 0.44255908561333818 0 -0.41894440969460378 0.43188437617791448 0 -0.39725136195344452 0.4292170560783416 0 -0.42362385958987792 0.41603975306525931 0 -0.41894440969460378 0.43188437617791448 0 -0.41098654686088609 0.42328355228730519 0 -0.42362385958987792 0.41603975306525931 0 -0.40093655027910469 0.40374488736215658 0 -0.40555566589572289 0.40309168951792251 0 -0.42362385958987792 0.41603975306525931 0 -0.40093655027910469 0.40374488736215658 0 -0.42064069582053809 0.40079229650629589 0 -0.42362385958987792 0.41603975306525931 0 -0.40555566589572289 0.40309168951792251 0 -0.42362385958987792 0.41603975306525931 0 -0.40885174271777908 0.41621874822432298 0 -0.40093655027910469 0.40374488736215658 0 -0.42362385958987792 0.41603975306525931 0 -0.41098654686088609 0.42328355228730519 0 -0.40885174271777908 0.41621874822432298 0 -0.41098654686088609 0.42328355228730519 0 -0.40885174271777908 0.41621874822432298 0 -0.40241069495312648 0.42025108283373341 0 -0.40885174271777908 0.41621874822432298 0 -0.39797917281307138 0.40962087637812888 0 -0.40093655027910469 0.40374488736215658 0 -0.39505931772265179 0.42151180867209131 0 -0.39797917281307138 0.40962087637812888 0 -0.38488719279234179 0.39642516004495892 0 -0.40885174271777908 0.41621874822432298 0 -0.40241069495312648 0.42025108283373341 0 -0.39797917281307138 0.40962087637812888 0 -0.40241069495312648 0.42025108283373341 0 -0.39505931772265179 0.42151180867209131 0 -0.39797917281307138 0.40962087637812888 0 -0.41098654686088609 0.42328355228730519 0 -0.40241069495312648 0.42025108283373341 0 -0.39725136195344452 0.4292170560783416 0 -0.39505931772265179 0.42151180867209131 0 -0.39725136195344452 0.4292170560783416 0 -0.3858099633241967 0.42164698723959809 0 -0.40241069495312648 0.42025108283373341 0 -0.39505931772265179 0.42151180867209131 0 -0.39725136195344452 0.4292170560783416 0 -0.39725136195344452 0.4292170560783416 0 -0.37555831421228458 0.42654973597877349 0 -0.3858099633241967 0.42164698723959809 0 -0.39267133292169648 0.45362120618310359 0 -0.39725136195344452 0.4292170560783416 0 -0.37555831421228458 0.42654973597877349 0 -0.39725136195344452 0.4292170560783416 0 -0.37555831421228458 0.42654973597877349 0 -0.39505931772265179 0.42151180867209131 0 -0.38488719279234179 0.39642516004495892 0 -0.39505931772265179 0.42151180867209131 0 -0.3802227535023136 0.41148744801186632 0 -0.38488719279234179 0.39642516004495892 0 -0.39505931772265179 0.42151180867209131 0 -0.3858099633241967 0.42164698723959809 0 -0.3802227535023136 0.41148744801186632 0 -0.37555831421228458 0.42654973597877349 0 -0.3802227535023136 0.41148744801186632 0 -0.37555831421228458 0.42654973597877349 0 -0.3858099633241967 0.42164698723959809 0 -0.3802227535023136 0.41148744801186632 0 -0.38488719279234179 0.39642516004495892 0 -0.37464999649841829 0.39135537666924358 0 -0.36913354672539839 0.40082479438793311 0 -0.3802227535023136 0.41148744801186632 0 -0.38488719279234179 0.39642516004495892 0 -0.3802227535023136 0.41148744801186632 0 -0.38488719279234179 0.39642516004495892 0 -0.36913354672539839 0.40082479438793311 0 -0.38488719279234179 0.39642516004495892 0 -0.37866162191671071 0.38115694779354858 0 -0.38488719279234179 0.39642516004495892 0 -0.37866162191671071 0.38115694779354858 0 -0.37464999649841829 0.39135537666924358 0 -0.37866162191671071 0.38115694779354858 0 -0.39045655139382629 0.38123255289717323 0 -0.38595499720899712 0.36974566098547762 0 -0.38488719279234179 0.39642516004495892 0 -0.37866162191671071 0.38115694779354858 0 -0.39045655139382629 0.38123255289717323 0 -0.38488719279234179 0.39642516004495892 0 -0.39045655139382629 0.38123255289717323 0 -0.39775329253073599 0.38868420077543547 0 -0.39045655139382629 0.38123255289717323 0 -0.38595499720899712 0.36974566098547762 0 -0.40733604102589033 0.37437979791976028 0 -0.39045655139382629 0.38123255289717323 0 -0.39775329253073599 0.38868420077543547 0 -0.40733604102589033 0.37437979791976028 0 -0.39775329253073599 0.38868420077543547 0 -0.40555566589572289 0.40309168951792251 0 -0.40733604102589033 0.37437979791976028 0 -0.39775329253073599 0.38868420077543547 0 -0.40555566589572289 0.40309168951792251 0 -0.39742237486219528 0.4003133628157205 0 -0.39797917281307138 0.40962087637812888 0 -0.40093655027910469 0.40374488736215658 0 -0.39742237486219528 0.4003133628157205 0 -0.40093655027910469 0.40374488736215658 0 -0.40555566589572289 0.40309168951792251 0 -0.39742237486219528 0.4003133628157205 0 -0.39797917281307138 0.40962087637812888 0 -0.38488719279234179 0.39642516004495892 0 -0.39742237486219528 0.4003133628157205 0 -0.38488719279234179 0.39642516004495892 0 -0.39775329253073599 0.38868420077543547 0 -0.39742237486219528 0.4003133628157205 0 -0.39523169760644999 0.35713643386167959 0 -0.40450839800390281 0.34452720673788151 0 -0.37903855386066121 0.33822223144215541 0 -0.39523169760644999 0.35713643386167959 0 -0.40911641615605759 0.34566790632159822 0 -0.40733604102589033 0.37437979791976028 0 -0.39523169760644999 0.35713643386167959 0 -0.40450839800390281 0.34452720673788151 0 -0.39523169760644999 0.35713643386167959 0 -0.40450839800390281 0.34452720673788151 0 -0.40911641615605759 0.34566790632159822 0 -0.39523169760644999 0.35713643386167959 0 -0.38595499720899712 0.36974566098547762 0 -0.40733604102589033 0.37437979791976028 0 -0.39523169760644999 0.35713643386167959 0 -0.38595499720899712 0.36974566098547762 0 -0.38316994310293012 0.35774638892044602 0 -0.39523169760644999 0.35713643386167959 0 -0.38595499720899712 0.36974566098547762 0 -0.37866162191671071 0.38115694779354858 0 -0.37245452373560778 0.36588122939247031 0 -0.37866162191671071 0.38115694779354858 0 -0.38595499720899712 0.36974566098547762 0 -0.37245452373560778 0.36588122939247031 0 -0.38595499720899712 0.36974566098547762 0 -0.38316994310293012 0.35774638892044602 0 -0.37245452373560778 0.36588122939247031 0 -0.38316994310293012 0.35774638892044602 0 -0.37903855386066121 0.33822223144215541 0 -0.37245452373560778 0.36588122939247031 0 -0.39523169760644999 0.35713643386167959 0 -0.38316994310293012 0.35774638892044602 0 -0.37903855386066121 0.33822223144215541 0 -0.37903855386066121 0.33822223144215541 0 -0.37245452373560778 0.36588122939247031 0 -0.37903855386066121 0.33822223144215541 0 -0.38509288943548092 0.31278843905755371 0 -0.37903855386066121 0.33822223144215541 0 -0.38509288943548092 0.31278843905755371 0 -0.39679281380523318 0.32667782178976063 0 -0.37903855386066121 0.33822223144215541 0 -0.38509288943548092 0.31278843905755371 0 -0.37331208673030197 0.33142456064895082 0 -0.38509288943548092 0.31278843905755371 0 -0.37344420330612538 0.32328889239963232 0 -0.37331208673030197 0.33142456064895082 0 -0.38509288943548092 0.31278843905755371 0 -0.37344420330612538 0.32328889239963232 0 -0.37457031043719169 0.31608930550457842 0 -0.38509288943548092 0.31278843905755371 0 -0.39679281380523318 0.32667782178976063 0 -0.40386253690461882 0.305948220719167 0 -0.39679281380523318 0.32667782178976063 0 -0.40961778835182078 0.33758233834709772 0 -0.41078527341689569 0.31875444973928768 0 -0.39679281380523318 0.32667782178976063 0 -0.41078527341689569 0.31875444973928768 0 -0.40386253690461882 0.305948220719167 0 -0.40450839800390281 0.34452720673788151 0 -0.37903855386066121 0.33822223144215541 0 -0.40450839800390281 0.34452720673788151 0 -0.39679281380523318 0.32667782178976063 0 -0.40961778835182078 0.33758233834709772 0 -0.40450839800390281 0.34452720673788151 0 -0.37903855386066121 0.33822223144215541 0 -0.39679281380523318 0.32667782178976063 0 -0.40961778835182078 0.33758233834709772 0 -0.40911641615605759 0.34566790632159822 0 -0.40961778835182078 0.33758233834709772 0 -0.42346329470505811 0.31876302471486212 0 -0.42715929456684942 0.3340016780328266 0 -0.40961778835182078 0.33758233834709772 0 -0.41078527341689569 0.31875444973928768 0 -0.40961778835182078 0.33758233834709772 0 -0.42346329470505811 0.31876302471486212 0 -0.40961778835182078 0.33758233834709772 0 -0.41971014243695243 0.34226647650807629 0 -0.42715929456684942 0.3340016780328266 0 -0.40450839800390281 0.34452720673788151 0 -0.40961778835182078 0.33758233834709772 0 -0.40450839800390281 0.34452720673788151 0 -0.40961778835182078 0.33758233834709772 0 -0.40911641615605759 0.34566790632159822 0 -0.40961778835182078 0.33758233834709772 0 -0.41971014243695243 0.34226647650807629 0 -0.40911641615605759 0.34566790632159822 0 -0.40961778835182078 0.33758233834709772 0 -0.41078527341689569 0.31875444973928768 0 -0.42346329470505811 0.31876302471486212 0 -0.41078527341689569 0.31875444973928768 0 -0.42346329470505811 0.31876302471486212 0 -0.41581569658385042 0.30943301459156491 0 -0.42346329470505811 0.31876302471486212 0 -0.43663567862231362 0.32346793091064358 0 -0.42715929456684942 0.3340016780328266 0 -0.42346329470505811 0.31876302471486212 0 -0.43663567862231362 0.32346793091064358 0 -0.43578644040837861 0.3148787755806558 0 -0.41971014243695243 0.34226647650807629 0 -0.42715929456684942 0.3340016780328266 0 -0.42811760502023027 0.35037158749467989 0 -0.42811760502023027 0.35037158749467989 0 -0.43382278390534101 0.36347832937351482 0 -0.44711879388440329 0.35507526866776101 0 -0.42715929456684942 0.3340016780328266 0 -0.42811760502023027 0.35037158749467989 0 -0.44711879388440329 0.35507526866776101 0 -0.42715929456684942 0.3340016780328266 0 -0.44711879388440329 0.35507526866776101 0 -0.42811760502023027 0.35037158749467989 0 -0.42114658364726298 0.36133152675174512 0 -0.43382278390534101 0.36347832937351482 0 -0.42811760502023027 0.35037158749467989 0 -0.40911641615605759 0.34566790632159822 0 -0.42811760502023027 0.35037158749467989 0 -0.40911641615605759 0.34566790632159822 0 -0.42114658364726298 0.36133152675174512 0 -0.41971014243695243 0.34226647650807629 0 -0.42811760502023027 0.35037158749467989 0 -0.40911641615605759 0.34566790632159822 0 -0.40450839800390281 0.34452720673788151 0 -0.40911641615605759 0.34566790632159822 0 -0.40911641615605759 0.34566790632159822 0 -0.40733604102589033 0.37437979791976028 0 -0.42542945687033501 0.3754339334755934 0 -0.40733604102589033 0.37437979791976028 0 -0.42114658364726298 0.36133152675174512 0 -0.40911641615605759 0.34566790632159822 0 -0.40733604102589033 0.37437979791976028 0 -0.42114658364726298 0.36133152675174512 0 -0.4446464835324791 0.37675012773805527 0 -0.42542945687033501 0.3754339334755934 0 -0.43382278390534101 0.36347832937351482 0 -0.42542945687033501 0.3754339334755934 0 -0.42114658364726298 0.36133152675174512 0 -0.43382278390534101 0.36347832937351482 0 -0.4446464835324791 0.37675012773805527 0 -0.44711879388440329 0.35507526866776101 0 -0.46474586258960382 0.37368623801510092 0 -0.4446464835324791 0.37675012773805527 0 -0.43382278390534101 0.36347832937351482 0 -0.44711879388440329 0.35507526866776101 0 -0.42811760502023027 0.35037158749467989 0 -0.44711879388440329 0.35507526866776101 0 -0.44711879388440329 0.35507526866776101 0 -0.46317997195620447 0.34687178567908822 0 -0.47355939694220139 0.36162055210749239 0 -0.44711879388440329 0.35507526866776101 0 -0.47355939694220139 0.36162055210749239 0 -0.44711879388440329 0.35507526866776101 0 -0.46317997195620447 0.34687178567908822 0 -0.45082203390646819 0.33373633968900218 0 -0.44711879388440329 0.35507526866776101 0 -0.46474586258960382 0.37368623801510092 0 -0.47355939694220139 0.36162055210749239 0 -0.44711879388440329 0.35507526866776101 0 -0.46474586258960382 0.37368623801510092 0 -0.48165618669330418 0.37638679948438719 0 -0.46474586258960382 0.37368623801510092 0 -0.47355939694220139 0.36162055210749239 0 -0.46317997195620447 0.34687178567908822 0 -0.47355939694220139 0.36162055210749239 0 -0.47579978045047422 0.33631274547998841 0 -0.47355939694220139 0.36162055210749239 0 -0.5 0.3422501139014007 0 -0.47579978045047422 0.33631274547998841 0 -0.47355939694220139 0.36162055210749239 0 -0.49999999999999961 0.36816583554722371 0 -0.5 0.3422501139014007 0 -0.47355939694220139 0.36162055210749239 0 -0.49999999999999961 0.36816583554722371 0 -0.48165618669330418 0.37638679948438719 0 -0.47355939694220139 0.36162055210749239 0 -0.49999999999999961 0.36816583554722371 0 -0.5 0.31633439225557769 0 -0.48442348986599387 0.32030250248749592 0 -0.5 0.3422501139014007 0 -0.48442348986599387 0.32030250248749592 0 -0.5 0.3422501139014007 0 -0.47579978045047422 0.33631274547998841 0 -0.47579978045047422 0.33631274547998841 0 -0.47114549751478102 0.32078469855588071 0 -0.46411590844223771 0.33085735004854411 0 -0.48442348986599387 0.32030250248749592 0 -0.47579978045047422 0.33631274547998841 0 -0.47114549751478102 0.32078469855588071 0 -0.48442348986599387 0.32030250248749592 0 -0.47114549751478102 0.32078469855588071 0 -0.47301397301088582 0.30675652054664548 0 -0.47114549751478102 0.32078469855588071 0 -0.45963225838326049 0.31658118083876119 0 -0.47301397301088582 0.30675652054664548 0 -0.45963225838326049 0.31658118083876119 0 -0.46411590844223771 0.33085735004854411 0 -0.45082203390646819 0.33373633968900218 0 -0.47114549751478102 0.32078469855588071 0 -0.45963225838326049 0.31658118083876119 0 -0.46411590844223771 0.33085735004854411 0 -0.46317997195620447 0.34687178567908822 0 -0.46411590844223771 0.33085735004854411 0 -0.45082203390646819 0.33373633968900218 0 -0.46317997195620447 0.34687178567908822 0 -0.47579978045047422 0.33631274547998841 0 -0.46411590844223771 0.33085735004854411 0 -0.42715929456684942 0.3340016780328266 0 -0.44711879388440329 0.35507526866776101 0 -0.45082203390646819 0.33373633968900218 0 -0.43663567862231362 0.32346793091064358 0 -0.42715929456684942 0.3340016780328266 0 -0.45082203390646819 0.33373633968900218 0 -0.45963225838326049 0.31658118083876119 0 -0.45082203390646819 0.33373633968900218 0 -0.44669550300379168 0.31578782448106868 0 -0.45082203390646819 0.33373633968900218 0 -0.44669550300379168 0.31578782448106868 0 -0.43663567862231362 0.32346793091064358 0 -0.45082203390646819 0.33373633968900218 0 -0.44669550300379168 0.31578782448106868 0 -0.45963225838326049 0.31658118083876119 0 -0.44669550300379168 0.31578782448106868 0 -0.44439522258606229 0.30578266057127013 0 -0.43663567862231362 0.32346793091064358 0 -0.43578644040837861 0.3148787755806558 0 -0.44669550300379168 0.31578782448106868 0 -0.44669550300379168 0.31578782448106868 0 -0.43622031056207561 0.29211824528794939 0 -0.437308801058295 0.29994371108262619 0 -0.44669550300379168 0.31578782448106868 0 -0.44439522258606229 0.30578266057127013 0 -0.43622031056207561 0.29211824528794939 0 -0.44669550300379168 0.31578782448106868 0 -0.43622031056207561 0.29211824528794939 0 -0.43578644040837861 0.3148787755806558 0 -0.44669550300379168 0.31578782448106868 0 -0.437308801058295 0.29994371108262619 0 -0.44439522258606229 0.30578266057127013 0 -0.44957072783440422 0.29410144971928381 0 -0.45945121252246768 0.30038553231731319 0 -0.44669550300379168 0.31578782448106868 0 -0.44439522258606229 0.30578266057127013 0 -0.44439522258606229 0.30578266057127013 0 -0.43796841126565661 0.2778289814535379 0 -0.44439522258606229 0.30578266057127013 0 -0.43796841126565661 0.2778289814535379 0 -0.43622031056207561 0.29211824528794939 0 -0.44439522258606229 0.30578266057127013 0 -0.44957072783440422 0.29410144971928381 0 -0.43796841126565661 0.2778289814535379 0 -0.44957072783440422 0.29410144971928381 0 -0.44849393523085462 0.28084610040005631 0 -0.43796841126565661 0.2778289814535379 0 -0.44957072783440422 0.29410144971928381 0 -0.45770694026985592 0.28391050054901928 0 -0.44849393523085462 0.28084610040005631 0 -0.45770694026985592 0.28391050054901928 0 -0.45945121252246768 0.30038553231731319 0 -0.47190104068117672 0.29008728621707891 0 -0.44957072783440422 0.29410144971928381 0 -0.45770694026985592 0.28391050054901928 0 -0.45945121252246768 0.30038553231731319 0 -0.45963225838326049 0.31658118083876119 0 -0.45945121252246768 0.30038553231731319 0 -0.47301397301088582 0.30675652054664548 0 -0.45945121252246768 0.30038553231731319 0 -0.47301397301088582 0.30675652054664548 0 -0.47190104068117672 0.29008728621707891 0 -0.45963225838326049 0.31658118083876119 0 -0.44439522258606229 0.30578266057127013 0 -0.45945121252246768 0.30038553231731319 0 -0.47301397301088582 0.30675652054664548 0 -0.47190104068117672 0.29008728621707891 0 -0.48655838853483752 0.30047563800457028 0 -0.48442348986599387 0.32030250248749592 0 -0.47301397301088582 0.30675652054664548 0 -0.48655838853483752 0.30047563800457028 0 -0.47190104068117672 0.29008728621707891 0 -0.4882314418946635 0.28249935830739709 0 -0.48655838853483752 0.30047563800457028 0 -0.5 0.29041867060975479 0 -0.4882314418946635 0.28249935830739709 0 -0.48655838853483752 0.30047563800457028 0 -0.5 0.31633439225557769 0 -0.5 0.29041867060975479 0 -0.48655838853483752 0.30047563800457028 0 -0.5 0.31633439225557769 0 -0.48442348986599387 0.32030250248749592 0 -0.48655838853483752 0.30047563800457028 0 -0.5 0.2385872273181088 0 -0.48501989922588229 0.25057080601668308 0 -0.5 0.26450294896393178 0 -0.48501989922588229 0.25057080601668308 0 -0.5 0.26450294896393178 0 -0.48492390724372397 0.26601732021638502 0 -0.4882314418946635 0.28249935830739709 0 -0.5 0.26450294896393178 0 -0.48492390724372397 0.26601732021638502 0 -0.5 0.29041867060975479 0 -0.4882314418946635 0.28249935830739709 0 -0.5 0.26450294896393178 0 -0.4882314418946635 0.28249935830739709 0 -0.46644428785434999 0.26649616757752809 0 -0.4882314418946635 0.28249935830739709 0 -0.48492390724372397 0.26601732021638502 0 -0.46644428785434999 0.26649616757752809 0 -0.47190104068117672 0.29008728621707891 0 -0.4882314418946635 0.28249935830739709 0 -0.46644428785434999 0.26649616757752809 0 -0.48501989922588229 0.25057080601668308 0 -0.48492390724372397 0.26601732021638502 0 -0.46644428785434999 0.26649616757752809 0 -0.47013018740982893 0.23536019814656239 0 -0.48501989922588229 0.25057080601668308 0 -0.46644428785434999 0.26649616757752809 0 -0.45439009818301679 0.2393202575703216 0 -0.46644428785434999 0.26649616757752809 0 -0.44465713381403682 0.25049297684765931 0 -0.46644428785434999 0.26649616757752809 0 -0.44465713381403682 0.25049297684765931 0 -0.46644428785434999 0.26649616757752809 0 -0.44872966155350202 0.26754346987838412 0 -0.44465713381403682 0.25049297684765931 0 -0.45770694026985592 0.28391050054901928 0 -0.47190104068117672 0.29008728621707891 0 -0.46644428785434999 0.26649616757752809 0 -0.45770694026985592 0.28391050054901928 0 -0.46644428785434999 0.26649616757752809 0 -0.44872966155350202 0.26754346987838412 0 -0.45770694026985592 0.28391050054901928 0 -0.44849393523085462 0.28084610040005631 0 -0.44872966155350202 0.26754346987838412 0 -0.44849393523085462 0.28084610040005631 0 -0.44872966155350202 0.26754346987838412 0 -0.43796841126565661 0.2778289814535379 0 -0.43154159994525071 0.2498753023358056 0 -0.44872966155350202 0.26754346987838412 0 -0.43796841126565661 0.2778289814535379 0 -0.43154159994525071 0.2498753023358056 0 -0.44872966155350202 0.26754346987838412 0 -0.44465713381403682 0.25049297684765931 0 -0.41676627263660032 0.24443506279210619 0 -0.43154159994525071 0.2498753023358056 0 -0.42649329159933802 0.26827665404002782 0 -0.43154159994525071 0.2498753023358056 0 -0.43796841126565661 0.2778289814535379 0 -0.42649329159933802 0.26827665404002782 0 -0.43154159994525071 0.2498753023358056 0 -0.43796841126565661 0.2778289814535379 0 -0.40763117909604091 0.25573947588959678 0 -0.41572430134103061 0.26086077064929403 0 -0.41200646203214331 0.27499188987544498 0 -0.40763117909604091 0.25573947588959678 0 -0.41200646203214331 0.27499188987544498 0 -0.41676627263660032 0.24443506279210619 0 -0.40763117909604091 0.25573947588959678 0 -0.41572430134103061 0.26086077064929403 0 -0.41676627263660032 0.24443506279210619 0 -0.42649329159933802 0.26827665404002782 0 -0.41676627263660032 0.24443506279210619 0 -0.41572430134103061 0.26086077064929403 0 -0.42649329159933802 0.26827665404002782 0 -0.41200646203214331 0.27499188987544498 0 -0.42649329159933802 0.26827665404002782 0 -0.42045382195673647 0.28611442122588709 0 -0.41572430134103061 0.26086077064929403 0 -0.41200646203214331 0.27499188987544498 0 -0.42649329159933802 0.26827665404002782 0 -0.42649329159933802 0.26827665404002782 0 -0.42785054335572792 0.2859316900416039 0 -0.42045382195673647 0.28611442122588709 0 -0.42649329159933802 0.26827665404002782 0 -0.43622031056207561 0.29211824528794939 0 -0.43796841126565661 0.2778289814535379 0 -0.42649329159933802 0.26827665404002782 0 -0.43622031056207561 0.29211824528794939 0 -0.42649329159933802 0.26827665404002782 0 -0.43622031056207561 0.29211824528794939 0 -0.42785054335572792 0.2859316900416039 0 -0.43622031056207561 0.29211824528794939 0 -0.437308801058295 0.29994371108262619 0 -0.42823474930476152 0.29721743961255109 0 -0.43622031056207561 0.29211824528794939 0 -0.42785054335572792 0.2859316900416039 0 -0.42823474930476152 0.29721743961255109 0 -0.42785054335572792 0.2859316900416039 0 -0.42823474930476152 0.29721743961255109 0 -0.42045382195673647 0.28611442122588709 0 -0.42346329470505811 0.31876302471486212 0 -0.437308801058295 0.29994371108262619 0 -0.42346329470505811 0.31876302471486212 0 -0.437308801058295 0.29994371108262619 0 -0.42437565297754892 0.30486244078638453 0 -0.42346329470505811 0.31876302471486212 0 -0.43578644040837861 0.3148787755806558 0 -0.437308801058295 0.29994371108262619 0 -0.437308801058295 0.29994371108262619 0 -0.42823474930476152 0.29721743961255109 0 -0.42437565297754892 0.30486244078638453 0 -0.42823474930476152 0.29721743961255109 0 -0.42437565297754892 0.30486244078638453 0 -0.41659172491513069 0.2988369369981233 0 -0.42346329470505811 0.31876302471486212 0 -0.42437565297754892 0.30486244078638453 0 -0.41581569658385042 0.30943301459156491 0 -0.42437565297754892 0.30486244078638453 0 -0.41581569658385042 0.30943301459156491 0 -0.41659172491513069 0.2988369369981233 0 -0.41659172491513069 0.2988369369981233 0 -0.40881235416378597 0.29064922309831492 0 -0.40386253690461882 0.305948220719167 0 -0.41581569658385042 0.30943301459156491 0 -0.41659172491513069 0.2988369369981233 0 -0.40386253690461882 0.305948220719167 0 -0.41078527341689569 0.31875444973928768 0 -0.41581569658385042 0.30943301459156491 0 -0.40386253690461882 0.305948220719167 0 -0.41200646203214331 0.27499188987544498 0 -0.42045382195673647 0.28611442122588709 0 -0.40881235416378597 0.29064922309831492 0 -0.42823474930476152 0.29721743961255109 0 -0.41659172491513069 0.2988369369981233 0 -0.42045382195673647 0.28611442122588709 0 -0.41659172491513069 0.2988369369981233 0 -0.42045382195673647 0.28611442122588709 0 -0.40881235416378597 0.29064922309831492 0 -0.40881235416378597 0.29064922309831492 0 -0.39114722501030053 0.28735464667295202 0 -0.40386253690461882 0.305948220719167 0 -0.41200646203214331 0.27499188987544498 0 -0.40881235416378597 0.29064922309831492 0 -0.39114722501030053 0.28735464667295202 0 -0.38509288943548092 0.31278843905755371 0 -0.39114722501030053 0.28735464667295202 0 -0.40386253690461882 0.305948220719167 0 -0.38509288943548092 0.31278843905755371 0 -0.39114722501030053 0.28735464667295202 0 -0.38509288943548092 0.31278843905755371 0 -0.39114722501030053 0.28735464667295202 0 -0.38704056155767202 0.29864375703042773 0 -0.38509288943548092 0.31278843905755371 0 -0.38704056155767202 0.29864375703042773 0 -0.37721631416569001 0.30545532619982568 0 -0.38704056155767202 0.29864375703042773 0 -0.37721631416569001 0.30545532619982568 0 -0.37518471169770579 0.29259234478612828 0 -0.38509288943548092 0.31278843905755371 0 -0.37721631416569001 0.30545532619982568 0 -0.37457031043719169 0.31608930550457842 0 -0.38704056155767202 0.29864375703042773 0 -0.37518471169770579 0.29259234478612828 0 -0.37939068547232241 0.27527899393547528 0 -0.39114722501030053 0.28735464667295202 0 -0.38704056155767202 0.29864375703042773 0 -0.37939068547232241 0.27527899393547528 0 -0.38704056155767202 0.29864375703042773 0 -0.37939068547232241 0.27527899393547528 0 -0.39114722501030053 0.28735464667295202 0 -0.37939068547232241 0.27527899393547528 0 -0.39720156058512007 0.26192085428835032 0 -0.37939068547232241 0.27527899393547528 0 -0.39720156058512007 0.26192085428835032 0 -0.37174080938697279 0.25191423084052289 0 -0.38883401816148688 0.2457484078483714 0 -0.39720156058512007 0.26192085428835032 0 -0.37174080938697279 0.25191423084052289 0 -0.37939068547232241 0.27527899393547528 0 -0.37174080938697279 0.25191423084052289 0 -0.40325589615993918 0.23648706190374841 0 -0.40763117909604091 0.25573947588959678 0 -0.39720156058512007 0.26192085428835032 0 -0.40763117909604091 0.25573947588959678 0 -0.41200646203214331 0.27499188987544498 0 -0.39720156058512007 0.26192085428835032 0 -0.39114722501030053 0.28735464667295202 0 -0.39720156058512007 0.26192085428835032 0 -0.41200646203214331 0.27499188987544498 0 -0.39114722501030053 0.28735464667295202 0 -0.39720156058512007 0.26192085428835032 0 -0.35301319360631439 0.28073236494304932 0 -0.35163187482427471 0.26537391845990183 0 -0.35959702333331051 0.27353295885105389 0 -0.35301319360631439 0.28073236494304932 0 -0.34194980153347421 0.28439083809603821 0 -0.34141832843121039 0.27287008455069051 0 -0.35301319360631439 0.28073236494304932 0 -0.35163187482427471 0.26537391845990183 0 -0.34141832843121039 0.27287008455069051 0 -0.35144182773728189 0.24483629578612651 0 -0.35163187482427471 0.26537391845990183 0 -0.37174080938697279 0.25191423084052289 0 -0.35144182773728189 0.24483629578612651 0 -0.35163187482427471 0.26537391845990183 0 -0.33639566297611961 0.25803634038796069 0 -0.37939068547232241 0.27527899393547528 0 -0.37174080938697279 0.25191423084052289 0 -0.36699147516114211 0.2675923770506583 0 -0.35163187482427471 0.26537391845990183 0 -0.37174080938697279 0.25191423084052289 0 -0.36699147516114211 0.2675923770506583 0 -0.35163187482427471 0.26537391845990183 0 -0.36699147516114211 0.2675923770506583 0 -0.35959702333331051 0.27353295885105389 0 -0.35301319360631439 0.28073236494304932 0 -0.36675154974151059 0.28043317495060638 0 -0.35959702333331051 0.27353295885105389 0 -0.36699147516114211 0.2675923770506583 0 -0.36675154974151059 0.28043317495060638 0 -0.35959702333331051 0.27353295885105389 0 -0.37939068547232241 0.27527899393547528 0 -0.36699147516114211 0.2675923770506583 0 -0.36675154974151059 0.28043317495060638 0 -0.37518471169770579 0.29259234478612828 0 -0.37939068547232241 0.27527899393547528 0 -0.36675154974151059 0.28043317495060638 0 -0.37518471169770579 0.29259234478612828 0 -0.36675154974151059 0.28043317495060638 0 -0.36695052997431921 0.29421612159074773 0 -0.37518471169770579 0.29259234478612828 0 -0.36695052997431921 0.29421612159074773 0 -0.37015085464346908 0.30219961326957318 0 -0.36675154974151059 0.28043317495060638 0 -0.36695052997431921 0.29421612159074773 0 -0.35776371476439928 0.29402053584855953 0 -0.36675154974151059 0.28043317495060638 0 -0.35776371476439928 0.29402053584855953 0 -0.37721631416569001 0.30545532619982568 0 -0.37089272527658002 0.30996594420318779 0 -0.37457031043719169 0.31608930550457842 0 -0.37089272527658002 0.30996594420318779 0 -0.36504528082908427 0.30922351674967008 0 -0.36674920241538389 0.31595685259728212 0 -0.37721631416569001 0.30545532619982568 0 -0.37089272527658002 0.30996594420318779 0 -0.37015085464346908 0.30219961326957318 0 -0.37089272527658002 0.30996594420318779 0 -0.37015085464346908 0.30219961326957318 0 -0.36504528082908427 0.30922351674967008 0 -0.37721631416569001 0.30545532619982568 0 -0.37518471169770579 0.29259234478612828 0 -0.37015085464346908 0.30219961326957318 0 -0.36695052997431921 0.29421612159074773 0 -0.35790574804915959 0.30388082804248928 0 -0.35776371476439928 0.29402053584855953 0 -0.36695052997431921 0.29421612159074773 0 -0.37015085464346908 0.30219961326957318 0 -0.35790574804915959 0.30388082804248928 0 -0.37015085464346908 0.30219961326957318 0 -0.36504528082908427 0.30922351674967008 0 -0.35790574804915959 0.30388082804248928 0 -0.36504528082908427 0.30922351674967008 0 -0.35790574804915959 0.30388082804248928 0 -0.35916204181478828 0.31366179228831281 0 -0.35430732405213639 0.30979525538838198 0 -0.35790574804915959 0.30388082804248928 0 -0.34877587978728741 0.30760789674651201 0 -0.35430732405213639 0.30979525538838198 0 -0.35790574804915959 0.30388082804248928 0 -0.35916204181478828 0.31366179228831281 0 -0.35430732405213639 0.30979525538838198 0 -0.35138562655730993 0.3140305044762135 0 -0.35916204181478828 0.31366179228831281 0 -0.34877587978728741 0.30760789674651201 0 -0.35776371476439928 0.29402053584855953 0 -0.35790574804915959 0.30388082804248928 0 -0.34877587978728741 0.30760789674651201 0 -0.35776371476439928 0.29402053584855953 0 -0.34662185786177241 0.30230683151380172 0 -0.34877587978728741 0.30760789674651201 0 -0.35776371476439928 0.29402053584855953 0 -0.34662185786177241 0.30230683151380172 0 -0.34877587978728741 0.30760789674651201 0 -0.34662185786177241 0.30230683151380172 0 -0.34877587978728741 0.30760789674651201 0 -0.3416054469915295 0.30661910347346238 0 -0.34877587978728741 0.30760789674651201 0 -0.3443053575128181 0.31436620947702493 0 -0.34877587978728741 0.30760789674651201 0 -0.3416054469915295 0.30661910347346238 0 -0.3443053575128181 0.31436620947702493 0 -0.34877587978728741 0.30760789674651201 0 -0.35138562655730993 0.3140305044762135 0 -0.34877587978728741 0.30760789674651201 0 -0.35138562655730993 0.3140305044762135 0 -0.3443053575128181 0.31436620947702493 0 -0.35430732405213639 0.30979525538838198 0 -0.34877587978728741 0.30760789674651201 0 -0.35138562655730993 0.3140305044762135 0 -0.35301319360631439 0.28073236494304932 0 -0.36675154974151059 0.28043317495060638 0 -0.35776371476439928 0.29402053584855953 0 -0.35301319360631439 0.28073236494304932 0 -0.35776371476439928 0.29402053584855953 0 -0.34758810626908487 0.29166367590660269 0 -0.34662185786177241 0.30230683151380172 0 -0.35776371476439928 0.29402053584855953 0 -0.34758810626908487 0.29166367590660269 0 -0.34662185786177241 0.30230683151380172 0 -0.34758810626908487 0.29166367590660269 0 -0.3379497414029704 0.29538727448573648 0 -0.35301319360631439 0.28073236494304932 0 -0.34758810626908487 0.29166367590660269 0 -0.34194980153347421 0.28439083809603821 0 -0.34194980153347421 0.28439083809603821 0 -0.3379497414029704 0.29538727448573648 0 -0.33113553767869419 0.28166039531422921 0 -0.34758810626908487 0.29166367590660269 0 -0.34194980153347421 0.28439083809603821 0 -0.3379497414029704 0.29538727448573648 0 -0.3379497414029704 0.29538727448573648 0 -0.33113553767869419 0.28166039531422921 0 -0.3237173430624618 0.29525541827389928 0 -0.33344795665396432 0.30556798517317713 0 -0.32064491557925501 0.3154880494281036 0 -0.3443053575128181 0.31436620947702493 0 -0.3416054469915295 0.30661910347346238 0 -0.33344795665396432 0.30556798517317713 0 -0.3443053575128181 0.31436620947702493 0 -0.34662185786177241 0.30230683151380172 0 -0.3379497414029704 0.29538727448573648 0 -0.3416054469915295 0.30661910347346238 0 -0.3379497414029704 0.29538727448573648 0 -0.3416054469915295 0.30661910347346238 0 -0.33344795665396432 0.30556798517317713 0 -0.3379497414029704 0.29538727448573648 0 -0.33344795665396432 0.30556798517317713 0 -0.3237173430624618 0.29525541827389928 0 -0.3237173430624618 0.29525541827389928 0 -0.30708942554673979 0.29731961236044629 0 -0.32064491557925501 0.3154880494281036 0 -0.33344795665396432 0.30556798517317713 0 -0.3237173430624618 0.29525541827389928 0 -0.32064491557925501 0.3154880494281036 0 -0.33113553767869419 0.28166039531422921 0 -0.3237173430624618 0.29525541827389928 0 -0.31825262715217162 0.2783470451318002 0 -0.3237173430624618 0.29525541827389928 0 -0.31825262715217162 0.2783470451318002 0 -0.30708942554673979 0.29731961236044629 0 -0.31825262715217162 0.2783470451318002 0 -0.32109202283130373 0.26187921023661148 0 -0.30956429942837349 0.26527190812555729 0 -0.31825262715217162 0.2783470451318002 0 -0.33060127456716132 0.26926533636016092 0 -0.32109202283130373 0.26187921023661148 0 -0.33113553767869419 0.28166039531422921 0 -0.31825262715217162 0.2783470451318002 0 -0.33060127456716132 0.26926533636016092 0 -0.33113553767869419 0.28166039531422921 0 -0.33060127456716132 0.26926533636016092 0 -0.34141832843121039 0.27287008455069051 0 -0.33060127456716132 0.26926533636016092 0 -0.34141832843121039 0.27287008455069051 0 -0.33639566297611961 0.25803634038796069 0 -0.34194980153347421 0.28439083809603821 0 -0.33113553767869419 0.28166039531422921 0 -0.34141832843121039 0.27287008455069051 0 -0.35163187482427471 0.26537391845990183 0 -0.34141832843121039 0.27287008455069051 0 -0.33639566297611961 0.25803634038796069 0 -0.33060127456716132 0.26926533636016092 0 -0.33639566297611961 0.25803634038796069 0 -0.32109202283130373 0.26187921023661148 0 -0.32294927823697178 0.2492846098040436 0 -0.33339429639452622 0.24377920072147549 0 -0.33639566297611961 0.25803634038796069 0 -0.32294927823697178 0.2492846098040436 0 -0.33639566297611961 0.25803634038796069 0 -0.32109202283130373 0.26187921023661148 0 -0.32109202283130373 0.26187921023661148 0 -0.30878899462702492 0.25107002161014691 0 -0.30956429942837349 0.26527190812555729 0 -0.32294927823697178 0.2492846098040436 0 -0.32109202283130373 0.26187921023661148 0 -0.30878899462702492 0.25107002161014691 0 -0.3006407967323021 0.23935216351662389 0 -0.30878899462702492 0.25107002161014691 0 -0.29829966888120929 0.26063377724858477 0 -0.30878899462702492 0.25107002161014691 0 -0.30956429942837349 0.26527190812555729 0 -0.29829966888120929 0.26063377724858477 0 -0.31825262715217162 0.2783470451318002 0 -0.30956429942837349 0.26527190812555729 0 -0.29497227605688708 0.27578186650852188 0 -0.30956429942837349 0.26527190812555729 0 -0.29829966888120929 0.26063377724858477 0 -0.29497227605688708 0.27578186650852188 0 -0.29497227605688708 0.27578186650852188 0 -0.2831525785100194 0.25563929785384132 0 -0.27778412197992769 0.27227478726769899 0 -0.29497227605688708 0.27578186650852188 0 -0.27778412197992769 0.27227478726769899 0 -0.27324391424636729 0.28862087561288507 0 -0.29829966888120929 0.26063377724858477 0 -0.29497227605688708 0.27578186650852188 0 -0.2831525785100194 0.25563929785384132 0 -0.3006407967323021 0.23935216351662389 0 -0.29829966888120929 0.26063377724858477 0 -0.2831525785100194 0.25563929785384132 0 -0.26578439350058591 0.2440092215719025 0 -0.2831525785100194 0.25563929785384132 0 -0.2597677191064372 0.26905710909554797 0 -0.2831525785100194 0.25563929785384132 0 -0.27778412197992769 0.27227478726769899 0 -0.2597677191064372 0.26905710909554797 0 -0.27778412197992769 0.27227478726769899 0 -0.2597677191064372 0.26905710909554797 0 -0.27324391424636729 0.28862087561288507 0 -0.26578439350058591 0.2440092215719025 0 -0.2597677191064372 0.26905710909554797 0 -0.24198036308279569 0.2445897244070506 0 -0.26225091929015881 0.30529600337798168 0 -0.25061915931097689 0.29286829644873241 0 -0.23998189020383071 0.31347989261740389 0 -0.2597677191064372 0.26905710909554797 0 -0.25061915931097689 0.29286829644873241 0 -0.27324391424636729 0.28862087561288507 0 -0.26225091929015881 0.30529600337798168 0 -0.25061915931097689 0.29286829644873241 0 -0.27324391424636729 0.28862087561288507 0 -0.26225091929015881 0.30529600337798168 0 -0.27324391424636729 0.28862087561288507 0 -0.28677201377933892 0.30172965688831571 0 -0.26225091929015881 0.30529600337798168 0 -0.28677201377933892 0.30172965688831571 0 -0.2733240317121286 0.31773172933026161 0 -0.28677201377933892 0.30172965688831571 0 -0.29698447364569169 0.31660988937918261 0 -0.2733240317121286 0.31773172933026161 0 -0.29497227605688708 0.27578186650852188 0 -0.28677201377933892 0.30172965688831571 0 -0.30708942554673979 0.29731961236044629 0 -0.29497227605688708 0.27578186650852188 0 -0.27324391424636729 0.28862087561288507 0 -0.28677201377933892 0.30172965688831571 0 -0.31825262715217162 0.2783470451318002 0 -0.29497227605688708 0.27578186650852188 0 -0.30708942554673979 0.29731961236044629 0 -0.30708942554673979 0.29731961236044629 0 -0.29698447364569169 0.31660988937918261 0 -0.32064491557925501 0.3154880494281036 0 -0.28677201377933892 0.30172965688831571 0 -0.30708942554673979 0.29731961236044629 0 -0.29698447364569169 0.31660988937918261 0 -0.29698447364569169 0.31660988937918261 0 -0.32064491557925501 0.3154880494281036 0 -0.29698447364569169 0.31660988937918261 0 -0.30984142900968997 0.33243455639065039 0 -0.32064491557925501 0.3154880494281036 0 -0.29698447364569169 0.31660988937918261 0 -0.30984142900968997 0.33243455639065039 0 -0.28549232963673782 0.3287990779378096 0 -0.29479021977766812 0.34236753100034611 0 -0.28549232963673782 0.3287990779378096 0 -0.27834609913857977 0.34439103047167752 0 -0.30984142900968997 0.33243455639065039 0 -0.29479021977766812 0.34236753100034611 0 -0.28549232963673782 0.3287990779378096 0 -0.29698447364569169 0.31660988937918261 0 -0.28549232963673782 0.3287990779378096 0 -0.2733240317121286 0.31773172933026161 0 -0.29698447364569169 0.31660988937918261 0 -0.2733240317121286 0.31773172933026161 0 -0.28549232963673782 0.3287990779378096 0 -0.2733240317121286 0.31773172933026161 0 -0.26320130170552691 0.33809464010975498 0 -0.28549232963673782 0.3287990779378096 0 -0.26320130170552691 0.33809464010975498 0 -0.27834609913857977 0.34439103047167752 0 -0.26320130170552691 0.33809464010975498 0 -0.25375181177065198 0.33179201880347547 0 -0.25599962395587261 0.32072916265640983 0 -0.26320130170552691 0.33809464010975498 0 -0.25375181177065198 0.33179201880347547 0 -0.24998202229822691 0.34128221335132941 0 -0.25375181177065198 0.33179201880347547 0 -0.25599962395587261 0.32072916265640983 0 -0.24429476366839431 0.33301949319318808 0 -0.26225091929015881 0.30529600337798168 0 -0.25599962395587261 0.32072916265640983 0 -0.23998189020383071 0.31347989261740389 0 -0.26225091929015881 0.30529600337798168 0 -0.2733240317121286 0.31773172933026161 0 -0.25599962395587261 0.32072916265640983 0 -0.2733240317121286 0.31773172933026161 0 -0.26320130170552691 0.33809464010975498 0 -0.25599962395587261 0.32072916265640983 0 -0.26172324797286861 0.36397364037513552 0 -0.26940576280432621 0.3825071482905088 0 -0.24751512411642901 0.36432035835857651 0 -0.26940576280432621 0.3825071482905088 0 -0.24751512411642901 0.36432035835857651 0 -0.26172324797286861 0.36397364037513552 0 -0.25617601123849998 0.35890382351918287 0 -0.24751512411642901 0.36432035835857651 0 -0.25147503823868161 0.35412654973250918 0 -0.25617601123849998 0.35890382351918287 0 -0.26399063462602079 0.35319474561051029 0 -0.26320130170552691 0.33809464010975498 0 -0.25147503823868161 0.35412654973250918 0 -0.26399063462602079 0.35319474561051029 0 -0.25147503823868161 0.35412654973250918 0 -0.25617601123849998 0.35890382351918287 0 -0.24751512411642901 0.36432035835857651 0 -0.26320130170552691 0.33809464010975498 0 -0.25147503823868161 0.35412654973250918 0 -0.24798941659791049 0.3518930725141764 0 -0.26320130170552691 0.33809464010975498 0 -0.24798941659791049 0.3518930725141764 0 -0.26320130170552691 0.33809464010975498 0 -0.24798941659791049 0.3518930725141764 0 -0.24998202229822691 0.34128221335132941 0 -0.26172324797286861 0.36397364037513552 0 -0.25617601123849998 0.35890382351918287 0 -0.26399063462602079 0.35319474561051029 0 -0.26399063462602079 0.35319474561051029 0 -0.27834609913857977 0.34439103047167752 0 -0.274875909196928 0.35828414046234958 0 -0.26172324797286861 0.36397364037513552 0 -0.26399063462602079 0.35319474561051029 0 -0.274875909196928 0.35828414046234958 0 -0.26320130170552691 0.33809464010975498 0 -0.26399063462602079 0.35319474561051029 0 -0.27834609913857977 0.34439103047167752 0 -0.26172324797286861 0.36397364037513552 0 -0.274875909196928 0.35828414046234958 0 -0.27797030566048669 0.37217723540846248 0 -0.26172324797286861 0.36397364037513552 0 -0.27797030566048669 0.37217723540846248 0 -0.26940576280432621 0.3825071482905088 0 -0.291557511249672 0.36073646118616631 0 -0.30437360748413939 0.3786714809037407 0 -0.29110246404349083 0.3768594533581669 0 -0.27797030566048669 0.37217723540846248 0 -0.291557511249672 0.36073646118616631 0 -0.29110246404349083 0.3768594533581669 0 -0.274875909196928 0.35828414046234958 0 -0.27797030566048669 0.37217723540846248 0 -0.291557511249672 0.36073646118616631 0 -0.27834609913857977 0.34439103047167752 0 -0.274875909196928 0.35828414046234958 0 -0.291557511249672 0.36073646118616631 0 -0.29479021977766812 0.34236753100034611 0 -0.27834609913857977 0.34439103047167752 0 -0.291557511249672 0.36073646118616631 0 -0.30984142900968997 0.33243455639065039 0 -0.29479021977766812 0.34236753100034611 0 -0.31618063834526061 0.3568837579696657 0 -0.29479021977766812 0.34236753100034611 0 -0.291557511249672 0.36073646118616631 0 -0.31618063834526061 0.3568837579696657 0 -0.291557511249672 0.36073646118616631 0 -0.31618063834526061 0.3568837579696657 0 -0.30437360748413939 0.3786714809037407 0 -0.31618063834526061 0.3568837579696657 0 -0.32045165706421502 0.38125310199505469 0 -0.30437360748413939 0.3786714809037407 0 -0.34150638963487129 0.36139329544129911 0 -0.31618063834526061 0.3568837579696657 0 -0.32045165706421502 0.38125310199505469 0 -0.34150638963487129 0.36139329544129911 0 -0.32045165706421502 0.38125310199505469 0 -0.34150638963487129 0.36139329544129911 0 -0.33024299792903938 0.33562498372334532 0 -0.34593249810487009 0.33987392655473969 0 -0.34150638963487129 0.36139329544129911 0 -0.31618063834526061 0.3568837579696657 0 -0.33024299792903938 0.33562498372334532 0 -0.31618063834526061 0.3568837579696657 0 -0.33024299792903938 0.33562498372334532 0 -0.30984142900968997 0.33243455639065039 0 -0.31618063834526061 0.3568837579696657 0 -0.33024299792903938 0.33562498372334532 0 -0.30984142900968997 0.33243455639065039 0 -0.32064491557925501 0.3154880494281036 0 -0.33024299792903938 0.33562498372334532 0 -0.32064491557925501 0.3154880494281036 0 -0.3443053575128181 0.31436620947702493 0 -0.32064491557925501 0.3154880494281036 0 -0.33024299792903938 0.33562498372334532 0 -0.3443053575128181 0.31436620947702493 0 -0.33024299792903938 0.33562498372334532 0 -0.3443053575128181 0.31436620947702493 0 -0.33024299792903938 0.33562498372334532 0 -0.3443053575128181 0.31436620947702493 0 -0.34591719393382953 0.32755640701262528 0 -0.33024299792903938 0.33562498372334532 0 -0.34593249810487009 0.33987392655473969 0 -0.34591719393382953 0.32755640701262528 0 -0.34593249810487009 0.33987392655473969 0 -0.34943478682108481 0.33326145770888699 0 -0.36256112220552622 0.34153348888754181 0 -0.34593249810487009 0.33987392655473969 0 -0.34943478682108481 0.33326145770888699 0 -0.34591719393382953 0.32755640701262528 0 -0.34943478682108481 0.33326145770888699 0 -0.35319719707841468 0.32873716588047758 0 -0.34591719393382953 0.32755640701262528 0 -0.34943478682108481 0.33326145770888699 0 -0.35319719707841468 0.32873716588047758 0 -0.35739202882692639 0.33286370608926857 0 -0.34943478682108481 0.33326145770888699 0 -0.35739202882692639 0.33286370608926857 0 -0.36256112220552622 0.34153348888754181 0 -0.35319719707841468 0.32873716588047758 0 -0.35739202882692639 0.33286370608926857 0 -0.35922237362807108 0.33331680186358331 0 -0.35739202882692639 0.33286370608926857 0 -0.35922237362807108 0.33331680186358331 0 -0.35922237362807108 0.33331680186358331 0 -0.35138562655730993 0.3140305044762135 0 -0.35864449826529898 0.32428455347526658 0 -0.35922237362807108 0.33331680186358331 0 -0.35138562655730993 0.3140305044762135 0 -0.35319719707841468 0.32873716588047758 0 -0.35922237362807108 0.33331680186358331 0 -0.35138562655730993 0.3140305044762135 0 -0.35138562655730993 0.3140305044762135 0 -0.3443053575128181 0.31436620947702493 0 -0.35138562655730993 0.3140305044762135 0 -0.3443053575128181 0.31436620947702493 0 -0.34870134377059309 0.32117257171158531 0 -0.35319719707841468 0.32873716588047758 0 -0.35138562655730993 0.3140305044762135 0 -0.34870134377059309 0.32117257171158531 0 -0.3443053575128181 0.31436620947702493 0 -0.34870134377059309 0.32117257171158531 0 -0.34591719393382953 0.32755640701262528 0 -0.35319719707841468 0.32873716588047758 0 -0.34870134377059309 0.32117257171158531 0 -0.34591719393382953 0.32755640701262528 0 -0.35864449826529898 0.32428455347526658 0 -0.35768148196942839 0.31800536800821511 0 -0.36153376124031639 0.32004462179306742 0 -0.35138562655730993 0.3140305044762135 0 -0.35864449826529898 0.32428455347526658 0 -0.35768148196942839 0.31800536800821511 0 -0.35138562655730993 0.3140305044762135 0 -0.35768148196942839 0.31800536800821511 0 -0.35916204181478828 0.31366179228831281 0 -0.35138562655730993 0.3140305044762135 0 -0.35916204181478828 0.31366179228831281 0 -0.36504528082908427 0.30922351674967008 0 -0.35916204181478828 0.31366179228831281 0 -0.36674920241538389 0.31595685259728212 0 -0.35916204181478828 0.31366179228831281 0 -0.36674920241538389 0.31595685259728212 0 -0.36153376124031639 0.32004462179306742 0 -0.35768148196942839 0.31800536800821511 0 -0.35916204181478828 0.31366179228831281 0 -0.36153376124031639 0.32004462179306742 0 -0.36674920241538389 0.31595685259728212 0 -0.36153376124031639 0.32004462179306742 0 -0.36583062562099178 0.32213614823032632 0 -0.36153376124031639 0.32004462179306742 0 -0.36583062562099178 0.32213614823032632 0 -0.36333293892330759 0.32511594236818309 0 -0.35864449826529898 0.32428455347526658 0 -0.36153376124031639 0.32004462179306742 0 -0.36333293892330759 0.32511594236818309 0 -0.35864449826529898 0.32428455347526658 0 -0.36333293892330759 0.32511594236818309 0 -0.36145741496017758 0.32854964142984672 0 -0.36333293892330759 0.32511594236818309 0 -0.36145741496017758 0.32854964142984672 0 -0.36460047780628091 0.33001246890722458 0 -0.36333293892330759 0.32511594236818309 0 -0.36793085564678008 0.32566822037336751 0 -0.36460047780628091 0.33001246890722458 0 -0.36583062562099178 0.32213614823032632 0 -0.36333293892330759 0.32511594236818309 0 -0.36793085564678008 0.32566822037336751 0 -0.36793085564678008 0.32566822037336751 0 -0.37344420330612538 0.32328889239963232 0 -0.36907039652091472 0.33048967753328712 0 -0.36583062562099178 0.32213614823032632 0 -0.36793085564678008 0.32566822037336751 0 -0.36970503948529448 0.32062788382103741 0 -0.36793085564678008 0.32566822037336751 0 -0.37344420330612538 0.32328889239963232 0 -0.36970503948529448 0.32062788382103741 0 -0.36674920241538389 0.31595685259728212 0 -0.36970503948529448 0.32062788382103741 0 -0.37457031043719169 0.31608930550457842 0 -0.37089272527658002 0.30996594420318779 0 -0.36674920241538389 0.31595685259728212 0 -0.37457031043719169 0.31608930550457842 0 -0.36674920241538389 0.31595685259728212 0 -0.36583062562099178 0.32213614823032632 0 -0.36970503948529448 0.32062788382103741 0 -0.37344420330612538 0.32328889239963232 0 -0.36970503948529448 0.32062788382103741 0 -0.37457031043719169 0.31608930550457842 0 -0.37903855386066121 0.33822223144215541 0 -0.36256112220552622 0.34153348888754181 0 -0.36876722914403892 0.33567959913438927 0 -0.35922237362807108 0.33331680186358331 0 -0.36256112220552622 0.34153348888754181 0 -0.35922237362807108 0.33331680186358331 0 -0.36256112220552622 0.34153348888754181 0 -0.36876722914403892 0.33567959913438927 0 -0.36256112220552622 0.34153348888754181 0 -0.36876722914403892 0.33567959913438927 0 -0.35922237362807108 0.33331680186358331 0 -0.35864449826529898 0.32428455347526658 0 -0.36145741496017758 0.32854964142984672 0 -0.35922237362807108 0.33331680186358331 0 -0.36876722914403892 0.33567959913438927 0 -0.35922237362807108 0.33331680186358331 0 -0.36635940567705411 0.33277730760227431 0 -0.36876722914403892 0.33567959913438927 0 -0.35739202882692639 0.33286370608926857 0 -0.35922237362807108 0.33331680186358331 0 -0.36256112220552622 0.34153348888754181 0 -0.35922237362807108 0.33331680186358331 0 -0.36145741496017758 0.32854964142984672 0 -0.36460047780628091 0.33001246890722458 0 -0.36460047780628091 0.33001246890722458 0 -0.36635940567705411 0.33277730760227431 0 -0.36907039652091472 0.33048967753328712 0 -0.35922237362807108 0.33331680186358331 0 -0.36460047780628091 0.33001246890722458 0 -0.36635940567705411 0.33277730760227431 0 -0.37344420330612538 0.32328889239963232 0 -0.36907039652091472 0.33048967753328712 0 -0.37331208673030197 0.33142456064895082 0 -0.36635940567705411 0.33277730760227431 0 -0.36876722914403892 0.33567959913438927 0 -0.36907039652091472 0.33048967753328712 0 -0.36876722914403892 0.33567959913438927 0 -0.36907039652091472 0.33048967753328712 0 -0.37331208673030197 0.33142456064895082 0 -0.37903855386066121 0.33822223144215541 0 -0.36876722914403892 0.33567959913438927 0 -0.37331208673030197 0.33142456064895082 0 -0.36793085564678008 0.32566822037336751 0 -0.36460047780628091 0.33001246890722458 0 -0.36907039652091472 0.33048967753328712 0 -0.37903855386066121 0.33822223144215541 0 -0.36876722914403892 0.33567959913438927 0 -0.36256112220552622 0.34153348888754181 0 -0.37245452373560778 0.36588122939247031 0 -0.35836086123000782 0.35894418412189733 0 -0.37903855386066121 0.33822223144215541 0 -0.36256112220552622 0.34153348888754181 0 -0.37245452373560778 0.36588122939247031 0 -0.36256112220552622 0.34153348888754181 0 -0.37245452373560778 0.36588122939247031 0 -0.37245452373560778 0.36588122939247031 0 -0.37081493099495533 0.37276903084414598 0 -0.36282649772590692 0.36818959590567502 0 -0.37866162191671071 0.38115694779354858 0 -0.37245452373560778 0.36588122939247031 0 -0.37081493099495533 0.37276903084414598 0 -0.37245452373560778 0.36588122939247031 0 -0.37081493099495533 0.37276903084414598 0 -0.37081493099495533 0.37276903084414598 0 -0.36282649772590692 0.36818959590567502 0 -0.36259421579305379 0.37778862398962632 0 -0.36282649772590692 0.36818959590567502 0 -0.35331785933596721 0.37202025011188572 0 -0.36259421579305379 0.37778862398962632 0 -0.37245452373560778 0.36588122939247031 0 -0.36282649772590692 0.36818959590567502 0 -0.35836086123000782 0.35894418412189733 0 -0.34150638963487129 0.36139329544129911 0 -0.35331785933596721 0.37202025011188572 0 -0.35836086123000782 0.35894418412189733 0 -0.36282649772590692 0.36818959590567502 0 -0.35331785933596721 0.37202025011188572 0 -0.35836086123000782 0.35894418412189733 0 -0.34150638963487129 0.36139329544129911 0 -0.35331785933596721 0.37202025011188572 0 -0.34202436598807268 0.38406473962883592 0 -0.34150638963487129 0.36139329544129911 0 -0.36256112220552622 0.34153348888754181 0 -0.34150638963487129 0.36139329544129911 0 -0.34593249810487009 0.33987392655473969 0 -0.36256112220552622 0.34153348888754181 0 -0.34150638963487129 0.36139329544129911 0 -0.36256112220552622 0.34153348888754181 0 -0.35836086123000782 0.35894418412189733 0 -0.35338841678565408 0.39597055304225037 0 -0.3457659908900676 0.40981692924388369 0 -0.33387250200303931 0.39964127641845187 0 -0.35338841678565408 0.39597055304225037 0 -0.35747942482022388 0.40795434334434011 0 -0.3457659908900676 0.40981692924388369 0 -0.35338841678565408 0.39597055304225037 0 -0.35452739413180528 0.38400750400928613 0 -0.34202436598807268 0.38406473962883592 0 -0.35331785933596721 0.37202025011188572 0 -0.35452739413180528 0.38400750400928613 0 -0.34202436598807268 0.38406473962883592 0 -0.35331785933596721 0.37202025011188572 0 -0.35452739413180528 0.38400750400928613 0 -0.36259421579305379 0.37778862398962632 0 -0.35338841678565408 0.39597055304225037 0 -0.35452739413180528 0.38400750400928613 0 -0.36434930162779061 0.38766238073991061 0 -0.35452739413180528 0.38400750400928613 0 -0.36434930162779061 0.38766238073991061 0 -0.36259421579305379 0.37778862398962632 0 -0.36434930162779061 0.38766238073991061 0 -0.36259421579305379 0.37778862398962632 0 -0.37036205862346327 0.38155569638228709 0 -0.37866162191671071 0.38115694779354858 0 -0.37081493099495533 0.37276903084414598 0 -0.37036205862346327 0.38155569638228709 0 -0.37081493099495533 0.37276903084414598 0 -0.36259421579305379 0.37778862398962632 0 -0.37036205862346327 0.38155569638228709 0 -0.37866162191671071 0.38115694779354858 0 -0.37036205862346327 0.38155569638228709 0 -0.37464999649841829 0.39135537666924358 0 -0.36434930162779061 0.38766238073991061 0 -0.37036205862346327 0.38155569638228709 0 -0.37464999649841829 0.39135537666924358 0 -0.35338841678565408 0.39597055304225037 0 -0.36434930162779061 0.38766238073991061 0 -0.36913354672539839 0.40082479438793311 0 -0.35338841678565408 0.39597055304225037 0 -0.36913354672539839 0.40082479438793311 0 -0.35747942482022388 0.40795434334434011 0 -0.36434930162779061 0.38766238073991061 0 -0.37464999649841829 0.39135537666924358 0 -0.36913354672539839 0.40082479438793311 0 -0.37555831421228458 0.42654973597877349 0 -0.366157577854966 0.41501755391345968 0 -0.35476788953489719 0.42399340003730313 0 -0.366157577854966 0.41501755391345968 0 -0.35476788953489719 0.42399340003730313 0 -0.35747942482022388 0.40795434334434011 0 -0.3802227535023136 0.41148744801186632 0 -0.36913354672539839 0.40082479438793311 0 -0.366157577854966 0.41501755391345968 0 -0.37555831421228458 0.42654973597877349 0 -0.3802227535023136 0.41148744801186632 0 -0.366157577854966 0.41501755391345968 0 -0.36913354672539839 0.40082479438793311 0 -0.366157577854966 0.41501755391345968 0 -0.35747942482022388 0.40795434334434011 0 -0.37555831421228458 0.42654973597877349 0 -0.35476788953489719 0.42399340003730313 0 -0.37555831421228458 0.42654973597877349 0 -0.35476788953489719 0.42399340003730313 0 -0.35797338666978817 0.43917350912226738 0 -0.35476788953489719 0.42399340003730313 0 -0.34536673155955289 0.4366074812524553 0 -0.33862988572438141 0.43069151489603519 0 -0.35476788953489719 0.42399340003730313 0 -0.33397746485750918 0.42143706409583748 0 -0.35476788953489719 0.42399340003730313 0 -0.34536673155955289 0.4366074812524553 0 -0.35797338666978817 0.43917350912226738 0 -0.35476788953489719 0.42399340003730313 0 -0.35747942482022388 0.40795434334434011 0 -0.3457659908900676 0.40981692924388369 0 -0.35476788953489719 0.42399340003730313 0 -0.3457659908900676 0.40981692924388369 0 -0.33397746485750918 0.42143706409583748 0 -0.3457659908900676 0.40981692924388369 0 -0.33512610282536981 0.41039461313728048 0 -0.33387250200303931 0.39964127641845187 0 -0.3457659908900676 0.40981692924388369 0 -0.33397746485750918 0.42143706409583748 0 -0.33512610282536981 0.41039461313728048 0 -0.33397746485750918 0.42143706409583748 0 -0.33512610282536981 0.41039461313728048 0 -0.32688845355086288 0.41068318279094901 0 -0.33512610282536981 0.41039461313728048 0 -0.32688845355086288 0.41068318279094901 0 -0.33387250200303931 0.39964127641845187 0 -0.35476788953489719 0.42399340003730313 0 -0.33397746485750918 0.42143706409583748 0 -0.33862988572438141 0.43069151489603519 0 -0.34536673155955289 0.4366074812524553 0 -0.33862988572438141 0.43069151489603519 0 -0.33262138703052191 0.44154828938629609 0 -0.33397746485750918 0.42143706409583748 0 -0.33862988572438141 0.43069151489603519 0 -0.32641595563942599 0.42987133970828401 0 -0.33862988572438141 0.43069151489603519 0 -0.32641595563942599 0.42987133970828401 0 -0.33262138703052191 0.44154828938629609 0 -0.33397746485750918 0.42143706409583748 0 -0.32641595563942599 0.42987133970828401 0 -0.31318704018012111 0.41888072815437272 0 -0.32641595563942599 0.42987133970828401 0 -0.31204509668488323 0.43371207274674828 0 -0.32054146485738788 0.4478705638739725 0 -0.32641595563942599 0.42987133970828401 0 -0.31318704018012111 0.41888072815437272 0 -0.31204509668488323 0.43371207274674828 0 -0.32641595563942599 0.42987133970828401 0 -0.31318704018012111 0.41888072815437272 0 -0.33397746485750918 0.42143706409583748 0 -0.31318704018012111 0.41888072815437272 0 -0.33397746485750918 0.42143706409583748 0 -0.32688845355086288 0.41068318279094901 0 -0.31318704018012111 0.41888072815437272 0 -0.32688845355086288 0.41068318279094901 0 -0.31318704018012111 0.41888072815437272 0 -0.31828926035278171 0.40265449293439448 0 -0.31828926035278171 0.40265449293439448 0 -0.33387250200303931 0.39964127641845187 0 -0.32045165706421502 0.38125310199505469 0 -0.31828926035278171 0.40265449293439448 0 -0.32045165706421502 0.38125310199505469 0 -0.29939692449355848 0.40111290854881038 0 -0.32688845355086288 0.41068318279094901 0 -0.31828926035278171 0.40265449293439448 0 -0.33387250200303931 0.39964127641845187 0 -0.35338841678565408 0.39597055304225037 0 -0.33387250200303931 0.39964127641845187 0 -0.34202436598807268 0.38406473962883592 0 -0.34150638963487129 0.36139329544129911 0 -0.34202436598807268 0.38406473962883592 0 -0.32045165706421502 0.38125310199505469 0 -0.33387250200303931 0.39964127641845187 0 -0.34202436598807268 0.38406473962883592 0 -0.32045165706421502 0.38125310199505469 0 -0.32045165706421502 0.38125310199505469 0 -0.30437360748413939 0.3786714809037407 0 -0.29939692449355848 0.40111290854881038 0 -0.30437360748413939 0.3786714809037407 0 -0.29939692449355848 0.40111290854881038 0 -0.29427502155166912 0.38862666314745148 0 -0.32045165706421502 0.38125310199505469 0 -0.29939692449355848 0.40111290854881038 0 -0.29129640149222341 0.40069393822244109 0 -0.29427502155166912 0.38862666314745148 0 -0.28480999111043931 0.38417288768540619 0 -0.29939692449355848 0.40111290854881038 0 -0.29129640149222341 0.40069393822244109 0 -0.29427502155166912 0.38862666314745148 0 -0.29129640149222341 0.40069393822244109 0 -0.28480999111043931 0.38417288768540619 0 -0.26940576280432621 0.3825071482905088 0 -0.30437360748413939 0.3786714809037407 0 -0.29110246404349083 0.3768594533581669 0 -0.29427502155166912 0.38862666314745148 0 -0.29110246404349083 0.3768594533581669 0 -0.29427502155166912 0.38862666314745148 0 -0.28480999111043931 0.38417288768540619 0 -0.27797030566048669 0.37217723540846248 0 -0.29110246404349083 0.3768594533581669 0 -0.28480999111043931 0.38417288768540619 0 -0.27797030566048669 0.37217723540846248 0 -0.28480999111043931 0.38417288768540619 0 -0.26940576280432621 0.3825071482905088 0 -0.29129640149222341 0.40069393822244109 0 -0.26940576280432621 0.3825071482905088 0 -0.29129640149222341 0.40069393822244109 0 -0.2724120379507628 0.39889165166455298 0 -0.27691530717849439 0.4068031852509163 0 -0.29129640149222341 0.40069393822244109 0 -0.26940576280432621 0.3825071482905088 0 -0.2724120379507628 0.39889165166455298 0 -0.2724120379507628 0.39889165166455298 0 -0.2582395127872873 0.4121245246929901 0 -0.27691530717849439 0.4068031852509163 0 -0.26940576280432621 0.3825071482905088 0 -0.2724120379507628 0.39889165166455298 0 -0.26018215547218188 0.39364623704449547 0 -0.2724120379507628 0.39889165166455298 0 -0.26018215547218188 0.39364623704449547 0 -0.2582395127872873 0.4121245246929901 0 -0.26018215547218188 0.39364623704449547 0 -0.2582395127872873 0.4121245246929901 0 -0.2453911815528779 0.39381352668270841 0 -0.26940576280432621 0.3825071482905088 0 -0.25546228226565493 0.38089433389171728 0 -0.24751512411642901 0.36432035835857651 0 -0.26018215547218188 0.39364623704449547 0 -0.25546228226565493 0.38089433389171728 0 -0.2453911815528779 0.39381352668270841 0 -0.26940576280432621 0.3825071482905088 0 -0.26018215547218188 0.39364623704449547 0 -0.25546228226565493 0.38089433389171728 0 -0.25388678652301683 0.43505548356991591 0 -0.2582395127872873 0.4121245246929901 0 -0.2703025370581833 0.42771917140620541 0 -0.25388678652301683 0.43505548356991591 0 -0.2703025370581833 0.42771917140620541 0 -0.26922410249942141 0.4407589509910122 0 -0.2582395127872873 0.4121245246929901 0 -0.28571327648370431 0.41550262642368102 0 -0.2582395127872873 0.4121245246929901 0 -0.27691530717849439 0.4068031852509163 0 -0.28571327648370431 0.41550262642368102 0 -0.2582395127872873 0.4121245246929901 0 -0.2703025370581833 0.42771917140620541 0 -0.28571327648370431 0.41550262642368102 0 -0.2703025370581833 0.42771917140620541 0 -0.28444900699748699 0.43515427135342799 0 -0.28571327648370431 0.41550262642368102 0 -0.2703025370581833 0.42771917140620541 0 -0.28444900699748699 0.43515427135342799 0 -0.26922410249942141 0.4407589509910122 0 -0.28444900699748699 0.43515427135342799 0 -0.29803273784366319 0.42871941643282319 0 -0.30141752311590903 0.44388435845299701 0 -0.28444900699748699 0.43515427135342799 0 -0.28571327648370431 0.41550262642368102 0 -0.29803273784366319 0.42871941643282319 0 -0.31318704018012111 0.41888072815437272 0 -0.29129640149222341 0.40069393822244109 0 -0.28571327648370431 0.41550262642368102 0 -0.29129640149222341 0.40069393822244109 0 -0.27691530717849439 0.4068031852509163 0 -0.28571327648370431 0.41550262642368102 0 -0.31318704018012111 0.41888072815437272 0 -0.29129640149222341 0.40069393822244109 0 -0.31318704018012111 0.41888072815437272 0 -0.29939692449355848 0.40111290854881038 0 -0.29129640149222341 0.40069393822244109 0 -0.31318704018012111 0.41888072815437272 0 -0.28571327648370431 0.41550262642368102 0 -0.31318704018012111 0.41888072815437272 0 -0.31828926035278171 0.40265449293439448 0 -0.29939692449355848 0.40111290854881038 0 -0.31318704018012111 0.41888072815437272 0 -0.28571327648370431 0.41550262642368102 0 -0.29803273784366319 0.42871941643282319 0 -0.29803273784366319 0.42871941643282319 0 -0.31204509668488323 0.43371207274674828 0 -0.30141752311590903 0.44388435845299701 0 -0.31318704018012111 0.41888072815437272 0 -0.29803273784366319 0.42871941643282319 0 -0.31204509668488323 0.43371207274674828 0 -0.30141752311590903 0.44388435845299701 0 -0.30906455080901513 0.46152083036961877 0 -0.32054146485738788 0.4478705638739725 0 -0.31204509668488323 0.43371207274674828 0 -0.30141752311590903 0.44388435845299701 0 -0.32054146485738788 0.4478705638739725 0 -0.30141752311590903 0.44388435845299701 0 -0.30906455080901513 0.46152083036961877 0 -0.28489936321145171 0.45523296535054458 0 -0.30906455080901513 0.46152083036961877 0 -0.28489936321145171 0.45523296535054458 0 -0.29880739761099268 0.47631566004368381 0 -0.28489936321145171 0.45523296535054458 0 -0.27378482060507381 0.47149764604297661 0 -0.29880739761099268 0.47631566004368381 0 -0.28444900699748699 0.43515427135342799 0 -0.30141752311590903 0.44388435845299701 0 -0.28489936321145171 0.45523296535054458 0 -0.28444900699748699 0.43515427135342799 0 -0.28489936321145171 0.45523296535054458 0 -0.26922410249942141 0.4407589509910122 0 -0.28489936321145171 0.45523296535054458 0 -0.26922410249942141 0.4407589509910122 0 -0.25895221766560478 0.45667840715258928 0 -0.28489936321145171 0.45523296535054458 0 -0.25895221766560478 0.45667840715258928 0 -0.27378482060507381 0.47149764604297661 0 -0.25895221766560478 0.45667840715258928 0 -0.27378482060507381 0.47149764604297661 0 -0.245911927120295 0.47575244323671539 0 -0.25388678652301683 0.43505548356991591 0 -0.25895221766560478 0.45667840715258928 0 -0.23906512709321301 0.44917825194775862 0 -0.25388678652301683 0.43505548356991591 0 -0.26922410249942141 0.4407589509910122 0 -0.25895221766560478 0.45667840715258928 0 -0.26302138007482578 0.5 0 -0.27378482060507381 0.47149764604297661 0 -0.245911927120295 0.47575244323671539 0 -0.26302138007482578 0.5 0 -0.27378482060507381 0.47149764604297661 0 -0.29295174688450792 0.5 0 -0.27378482060507381 0.47149764604297661 0 -0.29295174688450792 0.5 0 -0.29880739761099268 0.47631566004368381 0 -0.27378482060507381 0.47149764604297661 0 -0.29880739761099268 0.47631566004368381 0 -0.29880739761099268 0.47631566004368381 0 -0.30961780820165052 0.48936233352201869 0 -0.32382997461691149 0.481133674044391 0 -0.30906455080901513 0.46152083036961877 0 -0.29880739761099268 0.47631566004368381 0 -0.32382997461691149 0.481133674044391 0 -0.29880739761099268 0.47631566004368381 0 -0.32382997461691149 0.481133674044391 0 -0.29295174688450792 0.5 0 -0.29880739761099268 0.47631566004368381 0 -0.30961780820165052 0.48936233352201869 0 -0.29295174688450792 0.5 0 -0.30961780820165052 0.48936233352201869 0 -0.32288211369419001 0.5 0 -0.30961780820165052 0.48936233352201869 0 -0.32288211369419001 0.5 0 -0.32382997461691149 0.481133674044391 0 -0.32288211369419001 0.5 0 -0.33709428010945081 0.49177134052237109 0 -0.32382997461691149 0.481133674044391 0 -0.32288211369419001 0.5 0 -0.33709428010945081 0.49177134052237109 0 -0.35281248050387221 0.49999999999999561 0 -0.33709428010945081 0.49177134052237109 0 -0.32382997461691149 0.481133674044391 0 -0.34885255162283058 0.4859516880450982 0 -0.33535998586526378 0.47217593635819988 0 -0.32382997461691149 0.481133674044391 0 -0.34885255162283058 0.4859516880450982 0 -0.33535998586526378 0.47217593635819988 0 -0.34885255162283058 0.4859516880450982 0 -0.34666183135020789 0.47003651742284103 0 -0.32382997461691149 0.481133674044391 0 -0.34885255162283058 0.4859516880450982 0 -0.30906455080901513 0.46152083036961877 0 -0.32382997461691149 0.481133674044391 0 -0.32484341831943891 0.46389408646366781 0 -0.33535998586526378 0.47217593635819988 0 -0.32382997461691149 0.481133674044391 0 -0.32484341831943891 0.46389408646366781 0 -0.30906455080901513 0.46152083036961877 0 -0.32484341831943891 0.46389408646366781 0 -0.32054146485738788 0.4478705638739725 0 -0.32484341831943891 0.46389408646366781 0 -0.32054146485738788 0.4478705638739725 0 -0.33664513757811909 0.45770734722029149 0 -0.32641595563942599 0.42987133970828401 0 -0.32054146485738788 0.4478705638739725 0 -0.33262138703052191 0.44154828938629609 0 -0.32054146485738788 0.4478705638739725 0 -0.33262138703052191 0.44154828938629609 0 -0.33664513757811909 0.45770734722029149 0 -0.33262138703052191 0.44154828938629609 0 -0.33664513757811909 0.45770734722029149 0 -0.34585715588795679 0.4468936971144879 0 -0.34536673155955289 0.4366074812524553 0 -0.33262138703052191 0.44154828938629609 0 -0.34585715588795679 0.4468936971144879 0 -0.33535998586526378 0.47217593635819988 0 -0.32484341831943891 0.46389408646366781 0 -0.33664513757811909 0.45770734722029149 0 -0.33535998586526378 0.47217593635819988 0 -0.33664513757811909 0.45770734722029149 0 -0.34666183135020789 0.47003651742284103 0 -0.33664513757811909 0.45770734722029149 0 -0.35374954352870469 0.45752708201890158 0 -0.34585715588795679 0.4468936971144879 0 -0.35374954352870469 0.45752708201890158 0 -0.36039442507334252 0.47551657865958802 0 -0.34666183135020789 0.47003651742284103 0 -0.33664513757811909 0.45770734722029149 0 -0.35374954352870469 0.45752708201890158 0 -0.34666183135020789 0.47003651742284103 0 -0.35374954352870469 0.45752708201890158 0 -0.34585715588795679 0.4468936971144879 0 -0.35797338666978817 0.43917350912226738 0 -0.34536673155955289 0.4366074812524553 0 -0.34585715588795679 0.4468936971144879 0 -0.35797338666978817 0.43917350912226738 0 -0.37555831421228458 0.42654973597877349 0 -0.36797636964281388 0.45103315731918092 0 -0.37555831421228458 0.42654973597877349 0 -0.35797338666978817 0.43917350912226738 0 -0.36797636964281388 0.45103315731918092 0 -0.35374954352870469 0.45752708201890158 0 -0.35797338666978817 0.43917350912226738 0 -0.36797636964281388 0.45103315731918092 0 -0.37702757547555499 0.47148160542588352 0 -0.36797636964281388 0.45103315731918092 0 -0.36039442507334252 0.47551657865958802 0 -0.35374954352870469 0.45752708201890158 0 -0.36797636964281388 0.45103315731918092 0 -0.36039442507334252 0.47551657865958802 0 -0.36797636964281388 0.45103315731918092 0 -0.36039442507334252 0.47551657865958802 0 -0.37702757547555499 0.47148160542588352 0 -0.36039442507334252 0.47551657865958802 0 -0.35281248050387221 0.49999999999999561 0 -0.33709428010945081 0.49177134052237109 0 -0.34885255162283058 0.4859516880450982 0 -0.35281248050387221 0.49999999999999561 0 -0.36039442507334252 0.47551657865958802 0 -0.34885255162283058 0.4859516880450982 0 -0.35281248050387221 0.49999999999999561 0 -0.36039442507334252 0.47551657865958802 0 -0.35281248050387221 0.49999999999999561 0 -0.36039442507334252 0.47551657865958802 0 -0.34885255162283058 0.4859516880450982 0 -0.34666183135020789 0.47003651742284103 0 -0.14728293279105709 0.47332209796737867 0 -0.14329991283609719 0.5 0 -0.169426385203685 0.47594376315440728 0 -0.14329991283609719 0.5 0 -0.12888469971959779 0.47971180329689278 0 -0.113369546026415 0.5 0 -0.14728293279105709 0.47332209796737867 0 -0.14329991283609719 0.5 0 -0.12888469971959779 0.47971180329689278 0 -0.14728293279105709 0.47332209796737867 0 -0.12888469971959779 0.47971180329689278 0 -0.1372549684310036 0.45627363151757272 0 -0.1372549684310036 0.45627363151757272 0 -0.1169612390971056 0.45786597116712607 0 -0.12888469971959779 0.47971180329689278 0 -0.1372549684310036 0.45627363151757272 0 -0.1169612390971056 0.45786597116712607 0 -0.1372549684310036 0.45627363151757272 0 -0.14768814948556649 0.44444950044843928 0 -0.13538690313785101 0.43733618151029802 0 -0.1372549684310036 0.45627363151757272 0 -0.13538690313785101 0.43733618151029802 0 -0.1169612390971056 0.45786597116712607 0 -0.13538690313785101 0.43733618151029802 0 -0.1169612390971056 0.45786597116712607 0 -0.14768814948556649 0.44444950044843928 0 -0.15562075689225999 0.43265994117956968 0 -0.13538690313785101 0.43733618151029802 0 -0.1372549684310036 0.45627363151757272 0 -0.14768814948556649 0.44444950044843928 0 -0.15754869776490171 0.45468129186802042 0 -0.14768814948556649 0.44444950044843928 0 -0.15754869776490171 0.45468129186802042 0 -0.16246604535245621 0.4431557147103844 0 -0.14768814948556649 0.44444950044843928 0 -0.16246604535245621 0.4431557147103844 0 -0.15562075689225999 0.43265994117956968 0 -0.1372549684310036 0.45627363151757272 0 -0.15754869776490171 0.45468129186802042 0 -0.14728293279105709 0.47332209796737867 0 -0.1372549684310036 0.45627363151757272 0 -0.15754869776490171 0.45468129186802042 0 -0.14728293279105709 0.47332209796737867 0 -0.15754869776490171 0.45468129186802042 0 -0.169426385203685 0.47594376315440728 0 -0.15754869776490171 0.45468129186802042 0 -0.1778424270987998 0.45308895221846812 0 -0.169426385203685 0.47594376315440728 0 -0.15754869776490171 0.45468129186802042 0 -0.1778424270987998 0.45308895221846812 0 -0.15754869776490171 0.45468129186802042 0 -0.16246604535245621 0.4431557147103844 0 -0.1778424270987998 0.45308895221846812 0 -0.16246604535245621 0.4431557147103844 0 -0.1778424270987998 0.45308895221846812 0 -0.17338721926935299 0.43605261869297302 0 -0.1778424270987998 0.45308895221846812 0 -0.18721160643059759 0.44043842078276613 0 -0.17338721926935299 0.43605261869297302 0 -0.1778424270987998 0.45308895221846812 0 -0.169426385203685 0.47594376315440728 0 -0.1887023077402695 0.47482917123435758 0 -0.169426385203685 0.47594376315440728 0 -0.17323027964577931 0.5 0 -0.1887023077402695 0.47482917123435758 0 -0.14329991283609719 0.5 0 -0.169426385203685 0.47594376315440728 0 -0.17323027964577931 0.5 0 -0.17323027964577931 0.5 0 -0.1887023077402695 0.47482917123435758 0 -0.2031606464554615 0.5 0 -0.2031606464554615 0.5 0 -0.2236045339448138 0.48189967320661459 0 -0.20863095628616821 0.46813801253690029 0 -0.1887023077402695 0.47482917123435758 0 -0.2031606464554615 0.5 0 -0.20863095628616821 0.46813801253690029 0 -0.2031606464554615 0.5 0 -0.23309101326514359 0.5 0 -0.2236045339448138 0.48189967320661459 0 -0.23309101326514359 0.5 0 -0.2236045339448138 0.48189967320661459 0 -0.245911927120295 0.47575244323671539 0 -0.2236045339448138 0.48189967320661459 0 -0.22722812659700081 0.46560791025945741 0 -0.20863095628616821 0.46813801253690029 0 -0.2236045339448138 0.48189967320661459 0 -0.245911927120295 0.47575244323671539 0 -0.22722812659700081 0.46560791025945741 0 -0.26302138007482578 0.5 0 -0.23309101326514359 0.5 0 -0.245911927120295 0.47575244323671539 0 -0.25388678652301683 0.43505548356991591 0 -0.23906512709321301 0.44917825194775862 0 -0.23447176446487281 0.42942553762739188 0 -0.245911927120295 0.47575244323671539 0 -0.23906512709321301 0.44917825194775862 0 -0.22722812659700081 0.46560791025945741 0 -0.25895221766560478 0.45667840715258928 0 -0.245911927120295 0.47575244323671539 0 -0.23906512709321301 0.44917825194775862 0 -0.23906512709321301 0.44917825194775862 0 -0.22722812659700081 0.46560791025945741 0 -0.21778065023329951 0.44591542718202393 0 -0.23906512709321301 0.44917825194775862 0 -0.21778065023329951 0.44591542718202393 0 -0.23447176446487281 0.42942553762739188 0 -0.21778065023329951 0.44591542718202393 0 -0.19827871016365059 0.45231994353917349 0 -0.2000323296454703 0.43447978696707429 0 -0.22722812659700081 0.46560791025945741 0 -0.21778065023329951 0.44591542718202393 0 -0.20863095628616821 0.46813801253690029 0 -0.21778065023329951 0.44591542718202393 0 -0.20863095628616821 0.46813801253690029 0 -0.19827871016365059 0.45231994353917349 0 -0.1887023077402695 0.47482917123435758 0 -0.20863095628616821 0.46813801253690029 0 -0.19827871016365059 0.45231994353917349 0 -0.1778424270987998 0.45308895221846812 0 -0.1887023077402695 0.47482917123435758 0 -0.19827871016365059 0.45231994353917349 0 -0.18721160643059759 0.44043842078276613 0 -0.19827871016365059 0.45231994353917349 0 -0.2000323296454703 0.43447978696707429 0 -0.1778424270987998 0.45308895221846812 0 -0.18721160643059759 0.44043842078276613 0 -0.19827871016365059 0.45231994353917349 0 -0.2000323296454703 0.43447978696707429 0 -0.19581484020946441 0.41747610832630339 0 -0.18487290438764201 0.42676644653894508 0 -0.18721160643059759 0.44043842078276613 0 -0.2000323296454703 0.43447978696707429 0 -0.18487290438764201 0.42676644653894508 0 -0.19581484020946441 0.41747610832630339 0 -0.1900138243737671 0.40448170862020388 0 -0.18077934496967679 0.41204751554780761 0 -0.19581484020946441 0.41747610832630339 0 -0.20329198539445351 0.40536832123160832 0 -0.1900138243737671 0.40448170862020388 0 -0.23076574909087039 0.40874642296229918 0 -0.20329198539445351 0.40536832123160832 0 -0.19581484020946441 0.41747610832630339 0 -0.2152967523064209 0.42114448972901708 0 -0.20329198539445351 0.40536832123160832 0 -0.2152967523064209 0.42114448972901708 0 -0.23076574909087039 0.40874642296229918 0 -0.20329198539445351 0.40536832123160832 0 -0.21778065023329951 0.44591542718202393 0 -0.2000323296454703 0.43447978696707429 0 -0.2152967523064209 0.42114448972901708 0 -0.2000323296454703 0.43447978696707429 0 -0.19581484020946441 0.41747610832630339 0 -0.2152967523064209 0.42114448972901708 0 -0.21778065023329951 0.44591542718202393 0 -0.2152967523064209 0.42114448972901708 0 -0.23447176446487281 0.42942553762739188 0 -0.2152967523064209 0.42114448972901708 0 -0.23076574909087039 0.40874642296229918 0 -0.23447176446487281 0.42942553762739188 0 -0.2582395127872873 0.4121245246929901 0 -0.23076574909087039 0.40874642296229918 0 -0.2582395127872873 0.4121245246929901 0 -0.23076574909087039 0.40874642296229918 0 -0.23447176446487281 0.42942553762739188 0 -0.25388678652301683 0.43505548356991591 0 -0.2582395127872873 0.4121245246929901 0 -0.23447176446487281 0.42942553762739188 0 -0.25546228226565493 0.38089433389171728 0 -0.2379260890113859 0.38024446698241321 0 -0.2453911815528779 0.39381352668270841 0 -0.25546228226565493 0.38089433389171728 0 -0.2379260890113859 0.38024446698241321 0 -0.25546228226565493 0.38089433389171728 0 -0.2379260890113859 0.38024446698241321 0 -0.24326305808191001 0.37260906119894838 0 -0.2379260890113859 0.38024446698241321 0 -0.2453911815528779 0.39381352668270841 0 -0.2304357909961412 0.39140577795144998 0 -0.2582395127872873 0.4121245246929901 0 -0.23076574909087039 0.40874642296229918 0 -0.2453911815528779 0.39381352668270841 0 -0.23076574909087039 0.40874642296229918 0 -0.2453911815528779 0.39381352668270841 0 -0.2304357909961412 0.39140577795144998 0 -0.23076574909087039 0.40874642296229918 0 -0.2304357909961412 0.39140577795144998 0 -0.2177060395684558 0.39462987305672281 0 -0.2379260890113859 0.38024446698241321 0 -0.22038989575711701 0.37959460007310741 0 -0.23593246699789891 0.36686057490280782 0 -0.2379260890113859 0.38024446698241321 0 -0.22038989575711701 0.37959460007310741 0 -0.2379260890113859 0.38024446698241321 0 -0.2304357909961412 0.39140577795144998 0 -0.22038989575711701 0.37959460007310741 0 -0.2304357909961412 0.39140577795144998 0 -0.22038989575711701 0.37959460007310741 0 -0.2177060395684558 0.39462987305672281 0 -0.22038989575711701 0.37959460007310741 0 -0.21756564638267811 0.37948993732301989 0 -0.21756564638267811 0.37948993732301989 0 -0.19655936454508821 0.37871147376164099 0 -0.2073335981830399 0.37178546261349321 0 -0.22038989575711701 0.37959460007310741 0 -0.21756564638267811 0.37948993732301989 0 -0.2037897353782224 0.39198582297161172 0 -0.22038989575711701 0.37959460007310741 0 -0.2037897353782224 0.39198582297161172 0 -0.21756564638267811 0.37948993732301989 0 -0.2037897353782224 0.39198582297161172 0 -0.19655936454508821 0.37871147376164099 0 -0.22038989575711701 0.37959460007310741 0 -0.2177060395684558 0.39462987305672281 0 -0.2037897353782224 0.39198582297161172 0 -0.21756564638267811 0.37948993732301989 0 -0.19655936454508821 0.37871147376164099 0 -0.21756564638267811 0.37948993732301989 0 -0.2037897353782224 0.39198582297161172 0 -0.23076574909087039 0.40874642296229918 0 -0.2177060395684558 0.39462987305672281 0 -0.20329198539445351 0.40536832123160832 0 -0.2177060395684558 0.39462987305672281 0 -0.2037897353782224 0.39198582297161172 0 -0.20329198539445351 0.40536832123160832 0 -0.2037897353782224 0.39198582297161172 0 -0.20329198539445351 0.40536832123160832 0 -0.1900138243737671 0.40448170862020388 0 -0.2037897353782224 0.39198582297161172 0 -0.1900138243737671 0.40448170862020388 0 -0.2037897353782224 0.39198582297161172 0 -0.1900138243737671 0.40448170862020388 0 -0.18956928405889101 0.39013326765367601 0 -0.2037897353782224 0.39198582297161172 0 -0.19655936454508821 0.37871147376164099 0 -0.18956928405889101 0.39013326765367601 0 -0.19655936454508821 0.37871147376164099 0 -0.17555308270749831 0.3779330102002611 0 -0.19655936454508821 0.37871147376164099 0 -0.18956928405889101 0.39013326765367601 0 -0.17555308270749831 0.3779330102002611 0 -0.18956928405889101 0.39013326765367601 0 -0.17555308270749831 0.3779330102002611 0 -0.1799709529351288 0.39466474102174892 0 -0.17555308270749831 0.3779330102002611 0 -0.16912115604987379 0.39568109361163578 0 -0.1799709529351288 0.39466474102174892 0 -0.17555308270749831 0.3779330102002611 0 -0.15792334870446839 0.38339144091396171 0 -0.16912115604987379 0.39568109361163578 0 -0.15792334870446839 0.38339144091396171 0 -0.16912115604987379 0.39568109361163578 0 -0.15545253491194391 0.40115604133156341 0 -0.16912115604987379 0.39568109361163578 0 -0.164659098019342 0.40831172513897718 0 -0.15545253491194391 0.40115604133156341 0 -0.16912115604987379 0.39568109361163578 0 -0.17559741748561369 0.40509462502296761 0 -0.164659098019342 0.40831172513897718 0 -0.16912115604987379 0.39568109361163578 0 -0.17559741748561369 0.40509462502296761 0 -0.1799709529351288 0.39466474102174892 0 -0.1900138243737671 0.40448170862020388 0 -0.18956928405889101 0.39013326765367601 0 -0.1799709529351288 0.39466474102174892 0 -0.1900138243737671 0.40448170862020388 0 -0.17559741748561369 0.40509462502296761 0 -0.1799709529351288 0.39466474102174892 0 -0.1900138243737671 0.40448170862020388 0 -0.17559741748561369 0.40509462502296761 0 -0.18077934496967679 0.41204751554780761 0 -0.1900138243737671 0.40448170862020388 0 -0.18077934496967679 0.41204751554780761 0 -0.19581484020946441 0.41747610832630339 0 -0.18077934496967679 0.41204751554780761 0 -0.18487290438764201 0.42676644653894508 0 -0.18077934496967679 0.41204751554780761 0 -0.17281729063301349 0.41857082489988678 0 -0.18077934496967679 0.41204751554780761 0 -0.17281729063301349 0.41857082489988678 0 -0.18487290438764201 0.42676644653894508 0 -0.17559741748561369 0.40509462502296761 0 -0.18077934496967679 0.41204751554780761 0 -0.17281729063301349 0.41857082489988678 0 -0.17281729063301349 0.41857082489988678 0 -0.18487290438764201 0.42676644653894508 0 -0.17338721926935299 0.43605261869297302 0 -0.18721160643059759 0.44043842078276613 0 -0.18487290438764201 0.42676644653894508 0 -0.17338721926935299 0.43605261869297302 0 -0.17281729063301349 0.41857082489988678 0 -0.15562075689225999 0.43265994117956968 0 -0.16246604535245621 0.4431557147103844 0 -0.17338721926935299 0.43605261869297302 0 -0.15562075689225999 0.43265994117956968 0 -0.17281729063301349 0.41857082489988678 0 -0.15381256717859579 0.41680639185346929 0 -0.15562075689225999 0.43265994117956968 0 -0.17281729063301349 0.41857082489988678 0 -0.17338721926935299 0.43605261869297302 0 -0.15562075689225999 0.43265994117956968 0 -0.17281729063301349 0.41857082489988678 0 -0.164659098019342 0.40831172513897718 0 -0.15381256717859579 0.41680639185346929 0 -0.164659098019342 0.40831172513897718 0 -0.15381256717859579 0.41680639185346929 0 -0.15545253491194391 0.40115604133156341 0 -0.17559741748561369 0.40509462502296761 0 -0.17281729063301349 0.41857082489988678 0 -0.164659098019342 0.40831172513897718 0 -0.15381256717859579 0.41680639185346929 0 -0.14417365792440709 0.40738712050204179 0 -0.13589225725522841 0.41790223687128042 0 -0.15381256717859579 0.41680639185346929 0 -0.14417365792440709 0.40738712050204179 0 -0.15545253491194391 0.40115604133156341 0 -0.15381256717859579 0.41680639185346929 0 -0.13538690313785101 0.43733618151029802 0 -0.13589225725522841 0.41790223687128042 0 -0.15381256717859579 0.41680639185346929 0 -0.15562075689225999 0.43265994117956968 0 -0.13538690313785101 0.43733618151029802 0 -0.15381256717859579 0.41680639185346929 0 -0.13538690313785101 0.43733618151029802 0 -0.13538690313785101 0.43733618151029802 0 -0.1258289512882301 0.42630771176284238 0 -0.13589225725522841 0.41790223687128042 0 -0.13538690313785101 0.43733618151029802 0 -0.1258289512882301 0.42630771176284238 0 -0.1197692222482912 0.43794358840682007 0 -0.14417365792440709 0.40738712050204179 0 -0.13589225725522841 0.41790223687128042 0 -0.1331715715573559 0.40333062086252891 0 -0.1258289512882301 0.42630771176284238 0 -0.13589225725522841 0.41790223687128042 0 -0.1234940854299074 0.41374093347312352 0 -0.13589225725522841 0.41790223687128042 0 -0.1331715715573559 0.40333062086252891 0 -0.1234940854299074 0.41374093347312352 0 -0.1331715715573559 0.40333062086252891 0 -0.12707611240794031 0.38474952093064302 0 -0.1195231778275479 0.39972011802218133 0 -0.1331715715573559 0.40333062086252891 0 -0.12707611240794031 0.38474952093064302 0 -0.14351140447104141 0.39297664034722207 0 -0.1331715715573559 0.40333062086252891 0 -0.1195231778275479 0.39972011802218133 0 -0.1234940854299074 0.41374093347312352 0 -0.14417365792440709 0.40738712050204179 0 -0.1331715715573559 0.40333062086252891 0 -0.14351140447104141 0.39297664034722207 0 -0.12707611240794031 0.38474952093064302 0 -0.14351140447104141 0.39297664034722207 0 -0.14196596851799831 0.37366662246776883 0 -0.15792334870446839 0.38339144091396171 0 -0.14351140447104141 0.39297664034722207 0 -0.14196596851799831 0.37366662246776883 0 -0.15792334870446839 0.38339144091396171 0 -0.15545253491194391 0.40115604133156341 0 -0.14351140447104141 0.39297664034722207 0 -0.14417365792440709 0.40738712050204179 0 -0.15545253491194391 0.40115604133156341 0 -0.14351140447104141 0.39297664034722207 0 -0.13862947055865299 0.35588896232711498 0 -0.14774967637198441 0.33849838592805859 0 -0.15983012985452749 0.36051906236823777 0 -0.15792334870446839 0.38339144091396171 0 -0.14196596851799831 0.37366662246776883 0 -0.15983012985452749 0.36051906236823777 0 -0.14196596851799831 0.37366662246776883 0 -0.13862947055865299 0.35588896232711498 0 -0.15983012985452749 0.36051906236823777 0 -0.12707611240794031 0.38474952093064302 0 -0.14196596851799831 0.37366662246776883 0 -0.1227759050205442 0.36234084861879012 0 -0.14196596851799831 0.37366662246776883 0 -0.13862947055865299 0.35588896232711498 0 -0.1227759050205442 0.36234084861879012 0 -0.13862947055865299 0.35588896232711498 0 -0.12724187384107591 0.34153941442150593 0 -0.14774967637198441 0.33849838592805859 0 -0.13862947055865299 0.35588896232711498 0 -0.12724187384107591 0.34153941442150593 0 -0.1227759050205442 0.36234084861879012 0 -0.12724187384107591 0.34153941442150593 0 -0.1329532730828015 0.32312507212851532 0 -0.14774967637198441 0.33849838592805859 0 -0.1329532730828015 0.32312507212851532 0 -0.1522561240734536 0.31653418940715738 0 -0.12702912800343719 0.29921375519259807 0 -0.1329532730828015 0.32312507212851532 0 -0.1522561240734536 0.31653418940715738 0 -0.14774967637198441 0.33849838592805859 0 -0.1522561240734536 0.31653418940715738 0 -0.14774967637198441 0.33849838592805859 0 -0.17262523939455909 0.33561628487881412 0 -0.1522561240734536 0.31653418940715738 0 -0.17262523939455909 0.33561628487881412 0 -0.17535275484556881 0.3099030426574545 0 -0.17262523939455909 0.33561628487881412 0 -0.1901347104993342 0.32203726620050682 0 -0.17535275484556881 0.3099030426574545 0 -0.17262523939455909 0.33561628487881412 0 -0.19292310815018901 0.33835795601159968 0 -0.1901347104993342 0.32203726620050682 0 -0.17262523939455909 0.33561628487881412 0 -0.1847772788976331 0.35756547845570508 0 -0.15983012985452749 0.36051906236823777 0 -0.17262523939455909 0.33561628487881412 0 -0.1847772788976331 0.35756547845570508 0 -0.19292310815018901 0.33835795601159968 0 -0.14774967637198441 0.33849838592805859 0 -0.17262523939455909 0.33561628487881412 0 -0.15983012985452749 0.36051906236823777 0 -0.17555308270749831 0.3779330102002611 0 -0.15792334870446839 0.38339144091396171 0 -0.15983012985452749 0.36051906236823777 0 -0.17555308270749831 0.3779330102002611 0 -0.1847772788976331 0.35756547845570508 0 -0.15983012985452749 0.36051906236823777 0 -0.19655936454508821 0.37871147376164099 0 -0.17555308270749831 0.3779330102002611 0 -0.1847772788976331 0.35756547845570508 0 -0.19655936454508821 0.37871147376164099 0 -0.200427146785539 0.3624138736340628 0 -0.2073335981830399 0.37178546261349321 0 -0.19655936454508821 0.37871147376164099 0 -0.1847772788976331 0.35756547845570508 0 -0.200427146785539 0.3624138736340628 0 -0.1847772788976331 0.35756547845570508 0 -0.1989879669820204 0.3507089263962907 0 -0.19292310815018901 0.33835795601159968 0 -0.1847772788976331 0.35756547845570508 0 -0.200427146785539 0.3624138736340628 0 -0.1989879669820204 0.3507089263962907 0 -0.200427146785539 0.3624138736340628 0 -0.1989879669820204 0.3507089263962907 0 -0.20882017560394681 0.35330128239922137 0 -0.1989879669820204 0.3507089263962907 0 -0.20882017560394681 0.35330128239922137 0 -0.207992125472794 0.34190604148086451 0 -0.20882017560394681 0.35330128239922137 0 -0.2182985560596469 0.35693189041002532 0 -0.2185204779149067 0.34853383876808852 0 -0.20882017560394681 0.35330128239922137 0 -0.2182985560596469 0.35693189041002532 0 -0.21019682909483259 0.3631527219747227 0 -0.20882017560394681 0.35330128239922137 0 -0.2185204779149067 0.34853383876808852 0 -0.207992125472794 0.34190604148086451 0 -0.2073335981830399 0.37178546261349321 0 -0.21019682909483259 0.3631527219747227 0 -0.21510704250072829 0.36992937794870101 0 -0.200427146785539 0.3624138736340628 0 -0.20882017560394681 0.35330128239922137 0 -0.21019682909483259 0.3631527219747227 0 -0.200427146785539 0.3624138736340628 0 -0.2073335981830399 0.37178546261349321 0 -0.21019682909483259 0.3631527219747227 0 -0.2182985560596469 0.35693189041002532 0 -0.21019682909483259 0.3631527219747227 0 -0.2179747365577662 0.36465665380701129 0 -0.21019682909483259 0.3631527219747227 0 -0.2179747365577662 0.36465665380701129 0 -0.21510704250072829 0.36992937794870101 0 -0.21756564638267811 0.37948993732301989 0 -0.2073335981830399 0.37178546261349321 0 -0.21510704250072829 0.36992937794870101 0 -0.21756564638267811 0.37948993732301989 0 -0.21510704250072829 0.36992937794870101 0 -0.22258023613152311 0.36949331622152359 0 -0.2179747365577662 0.36465665380701129 0 -0.21510704250072829 0.36992937794870101 0 -0.22258023613152311 0.36949331622152359 0 -0.22038989575711701 0.37959460007310741 0 -0.21756564638267811 0.37948993732301989 0 -0.23277753149029401 0.36569150491859792 0 -0.21756564638267811 0.37948993732301989 0 -0.23277753149029401 0.36569150491859792 0 -0.21756564638267811 0.37948993732301989 0 -0.22258023613152311 0.36949331622152359 0 -0.23277753149029401 0.36569150491859792 0 -0.22038989575711701 0.37959460007310741 0 -0.23277753149029401 0.36569150491859792 0 -0.23593246699789891 0.36686057490280782 0 -0.22038989575711701 0.37959460007310741 0 -0.23593246699789891 0.36686057490280782 0 -0.23277753149029401 0.36569150491859792 0 -0.23009516490924611 0.3599040380784535 0 -0.23648175131772231 0.35529709482424809 0 -0.22258023613152311 0.36949331622152359 0 -0.23277753149029401 0.36569150491859792 0 -0.2273540697721563 0.36426200687475929 0 -0.23277753149029401 0.36569150491859792 0 -0.2273540697721563 0.36426200687475929 0 -0.23009516490924611 0.3599040380784535 0 -0.2273540697721563 0.36426200687475929 0 -0.23009516490924611 0.3599040380784535 0 -0.223963346557562 0.36195916828046221 0 -0.22258023613152311 0.36949331622152359 0 -0.2273540697721563 0.36426200687475929 0 -0.223963346557562 0.36195916828046221 0 -0.2179747365577662 0.36465665380701129 0 -0.22258023613152311 0.36949331622152359 0 -0.223963346557562 0.36195916828046221 0 -0.2182985560596469 0.35693189041002532 0 -0.2179747365577662 0.36465665380701129 0 -0.223963346557562 0.36195916828046221 0 -0.2182985560596469 0.35693189041002532 0 -0.223963346557562 0.36195916828046221 0 -0.2254602188164522 0.35522174437333742 0 -0.2182985560596469 0.35693189041002532 0 -0.2185204779149067 0.34853383876808852 0 -0.2254602188164522 0.35522174437333742 0 -0.23009516490924611 0.3599040380784535 0 -0.223963346557562 0.36195916828046221 0 -0.2254602188164522 0.35522174437333742 0 -0.2185204779149067 0.34853383876808852 0 -0.2254602188164522 0.35522174437333742 0 -0.22934913821264249 0.34633604052711903 0 -0.2185204779149067 0.34853383876808852 0 -0.22934913821264249 0.34633604052711903 0 -0.22090043794514089 0.33655893600750159 0 -0.22934913821264249 0.34633604052711903 0 -0.2313948239984466 0.35331945807054499 0 -0.23558784673616989 0.3498383725495674 0 -0.2254602188164522 0.35522174437333742 0 -0.22934913821264249 0.34633604052711903 0 -0.2313948239984466 0.35331945807054499 0 -0.23009516490924611 0.3599040380784535 0 -0.2254602188164522 0.35522174437333742 0 -0.2313948239984466 0.35331945807054499 0 -0.23009516490924611 0.3599040380784535 0 -0.2313948239984466 0.35331945807054499 0 -0.23648175131772231 0.35529709482424809 0 -0.23277753149029401 0.36569150491859792 0 -0.23648175131772231 0.35529709482424809 0 -0.24798941659791049 0.3518930725141764 0 -0.23648175131772231 0.35529709482424809 0 -0.24097900459078689 0.34915856997471029 0 -0.24798941659791049 0.3518930725141764 0 -0.23277753149029401 0.36569150491859792 0 -0.24798941659791049 0.3518930725141764 0 -0.2313948239984466 0.35331945807054499 0 -0.23648175131772231 0.35529709482424809 0 -0.23558784673616989 0.3498383725495674 0 -0.22934913821264249 0.34633604052711903 0 -0.23558784673616989 0.3498383725495674 0 -0.23959357676218379 0.34366706971711369 0 -0.23648175131772231 0.35529709482424809 0 -0.23558784673616989 0.3498383725495674 0 -0.24097900459078689 0.34915856997471029 0 -0.24097900459078689 0.34915856997471029 0 -0.24504143497044389 0.34636796157520761 0 -0.23959357676218379 0.34366706971711369 0 -0.23558784673616989 0.3498383725495674 0 -0.24097900459078689 0.34915856997471029 0 -0.23959357676218379 0.34366706971711369 0 -0.24504143497044389 0.34636796157520761 0 -0.24998202229822691 0.34128221335132941 0 -0.23959357676218379 0.34366706971711369 0 -0.24504143497044389 0.34636796157520761 0 -0.24798941659791049 0.3518930725141764 0 -0.24998202229822691 0.34128221335132941 0 -0.24097900459078689 0.34915856997471029 0 -0.24504143497044389 0.34636796157520761 0 -0.24798941659791049 0.3518930725141764 0 -0.25147503823868161 0.35412654973250918 0 -0.24798941659791049 0.3518930725141764 0 -0.23593246699789891 0.36686057490280782 0 -0.25546228226565493 0.38089433389171728 0 -0.24751512411642901 0.36432035835857651 0 -0.24326305808191001 0.37260906119894838 0 -0.25147503823868161 0.35412654973250918 0 -0.23593246699789891 0.36686057490280782 0 -0.25147503823868161 0.35412654973250918 0 -0.24751512411642901 0.36432035835857651 0 -0.23593246699789891 0.36686057490280782 0 -0.24751512411642901 0.36432035835857651 0 -0.24326305808191001 0.37260906119894838 0 -0.23593246699789891 0.36686057490280782 0 -0.2379260890113859 0.38024446698241321 0 -0.24326305808191001 0.37260906119894838 0 -0.23593246699789891 0.36686057490280782 0 -0.23277753149029401 0.36569150491859792 0 -0.24798941659791049 0.3518930725141764 0 -0.23593246699789891 0.36686057490280782 0 -0.25599962395587261 0.32072916265640983 0 -0.23596050684280279 0.32588652785365602 0 -0.24429476366839431 0.33301949319318808 0 -0.25599962395587261 0.32072916265640983 0 -0.23596050684280279 0.32588652785365602 0 -0.23998189020383071 0.31347989261740389 0 -0.25375181177065198 0.33179201880347547 0 -0.24429476366839431 0.33301949319318808 0 -0.24998202229822691 0.34128221335132941 0 -0.24429476366839431 0.33301949319318808 0 -0.24998202229822691 0.34128221335132941 0 -0.23959357676218379 0.34366706971711369 0 -0.24429476366839431 0.33301949319318808 0 -0.23959357676218379 0.34366706971711369 0 -0.23316508029188771 0.33471611575570259 0 -0.23596050684280279 0.32588652785365602 0 -0.24429476366839431 0.33301949319318808 0 -0.23316508029188771 0.33471611575570259 0 -0.23316508029188771 0.33471611575570259 0 -0.22090043794514089 0.33655893600750159 0 -0.22692645499447289 0.32351562595634548 0 -0.22090043794514089 0.33655893600750159 0 -0.22692645499447289 0.32351562595634548 0 -0.20944935078414159 0.32434595355688972 0 -0.22934913821264249 0.34633604052711903 0 -0.23959357676218379 0.34366706971711369 0 -0.23316508029188771 0.33471611575570259 0 -0.22934913821264249 0.34633604052711903 0 -0.23316508029188771 0.33471611575570259 0 -0.22090043794514089 0.33655893600750159 0 -0.23998189020383071 0.31347989261740389 0 -0.22692645499447289 0.32351562595634548 0 -0.22049065568683021 0.30865090882750229 0 -0.22692645499447289 0.32351562595634548 0 -0.20944935078414159 0.32434595355688972 0 -0.22049065568683021 0.30865090882750229 0 -0.23596050684280279 0.32588652785365602 0 -0.23316508029188771 0.33471611575570259 0 -0.22692645499447289 0.32351562595634548 0 -0.23596050684280279 0.32588652785365602 0 -0.23998189020383071 0.31347989261740389 0 -0.22692645499447289 0.32351562595634548 0 -0.20944935078414159 0.32434595355688972 0 -0.207992125472794 0.34190604148086451 0 -0.19292310815018901 0.33835795601159968 0 -0.22090043794514089 0.33655893600750159 0 -0.20944935078414159 0.32434595355688972 0 -0.207992125472794 0.34190604148086451 0 -0.2185204779149067 0.34853383876808852 0 -0.22090043794514089 0.33655893600750159 0 -0.207992125472794 0.34190604148086451 0 -0.20944935078414159 0.32434595355688972 0 -0.19292310815018901 0.33835795601159968 0 -0.1901347104993342 0.32203726620050682 0 -0.1989879669820204 0.3507089263962907 0 -0.207992125472794 0.34190604148086451 0 -0.19292310815018901 0.33835795601159968 0 -0.20944935078414159 0.32434595355688972 0 -0.1901347104993342 0.32203726620050682 0 -0.19797479101911211 0.30190183260148429 0 -0.1901347104993342 0.32203726620050682 0 -0.19797479101911211 0.30190183260148429 0 -0.17535275484556881 0.3099030426574545 0 -0.19797479101911211 0.30190183260148429 0 -0.19894759686975139 0.27372391463636792 0 -0.1791153749666268 0.2880651546369879 0 -0.19797479101911211 0.30190183260148429 0 -0.21454683454563639 0.28837661924370961 0 -0.19894759686975139 0.27372391463636792 0 -0.20944935078414159 0.32434595355688972 0 -0.19797479101911211 0.30190183260148429 0 -0.22049065568683021 0.30865090882750229 0 -0.19797479101911211 0.30190183260148429 0 -0.21454683454563639 0.28837661924370961 0 -0.22049065568683021 0.30865090882750229 0 -0.23998189020383071 0.31347989261740389 0 -0.22049065568683021 0.30865090882750229 0 -0.2331069111338937 0.29764466891573282 0 -0.21454683454563639 0.28837661924370961 0 -0.22049065568683021 0.30865090882750229 0 -0.2331069111338937 0.29764466891573282 0 -0.21454683454563639 0.28837661924370961 0 -0.2331069111338937 0.29764466891573282 0 -0.23279502510707381 0.28239324198296012 0 -0.2597677191064372 0.26905710909554797 0 -0.25061915931097689 0.29286829644873241 0 -0.23279502510707381 0.28239324198296012 0 -0.25061915931097689 0.29286829644873241 0 -0.2331069111338937 0.29764466891573282 0 -0.23279502510707381 0.28239324198296012 0 -0.25061915931097689 0.29286829644873241 0 -0.23998189020383071 0.31347989261740389 0 -0.2331069111338937 0.29764466891573282 0 -0.2597677191064372 0.26905710909554797 0 -0.22907600043325019 0.26208161108496009 0 -0.24198036308279569 0.2445897244070506 0 -0.2597677191064372 0.26905710909554797 0 -0.23279502510707381 0.28239324198296012 0 -0.22907600043325019 0.26208161108496009 0 -0.21454683454563639 0.28837661924370961 0 -0.23279502510707381 0.28239324198296012 0 -0.22907600043325019 0.26208161108496009 0 -0.22907600043325019 0.26208161108496009 0 -0.24198036308279569 0.2445897244070506 0 -0.2134433585275177 0.2488817309476401 0 -0.22907600043325019 0.26208161108496009 0 -0.19894759686975139 0.27372391463636792 0 -0.2134433585275177 0.2488817309476401 0 -0.19894759686975139 0.27372391463636792 0 -0.2134433585275177 0.2488817309476401 0 -0.21454683454563639 0.28837661924370961 0 -0.22907600043325019 0.26208161108496009 0 -0.19894759686975139 0.27372391463636792 0 -0.19894759686975139 0.27372391463636792 0 -0.1880920862576643 0.24935709544323001 0 -0.2134433585275177 0.2488817309476401 0 -0.16963359331440289 0.26596073812896048 0 -0.1880920862576643 0.24935709544323001 0 -0.16220060790479271 0.24142802178289791 0 -0.19894759686975139 0.27372391463636792 0 -0.16963359331440289 0.26596073812896048 0 -0.1880920862576643 0.24935709544323001 0 -0.16963359331440289 0.26596073812896048 0 -0.1413148982989588 0.26573472717748758 0 -0.16220060790479271 0.24142802178289791 0 -0.19894759686975139 0.27372391463636792 0 -0.16963359331440289 0.26596073812896048 0 -0.1791153749666268 0.2880651546369879 0 -0.19797479101911211 0.30190183260148429 0 -0.1791153749666268 0.2880651546369879 0 -0.17535275484556881 0.3099030426574545 0 -0.1791153749666268 0.2880651546369879 0 -0.17535275484556881 0.3099030426574545 0 -0.15536186765930499 0.29311828192302958 0 -0.1522561240734536 0.31653418940715738 0 -0.17535275484556881 0.3099030426574545 0 -0.15536186765930499 0.29311828192302958 0 -0.16963359331440289 0.26596073812896048 0 -0.1791153749666268 0.2880651546369879 0 -0.15536186765930499 0.29311828192302958 0 -0.15536186765930499 0.29311828192302958 0 -0.12702912800343719 0.29921375519259807 0 -0.1413148982989588 0.26573472717748758 0 -0.15536186765930499 0.29311828192302958 0 -0.12702912800343719 0.29921375519259807 0 -0.1522561240734536 0.31653418940715738 0 -0.15536186765930499 0.29311828192302958 0 -0.12702912800343719 0.29921375519259807 0 -0.12702912800343719 0.29921375519259807 0 -0.1413148982989588 0.26573472717748758 0 -0.114100889036186 0.26981436798034891 0 -0.1413148982989588 0.26573472717748758 0 -0.114100889036186 0.26981436798034891 0 -0.1220364034615183 0.24876670335255061 0 -0.1413148982989588 0.26573472717748758 0 -0.14052236641094451 0.24226232528502961 0 -0.1220364034615183 0.24876670335255061 0 -0.16963359331440289 0.26596073812896048 0 -0.15536186765930499 0.29311828192302958 0 -0.1413148982989588 0.26573472717748758 0 -0.114100889036186 0.26981436798034891 0 -0.094462220189515334 0.28217229697763191 0 -0.1091063850137198 0.28966507061403401 0 -0.098077068894804262 0.26555617426331168 0 -0.114100889036186 0.26981436798034891 0 -0.094462220189515334 0.28217229697763191 0 -0.098077068894804262 0.26555617426331168 0 -0.082408894099152641 0.26292067050825718 0 -0.10133627225436299 0.2473173615870089 0 -0.098077068894804262 0.26555617426331168 0 -0.114100889036186 0.26981436798034891 0 -0.10133627225436299 0.2473173615870089 0 -0.114100889036186 0.26981436798034891 0 -0.10133627225436299 0.2473173615870089 0 -0.1220364034615183 0.24876670335255061 0 -0.12702912800343719 0.29921375519259807 0 -0.114100889036186 0.26981436798034891 0 -0.1091063850137198 0.28966507061403401 0 -0.12702912800343719 0.29921375519259807 0 -0.098696388347569497 0.30530922846216668 0 -0.1091063850137198 0.28966507061403401 0 -0.12702912800343719 0.29921375519259807 0 -0.098696388347569497 0.30530922846216668 0 -0.112514898847622 0.32365391889541911 0 -0.12702912800343719 0.29921375519259807 0 -0.098696388347569497 0.30530922846216668 0 -0.098696388347569497 0.30530922846216668 0 -0.094462220189515334 0.28217229697763191 0 -0.1091063850137198 0.28966507061403401 0 -0.098696388347569497 0.30530922846216668 0 -0.094462220189515334 0.28217229697763191 0 -0.080461656965338677 0.29533852996366178 0 -0.094462220189515334 0.28217229697763191 0 -0.080461656965338677 0.29533852996366178 0 -0.074692071291008313 0.2821941139907001 0 -0.098696388347569497 0.30530922846216668 0 -0.070363648691701808 0.31140470173173518 0 -0.080454491760641914 0.31636777988053322 0 -0.098696388347569497 0.30530922846216668 0 -0.070363648691701808 0.31140470173173518 0 -0.098696388347569497 0.30530922846216668 0 -0.080461656965338677 0.29533852996366178 0 -0.070363648691701808 0.31140470173173518 0 -0.070363648691701808 0.31140470173173518 0 -0.064093956306898459 0.29561230865607507 0 -0.054833688508594242 0.30811425118698282 0 -0.080461656965338677 0.29533852996366178 0 -0.070363648691701808 0.31140470173173518 0 -0.064093956306898459 0.29561230865607507 0 -0.080461656965338677 0.29533852996366178 0 -0.074692071291008313 0.2821941139907001 0 -0.064093956306898459 0.29561230865607507 0 -0.074692071291008313 0.2821941139907001 0 -0.064093956306898459 0.29561230865607507 0 -0.056244046462574152 0.28023270737031369 0 -0.074692071291008313 0.2821941139907001 0 -0.065804112304060317 0.26859586656054518 0 -0.082408894099152641 0.26292067050825718 0 -0.074692071291008313 0.2821941139907001 0 -0.065804112304060317 0.26859586656054518 0 -0.056244046462574152 0.28023270737031369 0 -0.098077068894804262 0.26555617426331168 0 -0.094462220189515334 0.28217229697763191 0 -0.082408894099152641 0.26292067050825718 0 -0.094462220189515334 0.28217229697763191 0 -0.074692071291008313 0.2821941139907001 0 -0.082408894099152641 0.26292067050825718 0 -0.065804112304060317 0.26859586656054518 0 -0.082408894099152641 0.26292067050825718 0 -0.064456175923423675 0.25274262974227701 0 -0.082408894099152641 0.26292067050825718 0 -0.064456175923423675 0.25274262974227701 0 -0.078871454327743368 0.23921318059647631 0 -0.064456175923423675 0.25274262974227701 0 -0.051219373744142808 0.26488921119117831 0 -0.04684503542576083 0.2472796280261409 0 -0.065804112304060317 0.26859586656054518 0 -0.064456175923423675 0.25274262974227701 0 -0.051219373744142808 0.26488921119117831 0 -0.051219373744142808 0.26488921119117831 0 -0.056244046462574152 0.28023270737031369 0 -0.033411960592601493 0.27571702419381178 0 -0.065804112304060317 0.26859586656054518 0 -0.051219373744142808 0.26488921119117831 0 -0.056244046462574152 0.28023270737031369 0 -0.051219373744142808 0.26488921119117831 0 -0.033411960592601493 0.27571702419381178 0 -0.02759182968480637 0.25216101633244958 0 -0.051219373744142808 0.26488921119117831 0 -0.02759182968480637 0.25216101633244958 0 -0.04684503542576083 0.2472796280261409 0 -0.02759182968480637 0.25216101633244958 0 -0.010933960125033681 0.26877488071614808 0 -0.033411960592601493 0.27571702419381178 0 -0.02759182968480637 0.25216101633244958 0 -0.010933960125033681 0.26877488071614808 0 -0.033411960592601493 0.27571702419381178 0 -0.010933960125033681 0.26877488071614808 0 -0.020665590504353369 0.28240288749662712 0 -0.010933960125033681 0.26877488071614808 0 -0.010450889115379379 0.29077428289474622 0 -0.020665590504353369 0.28240288749662712 0 -0.010933960125033681 0.26877488071614808 0 0.0057239094347390027 0.28538874509984657 0 -0.010933960125033681 0.26877488071614808 0 -0.008046288002600082 0.25349603705116308 0 0.0010090436344969431 0.26174925619796269 0 -0.02759182968480637 0.25216101633244958 0 -0.010933960125033681 0.26877488071614808 0 -0.008046288002600082 0.25349603705116308 0 -0.008046288002600082 0.25349603705116308 0 0.0045382271797346514 0.24835001733246331 0 0.0010090436344969431 0.26174925619796269 0 -0.01403184577808568 0.30664104366756839 0 -0.00050189098532957949 0.31325252054653158 0 0.0024909670065438399 0.30164501362312651 0 -0.01403184577808568 0.30664104366756839 0 -0.010450889115379379 0.29077428289474622 0 0.0024909670065438399 0.30164501362312651 0 -0.010450889115379379 0.29077428289474622 0 0.0057239094347390027 0.28538874509984657 0 0.0024909670065438399 0.30164501362312651 0 -0.010933960125033681 0.26877488071614808 0 -0.010450889115379379 0.29077428289474622 0 0.0057239094347390027 0.28538874509984657 0 -0.010450889115379379 0.29077428289474622 0 -0.026122490898900671 0.29342738046164518 0 -0.020665590504353369 0.28240288749662712 0 -0.033411960592601493 0.27571702419381178 0 -0.026122490898900671 0.29342738046164518 0 -0.020665590504353369 0.28240288749662712 0 -0.01403184577808568 0.30664104366756839 0 -0.010450889115379379 0.29077428289474622 0 -0.026122490898900671 0.29342738046164518 0 -0.01403184577808568 0.30664104366756839 0 -0.026122490898900671 0.29342738046164518 0 -0.0298766239966596 0.30452605769664742 0 -0.01403184577808568 0.30664104366756839 0 -0.0298766239966596 0.30452605769664742 0 -0.02472852735721685 0.31562415610034761 0 -0.046690030686925503 0.30985298618622831 0 -0.039208953529516671 0.31092038463177002 0 -0.046110022147731453 0.29260448054396682 0 -0.0298766239966596 0.30452605769664742 0 -0.039208953529516671 0.31092038463177002 0 -0.046110022147731453 0.29260448054396682 0 -0.0298766239966596 0.30452605769664742 0 -0.039208953529516671 0.31092038463177002 0 -0.02472852735721685 0.31562415610034761 0 -0.039208953529516671 0.31092038463177002 0 -0.046110022147731453 0.29260448054396682 0 -0.026122490898900671 0.29342738046164518 0 -0.0298766239966596 0.30452605769664742 0 -0.046110022147731453 0.29260448054396682 0 -0.056244046462574152 0.28023270737031369 0 -0.033411960592601493 0.27571702419381178 0 -0.046110022147731453 0.29260448054396682 0 -0.033411960592601493 0.27571702419381178 0 -0.026122490898900671 0.29342738046164518 0 -0.046110022147731453 0.29260448054396682 0 -0.064093956306898459 0.29561230865607507 0 -0.056244046462574152 0.28023270737031369 0 -0.046110022147731453 0.29260448054396682 0 -0.064093956306898459 0.29561230865607507 0 -0.046110022147731453 0.29260448054396682 0 -0.054833688508594242 0.30811425118698282 0 -0.070363648691701808 0.31140470173173518 0 -0.054833688508594242 0.30811425118698282 0 -0.042030909035834098 0.31750017500130379 0 -0.046690030686925503 0.30985298618622831 0 -0.046110022147731453 0.29260448054396682 0 -0.054833688508594242 0.30811425118698282 0 -0.046690030686925503 0.30985298618622831 0 -0.054833688508594242 0.30811425118698282 0 -0.042030909035834098 0.31750017500130379 0 -0.070363648691701808 0.31140470173173518 0 -0.042030909035834098 0.31750017500130379 0 -0.070363648691701808 0.31140470173173518 0 -0.056381188335967683 0.32280203430004978 0 -0.042030909035834098 0.31750017500130379 0 -0.061576077036375521 0.33469118766551792 0 -0.051376212626008479 0.34678002559518362 0 -0.066792350740795411 0.34462961813332299 0 -0.056381188335967683 0.32280203430004978 0 -0.061576077036375521 0.33469118766551792 0 -0.047094275536057592 0.33532801582145788 0 -0.061576077036375521 0.33469118766551792 0 -0.047094275536057592 0.33532801582145788 0 -0.051376212626008479 0.34678002559518362 0 -0.056381188335967683 0.32280203430004978 0 -0.047094275536057592 0.33532801582145788 0 -0.032307884911294729 0.32923628871957072 0 -0.047094275536057592 0.33532801582145788 0 -0.032307884911294729 0.32923628871957072 0 -0.037695776439038063 0.34504888496538411 0 -0.047094275536057592 0.33532801582145788 0 -0.037695776439038063 0.34504888496538411 0 -0.051376212626008479 0.34678002559518362 0 -0.056381188335967683 0.32280203430004978 0 -0.032307884911294729 0.32923628871957072 0 -0.042030909035834098 0.31750017500130379 0 -0.039208953529516671 0.31092038463177002 0 -0.032307884911294729 0.32923628871957072 0 -0.02472852735721685 0.31562415610034761 0 -0.039208953529516671 0.31092038463177002 0 -0.032307884911294729 0.32923628871957072 0 -0.056381188335967683 0.32280203430004978 0 -0.032307884911294729 0.32923628871957072 0 -0.039208953529516671 0.31092038463177002 0 -0.032307884911294729 0.32923628871957072 0 -0.042030909035834098 0.31750017500130379 0 -0.046690030686925503 0.30985298618622831 0 -0.039208953529516671 0.31092038463177002 0 -0.042030909035834098 0.31750017500130379 0 -0.032307884911294729 0.32923628871957072 0 -0.02472852735721685 0.31562415610034761 0 -0.011999235324555369 0.32079033789553962 0 -0.01403184577808568 0.30664104366756839 0 -0.02472852735721685 0.31562415610034761 0 -0.011999235324555369 0.32079033789553962 0 -0.032307884911294729 0.32923628871957072 0 -0.02346906577877602 0.35269511407503867 0 -0.032307884911294729 0.32923628871957072 0 -0.02346906577877602 0.35269511407503867 0 -0.037695776439038063 0.34504888496538411 0 -0.032307884911294729 0.32923628871957072 0 -0.007994453027009886 0.33573472409402882 0 -0.011999235324555369 0.32079033789553962 0 -0.032307884911294729 0.32923628871957072 0 -0.007994453027009886 0.33573472409402882 0 -0.02346906577877602 0.35269511407503867 0 -0.032307884911294729 0.32923628871957072 0 -0.007994453027009886 0.33573472409402882 0 -0.00050189098532957949 0.31325252054653158 0 -0.011999235324555369 0.32079033789553962 0 0.0075691901116045146 0.32425329424519089 0 -0.007994453027009886 0.33573472409402882 0 -0.011999235324555369 0.32079033789553962 0 0.0075691901116045146 0.32425329424519089 0 -0.01403184577808568 0.30664104366756839 0 -0.00050189098532957949 0.31325252054653158 0 -0.011999235324555369 0.32079033789553962 0 -0.006157272947328085 0.36539872564088949 0 -0.01463024664625022 0.37615393943050401 0 0.0066646140138976826 0.37890043479518071 0 -0.006157272947328085 0.36539872564088949 0 -0.02346906577877602 0.35269511407503867 0 -0.01463024664625022 0.37615393943050401 0 -0.006157272947328085 0.36539872564088949 0 -0.002678018864106531 0.35402100360714961 0 0.0080346143935874671 0.36298249558169648 0 -0.006157272947328085 0.36539872564088949 0 -0.002678018864106531 0.35402100360714961 0 -0.02346906577877602 0.35269511407503867 0 -0.007994453027009886 0.33573472409402882 0 -0.002678018864106531 0.35402100360714961 0 0.0066100953138861739 0.35047348315423421 0 -0.007994453027009886 0.33573472409402882 0 -0.002678018864106531 0.35402100360714961 0 -0.02346906577877602 0.35269511407503867 0 -0.02346906577877602 0.35269511407503867 0 -0.039210578592453679 0.36385699470004013 0 -0.01463024664625022 0.37615393943050401 0 -0.02346906577877602 0.35269511407503867 0 -0.01463024664625022 0.37615393943050401 0 -0.02346906577877602 0.35269511407503867 0 -0.039210578592453679 0.36385699470004013 0 -0.037695776439038063 0.34504888496538411 0 -0.039210578592453679 0.36385699470004013 0 -0.037695776439038063 0.34504888496538411 0 -0.051376212626008479 0.34678002559518362 0 -0.039210578592453679 0.36385699470004013 0 -0.051376212626008479 0.34678002559518362 0 -0.062780797984374734 0.35903061754809318 0 -0.051376212626008479 0.34678002559518362 0 -0.062780797984374734 0.35903061754809318 0 -0.066792350740795411 0.34462961813332299 0 -0.039210578592453679 0.36385699470004013 0 -0.062780797984374734 0.35903061754809318 0 -0.05436626390135274 0.37607808041848723 0 -0.07113199395233949 0.37381250877846423 0 -0.079739316477307823 0.36273737675060369 0 -0.062780797984374734 0.35903061754809318 0 -0.07113199395233949 0.37381250877846423 0 -0.062780797984374734 0.35903061754809318 0 -0.05436626390135274 0.37607808041848723 0 -0.083762567505471675 0.37424479861870119 0 -0.079739316477307823 0.36273737675060369 0 -0.091811310605225724 0.36550024338563492 0 -0.07113199395233949 0.37381250877846423 0 -0.083762567505471675 0.37424479861870119 0 -0.079739316477307823 0.36273737675060369 0 -0.079739316477307823 0.36273737675060369 0 -0.091811310605225724 0.36550024338563492 0 -0.092003827390788287 0.35173542764367649 0 -0.083762567505471675 0.37424479861870119 0 -0.091811310605225724 0.36550024338563492 0 -0.096839681032774044 0.37569314624489819 0 -0.079739316477307823 0.36273737675060369 0 -0.092003827390788287 0.35173542764367649 0 -0.076586885438340579 0.35157000431538438 0 -0.092003827390788287 0.35173542764367649 0 -0.076586885438340579 0.35157000431538438 0 -0.081370972336870268 0.34093489195511872 0 -0.079739316477307823 0.36273737675060369 0 -0.076586885438340579 0.35157000431538438 0 -0.062780797984374734 0.35903061754809318 0 -0.076586885438340579 0.35157000431538438 0 -0.066792350740795411 0.34462961813332299 0 -0.081370972336870268 0.34093489195511872 0 -0.076586885438340579 0.35157000431538438 0 -0.062780797984374734 0.35903061754809318 0 -0.066792350740795411 0.34462961813332299 0 -0.061576077036375521 0.33469118766551792 0 -0.066792350740795411 0.34462961813332299 0 -0.073012511823317264 0.33446461274267469 0 -0.061576077036375521 0.33469118766551792 0 -0.073012511823317264 0.33446461274267469 0 -0.070970625668834539 0.32734143310770558 0 -0.056381188335967683 0.32280203430004978 0 -0.061576077036375521 0.33469118766551792 0 -0.070970625668834539 0.32734143310770558 0 -0.073012511823317264 0.33446461274267469 0 -0.070970625668834539 0.32734143310770558 0 -0.083428859387870272 0.32838155094975241 0 -0.066792350740795411 0.34462961813332299 0 -0.073012511823317264 0.33446461274267469 0 -0.081370972336870268 0.34093489195511872 0 -0.070363648691701808 0.31140470173173518 0 -0.056381188335967683 0.32280203430004978 0 -0.080454491760641914 0.31636777988053322 0 -0.056381188335967683 0.32280203430004978 0 -0.080454491760641914 0.31636777988053322 0 -0.056381188335967683 0.32280203430004978 0 -0.070970625668834539 0.32734143310770558 0 -0.080454491760641914 0.31636777988053322 0 -0.098696388347569497 0.30530922846216668 0 -0.080454491760641914 0.31636777988053322 0 -0.094921893394074919 0.32077938078440987 0 -0.070970625668834539 0.32734143310770558 0 -0.080454491760641914 0.31636777988053322 0 -0.083428859387870272 0.32838155094975241 0 -0.080454491760641914 0.31636777988053322 0 -0.083428859387870272 0.32838155094975241 0 -0.094921893394074919 0.32077938078440987 0 -0.083428859387870272 0.32838155094975241 0 -0.096401399240109875 0.33482813794590133 0 -0.094921893394074919 0.32077938078440987 0 -0.092003827390788287 0.35173542764367649 0 -0.081370972336870268 0.34093489195511872 0 -0.096401399240109875 0.33482813794590133 0 -0.073012511823317264 0.33446461274267469 0 -0.081370972336870268 0.34093489195511872 0 -0.083428859387870272 0.32838155094975241 0 -0.081370972336870268 0.34093489195511872 0 -0.083428859387870272 0.32838155094975241 0 -0.096401399240109875 0.33482813794590133 0 -0.096401399240109875 0.33482813794590133 0 -0.112514898847622 0.32365391889541911 0 -0.1095638220103626 0.34539896860462238 0 -0.096401399240109875 0.33482813794590133 0 -0.094921893394074919 0.32077938078440987 0 -0.112514898847622 0.32365391889541911 0 -0.098696388347569497 0.30530922846216668 0 -0.094921893394074919 0.32077938078440987 0 -0.112514898847622 0.32365391889541911 0 -0.1329532730828015 0.32312507212851532 0 -0.12702912800343719 0.29921375519259807 0 -0.112514898847622 0.32365391889541911 0 -0.12724187384107591 0.34153941442150593 0 -0.112514898847622 0.32365391889541911 0 -0.1095638220103626 0.34539896860462238 0 -0.12724187384107591 0.34153941442150593 0 -0.1329532730828015 0.32312507212851532 0 -0.112514898847622 0.32365391889541911 0 -0.12724187384107591 0.34153941442150593 0 -0.1095638220103626 0.34539896860462238 0 -0.1227759050205442 0.36234084861879012 0 -0.1095638220103626 0.34539896860462238 0 -0.1227759050205442 0.36234084861879012 0 -0.1040618715525326 0.36290413368004998 0 -0.1227759050205442 0.36234084861879012 0 -0.1040618715525326 0.36290413368004998 0 -0.11137668325550069 0.37675616758267799 0 -0.12707611240794031 0.38474952093064302 0 -0.1227759050205442 0.36234084861879012 0 -0.11137668325550069 0.37675616758267799 0 -0.1040618715525326 0.36290413368004998 0 -0.096839681032774044 0.37569314624489819 0 -0.11137668325550069 0.37675616758267799 0 -0.091811310605225724 0.36550024338563492 0 -0.1040618715525326 0.36290413368004998 0 -0.096839681032774044 0.37569314624489819 0 -0.091811310605225724 0.36550024338563492 0 -0.092003827390788287 0.35173542764367649 0 -0.1040618715525326 0.36290413368004998 0 -0.092003827390788287 0.35173542764367649 0 -0.1095638220103626 0.34539896860462238 0 -0.1040618715525326 0.36290413368004998 0 -0.092003827390788287 0.35173542764367649 0 -0.096401399240109875 0.33482813794590133 0 -0.1095638220103626 0.34539896860462238 0 -0.10908089252747639 0.39844244988198679 0 -0.1006376715548407 0.38949791218853153 0 -0.1148220416468468 0.38875771591914671 0 -0.10908089252747639 0.39844244988198679 0 -0.099044774575431177 0.4035841636915275 0 -0.1006376715548407 0.38949791218853153 0 -0.10908089252747639 0.39844244988198679 0 -0.099044774575431177 0.4035841636915275 0 -0.1107402777978885 0.40923490269478302 0 -0.099044774575431177 0.4035841636915275 0 -0.1006376715548407 0.38949791218853153 0 -0.08824016500622163 0.39809263087964919 0 -0.1006376715548407 0.38949791218853153 0 -0.096839681032774044 0.37569314624489819 0 -0.086752794166942343 0.3857588383073301 0 -0.1006376715548407 0.38949791218853153 0 -0.096839681032774044 0.37569314624489819 0 -0.11137668325550069 0.37675616758267799 0 -0.1006376715548407 0.38949791218853153 0 -0.1148220416468468 0.38875771591914671 0 -0.11137668325550069 0.37675616758267799 0 -0.12707611240794031 0.38474952093064302 0 -0.1148220416468468 0.38875771591914671 0 -0.11137668325550069 0.37675616758267799 0 -0.12707611240794031 0.38474952093064302 0 -0.1148220416468468 0.38875771591914671 0 -0.1195231778275479 0.39972011802218133 0 -0.10908089252747639 0.39844244988198679 0 -0.1148220416468468 0.38875771591914671 0 -0.1195231778275479 0.39972011802218133 0 -0.10908089252747639 0.39844244988198679 0 -0.1195231778275479 0.39972011802218133 0 -0.1107402777978885 0.40923490269478302 0 -0.1195231778275479 0.39972011802218133 0 -0.1234940854299074 0.41374093347312352 0 -0.1107402777978885 0.40923490269478302 0 -0.1258289512882301 0.42630771176284238 0 -0.1234940854299074 0.41374093347312352 0 -0.1146022883698728 0.42461561855269042 0 -0.1234940854299074 0.41374093347312352 0 -0.1107402777978885 0.40923490269478302 0 -0.1146022883698728 0.42461561855269042 0 -0.1146022883698728 0.42461561855269042 0 -0.1048607408650752 0.44225806696870917 0 -0.1197692222482912 0.43794358840682007 0 -0.1258289512882301 0.42630771176284238 0 -0.1146022883698728 0.42461561855269042 0 -0.1197692222482912 0.43794358840682007 0 -0.1146022883698728 0.42461561855269042 0 -0.1015566602396925 0.42791018504017292 0 -0.1048607408650752 0.44225806696870917 0 -0.1146022883698728 0.42461561855269042 0 -0.1015566602396925 0.42791018504017292 0 -0.1007569497614012 0.41657394771895162 0 -0.1015566602396925 0.42791018504017292 0 -0.091311603519476564 0.4361020787740762 0 -0.090288044973839215 0.42299373659330919 0 -0.1015566602396925 0.42791018504017292 0 -0.1007569497614012 0.41657394771895162 0 -0.090288044973839215 0.42299373659330919 0 -0.1015566602396925 0.42791018504017292 0 -0.091311603519476564 0.4361020787740762 0 -0.1048607408650752 0.44225806696870917 0 -0.099044774575431177 0.4035841636915275 0 -0.1107402777978885 0.40923490269478302 0 -0.1007569497614012 0.41657394771895162 0 -0.1107402777978885 0.40923490269478302 0 -0.1146022883698728 0.42461561855269042 0 -0.1007569497614012 0.41657394771895162 0 -0.099044774575431177 0.4035841636915275 0 -0.1007569497614012 0.41657394771895162 0 -0.088309652611682998 0.4111050797412269 0 -0.1007569497614012 0.41657394771895162 0 -0.088309652611682998 0.4111050797412269 0 -0.090288044973839215 0.42299373659330919 0 -0.088309652611682998 0.4111050797412269 0 -0.090288044973839215 0.42299373659330919 0 -0.076780477402688868 0.41929570699262142 0 -0.088309652611682998 0.4111050797412269 0 -0.076780477402688868 0.41929570699262142 0 -0.075618647121346028 0.40624610460682492 0 -0.091311603519476564 0.4361020787740762 0 -0.090288044973839215 0.42299373659330919 0 -0.079682582895300613 0.43150100737268993 0 -0.090288044973839215 0.42299373659330919 0 -0.079682582895300613 0.43150100737268993 0 -0.076780477402688868 0.41929570699262142 0 -0.091311603519476564 0.4361020787740762 0 -0.079682582895300613 0.43150100737268993 0 -0.082073018960252708 0.44174104800134861 0 -0.079682582895300613 0.43150100737268993 0 -0.064703088690729327 0.42974923170908341 0 -0.071514003204782836 0.44121406265653068 0 -0.079682582895300613 0.43150100737268993 0 -0.064703088690729327 0.42974923170908341 0 -0.076780477402688868 0.41929570699262142 0 -0.076780477402688868 0.41929570699262142 0 -0.075618647121346028 0.40624610460682492 0 -0.061935456323217099 0.41439447991086531 0 -0.064703088690729327 0.42974923170908341 0 -0.076780477402688868 0.41929570699262142 0 -0.061935456323217099 0.41439447991086531 0 -0.075618647121346028 0.40624610460682492 0 -0.062169417081901233 0.40013018426487568 0 -0.061935456323217099 0.41439447991086531 0 -0.077264316749650341 0.39263572557358067 0 -0.065583598402322085 0.38616447097430712 0 -0.062169417081901233 0.40013018426487568 0 -0.077264316749650341 0.39263572557358067 0 -0.075618647121346028 0.40624610460682492 0 -0.062169417081901233 0.40013018426487568 0 -0.077264316749650341 0.39263572557358067 0 -0.075618647121346028 0.40624610460682492 0 -0.08824016500622163 0.39809263087964919 0 -0.088309652611682998 0.4111050797412269 0 -0.075618647121346028 0.40624610460682492 0 -0.08824016500622163 0.39809263087964919 0 -0.077264316749650341 0.39263572557358067 0 -0.08824016500622163 0.39809263087964919 0 -0.086752794166942343 0.3857588383073301 0 -0.1006376715548407 0.38949791218853153 0 -0.08824016500622163 0.39809263087964919 0 -0.086752794166942343 0.3857588383073301 0 -0.099044774575431177 0.4035841636915275 0 -0.088309652611682998 0.4111050797412269 0 -0.08824016500622163 0.39809263087964919 0 -0.083762567505471675 0.37424479861870119 0 -0.096839681032774044 0.37569314624489819 0 -0.086752794166942343 0.3857588383073301 0 -0.077264316749650341 0.39263572557358067 0 -0.086752794166942343 0.3857588383073301 0 -0.076727984053315323 0.3823642426775623 0 -0.083762567505471675 0.37424479861870119 0 -0.086752794166942343 0.3857588383073301 0 -0.076727984053315323 0.3823642426775623 0 -0.07113199395233949 0.37381250877846423 0 -0.065583598402322085 0.38616447097430712 0 -0.05436626390135274 0.37607808041848723 0 -0.07113199395233949 0.37381250877846423 0 -0.076727984053315323 0.3823642426775623 0 -0.065583598402322085 0.38616447097430712 0 -0.07113199395233949 0.37381250877846423 0 -0.083762567505471675 0.37424479861870119 0 -0.076727984053315323 0.3823642426775623 0 -0.077264316749650341 0.39263572557358067 0 -0.076727984053315323 0.3823642426775623 0 -0.065583598402322085 0.38616447097430712 0 -0.05436626390135274 0.37607808041848723 0 -0.052300387247909808 0.39194066380666043 0 -0.034684925709519809 0.38888517821625479 0 -0.065583598402322085 0.38616447097430712 0 -0.05436626390135274 0.37607808041848723 0 -0.052300387247909808 0.39194066380666043 0 -0.065583598402322085 0.38616447097430712 0 -0.062169417081901233 0.40013018426487568 0 -0.052300387247909808 0.39194066380666043 0 -0.062169417081901233 0.40013018426487568 0 -0.052300387247909808 0.39194066380666043 0 -0.047358532592855253 0.40569870617985249 0 -0.052300387247909808 0.39194066380666043 0 -0.047358532592855253 0.40569870617985249 0 -0.034684925709519809 0.38888517821625479 0 -0.047358532592855253 0.40569870617985249 0 -0.034684925709519809 0.38888517821625479 0 -0.028611030586310961 0.40943987666918191 0 -0.039210578592453679 0.36385699470004013 0 -0.05436626390135274 0.37607808041848723 0 -0.034684925709519809 0.38888517821625479 0 -0.034684925709519809 0.38888517821625479 0 -0.0057914275137243738 0.39961276478596952 0 -0.01463024664625022 0.37615393943050401 0 -0.039210578592453679 0.36385699470004013 0 -0.034684925709519809 0.38888517821625479 0 -0.01463024664625022 0.37615393943050401 0 -0.034684925709519809 0.38888517821625479 0 -0.0057914275137243738 0.39961276478596952 0 -0.028611030586310961 0.40943987666918191 0 -0.0057914275137243738 0.39961276478596952 0 -0.01463024664625022 0.37615393943050401 0 0.0066646140138976826 0.37890043479518071 0 -0.0057914275137243738 0.39961276478596952 0 -0.01463024664625022 0.37615393943050401 0 -0.0078207941712278399 0.41783992013748927 0 -0.02400096163751413 0.42640098008055177 0 -0.010871097054681341 0.43939195824832761 0 -0.0078207941712278399 0.41783992013748927 0 -0.010871097054681341 0.43939195824832761 0 0.0059266622001771848 0.42944970542445959 0 -0.0057914275137243738 0.39961276478596952 0 -0.0078207941712278399 0.41783992013748927 0 -0.028611030586310961 0.40943987666918191 0 -0.0078207941712278399 0.41783992013748927 0 -0.028611030586310961 0.40943987666918191 0 -0.02400096163751413 0.42640098008055177 0 -0.02400096163751413 0.42640098008055177 0 -0.03016058961300009 0.44098996421006992 0 -0.010871097054681341 0.43939195824832761 0 -0.02400096163751413 0.42640098008055177 0 -0.044186888371700719 0.42910248724367578 0 -0.03016058961300009 0.44098996421006992 0 -0.028611030586310961 0.40943987666918191 0 -0.02400096163751413 0.42640098008055177 0 -0.044186888371700719 0.42910248724367578 0 -0.047358532592855253 0.40569870617985249 0 -0.028611030586310961 0.40943987666918191 0 -0.044186888371700719 0.42910248724367578 0 -0.047358532592855253 0.40569870617985249 0 -0.044186888371700719 0.42910248724367578 0 -0.061935456323217099 0.41439447991086531 0 -0.062169417081901233 0.40013018426487568 0 -0.047358532592855253 0.40569870617985249 0 -0.061935456323217099 0.41439447991086531 0 -0.064703088690729327 0.42974923170908341 0 -0.044186888371700719 0.42910248724367578 0 -0.061935456323217099 0.41439447991086531 0 -0.064703088690729327 0.42974923170908341 0 -0.044186888371700719 0.42910248724367578 0 -0.056981146312290558 0.4422753072734551 0 -0.044186888371700719 0.42910248724367578 0 -0.056981146312290558 0.4422753072734551 0 -0.044626205790683271 0.45455801359423392 0 -0.056981146312290558 0.4422753072734551 0 -0.044626205790683271 0.45455801359423392 0 -0.069013179885635906 0.45361034622332719 0 -0.044626205790683271 0.45455801359423392 0 -0.069013179885635906 0.45361034622332719 0 -0.057250496928078147 0.46517035687696562 0 -0.044626205790683271 0.45455801359423392 0 -0.069013179885635906 0.45361034622332719 0 -0.057250496928078147 0.46517035687696562 0 -0.044626205790683271 0.45455801359423392 0 -0.040116809401975491 0.47790503146242769 0 -0.044626205790683271 0.45455801359423392 0 -0.02023923169573064 0.45550568096514071 0 -0.044626205790683271 0.45455801359423392 0 -0.02023923169573064 0.45550568096514071 0 -0.040116809401975491 0.47790503146242769 0 -0.044626205790683271 0.45455801359423392 0 -0.03016058961300009 0.44098996421006992 0 -0.02023923169573064 0.45550568096514071 0 -0.044186888371700719 0.42910248724367578 0 -0.044626205790683271 0.45455801359423392 0 -0.03016058961300009 0.44098996421006992 0 -0.03016058961300009 0.44098996421006992 0 -0.02023923169573064 0.45550568096514071 0 -0.010871097054681341 0.43939195824832761 0 -0.02023923169573064 0.45550568096514071 0 -0.0089296983121032372 0.47872690024516901 0 0.0041477423992220923 0.45645334833604739 0 -0.02023923169573064 0.45550568096514071 0 0.0041477423992220923 0.45645334833604739 0 -0.010871097054681341 0.43939195824832761 0 0.0041477423992220923 0.45645334833604739 0 0.0059266622001771848 0.42944970542445959 0 -0.02023923169573064 0.45550568096514071 0 -0.010871097054681341 0.43939195824832761 0 0.0041477423992220923 0.45645334833604739 0 -0.0089296983121032372 0.47872690024516901 0 -0.023578445597367988 0.5 0 0.0063519212123143154 0.5 0 -0.02023923169573064 0.45550568096514071 0 -0.0089296983121032372 0.47872690024516901 0 -0.040116809401975491 0.47790503146242769 0 -0.0089296983121032372 0.47872690024516901 0 -0.023578445597367988 0.5 0 -0.040116809401975491 0.47790503146242769 0 -0.023578445597367988 0.5 0 -0.040116809401975491 0.47790503146242769 0 -0.05350881240705041 0.5 0 -0.057250496928078147 0.46517035687696562 0 -0.040116809401975491 0.47790503146242769 0 -0.060370290941648579 0.48006472395853272 0 -0.040116809401975491 0.47790503146242769 0 -0.060370290941648579 0.48006472395853272 0 -0.05350881240705041 0.5 0 -0.05350881240705041 0.5 0 -0.074979184079320069 0.48626909801408558 0 -0.083439179216732717 0.5 0 -0.060370290941648579 0.48006472395853272 0 -0.05350881240705041 0.5 0 -0.074979184079320069 0.48626909801408558 0 -0.074979184079320069 0.48626909801408558 0 -0.083439179216732717 0.5 0 -0.08489376527491635 0.49359540219005371 0 -0.08489376527491635 0.49359540219005371 0 -0.10092750218601131 0.4757306866785902 0 -0.083439179216732717 0.5 0 -0.08489376527491635 0.49359540219005371 0 -0.09932764508269297 0.49067051397220007 0 -0.074979184079320069 0.48626909801408558 0 -0.08489376527491635 0.49359540219005371 0 -0.08628722863695415 0.48244571386219948 0 -0.084348463007568958 0.4741876685660687 0 -0.091182188599374825 0.46748106018226993 0 -0.10092750218601131 0.4757306866785902 0 -0.08628722863695415 0.48244571386219948 0 -0.084348463007568958 0.4741876685660687 0 -0.10092750218601131 0.4757306866785902 0 -0.08489376527491635 0.49359540219005371 0 -0.08628722863695415 0.48244571386219948 0 -0.10092750218601131 0.4757306866785902 0 -0.074979184079320069 0.48626909801408558 0 -0.08628722863695415 0.48244571386219948 0 -0.084348463007568958 0.4741876685660687 0 -0.060370290941648579 0.48006472395853272 0 -0.074979184079320069 0.48626909801408558 0 -0.071101621324304864 0.47000291003992528 0 -0.074979184079320069 0.48626909801408558 0 -0.084348463007568958 0.4741876685660687 0 -0.071101621324304864 0.47000291003992528 0 -0.057250496928078147 0.46517035687696562 0 -0.060370290941648579 0.48006472395853272 0 -0.071101621324304864 0.47000291003992528 0 -0.057250496928078147 0.46517035687696562 0 -0.071101621324304864 0.47000291003992528 0 -0.069013179885635906 0.45361034622332719 0 -0.071101621324304864 0.47000291003992528 0 -0.069013179885635906 0.45361034622332719 0 -0.080648113103577571 0.46071526660057199 0 -0.069013179885635906 0.45361034622332719 0 -0.078922032424734542 0.45046280141001799 0 -0.080648113103577571 0.46071526660057199 0 -0.064703088690729327 0.42974923170908341 0 -0.056981146312290558 0.4422753072734551 0 -0.071514003204782836 0.44121406265653068 0 -0.056981146312290558 0.4422753072734551 0 -0.069013179885635906 0.45361034622332719 0 -0.071514003204782836 0.44121406265653068 0 -0.069013179885635906 0.45361034622332719 0 -0.071514003204782836 0.44121406265653068 0 -0.078922032424734542 0.45046280141001799 0 -0.071514003204782836 0.44121406265653068 0 -0.082073018960252708 0.44174104800134861 0 -0.078922032424734542 0.45046280141001799 0 -0.079682582895300613 0.43150100737268993 0 -0.071514003204782836 0.44121406265653068 0 -0.082073018960252708 0.44174104800134861 0 -0.082073018960252708 0.44174104800134861 0 -0.078922032424734542 0.45046280141001799 0 -0.089408573182699305 0.45020842866822758 0 -0.091311603519476564 0.4361020787740762 0 -0.082073018960252708 0.44174104800134861 0 -0.089408573182699305 0.45020842866822758 0 -0.080648113103577571 0.46071526660057199 0 -0.098804676100341521 0.45929061888384848 0 -0.089408573182699305 0.45020842866822758 0 -0.080648113103577571 0.46071526660057199 0 -0.098804676100341521 0.45929061888384848 0 -0.080648113103577571 0.46071526660057199 0 -0.091182188599374825 0.46748106018226993 0 -0.098804676100341521 0.45929061888384848 0 -0.084348463007568958 0.4741876685660687 0 -0.071101621324304864 0.47000291003992528 0 -0.080648113103577571 0.46071526660057199 0 -0.084348463007568958 0.4741876685660687 0 -0.080648113103577571 0.46071526660057199 0 -0.091182188599374825 0.46748106018226993 0 -0.078922032424734542 0.45046280141001799 0 -0.089408573182699305 0.45020842866822758 0 -0.080648113103577571 0.46071526660057199 0 -0.091182188599374825 0.46748106018226993 0 -0.098804676100341521 0.45929061888384848 0 -0.10092750218601131 0.4757306866785902 0 -0.098804676100341521 0.45929061888384848 0 -0.1169612390971056 0.45786597116712607 0 -0.098804676100341521 0.45929061888384848 0 -0.1169612390971056 0.45786597116712607 0 -0.10092750218601131 0.4757306866785902 0 -0.1169612390971056 0.45786597116712607 0 -0.10092750218601131 0.4757306866785902 0 -0.098804676100341521 0.45929061888384848 0 -0.1048607408650752 0.44225806696870917 0 -0.1169612390971056 0.45786597116712607 0 -0.089408573182699305 0.45020842866822758 0 -0.098804676100341521 0.45929061888384848 0 -0.1048607408650752 0.44225806696870917 0 -0.091311603519476564 0.4361020787740762 0 -0.089408573182699305 0.45020842866822758 0 -0.1048607408650752 0.44225806696870917 0 -0.13538690313785101 0.43733618151029802 0 -0.1197692222482912 0.43794358840682007 0 -0.1169612390971056 0.45786597116712607 0 -0.1048607408650752 0.44225806696870917 0 -0.1197692222482912 0.43794358840682007 0 -0.1169612390971056 0.45786597116712607 0 -0.12888469971959779 0.47971180329689278 0 -0.1169612390971056 0.45786597116712607 0 -0.1140082327093894 0.48402648099235629 0 -0.1169612390971056 0.45786597116712607 0 -0.1140082327093894 0.48402648099235629 0 -0.10092750218601131 0.4757306866785902 0 -0.12888469971959779 0.47971180329689278 0 -0.1140082327093894 0.48402648099235629 0 -0.113369546026415 0.5 0 -0.1140082327093894 0.48402648099235629 0 -0.113369546026415 0.5 0 -0.09932764508269297 0.49067051397220007 0 -0.083439179216732717 0.5 0 -0.113369546026415 0.5 0 -0.09932764508269297 0.49067051397220007 0 -0.08489376527491635 0.49359540219005371 0 -0.09932764508269297 0.49067051397220007 0 -0.10092750218601131 0.4757306866785902 0 -0.1140082327093894 0.48402648099235629 0 -0.09932764508269297 0.49067051397220007 0 -0.10092750218601131 0.4757306866785902 0 -0.1710508590481212 0.084634222747739116 0 -0.15711741483592581 0.086756498666766685 0 -0.16203820944039299 0.1004709417218229 0 -0.1710508590481212 0.084634222747739116 0 -0.15711741483592581 0.086756498666766685 0 -0.16064011853233881 0.072963775879728202 0 -0.1710508590481212 0.084634222747739116 0 -0.1626445009794911 0.061455774402915907 0 -0.16064011853233881 0.072963775879728202 0 -0.15095657526390291 0.054610543010916543 0 -0.1626445009794911 0.061455774402915907 0 -0.1710508590481212 0.084634222747739116 0 -0.16064011853233881 0.072963775879728202 0 -0.1626445009794911 0.061455774402915907 0 -0.1710508590481212 0.084634222747739116 0 -0.1743372790445272 0.07086779401999635 0 -0.1626445009794911 0.061455774402915907 0 -0.1743372790445272 0.07086779401999635 0 -0.1626445009794911 0.061455774402915907 0 -0.17357998631056731 0.058288918577813167 0 -0.1743372790445272 0.07086779401999635 0 -0.178955319683854 0.065916609875646293 0 -0.17357998631056731 0.058288918577813167 0 -0.1743372790445272 0.07086779401999635 0 -0.178955319683854 0.065916609875646293 0 -0.18319621000622169 0.071409262599102935 0 -0.1847078033740997 0.06310046430567269 0 -0.18319621000622169 0.071409262599102935 0 -0.18811603212713821 0.064954886086494301 0 -0.178955319683854 0.065916609875646293 0 -0.1847078033740997 0.06310046430567269 0 -0.18319621000622169 0.071409262599102935 0 -0.1847078033740997 0.06310046430567269 0 -0.18811603212713821 0.064954886086494301 0 -0.18319621000622169 0.071409262599102935 0 -0.18160587096577019 0.081867743158946599 0 -0.1951507411018627 0.080383838031149304 0 -0.1743372790445272 0.07086779401999635 0 -0.18319621000622169 0.071409262599102935 0 -0.18160587096577019 0.081867743158946599 0 -0.18160587096577019 0.081867743158946599 0 -0.18515632787084349 0.092078186721145622 0 -0.1951507411018627 0.080383838031149304 0 -0.1710508590481212 0.084634222747739116 0 -0.1743372790445272 0.07086779401999635 0 -0.18160587096577019 0.081867743158946599 0 -0.1710508590481212 0.084634222747739116 0 -0.18160587096577019 0.081867743158946599 0 -0.18515632787084349 0.092078186721145622 0 -0.1710508590481212 0.084634222747739116 0 -0.18515632787084349 0.092078186721145622 0 -0.17945721711675 0.10781267109256271 0 -0.1710508590481212 0.084634222747739116 0 -0.17945721711675 0.10781267109256271 0 -0.17945721711675 0.10781267109256271 0 -0.18560702422555089 0.1247692395896698 0 -0.16109247793975509 0.11750874765309501 0 -0.17945721711675 0.10781267109256271 0 -0.18560702422555089 0.1247692395896698 0 -0.1960533151906948 0.11410892553353499 0 -0.17945721711675 0.10781267109256271 0 -0.18560702422555089 0.1247692395896698 0 -0.17945721711675 0.10781267109256271 0 -0.16109247793975509 0.11750874765309501 0 -0.1710508590481212 0.084634222747739116 0 -0.17945721711675 0.10781267109256271 0 -0.16203820944039299 0.1004709417218229 0 -0.17945721711675 0.10781267109256271 0 -0.16109247793975509 0.11750874765309501 0 -0.16203820944039299 0.1004709417218229 0 -0.16203820944039299 0.1004709417218229 0 -0.1472644651117887 0.095374389975430768 0 -0.14553984492324759 0.111838384082874 0 -0.15711741483592581 0.086756498666766685 0 -0.16203820944039299 0.1004709417218229 0 -0.1472644651117887 0.095374389975430768 0 -0.1472644651117887 0.095374389975430768 0 -0.14553984492324759 0.111838384082874 0 -0.13484896961326059 0.1023961790650271 0 -0.16109247793975509 0.11750874765309501 0 -0.16203820944039299 0.1004709417218229 0 -0.14553984492324759 0.111838384082874 0 -0.16109247793975509 0.11750874765309501 0 -0.14553984492324759 0.111838384082874 0 -0.14345187056266831 0.13822644281286919 0 -0.14553984492324759 0.111838384082874 0 -0.13030701237969111 0.1183189881800716 0 -0.14345187056266831 0.13822644281286919 0 -0.14553984492324759 0.111838384082874 0 -0.13030701237969111 0.1183189881800716 0 -0.13484896961326059 0.1023961790650271 0 -0.13484896961326059 0.1023961790650271 0 -0.13137283095652999 0.088562650573281859 0 -0.1171621541967139 0.09841153354727393 0 -0.13030701237969111 0.1183189881800716 0 -0.13484896961326059 0.1023961790650271 0 -0.1171621541967139 0.09841153354727393 0 -0.1472644651117887 0.095374389975430768 0 -0.13484896961326059 0.1023961790650271 0 -0.13137283095652999 0.088562650573281859 0 -0.13137283095652999 0.088562650573281859 0 -0.1344257414228178 0.068751474641496668 0 -0.119445990880807 0.077745327897652761 0 -0.13137283095652999 0.088562650573281859 0 -0.14551316500218689 0.082147963215847747 0 -0.1344257414228178 0.068751474641496668 0 -0.1472644651117887 0.095374389975430768 0 -0.13137283095652999 0.088562650573281859 0 -0.14551316500218689 0.082147963215847747 0 -0.15711741483592581 0.086756498666766685 0 -0.16064011853233881 0.072963775879728202 0 -0.14551316500218689 0.082147963215847747 0 -0.15711741483592581 0.086756498666766685 0 -0.1472644651117887 0.095374389975430768 0 -0.14551316500218689 0.082147963215847747 0 -0.16064011853233881 0.072963775879728202 0 -0.1344257414228178 0.068751474641496668 0 -0.16064011853233881 0.072963775879728202 0 -0.1344257414228178 0.068751474641496668 0 -0.15095657526390291 0.054610543010916543 0 -0.16064011853233881 0.072963775879728202 0 -0.14551316500218689 0.082147963215847747 0 -0.1344257414228178 0.068751474641496668 0 -0.1344257414228178 0.068751474641496668 0 -0.13981641068899131 0.050058862843923822 0 -0.12541474214403969 0.048678870788031348 0 -0.13750243999965889 0.041584035324956962 0 -0.1496173780526992 0.034808846168798653 0 -0.12307131578382211 0.030877958184838138 0 -0.1496173780526992 0.034808846168798653 0 -0.12307131578382211 0.030877958184838138 0 -0.12541474214403969 0.048678870788031348 0 -0.13750243999965889 0.041584035324956962 0 -0.12307131578382211 0.030877958184838138 0 -0.13981641068899131 0.050058862843923822 0 -0.12541474214403969 0.048678870788031348 0 -0.13750243999965889 0.041584035324956962 0 -0.14642618938322269 0.04386792268133774 0 -0.15423814291086099 0.038277326058092712 0 -0.15095657526390291 0.054610543010916543 0 -0.13981641068899131 0.050058862843923822 0 -0.13750243999965889 0.041584035324956962 0 -0.14642618938322269 0.04386792268133774 0 -0.13750243999965889 0.041584035324956962 0 -0.14642618938322269 0.04386792268133774 0 -0.1496173780526992 0.034808846168798653 0 -0.14642618938322269 0.04386792268133774 0 -0.15423814291086099 0.038277326058092712 0 -0.1496173780526992 0.034808846168798653 0 -0.15423814291086099 0.038277326058092712 0 -0.15095657526390291 0.054610543010916543 0 -0.1626445009794911 0.061455774402915907 0 -0.1344257414228178 0.068751474641496668 0 -0.13981641068899131 0.050058862843923822 0 -0.15095657526390291 0.054610543010916543 0 -0.13981641068899131 0.050058862843923822 0 -0.14642618938322269 0.04386792268133774 0 -0.15095657526390291 0.054610543010916543 0 -0.1347663824234358 -0.0086191370543814583 0 -0.1311301806726248 0.01110515099811266 0 -0.1439977160762819 0.0070061740910900639 0 -0.1347663824234358 -0.0086191370543814583 0 -0.1311301806726248 0.01110515099811266 0 -0.118526810679334 0.0084000441138782373 0 -0.1311301806726248 0.01110515099811266 0 -0.1374936136227364 0.022315381126542289 0 -0.1439977160762819 0.0070061740910900639 0 -0.1311301806726248 0.01110515099811266 0 -0.1374936136227364 0.022315381126542289 0 -0.1201895313796558 0.017482451284870699 0 -0.1496173780526992 0.034808846168798653 0 -0.1374936136227364 0.022315381126542289 0 -0.12307131578382211 0.030877958184838138 0 -0.1374936136227364 0.022315381126542289 0 -0.16503112386245311 0.01432366004116583 0 -0.1496173780526992 0.034808846168798653 0 -0.1374936136227364 0.022315381126542289 0 -0.16503112386245311 0.01432366004116583 0 -0.1347663824234358 -0.0086191370543814583 0 -0.1439977160762819 0.0070061740910900639 0 -0.15969314871028401 0.0026160880008064958 0 -0.1439977160762819 0.0070061740910900639 0 -0.15969314871028401 0.0026160880008064958 0 -0.16503112386245311 0.01432366004116583 0 -0.1374936136227364 0.022315381126542289 0 -0.1439977160762819 0.0070061740910900639 0 -0.16503112386245311 0.01432366004116583 0 -0.15969314871028401 0.0026160880008064958 0 -0.17571718704545489 0.009838592312709081 0 -0.1711376540497144 -0.0013880640890970521 0 -0.15969314871028401 0.0026160880008064958 0 -0.17571718704545489 0.009838592312709081 0 -0.15969314871028401 0.0026160880008064958 0 -0.17172278360274729 0.011300019939630739 0 -0.17571718704545489 0.009838592312709081 0 -0.15969314871028401 0.0026160880008064958 0 -0.16503112386245311 0.01432366004116583 0 -0.16503112386245311 0.01432366004116583 0 -0.17758486741487969 0.01068041066332266 0 -0.16503112386245311 0.01432366004116583 0 -0.17172278360274729 0.011300019939630739 0 -0.17758486741487969 0.01068041066332266 0 -0.15969314871028401 0.0026160880008064958 0 -0.16503112386245311 0.01432366004116583 0 -0.17172278360274729 0.011300019939630739 0 -0.1496173780526992 0.034808846168798653 0 -0.16503112386245311 0.01432366004116583 0 -0.1761634403215761 0.038739734152760448 0 -0.16503112386245311 0.01432366004116583 0 -0.1761634403215761 0.038739734152760448 0 -0.16503112386245311 0.01432366004116583 0 -0.18449948490445039 0.025373848676960329 0 -0.17758486741487969 0.01068041066332266 0 -0.16503112386245311 0.01432366004116583 0 -0.18449948490445039 0.025373848676960329 0 -0.1761634403215761 0.038739734152760448 0 -0.18449948490445039 0.025373848676960329 0 -0.17758486741487969 0.01068041066332266 0 -0.1984203355819667 0.020071567594533449 0 -0.17571718704545489 0.009838592312709081 0 -0.18265227592653671 1.922431750578952e-05 0 -0.19709117593895281 0.0020185164704496542 0 -0.17571718704545489 0.009838592312709081 0 -0.19709117593895281 0.0020185164704496542 0 -0.17571718704545489 0.009838592312709081 0 -0.17758486741487969 0.01068041066332266 0 -0.19709117593895281 0.0020185164704496542 0 -0.17172278360274729 0.011300019939630739 0 -0.17571718704545489 0.009838592312709081 0 -0.17172278360274729 0.011300019939630739 0 -0.17571718704545489 0.009838592312709081 0 -0.17758486741487969 0.01068041066332266 0 -0.17571718704545489 0.009838592312709081 0 -0.17758486741487969 0.01068041066332266 0 -0.1711376540497144 -0.0013880640890970521 0 -0.17571718704545489 0.009838592312709081 0 -0.18265227592653671 1.922431750578952e-05 0 -0.165011504307194 0.047483676938485313 0 -0.1761634403215761 0.038739734152760448 0 -0.17357998631056731 0.058288918577813167 0 -0.15423814291086099 0.038277326058092712 0 -0.1626445009794911 0.061455774402915907 0 -0.15423814291086099 0.038277326058092712 0 -0.165011504307194 0.047483676938485313 0 -0.1626445009794911 0.061455774402915907 0 -0.165011504307194 0.047483676938485313 0 -0.1626445009794911 0.061455774402915907 0 -0.17357998631056731 0.058288918577813167 0 -0.1496173780526992 0.034808846168798653 0 -0.1761634403215761 0.038739734152760448 0 -0.15423814291086099 0.038277326058092712 0 -0.165011504307194 0.047483676938485313 0 -0.1761634403215761 0.038739734152760448 0 -0.15423814291086099 0.038277326058092712 0 -0.1496173780526992 0.034808846168798653 0 -0.1761634403215761 0.038739734152760448 0 -0.1761634403215761 0.038739734152760448 0 -0.18811603212713821 0.064954886086494301 0 -0.1761634403215761 0.038739734152760448 0 -0.19299977890813991 0.05143717142839558 0 -0.18811603212713821 0.064954886086494301 0 -0.1847078033740997 0.06310046430567269 0 -0.1761634403215761 0.038739734152760448 0 -0.18811603212713821 0.064954886086494301 0 -0.1847078033740997 0.06310046430567269 0 -0.1761634403215761 0.038739734152760448 0 -0.17357998631056731 0.058288918577813167 0 -0.178955319683854 0.065916609875646293 0 -0.1847078033740997 0.06310046430567269 0 -0.17357998631056731 0.058288918577813167 0 -0.20242198584247231 0.059000194541307477 0 -0.19299977890813991 0.05143717142839558 0 -0.20529765734137581 0.043053870933018858 0 -0.20242198584247231 0.059000194541307477 0 -0.19299977890813991 0.05143717142839558 0 -0.18811603212713821 0.064954886086494301 0 -0.1761634403215761 0.038739734152760448 0 -0.20529765734137581 0.043053870933018858 0 -0.1761634403215761 0.038739734152760448 0 -0.19299977890813991 0.05143717142839558 0 -0.20529765734137581 0.043053870933018858 0 -0.18449948490445039 0.025373848676960329 0 -0.1761634403215761 0.038739734152760448 0 -0.20529765734137581 0.043053870933018858 0 -0.20242198584247231 0.059000194541307477 0 -0.20529765734137581 0.043053870933018858 0 -0.22007887380062591 0.063304536133184763 0 -0.17758486741487969 0.01068041066332266 0 -0.2044898647592637 0.0028722525289364069 0 -0.17758486741487969 0.01068041066332266 0 -0.19709117593895281 0.0020185164704496542 0 -0.2044898647592637 0.0028722525289364069 0 -0.17758486741487969 0.01068041066332266 0 -0.1984203355819667 0.020071567594533449 0 -0.17758486741487969 0.01068041066332266 0 -0.1984203355819667 0.020071567594533449 0 -0.2044898647592637 0.0028722525289364069 0 -0.18449948490445039 0.025373848676960329 0 -0.20529765734137581 0.043053870933018858 0 -0.1984203355819667 0.020071567594533449 0 -0.1984203355819667 0.020071567594533449 0 -0.2192558037490534 0.02946272452574502 0 -0.21041466448898941 0.01413457008797806 0 -0.22113938910171829 0.01177032873195487 0 -0.2192558037490534 0.02946272452574502 0 -0.1984203355819667 0.020071567594533449 0 -0.21041466448898941 0.01413457008797806 0 -0.2192558037490534 0.02946272452574502 0 -0.20529765734137581 0.043053870933018858 0 -0.1984203355819667 0.020071567594533449 0 -0.2192558037490534 0.02946272452574502 0 -0.23139486210364779 -0.0049359056054505074 0 -0.2044898647592637 0.0028722525289364069 0 -0.21917694087744441 0.0056214958889574604 0 -0.1984203355819667 0.020071567594533449 0 -0.21041466448898941 0.01413457008797806 0 -0.2044898647592637 0.0028722525289364069 0 -0.21041466448898941 0.01413457008797806 0 -0.21917694087744441 0.0056214958889574604 0 -0.22113938910171829 0.01177032873195487 0 -0.21041466448898941 0.01413457008797806 0 -0.2044898647592637 0.0028722525289364069 0 -0.21917694087744441 0.0056214958889574604 0 -0.23139486210364779 -0.0049359056054505074 0 -0.22818907620459211 0.0075104445188282597 0 -0.2378293002741593 0.0073394098158203391 0 -0.23139486210364779 -0.0049359056054505074 0 -0.22818907620459211 0.0075104445188282597 0 -0.21917694087744441 0.0056214958889574604 0 -0.22818907620459211 0.0075104445188282597 0 -0.21917694087744441 0.0056214958889574604 0 -0.22113938910171829 0.01177032873195487 0 -0.22818907620459211 0.0075104445188282597 0 -0.23140488866599049 0.017756893762859129 0 -0.2378293002741593 0.0073394098158203391 0 -0.22818907620459211 0.0075104445188282597 0 -0.22113938910171829 0.01177032873195487 0 -0.23140488866599049 0.017756893762859129 0 -0.22113938910171829 0.01177032873195487 0 -0.2192558037490534 0.02946272452574502 0 -0.23140488866599049 0.017756893762859129 0 -0.2192558037490534 0.02946272452574502 0 -0.23140488866599049 0.017756893762859129 0 -0.23723156818791649 0.028976413069987859 0 -0.2513519833081283 0.03681729845039633 0 -0.23723156818791649 0.028976413069987859 0 -0.24941251396422079 0.02359075707980339 0 -0.23723156818791649 0.028976413069987859 0 -0.24941251396422079 0.02359075707980339 0 -0.24130668565658109 0.017409893864337271 0 -0.24941251396422079 0.02359075707980339 0 -0.24130668565658109 0.017409893864337271 0 -0.249469601702588 0.010945649488826519 0 -0.23140488866599049 0.017756893762859129 0 -0.23723156818791649 0.028976413069987859 0 -0.24130668565658109 0.017409893864337271 0 -0.23139486210364779 -0.0049359056054505074 0 -0.24804227674092971 -0.00031708200868342171 0 -0.2378293002741593 0.0073394098158203391 0 -0.23140488866599049 0.017756893762859129 0 -0.24130668565658109 0.017409893864337271 0 -0.2378293002741593 0.0073394098158203391 0 -0.24130668565658109 0.017409893864337271 0 -0.249469601702588 0.010945649488826519 0 -0.2378293002741593 0.0073394098158203391 0 -0.24804227674092971 -0.00031708200868342171 0 -0.249469601702588 0.010945649488826519 0 -0.2378293002741593 0.0073394098158203391 0 -0.23443187436117541 0.047368007713278593 0 -0.24852128318472311 0.071348746082639039 0 -0.22007887380062591 0.063304536133184763 0 -0.20529765734137581 0.043053870933018858 0 -0.23443187436117541 0.047368007713278593 0 -0.22007887380062591 0.063304536133184763 0 -0.2192558037490534 0.02946272452574502 0 -0.23723156818791649 0.028976413069987859 0 -0.23443187436117541 0.047368007713278593 0 -0.20529765734137581 0.043053870933018858 0 -0.23443187436117541 0.047368007713278593 0 -0.20529765734137581 0.043053870933018858 0 -0.2192558037490534 0.02946272452574502 0 -0.23443187436117541 0.047368007713278593 0 -0.2513519833081283 0.03681729845039633 0 -0.23723156818791649 0.028976413069987859 0 -0.23443187436117541 0.047368007713278593 0 -0.26356609138097481 0.051682144493538293 0 -0.2513519833081283 0.03681729845039633 0 -0.23443187436117541 0.047368007713278593 0 -0.26356609138097481 0.051682144493538293 0 -0.23443187436117541 0.047368007713278593 0 -0.26356609138097481 0.051682144493538293 0 -0.23443187436117541 0.047368007713278593 0 -0.24852128318472311 0.071348746082639039 0 -0.24852128318472311 0.071348746082639039 0 -0.22382828400695939 0.084385969657079396 0 -0.24852128318472311 0.071348746082639039 0 -0.22382828400695939 0.084385969657079396 0 -0.24124134653802451 0.093860440054512453 0 -0.2593504451525615 0.086984460819130763 0 -0.24852128318472311 0.071348746082639039 0 -0.24124134653802451 0.093860440054512453 0 -0.22382828400695939 0.084385969657079396 0 -0.24124134653802451 0.093860440054512453 0 -0.24852128318472311 0.071348746082639039 0 -0.22382828400695939 0.084385969657079396 0 -0.22007887380062591 0.063304536133184763 0 -0.22382828400695939 0.084385969657079396 0 -0.22007887380062591 0.063304536133184763 0 -0.2059721580670496 0.07467042787178535 0 -0.20242198584247231 0.059000194541307477 0 -0.22007887380062591 0.063304536133184763 0 -0.2059721580670496 0.07467042787178535 0 -0.22382828400695939 0.084385969657079396 0 -0.20618654580620371 0.084252762471023382 0 -0.20218545007659211 0.095812789975802046 0 -0.22382828400695939 0.084385969657079396 0 -0.20218545007659211 0.095812789975802046 0 -0.22382828400695939 0.084385969657079396 0 -0.2059721580670496 0.07467042787178535 0 -0.20618654580620371 0.084252762471023382 0 -0.22382828400695939 0.084385969657079396 0 -0.2059721580670496 0.07467042787178535 0 -0.18515632787084349 0.092078186721145622 0 -0.1951507411018627 0.080383838031149304 0 -0.20218545007659211 0.095812789975802046 0 -0.2059721580670496 0.07467042787178535 0 -0.20618654580620371 0.084252762471023382 0 -0.1951507411018627 0.080383838031149304 0 -0.20618654580620371 0.084252762471023382 0 -0.1951507411018627 0.080383838031149304 0 -0.20218545007659211 0.095812789975802046 0 -0.1951507411018627 0.080383838031149304 0 -0.20218545007659211 0.095812789975802046 0 -0.20242198584247231 0.059000194541307477 0 -0.2059721580670496 0.07467042787178535 0 -0.18811603212713821 0.064954886086494301 0 -0.18319621000622169 0.071409262599102935 0 -0.1951507411018627 0.080383838031149304 0 -0.18811603212713821 0.064954886086494301 0 -0.2059721580670496 0.07467042787178535 0 -0.1951507411018627 0.080383838031149304 0 -0.18811603212713821 0.064954886086494301 0 -0.2059721580670496 0.07467042787178535 0 -0.18811603212713821 0.064954886086494301 0 -0.1951507411018627 0.080383838031149304 0 -0.18811603212713821 0.064954886086494301 0 -0.1960533151906948 0.11410892553353499 0 -0.21257945721647939 0.11860955914562731 0 -0.2001989322181893 0.12789312558716801 0 -0.18560702422555089 0.1247692395896698 0 -0.1960533151906948 0.11410892553353499 0 -0.2001989322181893 0.12789312558716801 0 -0.17945721711675 0.10781267109256271 0 -0.20218545007659211 0.095812789975802046 0 -0.17945721711675 0.10781267109256271 0 -0.1960533151906948 0.11410892553353499 0 -0.20218545007659211 0.095812789975802046 0 -0.18515632787084349 0.092078186721145622 0 -0.17945721711675 0.10781267109256271 0 -0.20218545007659211 0.095812789975802046 0 -0.20218545007659211 0.095812789975802046 0 -0.21257945721647939 0.11860955914562731 0 -0.22464913792813651 0.1036162358049733 0 -0.20218545007659211 0.095812789975802046 0 -0.21257945721647939 0.11860955914562731 0 -0.22382828400695939 0.084385969657079396 0 -0.20218545007659211 0.095812789975802046 0 -0.22464913792813651 0.1036162358049733 0 -0.1960533151906948 0.11410892553353499 0 -0.20218545007659211 0.095812789975802046 0 -0.21257945721647939 0.11860955914562731 0 -0.21257945721647939 0.11860955914562731 0 -0.2324333227405756 0.1218506867974947 0 -0.22464913792813651 0.1036162358049733 0 -0.2324333227405756 0.1218506867974947 0 -0.22464913792813651 0.1036162358049733 0 -0.243730422169222 0.1100246932503654 0 -0.22382828400695939 0.084385969657079396 0 -0.22464913792813651 0.1036162358049733 0 -0.24124134653802451 0.093860440054512453 0 -0.25865440906908971 0.10333491045194521 0 -0.24124134653802451 0.093860440054512453 0 -0.25865440906908971 0.10333491045194521 0 -0.24124134653802451 0.093860440054512453 0 -0.243730422169222 0.1100246932503654 0 -0.22464913792813651 0.1036162358049733 0 -0.24124134653802451 0.093860440054512453 0 -0.243730422169222 0.1100246932503654 0 -0.25689016577812218 0.12866084259621921 0 -0.2324333227405756 0.1218506867974947 0 -0.243730422169222 0.1100246932503654 0 -0.25689016577812218 0.12866084259621921 0 -0.2324333227405756 0.1218506867974947 0 -0.23729146809241669 0.1440889214910214 0 -0.2324333227405756 0.1218506867974947 0 -0.23729146809241669 0.1440889214910214 0 -0.21499803312387089 0.14025209558023069 0 -0.2324333227405756 0.1218506867974947 0 -0.21499803312387089 0.14025209558023069 0 -0.21257945721647939 0.11860955914562731 0 -0.2324333227405756 0.1218506867974947 0 -0.21499803312387089 0.14025209558023069 0 -0.23729146809241669 0.1440889214910214 0 -0.2200160236253679 0.1640448600643796 0 -0.21499803312387089 0.14025209558023069 0 -0.26032488065504 0.1561472646847501 0 -0.23729146809241669 0.1440889214910214 0 -0.2413206034244616 0.16215959223539661 0 -0.2538109934186506 0.17800225782543619 0 -0.23456280320294279 0.1784880816848626 0 -0.24243488184305009 0.1991973635701845 0 -0.2538109934186506 0.17800225782543619 0 -0.2413206034244616 0.16215959223539661 0 -0.23456280320294279 0.1784880816848626 0 -0.23456280320294279 0.1784880816848626 0 -0.2200160236253679 0.1640448600643796 0 -0.2147836757966578 0.18887131599033111 0 -0.2413206034244616 0.16215959223539661 0 -0.23456280320294279 0.1784880816848626 0 -0.2200160236253679 0.1640448600643796 0 -0.23729146809241669 0.1440889214910214 0 -0.2413206034244616 0.16215959223539661 0 -0.2200160236253679 0.1640448600643796 0 -0.2200160236253679 0.1640448600643796 0 -0.19930166452773629 0.17737025074135879 0 -0.19756274350716641 0.15865350436296671 0 -0.2200160236253679 0.1640448600643796 0 -0.19930166452773629 0.17737025074135879 0 -0.2147836757966578 0.18887131599033111 0 -0.19930166452773629 0.17737025074135879 0 -0.19015506950622579 0.20216177841009811 0 -0.1801274538904617 0.17705491314570279 0 -0.19756274350716641 0.15865350436296671 0 -0.1801274538904617 0.17705491314570279 0 -0.19930166452773629 0.17737025074135879 0 -0.19756274350716641 0.15865350436296671 0 -0.1801274538904617 0.17705491314570279 0 -0.19756274350716641 0.15865350436296671 0 -0.19175683133435051 0.14172580808677729 0 -0.21499803312387089 0.14025209558023069 0 -0.19756274350716641 0.15865350436296671 0 -0.19175683133435051 0.14172580808677729 0 -0.17914794875295759 0.1549701144872177 0 -0.19175683133435051 0.14172580808677729 0 -0.2001989322181893 0.12789312558716801 0 -0.21499803312387089 0.14025209558023069 0 -0.18560702422555089 0.1247692395896698 0 -0.19175683133435051 0.14172580808677729 0 -0.2001989322181893 0.12789312558716801 0 -0.18560702422555089 0.1247692395896698 0 -0.19175683133435051 0.14172580808677729 0 -0.21257945721647939 0.11860955914562731 0 -0.2001989322181893 0.12789312558716801 0 -0.21499803312387089 0.14025209558023069 0 -0.2200160236253679 0.1640448600643796 0 -0.19756274350716641 0.15865350436296671 0 -0.21499803312387089 0.14025209558023069 0 -0.19756274350716641 0.15865350436296671 0 -0.21499803312387089 0.14025209558023069 0 -0.24198036308279569 0.2445897244070506 0 -0.22793912018528389 0.2240395472589122 0 -0.2134433585275177 0.2488817309476401 0 -0.22793912018528389 0.2240395472589122 0 -0.2134433585275177 0.2488817309476401 0 -0.25787958898325553 0.22069316958933019 0 -0.24198036308279569 0.2445897244070506 0 -0.22793912018528389 0.2240395472589122 0 -0.22793912018528389 0.2240395472589122 0 -0.24243488184305009 0.1991973635701845 0 -0.21449456019395979 0.20884936170910129 0 -0.25787958898325553 0.22069316958933019 0 -0.22793912018528389 0.2240395472589122 0 -0.24243488184305009 0.1991973635701845 0 -0.22793912018528389 0.2240395472589122 0 -0.24243488184305009 0.1991973635701845 0 -0.24243488184305009 0.1991973635701845 0 -0.2147836757966578 0.18887131599033111 0 -0.21449456019395979 0.20884936170910129 0 -0.23456280320294279 0.1784880816848626 0 -0.24243488184305009 0.1991973635701845 0 -0.2147836757966578 0.18887131599033111 0 -0.2147836757966578 0.18887131599033111 0 -0.19015506950622579 0.20216177841009811 0 -0.21449456019395979 0.20884936170910129 0 -0.19930166452773629 0.17737025074135879 0 -0.2147836757966578 0.18887131599033111 0 -0.19015506950622579 0.20216177841009811 0 -0.19015506950622579 0.20216177841009811 0 -0.21449456019395979 0.20884936170910129 0 -0.2025585544239803 0.2272023549746163 0 -0.22793912018528389 0.2240395472589122 0 -0.2025585544239803 0.2272023549746163 0 -0.2134433585275177 0.2488817309476401 0 -0.22793912018528389 0.2240395472589122 0 -0.21449456019395979 0.20884936170910129 0 -0.2025585544239803 0.2272023549746163 0 -0.19015506950622579 0.20216177841009811 0 -0.2025585544239803 0.2272023549746163 0 -0.17869143124533371 0.23107602334896971 0 -0.2025585544239803 0.2272023549746163 0 -0.1880920862576643 0.24935709544323001 0 -0.17869143124533371 0.23107602334896971 0 -0.2025585544239803 0.2272023549746163 0 -0.1880920862576643 0.24935709544323001 0 -0.2134433585275177 0.2488817309476401 0 -0.1880920862576643 0.24935709544323001 0 -0.16220060790479271 0.24142802178289791 0 -0.17869143124533371 0.23107602334896971 0 -0.16220060790479271 0.24142802178289791 0 -0.17869143124533371 0.23107602334896971 0 -0.16939439233561379 0.2138489269830709 0 -0.16220060790479271 0.24142802178289791 0 -0.16939439233561379 0.2138489269830709 0 -0.14851589997726211 0.21803702869967809 0 -0.16939439233561379 0.2138489269830709 0 -0.16269216427375699 0.1954563219284389 0 -0.14851589997726211 0.21803702869967809 0 -0.19015506950622579 0.20216177841009811 0 -0.17869143124533371 0.23107602334896971 0 -0.16939439233561379 0.2138489269830709 0 -0.19015506950622579 0.20216177841009811 0 -0.16939439233561379 0.2138489269830709 0 -0.16269216427375699 0.1954563219284389 0 -0.19015506950622579 0.20216177841009811 0 -0.16269216427375699 0.1954563219284389 0 -0.1801274538904617 0.17705491314570279 0 -0.16269216427375699 0.1954563219284389 0 -0.1431797767929556 0.19536958681512451 0 -0.14851589997726211 0.21803702869967809 0 -0.16269216427375699 0.1954563219284389 0 -0.1431797767929556 0.19536958681512451 0 -0.15273883310109851 0.17766869998544099 0 -0.1431797767929556 0.19536958681512451 0 -0.1284716874505295 0.20625762827644251 0 -0.11880451059068591 0.19070585671626691 0 -0.1431797767929556 0.19536958681512451 0 -0.1340025024971245 0.17902791412026051 0 -0.11880451059068591 0.19070585671626691 0 -0.1431797767929556 0.19536958681512451 0 -0.1284716874505295 0.20625762827644251 0 -0.14851589997726211 0.21803702869967809 0 -0.1284716874505295 0.20625762827644251 0 -0.14851589997726211 0.21803702869967809 0 -0.11967075195985551 0.2271019523481875 0 -0.16220060790479271 0.24142802178289791 0 -0.14851589997726211 0.21803702869967809 0 -0.14052236641094451 0.24226232528502961 0 -0.14851589997726211 0.21803702869967809 0 -0.14052236641094451 0.24226232528502961 0 -0.11967075195985551 0.2271019523481875 0 -0.14052236641094451 0.24226232528502961 0 -0.1220364034615183 0.24876670335255061 0 -0.11967075195985551 0.2271019523481875 0 -0.1413148982989588 0.26573472717748758 0 -0.16220060790479271 0.24142802178289791 0 -0.14052236641094451 0.24226232528502961 0 -0.1696959862871639 0.13928244939497461 0 -0.17914794875295759 0.1549701144872177 0 -0.15659672874564559 0.15813389744566689 0 -0.1696959862871639 0.13928244939497461 0 -0.15659672874564559 0.15813389744566689 0 -0.14345187056266831 0.13822644281286919 0 -0.16109247793975509 0.11750874765309501 0 -0.1696959862871639 0.13928244939497461 0 -0.14345187056266831 0.13822644281286919 0 -0.18560702422555089 0.1247692395896698 0 -0.19175683133435051 0.14172580808677729 0 -0.1696959862871639 0.13928244939497461 0 -0.18560702422555089 0.1247692395896698 0 -0.16109247793975509 0.11750874765309501 0 -0.1696959862871639 0.13928244939497461 0 -0.19175683133435051 0.14172580808677729 0 -0.1696959862871639 0.13928244939497461 0 -0.17914794875295759 0.1549701144872177 0 -0.19756274350716641 0.15865350436296671 0 -0.17914794875295759 0.1549701144872177 0 -0.1801274538904617 0.17705491314570279 0 -0.17914794875295759 0.1549701144872177 0 -0.1801274538904617 0.17705491314570279 0 -0.15659672874564559 0.15813389744566689 0 -0.16269216427375699 0.1954563219284389 0 -0.1801274538904617 0.17705491314570279 0 -0.16269216427375699 0.1954563219284389 0 -0.1801274538904617 0.17705491314570279 0 -0.15273883310109851 0.17766869998544099 0 -0.1801274538904617 0.17705491314570279 0 -0.15659672874564559 0.15813389744566689 0 -0.15273883310109851 0.17766869998544099 0 -0.15659672874564559 0.15813389744566689 0 -0.15273883310109851 0.17766869998544099 0 -0.13851049407452939 0.1604856147024625 0 -0.15273883310109851 0.17766869998544099 0 -0.1340025024971245 0.17902791412026051 0 -0.13851049407452939 0.1604856147024625 0 -0.1431797767929556 0.19536958681512451 0 -0.15273883310109851 0.17766869998544099 0 -0.1340025024971245 0.17902791412026051 0 -0.1340025024971245 0.17902791412026051 0 -0.13851049407452939 0.1604856147024625 0 -0.1118683411267873 0.17163824875068179 0 -0.14345187056266831 0.13822644281286919 0 -0.1186225769718309 0.13305371586043399 0 -0.121219234997803 0.15077920388058219 0 -0.13851049407452939 0.1604856147024625 0 -0.14345187056266831 0.13822644281286919 0 -0.121219234997803 0.15077920388058219 0 -0.15659672874564559 0.15813389744566689 0 -0.14345187056266831 0.13822644281286919 0 -0.15659672874564559 0.15813389744566689 0 -0.13851049407452939 0.1604856147024625 0 -0.14345187056266831 0.13822644281286919 0 -0.13030701237969111 0.1183189881800716 0 -0.14345187056266831 0.13822644281286919 0 -0.1186225769718309 0.13305371586043399 0 -0.13030701237969111 0.1183189881800716 0 -0.14345187056266831 0.13822644281286919 0 -0.1186225769718309 0.13305371586043399 0 -0.1000634266277679 0.14180388539893571 0 -0.10369301174227601 0.1183540927952729 0 -0.1000634266277679 0.14180388539893571 0 -0.082521453861599564 0.12867311727030489 0 -0.10369301174227601 0.1183540927952729 0 -0.1000634266277679 0.14180388539893571 0 -0.1063390625507462 0.1558091387158575 0 -0.090564667120154235 0.158708181970764 0 -0.1000634266277679 0.14180388539893571 0 -0.1063390625507462 0.1558091387158575 0 -0.121219234997803 0.15077920388058219 0 -0.1186225769718309 0.13305371586043399 0 -0.1000634266277679 0.14180388539893571 0 -0.121219234997803 0.15077920388058219 0 -0.13851049407452939 0.1604856147024625 0 -0.121219234997803 0.15077920388058219 0 -0.1118683411267873 0.17163824875068179 0 -0.1063390625507462 0.1558091387158575 0 -0.121219234997803 0.15077920388058219 0 -0.1118683411267873 0.17163824875068179 0 -0.1340025024971245 0.17902791412026051 0 -0.1118683411267873 0.17163824875068179 0 -0.11880451059068591 0.19070585671626691 0 -0.1118683411267873 0.17163824875068179 0 -0.11880451059068591 0.19070585671626691 0 -0.1005015978946936 0.19461680295258171 0 -0.1118683411267873 0.17163824875068179 0 -0.086394423254439578 0.17904883233879479 0 -0.1005015978946936 0.19461680295258171 0 -0.1063390625507462 0.1558091387158575 0 -0.1118683411267873 0.17163824875068179 0 -0.090564667120154235 0.158708181970764 0 -0.1118683411267873 0.17163824875068179 0 -0.090564667120154235 0.158708181970764 0 -0.086394423254439578 0.17904883233879479 0 -0.090564667120154235 0.158708181970764 0 -0.076138886360108377 0.16595553093024851 0 -0.081018872275285522 0.14747723255647741 0 -0.090564667120154235 0.158708181970764 0 -0.086394423254439578 0.17904883233879479 0 -0.076138886360108377 0.16595553093024851 0 -0.086394423254439578 0.17904883233879479 0 -0.069142204271525565 0.18447122417161479 0 -0.080204839016573728 0.19893135212245211 0 -0.086394423254439578 0.17904883233879479 0 -0.069142204271525565 0.18447122417161479 0 -0.076138886360108377 0.16595553093024851 0 -0.069142204271525565 0.18447122417161479 0 -0.076138886360108377 0.16595553093024851 0 -0.06076983455230818 0.1712036658735647 0 -0.076138886360108377 0.16595553093024851 0 -0.068509076683641243 0.15296653192344151 0 -0.06076983455230818 0.1712036658735647 0 -0.068509076683641243 0.15296653192344151 0 -0.071155104499503616 0.13748512623481271 0 -0.058184597685381853 0.13719664864716111 0 -0.076138886360108377 0.16595553093024851 0 -0.068509076683641243 0.15296653192344151 0 -0.081018872275285522 0.14747723255647741 0 -0.068509076683641243 0.15296653192344151 0 -0.058184597685381853 0.13719664864716111 0 -0.068509076683641243 0.15296653192344151 0 -0.071155104499503616 0.13748512623481271 0 -0.081018872275285522 0.14747723255647741 0 -0.071155104499503616 0.13748512623481271 0 -0.058184597685381853 0.13719664864716111 0 -0.065541521991609897 0.1211121007766785 0 -0.071155104499503616 0.13748512623481271 0 -0.082521453861599564 0.12867311727030489 0 -0.065541521991609897 0.1211121007766785 0 -0.071155104499503616 0.13748512623481271 0 -0.082521453861599564 0.12867311727030489 0 -0.081018872275285522 0.14747723255647741 0 -0.1000634266277679 0.14180388539893571 0 -0.082521453861599564 0.12867311727030489 0 -0.081018872275285522 0.14747723255647741 0 -0.1000634266277679 0.14180388539893571 0 -0.090564667120154235 0.158708181970764 0 -0.081018872275285522 0.14747723255647741 0 -0.10133627225436299 0.2473173615870089 0 -0.1220364034615183 0.24876670335255061 0 -0.11967075195985551 0.2271019523481875 0 -0.10133627225436299 0.2473173615870089 0 -0.11967075195985551 0.2271019523481875 0 -0.095439171299364495 0.218494416498765 0 -0.11967075195985551 0.2271019523481875 0 -0.095439171299364495 0.218494416498765 0 -0.1115219641369969 0.20857270018095339 0 -0.095439171299364495 0.218494416498765 0 -0.1115219641369969 0.20857270018095339 0 -0.1005015978946936 0.19461680295258171 0 -0.1284716874505295 0.20625762827644251 0 -0.11967075195985551 0.2271019523481875 0 -0.1115219641369969 0.20857270018095339 0 -0.1115219641369969 0.20857270018095339 0 -0.11880451059068591 0.19070585671626691 0 -0.1005015978946936 0.19461680295258171 0 -0.1284716874505295 0.20625762827644251 0 -0.1115219641369969 0.20857270018095339 0 -0.11880451059068591 0.19070585671626691 0 -0.086394423254439578 0.17904883233879479 0 -0.1005015978946936 0.19461680295258171 0 -0.080204839016573728 0.19893135212245211 0 -0.069142204271525565 0.18447122417161479 0 -0.080204839016573728 0.19893135212245211 0 -0.059443242622471262 0.1981262342845091 0 -0.080204839016573728 0.19893135212245211 0 -0.069874154753651954 0.21697308574161289 0 -0.059443242622471262 0.1981262342845091 0 -0.095439171299364495 0.218494416498765 0 -0.080204839016573728 0.19893135212245211 0 -0.069874154753651954 0.21697308574161289 0 -0.095439171299364495 0.218494416498765 0 -0.1005015978946936 0.19461680295258171 0 -0.080204839016573728 0.19893135212245211 0 -0.095439171299364495 0.218494416498765 0 -0.069874154753651954 0.21697308574161289 0 -0.078871454327743368 0.23921318059647631 0 -0.069874154753651954 0.21697308574161289 0 -0.078871454327743368 0.23921318059647631 0 -0.057636511459290357 0.23392732126913479 0 -0.064456175923423675 0.25274262974227701 0 -0.078871454327743368 0.23921318059647631 0 -0.057636511459290357 0.23392732126913479 0 -0.10133627225436299 0.2473173615870089 0 -0.095439171299364495 0.218494416498765 0 -0.078871454327743368 0.23921318059647631 0 -0.082408894099152641 0.26292067050825718 0 -0.10133627225436299 0.2473173615870089 0 -0.078871454327743368 0.23921318059647631 0 -0.02759182968480637 0.25216101633244958 0 -0.04684503542576083 0.2472796280261409 0 -0.033321286317140937 0.23267796159566481 0 -0.04684503542576083 0.2472796280261409 0 -0.057636511459290357 0.23392732126913479 0 -0.033321286317140937 0.23267796159566481 0 -0.064456175923423675 0.25274262974227701 0 -0.04684503542576083 0.2472796280261409 0 -0.057636511459290357 0.23392732126913479 0 -0.069874154753651954 0.21697308574161289 0 -0.057636511459290357 0.23392732126913479 0 -0.045935619592667162 0.21247631593531061 0 -0.033321286317140937 0.23267796159566481 0 -0.045935619592667162 0.21247631593531061 0 -0.025340066052462772 0.213063133473056 0 -0.057636511459290357 0.23392732126913479 0 -0.033321286317140937 0.23267796159566481 0 -0.045935619592667162 0.21247631593531061 0 -0.045935619592667162 0.21247631593531061 0 -0.032626086628232957 0.20356744503860169 0 -0.039720740370705859 0.19601687811169349 0 -0.045935619592667162 0.21247631593531061 0 -0.032626086628232957 0.20356744503860169 0 -0.025340066052462772 0.213063133473056 0 -0.069874154753651954 0.21697308574161289 0 -0.045935619592667162 0.21247631593531061 0 -0.059443242622471262 0.1981262342845091 0 -0.059443242622471262 0.1981262342845091 0 -0.039720740370705859 0.19601687811169349 0 -0.049400777404268077 0.18286243301835561 0 -0.045935619592667162 0.21247631593531061 0 -0.059443242622471262 0.1981262342845091 0 -0.039720740370705859 0.19601687811169349 0 -0.069142204271525565 0.18447122417161479 0 -0.059443242622471262 0.1981262342845091 0 -0.049400777404268077 0.18286243301835561 0 -0.039720740370705859 0.19601687811169349 0 -0.049400777404268077 0.18286243301835561 0 -0.034560468066702203 0.18455828813507111 0 -0.032626086628232957 0.20356744503860169 0 -0.039720740370705859 0.19601687811169349 0 -0.02422884653724865 0.19651595470093081 0 -0.039720740370705859 0.19601687811169349 0 -0.02422884653724865 0.19651595470093081 0 -0.034560468066702203 0.18455828813507111 0 -0.02422884653724865 0.19651595470093081 0 -0.010160983059047481 0.20438800897853851 0 -0.01782240437812686 0.1814744331767825 0 -0.02422884653724865 0.19651595470093081 0 -0.034560468066702203 0.18455828813507111 0 -0.01782240437812686 0.1814744331767825 0 -0.010160983059047481 0.20438800897853851 0 -0.01782240437812686 0.1814744331767825 0 0.001391189505103608 0.1940262456256156 0 -0.010160983059047481 0.20438800897853851 0 -0.01782240437812686 0.1814744331767825 0 -0.01782240437812686 0.1814744331767825 0 0.001391189505103608 0.1940262456256156 0 -0.010160983059047481 0.20438800897853851 0 0.0025762234693159961 0.19710846169667279 0 0.001391189505103608 0.1940262456256156 0 -0.010160983059047481 0.20438800897853851 0 0.0025762234693159961 0.19710846169667279 0 -0.010160983059047481 0.20438800897853851 0 -0.01409535056963322 0.2175952003606719 0 -0.002811377939656971 0.22636901315550101 0 -0.010160983059047481 0.20438800897853851 0 -0.002811377939656971 0.22636901315550101 0 0.01015167987923804 0.2168118577151856 0 -0.010160983059047481 0.20438800897853851 0 -0.002811377939656971 0.22636901315550101 0 -0.02422884653724865 0.19651595470093081 0 -0.010160983059047481 0.20438800897853851 0 -0.025340066052462772 0.213063133473056 0 -0.032626086628232957 0.20356744503860169 0 -0.02422884653724865 0.19651595470093081 0 -0.025340066052462772 0.213063133473056 0 -0.010160983059047481 0.20438800897853851 0 -0.01409535056963322 0.2175952003606719 0 -0.025340066052462772 0.213063133473056 0 -0.010160983059047481 0.20438800897853851 0 -0.025340066052462772 0.213063133473056 0 -0.033321286317140937 0.23267796159566481 0 -0.01806897522736577 0.2265606458355918 0 -0.013096528294884649 0.241127770132194 0 -0.033321286317140937 0.23267796159566481 0 -0.025340066052462772 0.213063133473056 0 -0.01806897522736577 0.2265606458355918 0 -0.01409535056963322 0.2175952003606719 0 -0.025340066052462772 0.213063133473056 0 -0.01806897522736577 0.2265606458355918 0 -0.01409535056963322 0.2175952003606719 0 -0.01806897522736577 0.2265606458355918 0 -0.002811377939656971 0.22636901315550101 0 -0.01806897522736577 0.2265606458355918 0 -0.002811377939656971 0.22636901315550101 0 -0.013096528294884649 0.241127770132194 0 -0.002811377939656971 0.22636901315550101 0 -0.013096528294884649 0.241127770132194 0 0.0045382271797346514 0.24835001733246331 0 -0.008046288002600082 0.25349603705116308 0 -0.013096528294884649 0.241127770132194 0 0.0045382271797346514 0.24835001733246331 0 -0.02759182968480637 0.25216101633244958 0 -0.008046288002600082 0.25349603705116308 0 -0.013096528294884649 0.241127770132194 0 -0.02759182968480637 0.25216101633244958 0 -0.033321286317140937 0.23267796159566481 0 -0.013096528294884649 0.241127770132194 0 -0.03959407041634963 0.14909977877809191 0 -0.051901269916876748 0.15257495702794541 0 -0.041629571643160349 0.16592174166759291 0 -0.03959407041634963 0.14909977877809191 0 -0.041629571643160349 0.16592174166759291 0 -0.027380084450806769 0.15288957695841099 0 -0.03959407041634963 0.14909977877809191 0 -0.027380084450806769 0.15288957695841099 0 -0.036937764523485482 0.12430472074003911 0 -0.03959407041634963 0.14909977877809191 0 -0.0449498510839106 0.13748687057837691 0 -0.051901269916876748 0.15257495702794541 0 -0.03959407041634963 0.14909977877809191 0 -0.0449498510839106 0.13748687057837691 0 -0.036937764523485482 0.12430472074003911 0 -0.031339740139327742 0.1375917995058131 0 -0.027380084450806769 0.15288957695841099 0 -0.036937764523485482 0.12430472074003911 0 -0.0449498510839106 0.13748687057837691 0 -0.047860118687122519 0.1214267653708805 0 -0.027380084450806769 0.15288957695841099 0 -0.036937764523485482 0.12430472074003911 0 -0.0449498510839106 0.13748687057837691 0 -0.036937764523485482 0.12430472074003911 0 -0.047860118687122519 0.1214267653708805 0 -0.031339740139327742 0.1375917995058131 0 -0.03021426663369655 0.12648881969319939 0 -0.036937764523485482 0.12430472074003911 0 -0.058184597685381853 0.13719664864716111 0 -0.047860118687122519 0.1214267653708805 0 -0.065541521991609897 0.1211121007766785 0 -0.0449498510839106 0.13748687057837691 0 -0.058184597685381853 0.13719664864716111 0 -0.047860118687122519 0.1214267653708805 0 -0.058184597685381853 0.13719664864716111 0 -0.047860118687122519 0.1214267653708805 0 -0.068509076683641243 0.15296653192344151 0 -0.058184597685381853 0.13719664864716111 0 -0.051901269916876748 0.15257495702794541 0 -0.0449498510839106 0.13748687057837691 0 -0.058184597685381853 0.13719664864716111 0 -0.051901269916876748 0.15257495702794541 0 -0.068509076683641243 0.15296653192344151 0 -0.051901269916876748 0.15257495702794541 0 -0.06076983455230818 0.1712036658735647 0 -0.051901269916876748 0.15257495702794541 0 -0.06076983455230818 0.1712036658735647 0 -0.041629571643160349 0.16592174166759291 0 -0.06076983455230818 0.1712036658735647 0 -0.049400777404268077 0.18286243301835561 0 -0.041629571643160349 0.16592174166759291 0 -0.069142204271525565 0.18447122417161479 0 -0.06076983455230818 0.1712036658735647 0 -0.049400777404268077 0.18286243301835561 0 -0.034560468066702203 0.18455828813507111 0 -0.041629571643160349 0.16592174166759291 0 -0.01782240437812686 0.1814744331767825 0 -0.049400777404268077 0.18286243301835561 0 -0.034560468066702203 0.18455828813507111 0 -0.041629571643160349 0.16592174166759291 0 -0.01782240437812686 0.1814744331767825 0 -0.01378150966464517 0.15456278834538231 0 -0.027380084450806769 0.15288957695841099 0 -0.041629571643160349 0.16592174166759291 0 -0.01782240437812686 0.1814744331767825 0 -0.027380084450806769 0.15288957695841099 0 -0.01782240437812686 0.1814744331767825 0 -0.027380084450806769 0.15288957695841099 0 -0.041629571643160349 0.16592174166759291 0 -0.01782240437812686 0.1814744331767825 0 -0.0061951600797714463 0.17429451698549919 0 0.001391189505103608 0.1940262456256156 0 -0.01782240437812686 0.1814744331767825 0 -0.0061951600797714463 0.17429451698549919 0 0.001391189505103608 0.1940262456256156 0 -0.0061951600797714463 0.17429451698549919 0 0.0045407035349788599 0.18447899626232361 0 0.001391189505103608 0.1940262456256156 0 -0.01378150966464517 0.15456278834538231 0 0.0030884369751391361 0.17086851326229341 0 -0.0022103227594052581 0.15128727406763751 0 -0.01378150966464517 0.15456278834538231 0 0.0030884369751391361 0.17086851326229341 0 -0.0061951600797714463 0.17429451698549919 0 -0.01378150966464517 0.15456278834538231 0 0.0030884369751391361 0.17086851326229341 0 -0.01782240437812686 0.1814744331767825 0 -0.0061951600797714463 0.17429451698549919 0 -0.01378150966464517 0.15456278834538231 0 -0.0061951600797714463 0.17429451698549919 0 -0.01378150966464517 0.15456278834538231 0 -0.01014381684742577 0.1412337559301278 0 -0.01378150966464517 0.15456278834538231 0 -0.022120357178872761 0.13287384895744259 0 -0.0022103227594052581 0.15128727406763751 0 -0.01014381684742577 0.1412337559301278 0 -0.00042486096254332613 0.1364634065437553 0 -0.0022103227594052581 0.15128727406763751 0 -0.01014381684742577 0.1412337559301278 0 -0.01378150966464517 0.15456278834538231 0 -0.01378150966464517 0.15456278834538231 0 -0.022120357178872761 0.13287384895744259 0 -0.031339740139327742 0.1375917995058131 0 -0.01378150966464517 0.15456278834538231 0 -0.027380084450806769 0.15288957695841099 0 -0.031339740139327742 0.1375917995058131 0 -0.01378150966464517 0.15456278834538231 0 -0.022120357178872761 0.13287384895744259 0 -0.031339740139327742 0.1375917995058131 0 -0.01378150966464517 0.15456278834538231 0 -0.031339740139327742 0.1375917995058131 0 -0.03021426663369655 0.12648881969319939 0 -0.022120357178872761 0.13287384895744259 0 -0.022120357178872761 0.13287384895744259 0 -0.011253204930020419 0.13179946690285019 0 -0.018047323095064769 0.1205075989041953 0 -0.00042486096254332613 0.1364634065437553 0 -0.0085422407419930031 0.1207671562987274 0 0.0042215411447200264 0.11840438951421781 0 -0.011253204930020419 0.13179946690285019 0 -0.00042486096254332613 0.1364634065437553 0 -0.0085422407419930031 0.1207671562987274 0 -0.01014381684742577 0.1412337559301278 0 -0.022120357178872761 0.13287384895744259 0 -0.011253204930020419 0.13179946690285019 0 -0.01014381684742577 0.1412337559301278 0 -0.011253204930020419 0.13179946690285019 0 -0.00042486096254332613 0.1364634065437553 0 -0.0085422407419930031 0.1207671562987274 0 -0.017861607931337412 0.10591261279245349 0 0.003050956624611181 0.1058638234999523 0 -0.011253204930020419 0.13179946690285019 0 -0.0085422407419930031 0.1207671562987274 0 -0.018047323095064769 0.1205075989041953 0 -0.0085422407419930031 0.1207671562987274 0 -0.017861607931337412 0.10591261279245349 0 -0.018047323095064769 0.1205075989041953 0 -0.0085422407419930031 0.1207671562987274 0 0.003050956624611181 0.1058638234999523 0 0.0042215411447200264 0.11840438951421781 0 -0.017861607931337412 0.10591261279245349 0 0.0054689381899259062 0.08858867198164147 0 0.003050956624611181 0.1058638234999523 0 -0.017861607931337412 0.10591261279245349 0 -0.0093369578704643151 0.086830982630829973 0 0.0054689381899259062 0.08858867198164147 0 -0.017861607931337412 0.10591261279245349 0 0.0054689381899259062 0.08858867198164147 0 -0.022138066280205381 0.09623154487872887 0 -0.022639499039124909 0.082904121461058369 0 -0.035249808863123649 0.1021654434159695 0 -0.017861607931337412 0.10591261279245349 0 -0.022138066280205381 0.09623154487872887 0 -0.025602457696976621 0.10334456409333299 0 -0.017861607931337412 0.10591261279245349 0 -0.022138066280205381 0.09623154487872887 0 -0.0093369578704643151 0.086830982630829973 0 -0.022138066280205381 0.09623154487872887 0 -0.025602457696976621 0.10334456409333299 0 -0.035249808863123649 0.1021654434159695 0 -0.025602457696976621 0.10334456409333299 0 -0.03045920469310023 0.1111849095695028 0 -0.035249808863123649 0.1021654434159695 0 -0.017861607931337412 0.10591261279245349 0 -0.025602457696976621 0.10334456409333299 0 -0.03045920469310023 0.1111849095695028 0 -0.03021426663369655 0.12648881969319939 0 -0.022120357178872761 0.13287384895744259 0 -0.03045920469310023 0.1111849095695028 0 -0.022120357178872761 0.13287384895744259 0 -0.03045920469310023 0.1111849095695028 0 -0.018047323095064769 0.1205075989041953 0 -0.022120357178872761 0.13287384895744259 0 -0.03045920469310023 0.1111849095695028 0 -0.017861607931337412 0.10591261279245349 0 -0.03045920469310023 0.1111849095695028 0 -0.018047323095064769 0.1205075989041953 0 -0.010029189215125909 0.063642799506147402 0 -0.0025007151615662471 0.073136246458819262 0 0.0075491846005203379 0.057434664235625488 0 -0.010029189215125909 0.063642799506147402 0 -0.0025007151615662471 0.073136246458819262 0 -0.022639499039124909 0.082904121461058369 0 -0.010029189215125909 0.063642799506147402 0 -0.0025007151615662471 0.073136246458819262 0 -0.0025007151615662471 0.073136246458819262 0 -0.0093369578704643151 0.086830982630829973 0 -0.022639499039124909 0.082904121461058369 0 -0.0025007151615662471 0.073136246458819262 0 -0.0093369578704643151 0.086830982630829973 0 0.0054689381899259062 0.08858867198164147 0 -0.022639499039124909 0.082904121461058369 0 -0.035249808863123649 0.1021654434159695 0 -0.022138066280205381 0.09623154487872887 0 -0.0093369578704643151 0.086830982630829973 0 -0.022639499039124909 0.082904121461058369 0 -0.010029189215125909 0.063642799506147402 0 -0.022639499039124909 0.082904121461058369 0 -0.035776945938312418 0.065007470423730715 0 -0.010029189215125909 0.063642799506147402 0 -0.022639499039124909 0.082904121461058369 0 -0.035776945938312418 0.065007470423730715 0 -0.041092052062006418 0.080845722430321343 0 -0.058575964750606543 0.062292129443605272 0 -0.022639499039124909 0.082904121461058369 0 -0.035776945938312418 0.065007470423730715 0 -0.041092052062006418 0.080845722430321343 0 -0.041092052062006418 0.080845722430321343 0 -0.053218041718864587 0.091859447407242889 0 -0.035249808863123649 0.1021654434159695 0 -0.022639499039124909 0.082904121461058369 0 -0.041092052062006418 0.080845722430321343 0 -0.035249808863123649 0.1021654434159695 0 -0.041092052062006418 0.080845722430321343 0 -0.053218041718864587 0.091859447407242889 0 -0.058575964750606543 0.062292129443605272 0 -0.053218041718864587 0.091859447407242889 0 -0.071926210163241217 0.07174196841763919 0 -0.058575964750606543 0.062292129443605272 0 -0.053218041718864587 0.091859447407242889 0 -0.058575964750606543 0.062292129443605272 0 -0.03045920469310023 0.1111849095695028 0 -0.035249808863123649 0.1021654434159695 0 -0.047860118687122519 0.1214267653708805 0 -0.035249808863123649 0.1021654434159695 0 -0.047860118687122519 0.1214267653708805 0 -0.03045920469310023 0.1111849095695028 0 -0.036937764523485482 0.12430472074003911 0 -0.047860118687122519 0.1214267653708805 0 -0.03021426663369655 0.12648881969319939 0 -0.03045920469310023 0.1111849095695028 0 -0.036937764523485482 0.12430472074003911 0 -0.053218041718864587 0.091859447407242889 0 -0.035249808863123649 0.1021654434159695 0 -0.047860118687122519 0.1214267653708805 0 -0.053218041718864587 0.091859447407242889 0 -0.058389373188740101 0.10990869478938881 0 -0.066937810357363389 0.10523646560275331 0 -0.053218041718864587 0.091859447407242889 0 -0.047860118687122519 0.1214267653708805 0 -0.053218041718864587 0.091859447407242889 0 -0.047860118687122519 0.1214267653708805 0 -0.058389373188740101 0.10990869478938881 0 -0.047860118687122519 0.1214267653708805 0 -0.058389373188740101 0.10990869478938881 0 -0.065541521991609897 0.1211121007766785 0 -0.065541521991609897 0.1211121007766785 0 -0.080783269811617014 0.11038433358630111 0 -0.066937810357363389 0.10523646560275331 0 -0.058389373188740101 0.10990869478938881 0 -0.065541521991609897 0.1211121007766785 0 -0.066937810357363389 0.10523646560275331 0 -0.082521453861599564 0.12867311727030489 0 -0.065541521991609897 0.1211121007766785 0 -0.080783269811617014 0.11038433358630111 0 -0.082521453861599564 0.12867311727030489 0 -0.080783269811617014 0.11038433358630111 0 -0.10369301174227601 0.1183540927952729 0 -0.080783269811617014 0.11038433358630111 0 -0.078668312038809515 0.089533825894457519 0 -0.096391188346711315 0.097833075723589041 0 -0.080783269811617014 0.11038433358630111 0 -0.10369301174227601 0.1183540927952729 0 -0.096391188346711315 0.097833075723589041 0 -0.080783269811617014 0.11038433358630111 0 -0.066937810357363389 0.10523646560275331 0 -0.078668312038809515 0.089533825894457519 0 -0.053218041718864587 0.091859447407242889 0 -0.066937810357363389 0.10523646560275331 0 -0.078668312038809515 0.089533825894457519 0 -0.053218041718864587 0.091859447407242889 0 -0.071926210163241217 0.07174196841763919 0 -0.078668312038809515 0.089533825894457519 0 -0.071926210163241217 0.07174196841763919 0 -0.089649986144479915 0.075122969596889536 0 -0.08199698720377549 0.06032687216503356 0 -0.089649986144479915 0.075122969596889536 0 -0.1082113643132966 0.064539173403265107 0 -0.08199698720377549 0.06032687216503356 0 -0.078668312038809515 0.089533825894457519 0 -0.092977540182564655 0.08544241112085818 0 -0.096391188346711315 0.097833075723589041 0 -0.071926210163241217 0.07174196841763919 0 -0.089649986144479915 0.075122969596889536 0 -0.078668312038809515 0.089533825894457519 0 -0.089649986144479915 0.075122969596889536 0 -0.078668312038809515 0.089533825894457519 0 -0.092977540182564655 0.08544241112085818 0 -0.1040172960137367 0.078504078914476264 0 -0.1171621541967139 0.09841153354727393 0 -0.096391188346711315 0.097833075723589041 0 -0.092977540182564655 0.08544241112085818 0 -0.1040172960137367 0.078504078914476264 0 -0.096391188346711315 0.097833075723589041 0 -0.089649986144479915 0.075122969596889536 0 -0.092977540182564655 0.08544241112085818 0 -0.1040172960137367 0.078504078914476264 0 -0.089649986144479915 0.075122969596889536 0 -0.1040172960137367 0.078504078914476264 0 -0.1082113643132966 0.064539173403265107 0 -0.1344257414228178 0.068751474641496668 0 -0.1082113643132966 0.064539173403265107 0 -0.1344257414228178 0.068751474641496668 0 -0.1082113643132966 0.064539173403265107 0 -0.119445990880807 0.077745327897652761 0 -0.1040172960137367 0.078504078914476264 0 -0.1082113643132966 0.064539173403265107 0 -0.119445990880807 0.077745327897652761 0 -0.13137283095652999 0.088562650573281859 0 -0.119445990880807 0.077745327897652761 0 -0.1171621541967139 0.09841153354727393 0 -0.1040172960137367 0.078504078914476264 0 -0.119445990880807 0.077745327897652761 0 -0.1171621541967139 0.09841153354727393 0 -0.1040172960137367 0.078504078914476264 0 -0.1171621541967139 0.09841153354727393 0 -0.13030701237969111 0.1183189881800716 0 -0.1171621541967139 0.09841153354727393 0 -0.13030701237969111 0.1183189881800716 0 -0.1186225769718309 0.13305371586043399 0 -0.10369301174227601 0.1183540927952729 0 -0.13030701237969111 0.1183189881800716 0 -0.1171621541967139 0.09841153354727393 0 -0.10369301174227601 0.1183540927952729 0 -0.1171621541967139 0.09841153354727393 0 -0.10369301174227601 0.1183540927952729 0 -0.096391188346711315 0.097833075723589041 0 -0.094233406749939422 0.02602544629414837 0 -0.10384094854056521 0.015284577973905171 0 -0.1099561033830187 0.03030710221191513 0 -0.094233406749939422 0.02602544629414837 0 -0.10384094854056521 0.015284577973905171 0 -0.088450201082161103 0.01016635114223682 0 -0.1051994580364817 -0.00092346104686816765 0 -0.10384094854056521 0.015284577973905171 0 -0.088450201082161103 0.01016635114223682 0 -0.1051994580364817 -0.00092346104686816765 0 -0.10384094854056521 0.015284577973905171 0 -0.118526810679334 0.0084000441138782373 0 -0.10384094854056521 0.015284577973905171 0 -0.118526810679334 0.0084000441138782373 0 -0.1201895313796558 0.017482451284870699 0 -0.1311301806726248 0.01110515099811266 0 -0.118526810679334 0.0084000441138782373 0 -0.1201895313796558 0.017482451284870699 0 -0.1374936136227364 0.022315381126542289 0 -0.1201895313796558 0.017482451284870699 0 -0.1099561033830187 0.03030710221191513 0 -0.1374936136227364 0.022315381126542289 0 -0.1099561033830187 0.03030710221191513 0 -0.12307131578382211 0.030877958184838138 0 -0.1374936136227364 0.022315381126542289 0 -0.1099561033830187 0.03030710221191513 0 -0.10384094854056521 0.015284577973905171 0 -0.1201895313796558 0.017482451284870699 0 -0.1099561033830187 0.03030710221191513 0 -0.12541474214403969 0.048678870788031348 0 -0.12307131578382211 0.030877958184838138 0 -0.1145210388956583 0.038808996293866561 0 -0.12541474214403969 0.048678870788031348 0 -0.1145210388956583 0.038808996293866561 0 -0.1101282510629903 0.047653676263186603 0 -0.1099561033830187 0.03030710221191513 0 -0.12307131578382211 0.030877958184838138 0 -0.1145210388956583 0.038808996293866561 0 -0.12541474214403969 0.048678870788031348 0 -0.1082113643132966 0.064539173403265107 0 -0.1101282510629903 0.047653676263186603 0 -0.1344257414228178 0.068751474641496668 0 -0.12541474214403969 0.048678870788031348 0 -0.1082113643132966 0.064539173403265107 0 -0.1082113643132966 0.064539173403265107 0 -0.1101282510629903 0.047653676263186603 0 -0.096835265140785873 0.050247531085406999 0 -0.1082113643132966 0.064539173403265107 0 -0.096835265140785873 0.050247531085406999 0 -0.08199698720377549 0.06032687216503356 0 -0.1082113643132966 0.064539173403265107 0 -0.08199698720377549 0.06032687216503356 0 -0.094233406749939422 0.02602544629414837 0 -0.1099561033830187 0.03030710221191513 0 -0.1006878351689896 0.038293421613692133 0 -0.1099561033830187 0.03030710221191513 0 -0.1145210388956583 0.038808996293866561 0 -0.1006878351689896 0.038293421613692133 0 -0.1145210388956583 0.038808996293866561 0 -0.1101282510629903 0.047653676263186603 0 -0.1006878351689896 0.038293421613692133 0 -0.1101282510629903 0.047653676263186603 0 -0.096835265140785873 0.050247531085406999 0 -0.1006878351689896 0.038293421613692133 0 -0.096835265140785873 0.050247531085406999 0 -0.1006878351689896 0.038293421613692133 0 -0.081795395193870801 0.042031925917870923 0 -0.094233406749939422 0.02602544629414837 0 -0.1006878351689896 0.038293421613692133 0 -0.081795395193870801 0.042031925917870923 0 -0.096835265140785873 0.050247531085406999 0 -0.081795395193870801 0.042031925917870923 0 -0.08199698720377549 0.06032687216503356 0 -0.071926210163241217 0.07174196841763919 0 -0.08199698720377549 0.06032687216503356 0 -0.068568397853686097 0.051353200754755593 0 -0.071926210163241217 0.07174196841763919 0 -0.068568397853686097 0.051353200754755593 0 -0.058575964750606543 0.062292129443605272 0 -0.081795395193870801 0.042031925917870923 0 -0.08199698720377549 0.06032687216503356 0 -0.068568397853686097 0.051353200754755593 0 -0.081795395193870801 0.042031925917870923 0 -0.068568397853686097 0.051353200754755593 0 -0.065298440013785805 0.028391324307035799 0 -0.081795395193870801 0.042031925917870923 0 -0.065298440013785805 0.028391324307035799 0 -0.080114473648465578 0.02380992357499884 0 -0.081795395193870801 0.042031925917870923 0 -0.065298440013785805 0.028391324307035799 0 -0.065298440013785805 0.028391324307035799 0 -0.080114473648465578 0.02380992357499884 0 -0.070794925202570705 0.01243457021370232 0 -0.094233406749939422 0.02602544629414837 0 -0.080114473648465578 0.02380992357499884 0 -0.088450201082161103 0.01016635114223682 0 -0.094233406749939422 0.02602544629414837 0 -0.081795395193870801 0.042031925917870923 0 -0.080114473648465578 0.02380992357499884 0 -0.090295246540969668 -0.0095966479819053468 0 -0.07750990505967971 -0.00046715560165415219 0 -0.088450201082161103 0.01016635114223682 0 -0.07750990505967971 -0.00046715560165415219 0 -0.088450201082161103 0.01016635114223682 0 -0.070794925202570705 0.01243457021370232 0 -0.080114473648465578 0.02380992357499884 0 -0.088450201082161103 0.01016635114223682 0 -0.070794925202570705 0.01243457021370232 0 -0.07750990505967971 -0.00046715560165415219 0 -0.070794925202570705 0.01243457021370232 0 -0.060206107372613032 0.00036943130591901569 0 -0.070794925202570705 0.01243457021370232 0 -0.060206107372613032 0.00036943130591901569 0 -0.048801484833700851 0.0147507226962007 0 -0.04578715617007402 -0.0002170549965922427 0 -0.060206107372613032 0.00036943130591901569 0 -0.048801484833700851 0.0147507226962007 0 -0.060206107372613032 0.00036943130591901569 0 -0.048801484833700851 0.0147507226962007 0 -0.065298440013785805 0.028391324307035799 0 -0.070794925202570705 0.01243457021370232 0 -0.048801484833700851 0.0147507226962007 0 -0.065298440013785805 0.028391324307035799 0 -0.048801484833700851 0.0147507226962007 0 -0.05181738979683681 0.043334984277348908 0 -0.065298440013785805 0.028391324307035799 0 -0.048801484833700851 0.0147507226962007 0 -0.048801484833700851 0.0147507226962007 0 -0.035877386294176007 0.031048081632849719 0 -0.033108851544780417 0.01654602216026077 0 -0.048801484833700851 0.0147507226962007 0 -0.035877386294176007 0.031048081632849719 0 -0.048801484833700851 0.0147507226962007 0 -0.035877386294176007 0.031048081632849719 0 -0.05181738979683681 0.043334984277348908 0 -0.048801484833700851 0.0147507226962007 0 -0.033108851544780417 0.01654602216026077 0 -0.032115536642839802 0.00095385113499676932 0 -0.04578715617007402 -0.0002170549965922427 0 -0.048801484833700851 0.0147507226962007 0 -0.032115536642839802 0.00095385113499676932 0 -0.048801484833700851 0.0147507226962007 0 -0.032115536642839802 0.00095385113499676932 0 -0.035776945938312418 0.065007470423730715 0 -0.058575964750606543 0.062292129443605272 0 -0.05181738979683681 0.043334984277348908 0 -0.068568397853686097 0.051353200754755593 0 -0.058575964750606543 0.062292129443605272 0 -0.05181738979683681 0.043334984277348908 0 -0.068568397853686097 0.051353200754755593 0 -0.065298440013785805 0.028391324307035799 0 -0.05181738979683681 0.043334984277348908 0 -0.035877386294176007 0.031048081632849719 0 -0.05181738979683681 0.043334984277348908 0 -0.022953287754650591 0.047345440569498277 0 -0.035776945938312418 0.065007470423730715 0 -0.05181738979683681 0.043334984277348908 0 -0.022953287754650591 0.047345440569498277 0 -0.010029189215125909 0.063642799506147402 0 -0.022953287754650591 0.047345440569498277 0 -0.010029189215125909 0.063642799506147402 0 -0.022953287754650591 0.047345440569498277 0 -0.019188048769306649 0.049825632125854433 0 -0.010029189215125909 0.063642799506147402 0 -0.035776945938312418 0.065007470423730715 0 -0.022953287754650591 0.047345440569498277 0 -0.035877386294176007 0.031048081632849719 0 -0.022953287754650591 0.047345440569498277 0 -0.035877386294176007 0.031048081632849719 0 -0.022953287754650591 0.047345440569498277 0 -0.02188488277791439 0.034752735652805573 0 -0.022953287754650591 0.047345440569498277 0 -0.019188048769306649 0.049825632125854433 0 -0.016328926777519851 0.041586614995692738 0 -0.022953287754650591 0.047345440569498277 0 -0.016328926777519851 0.041586614995692738 0 -0.02188488277791439 0.034752735652805573 0 -0.02188488277791439 0.034752735652805573 0 -0.01286397137190363 0.036126750657425412 0 -0.022620680690649989 0.02565749726892419 0 -0.016328926777519851 0.041586614995692738 0 -0.02188488277791439 0.034752735652805573 0 -0.01286397137190363 0.036126750657425412 0 -0.016328926777519851 0.041586614995692738 0 -0.01286397137190363 0.036126750657425412 0 0.001629356313006607 0.031931901311831913 0 -0.019188048769306649 0.049825632125854433 0 0.0062087860900978467 0.038840485001979307 0 0.001629356313006607 0.031931901311831913 0 -0.019188048769306649 0.049825632125854433 0 0.001629356313006607 0.031931901311831913 0 -0.019188048769306649 0.049825632125854433 0 -0.016328926777519851 0.041586614995692738 0 0.001629356313006607 0.031931901311831913 0 -0.01286397137190363 0.036126750657425412 0 -0.0058727545255404896 0.029144219646262921 0 0.001629356313006607 0.031931901311831913 0 -0.010029189215125909 0.063642799506147402 0 -0.019188048769306649 0.049825632125854433 0 0.0062087860900978467 0.038840485001979307 0 -0.010029189215125909 0.063642799506147402 0 0.0062087860900978467 0.038840485001979307 0 -0.033108851544780417 0.01654602216026077 0 -0.032115536642839802 0.00095385113499676932 0 -0.01179464823091512 0.01268643244263858 0 -0.0062998144708789772 -0.0011194360634266729 0 -0.032115536642839802 0.00095385113499676932 0 -0.01179464823091512 0.01268643244263858 0 -0.033108851544780417 0.01654602216026077 0 -0.022620680690649989 0.02565749726892419 0 -0.01179464823091512 0.01268643244263858 0 -0.035877386294176007 0.031048081632849719 0 -0.02188488277791439 0.034752735652805573 0 -0.022620680690649989 0.02565749726892419 0 -0.035877386294176007 0.031048081632849719 0 -0.033108851544780417 0.01654602216026077 0 -0.022620680690649989 0.02565749726892419 0 -0.0094849074769612143 0.025253253166589079 0 -0.002771495566303718 0.023264973449205278 0 -0.01179464823091512 0.01268643244263858 0 -0.002771495566303718 0.023264973449205278 0 -0.01179464823091512 0.01268643244263858 0 0.0052575883347443031 0.015096697641631591 0 -0.022620680690649989 0.02565749726892419 0 -0.0094849074769612143 0.025253253166589079 0 -0.01179464823091512 0.01268643244263858 0 -0.01286397137190363 0.036126750657425412 0 -0.0094849074769612143 0.025253253166589079 0 -0.0058727545255404896 0.029144219646262921 0 -0.01286397137190363 0.036126750657425412 0 -0.022620680690649989 0.02565749726892419 0 -0.0094849074769612143 0.025253253166589079 0 -0.0058727545255404896 0.029144219646262921 0 -0.002771495566303718 0.023264973449205278 0 0.001629356313006607 0.031931901311831913 0 -0.0094849074769612143 0.025253253166589079 0 -0.0058727545255404896 0.029144219646262921 0 -0.002771495566303718 0.023264973449205278 0 -0.0062998144708789772 -0.0011194360634266729 0 -0.01179464823091512 0.01268643244263858 0 0.0052575883347443031 0.015096697641631591 0 0.0052575883347443031 0.015096697641631591 0 0.017097560157952951 0.0020439016824410359 0 0.022446761395320688 0.01403817049781059 0 0.0052575883347443031 0.015096697641631591 0 0.017097560157952951 0.0020439016824410359 0 0.0072202839323864511 -0.003482535584523713 0 -0.0062998144708789772 -0.0011194360634266729 0 0.0052575883347443031 0.015096697641631591 0 0.0072202839323864511 -0.003482535584523713 0 0.022446761395320688 0.01403817049781059 0 0.0062087860900978467 0.038840485001979307 0 0.001629356313006607 0.031931901311831913 0 0.022446761395320688 0.01403817049781059 0 0.0062087860900978467 0.038840485001979307 0 -0.002771495566303718 0.023264973449205278 0 0.0052575883347443031 0.015096697641631591 0 0.001629356313006607 0.031931901311831913 0 0.0052575883347443031 0.015096697641631591 0 0.022446761395320688 0.01403817049781059 0 0.001629356313006607 0.031931901311831913 0 0.022446761395320688 0.01403817049781059 0 0.001629356313006607 0.031931901311831913 0 0.022446761395320688 0.01403817049781059 0 0.026562007149516689 0.034449031034026023 0 0.041353958135791867 0.01979513525625223 0 0.022446761395320688 0.01403817049781059 0 0.0062087860900978467 0.038840485001979307 0 0.026562007149516689 0.034449031034026023 0 0.022446761395320688 0.01403817049781059 0 0.033320654793328387 0.0046914473786248646 0 0.029440534663894281 0.003355695563749192 0 0.022446761395320688 0.01403817049781059 0 0.029440534663894281 0.003355695563749192 0 0.022446761395320688 0.01403817049781059 0 0.033320654793328387 0.0046914473786248646 0 0.029440534663894281 0.003355695563749192 0 0.017097560157952951 0.0020439016824410359 0 0.022446761395320688 0.01403817049781059 0 -0.010029189215125909 0.063642799506147402 0 0.0075491846005203379 0.057434664235625488 0 0.0062087860900978467 0.038840485001979307 0 0.0075491846005203379 0.057434664235625488 0 0.0062087860900978467 0.038840485001979307 0 0.02633752005642525 0.051019051548015018 0 0.0062087860900978467 0.038840485001979307 0 0.026562007149516689 0.034449031034026023 0 0.02633752005642525 0.051019051548015018 0 0.0075491846005203379 0.057434664235625488 0 0.02633752005642525 0.051019051548015018 0 0.028799484311189019 0.071264731170829571 0 0.02633752005642525 0.051019051548015018 0 0.041193105239307137 0.03886002111999326 0 0.052130030432452137 0.053940790360017671 0 0.02633752005642525 0.051019051548015018 0 0.052130030432452137 0.053940790360017671 0 0.028799484311189019 0.071264731170829571 0 0.026562007149516689 0.034449031034026023 0 0.02633752005642525 0.051019051548015018 0 0.041193105239307137 0.03886002111999326 0 0.041193105239307137 0.03886002111999326 0 0.060348933596747568 0.033130023379846538 0 0.052130030432452137 0.053940790360017671 0 0.033320654793328387 0.0046914473786248646 0 0.041353958135791867 0.01979513525625223 0 0.051456053587625457 0.004733855252944898 0 0.022446761395320688 0.01403817049781059 0 0.033320654793328387 0.0046914473786248646 0 0.041353958135791867 0.01979513525625223 0 0.033320654793328387 0.0046914473786248646 0 0.041353958135791867 0.01979513525625223 0 0.026562007149516689 0.034449031034026023 0 0.041193105239307137 0.03886002111999326 0 0.041353958135791867 0.01979513525625223 0 0.041193105239307137 0.03886002111999326 0 0.060348933596747568 0.033130023379846538 0 0.041353958135791867 0.01979513525625223 0 0.060348933596747568 0.033130023379846538 0 0.041353958135791867 0.01979513525625223 0 0.068387578145501352 0.011231390478092001 0 0.041353958135791867 0.01979513525625223 0 0.051456053587625457 0.004733855252944898 0 0.068387578145501352 0.011231390478092001 0 0.051456053587625457 0.004733855252944898 0 0.068387578145501352 0.011231390478092001 0 0.054430704808202522 -0.01345382821855777 0 0.068387578145501352 0.011231390478092001 0 0.08980101791556161 0.01097276176193961 0 0.079827496457483021 -0.016710136154686701 0 0.08980101791556161 0.01097276176193961 0 0.083621786922758401 0.035149442622565939 0 0.097978174062002141 0.02755132520009403 0 0.068387578145501352 0.011231390478092001 0 0.08980101791556161 0.01097276176193961 0 0.083621786922758401 0.035149442622565939 0 0.060348933596747568 0.033130023379846538 0 0.068387578145501352 0.011231390478092001 0 0.083621786922758401 0.035149442622565939 0 0.060348933596747568 0.033130023379846538 0 0.052130030432452137 0.053940790360017671 0 0.075589914824699872 0.051758549934550369 0 0.060348933596747568 0.033130023379846538 0 0.075589914824699872 0.051758549934550369 0 0.083621786922758401 0.035149442622565939 0 0.052130030432452137 0.053940790360017671 0 0.075589914824699872 0.051758549934550369 0 0.069720446382091947 0.069743642890282495 0 0.075589914824699872 0.051758549934550369 0 0.094442166832508348 0.048921241057703138 0 0.093276124781640851 0.069666159296886451 0 0.075589914824699872 0.051758549934550369 0 0.083621786922758401 0.035149442622565939 0 0.094442166832508348 0.048921241057703138 0 0.083621786922758401 0.035149442622565939 0 0.094442166832508348 0.048921241057703138 0 0.11051682617528021 0.040925452412033117 0 0.083621786922758401 0.035149442622565939 0 0.11051682617528021 0.040925452412033117 0 0.083621786922758401 0.035149442622565939 0 0.11051682617528021 0.040925452412033117 0 0.097978174062002141 0.02755132520009403 0 0.094442166832508348 0.048921241057703138 0 0.1106585886226663 0.047938384745872337 0 0.11051682617528021 0.040925452412033117 0 0.1106585886226663 0.047938384745872337 0 0.093276124781640851 0.069666159296886451 0 0.094442166832508348 0.048921241057703138 0 0.1106585886226663 0.047938384745872337 0 0.093276124781640851 0.069666159296886451 0 0.1106585886226663 0.047938384745872337 0 0.1060067677284223 0.065636467230006337 0 0.093276124781640851 0.069666159296886451 0 0.1201600893798577 0.067274719233700084 0 0.12810616252344559 0.051002989495169952 0 0.1106585886226663 0.047938384745872337 0 0.1130877322662775 0.056560290444312968 0 0.1060067677284223 0.065636467230006337 0 0.1130877322662775 0.056560290444312968 0 0.11564904171034419 0.049887968561992041 0 0.11051682617528021 0.040925452412033117 0 0.1130877322662775 0.056560290444312968 0 0.11051682617528021 0.040925452412033117 0 0.1106585886226663 0.047938384745872337 0 0.1130877322662775 0.056560290444312968 0 0.11051682617528021 0.040925452412033117 0 0.1216257600140858 0.058615894981634373 0 0.1201600893798577 0.067274719233700084 0 0.12810616252344559 0.051002989495169952 0 0.1130877322662775 0.056560290444312968 0 0.11564904171034419 0.049887968561992041 0 0.11944150739088651 0.053132716288047117 0 0.11564904171034419 0.049887968561992041 0 0.1201489750271611 0.047896252752716743 0 0.11944150739088651 0.053132716288047117 0 0.1201489750271611 0.047896252752716743 0 0.1242468315981233 0.05023416415873435 0 0.11944150739088651 0.053132716288047117 0 0.1242468315981233 0.05023416415873435 0 0.12335506538163531 0.053246441230896453 0 0.11944150739088651 0.053132716288047117 0 0.12335506538163531 0.053246441230896453 0 0.1216257600140858 0.058615894981634373 0 0.12810616252344559 0.051002989495169952 0 0.1130877322662775 0.056560290444312968 0 0.11944150739088651 0.053132716288047117 0 0.1216257600140858 0.058615894981634373 0 0.1130877322662775 0.056560290444312968 0 0.1216257600140858 0.058615894981634373 0 0.1201600893798577 0.067274719233700084 0 0.12335506538163531 0.053246441230896453 0 0.11944150739088651 0.053132716288047117 0 0.1216257600140858 0.058615894981634373 0 0.11051682617528021 0.040925452412033117 0 0.13089066826117121 0.045300962342777043 0 0.1201489750271611 0.047896252752716743 0 0.11051682617528021 0.040925452412033117 0 0.13089066826117121 0.045300962342777043 0 0.11051682617528021 0.040925452412033117 0 0.1239231530732975 0.036242636230916878 0 0.13089066826117121 0.045300962342777043 0 0.11564904171034419 0.049887968561992041 0 0.1201489750271611 0.047896252752716743 0 0.11051682617528021 0.040925452412033117 0 0.11051682617528021 0.040925452412033117 0 0.1239231530732975 0.036242636230916878 0 0.1219597536827746 0.026103243981345749 0 0.1219597536827746 0.026103243981345749 0 0.1065026326936352 0.01651333361253508 0 0.12686517573668521 0.0089551704877156024 0 0.11051682617528021 0.040925452412033117 0 0.1219597536827746 0.026103243981345749 0 0.1065026326936352 0.01651333361253508 0 0.1065026326936352 0.01651333361253508 0 0.12686517573668521 0.0089551704877156024 0 0.10248843921198959 -0.0078987851869627076 0 0.1065026326936352 0.01651333361253508 0 0.10248843921198959 -0.0078987851869627076 0 0.08980101791556161 0.01097276176193961 0 0.1065026326936352 0.01651333361253508 0 0.10248843921198959 -0.0078987851869627076 0 0.11051682617528021 0.040925452412033117 0 0.097978174062002141 0.02755132520009403 0 0.1065026326936352 0.01651333361253508 0 0.08980101791556161 0.01097276176193961 0 0.097978174062002141 0.02755132520009403 0 0.1065026326936352 0.01651333361253508 0 0.11051682617528021 0.040925452412033117 0 0.1065026326936352 0.01651333361253508 0 0.10744757471088499 0.1065802193725585 0 0.093893981376110019 0.097788608123816623 0 0.098450892593324721 0.123499857160802 0 0.10744757471088499 0.1065802193725585 0 0.093893981376110019 0.097788608123816623 0 0.1157261904199316 0.088376065096940501 0 0.10744757471088499 0.1065802193725585 0 0.098450892593324721 0.123499857160802 0 0.12171923445417381 0.1166563471086751 0 0.093893981376110019 0.097788608123816623 0 0.098450892593324721 0.123499857160802 0 0.098450892593324721 0.123499857160802 0 0.12171923445417381 0.1166563471086751 0 0.1127225523366135 0.13357598489691849 0 0.12171923445417381 0.1166563471086751 0 0.1157261904199316 0.088376065096940501 0 0.13379786709192981 0.097847873421447004 0 0.12171923445417381 0.1166563471086751 0 0.1157261904199316 0.088376065096940501 0 0.10744757471088499 0.1065802193725585 0 0.12171923445417381 0.1166563471086751 0 0.1157261904199316 0.088376065096940501 0 0.11740378520930191 0.079797490210489347 0 0.1229124810055424 0.073306674020159848 0 0.12835370770090249 0.081501501688592173 0 0.11740378520930191 0.079797490210489347 0 0.1157261904199316 0.088376065096940501 0 0.12835370770090249 0.081501501688592173 0 0.11740378520930191 0.079797490210489347 0 0.1157261904199316 0.088376065096940501 0 0.1058328568664893 0.079407977647536515 0 0.1130877322662775 0.056560290444312968 0 0.1156586383572742 0.072195128476592901 0 0.1060067677284223 0.065636467230006337 0 0.1130877322662775 0.056560290444312968 0 0.1201600893798577 0.067274719233700084 0 0.1156586383572742 0.072195128476592901 0 0.1130877322662775 0.056560290444312968 0 0.1156586383572742 0.072195128476592901 0 0.1201600893798577 0.067274719233700084 0 0.12771893758574299 0.060889935655820328 0 0.1266958281290258 0.066991759230735207 0 0.1201600893798577 0.067274719233700084 0 0.1229124810055424 0.073306674020159848 0 0.1266958281290258 0.066991759230735207 0 0.1201600893798577 0.067274719233700084 0 0.1229124810055424 0.073306674020159848 0 0.1156586383572742 0.072195128476592901 0 0.11740378520930191 0.079797490210489347 0 0.1229124810055424 0.073306674020159848 0 0.1156586383572742 0.072195128476592901 0 0.11740378520930191 0.079797490210489347 0 0.1156586383572742 0.072195128476592901 0 0.1058328568664893 0.079407977647536515 0 0.1060067677284223 0.065636467230006337 0 0.1058328568664893 0.079407977647536515 0 0.093276124781640851 0.069666159296886451 0 0.1156586383572742 0.072195128476592901 0 0.1060067677284223 0.065636467230006337 0 0.1058328568664893 0.079407977647536515 0 0.093893981376110019 0.097788608123816623 0 0.1058328568664893 0.079407977647536515 0 0.093276124781640851 0.069666159296886451 0 0.093893981376110019 0.097788608123816623 0 0.1157261904199316 0.088376065096940501 0 0.1058328568664893 0.079407977647536515 0 0.093893981376110019 0.097788608123816623 0 0.093276124781640851 0.069666159296886451 0 0.075893660940615337 0.091393933847900635 0 0.093276124781640851 0.069666159296886451 0 0.075893660940615337 0.091393933847900635 0 0.075589914824699872 0.051758549934550369 0 0.093276124781640851 0.069666159296886451 0 0.069720446382091947 0.069743642890282495 0 0.093276124781640851 0.069666159296886451 0 0.069720446382091947 0.069743642890282495 0 0.075893660940615337 0.091393933847900635 0 0.069720446382091947 0.069743642890282495 0 0.075893660940615337 0.091393933847900635 0 0.053164908095555519 0.082790564735449892 0 0.075893660940615337 0.091393933847900635 0 0.079018327812891864 0.1110294059809243 0 0.058511197099589948 0.1131217083989146 0 0.075893660940615337 0.091393933847900635 0 0.058511197099589948 0.1131217083989146 0 0.053164908095555519 0.082790564735449892 0 0.075893660940615337 0.091393933847900635 0 0.058511197099589948 0.1131217083989146 0 0.093893981376110019 0.097788608123816623 0 0.075893660940615337 0.091393933847900635 0 0.079018327812891864 0.1110294059809243 0 0.093893981376110019 0.097788608123816623 0 0.098450892593324721 0.123499857160802 0 0.079018327812891864 0.1110294059809243 0 0.098450892593324721 0.123499857160802 0 0.079018327812891864 0.1110294059809243 0 0.07385327280487583 0.1279574730107286 0 0.079018327812891864 0.1110294059809243 0 0.058511197099589948 0.1131217083989146 0 0.07385327280487583 0.1279574730107286 0 0.058511197099589948 0.1131217083989146 0 0.033650912648161932 0.098156925712485757 0 0.053164908095555519 0.082790564735449892 0 0.058511197099589948 0.1131217083989146 0 0.033650912648161932 0.098156925712485757 0 0.031920990764845572 0.1160423259506717 0 0.058511197099589948 0.1131217083989146 0 0.031920990764845572 0.1160423259506717 0 0.034637530189456062 0.13522136757966119 0 0.052130030432452137 0.053940790360017671 0 0.069720446382091947 0.069743642890282495 0 0.053164908095555519 0.082790564735449892 0 0.033650912648161932 0.098156925712485757 0 0.053164908095555519 0.082790564735449892 0 0.028799484311189019 0.071264731170829571 0 0.052130030432452137 0.053940790360017671 0 0.028799484311189019 0.071264731170829571 0 0.052130030432452137 0.053940790360017671 0 0.053164908095555519 0.082790564735449892 0 0.028799484311189019 0.071264731170829571 0 -0.0025007151615662471 0.073136246458819262 0 0.028799484311189019 0.071264731170829571 0 0.0054689381899259062 0.08858867198164147 0 -0.0025007151615662471 0.073136246458819262 0 0.0075491846005203379 0.057434664235625488 0 0.028799484311189019 0.071264731170829571 0 0.028799484311189019 0.071264731170829571 0 0.0054689381899259062 0.08858867198164147 0 0.019176781563444899 0.093816551028530537 0 0.028799484311189019 0.071264731170829571 0 0.0054689381899259062 0.08858867198164147 0 0.033650912648161932 0.098156925712485757 0 0.028799484311189019 0.071264731170829571 0 0.019176781563444899 0.093816551028530537 0 0.031920990764845572 0.1160423259506717 0 0.01650533934440835 0.1082421909017625 0 0.016299974542611551 0.12546943716053441 0 0.033650912648161932 0.098156925712485757 0 0.031920990764845572 0.1160423259506717 0 0.01650533934440835 0.1082421909017625 0 0.033650912648161932 0.098156925712485757 0 0.019176781563444899 0.093816551028530537 0 0.01650533934440835 0.1082421909017625 0 0.0054689381899259062 0.08858867198164147 0 0.019176781563444899 0.093816551028530537 0 0.003050956624611181 0.1058638234999523 0 0.019176781563444899 0.093816551028530537 0 0.01650533934440835 0.1082421909017625 0 0.003050956624611181 0.1058638234999523 0 0.01650533934440835 0.1082421909017625 0 0.0042215411447200264 0.11840438951421781 0 0.016299974542611551 0.12546943716053441 0 0.01650533934440835 0.1082421909017625 0 0.003050956624611181 0.1058638234999523 0 0.0042215411447200264 0.11840438951421781 0 -0.00042486096254332613 0.1364634065437553 0 0.0174035992143887 0.14034788904978701 0 0.016299974542611551 0.12546943716053441 0 -0.00042486096254332613 0.1364634065437553 0 0.0042215411447200264 0.11840438951421781 0 0.016299974542611551 0.12546943716053441 0 0.0174035992143887 0.14034788904978701 0 0.016299974542611551 0.12546943716053441 0 0.034637530189456062 0.13522136757966119 0 0.031920990764845572 0.1160423259506717 0 0.016299974542611551 0.12546943716053441 0 0.034637530189456062 0.13522136757966119 0 0.0174035992143887 0.14034788904978701 0 0.026295215599970289 0.15127732770835531 0 0.01021013670244895 0.15330790625662871 0 0.0174035992143887 0.14034788904978701 0 0.026295215599970289 0.15127732770835531 0 0.034637530189456062 0.13522136757966119 0 -0.00042486096254332613 0.1364634065437553 0 0.0174035992143887 0.14034788904978701 0 0.01021013670244895 0.15330790625662871 0 -0.0022103227594052581 0.15128727406763751 0 -0.00042486096254332613 0.1364634065437553 0 0.01021013670244895 0.15330790625662871 0 0.01021013670244895 0.15330790625662871 0 0.0030884369751391361 0.17086851326229341 0 0.020437510857405229 0.16938159731301569 0 -0.0022103227594052581 0.15128727406763751 0 0.01021013670244895 0.15330790625662871 0 0.0030884369751391361 0.17086851326229341 0 0.0030884369751391361 0.17086851326229341 0 0.0045407035349788599 0.18447899626232361 0 0.01995838361492229 0.18717423817920559 0 0.0030884369751391361 0.17086851326229341 0 0.01995838361492229 0.18717423817920559 0 0.0030884369751391361 0.17086851326229341 0 0.01995838361492229 0.18717423817920559 0 0.020437510857405229 0.16938159731301569 0 -0.0061951600797714463 0.17429451698549919 0 0.0030884369751391361 0.17086851326229341 0 0.0045407035349788599 0.18447899626232361 0 0.01995838361492229 0.18717423817920559 0 0.020437510857405229 0.16938159731301569 0 0.033452480077576667 0.17946211440958609 0 0.01995838361492229 0.18717423817920559 0 0.033452480077576667 0.17946211440958609 0 0.031793966316404312 0.18879553137187011 0 0.01995838361492229 0.18717423817920559 0 0.033452480077576667 0.17946211440958609 0 0.026295215599970289 0.15127732770835531 0 0.01021013670244895 0.15330790625662871 0 0.020437510857405229 0.16938159731301569 0 0.026295215599970289 0.15127732770835531 0 0.020437510857405229 0.16938159731301569 0 0.034900233848484272 0.1663337440441206 0 0.020437510857405229 0.16938159731301569 0 0.034900233848484272 0.1663337440441206 0 0.033452480077576667 0.17946211440958609 0 0.034900233848484272 0.1663337440441206 0 0.046946576540230843 0.1717499906399664 0 0.042712865255188387 0.1549540834033955 0 0.026295215599970289 0.15127732770835531 0 0.034900233848484272 0.1663337440441206 0 0.042712865255188387 0.1549540834033955 0 0.033452480077576667 0.17946211440958609 0 0.031793966316404312 0.18879553137187011 0 0.042127991037334861 0.18836354042583461 0 0.034900233848484272 0.1663337440441206 0 0.033452480077576667 0.17946211440958609 0 0.046946576540230843 0.1717499906399664 0 0.033452480077576667 0.17946211440958609 0 0.046946576540230843 0.1717499906399664 0 0.033452480077576667 0.17946211440958609 0 0.047279465076640881 0.18131512523825971 0 0.046946576540230843 0.1717499906399664 0 0.033452480077576667 0.17946211440958609 0 0.047279465076640881 0.18131512523825971 0 0.042127991037334861 0.18836354042583461 0 0.047279465076640881 0.18131512523825971 0 0.042127991037334861 0.18836354042583461 0 0.055180472240604447 0.19009578532033219 0 0.047279465076640881 0.18131512523825971 0 0.058689805487457572 0.17690419539557889 0 0.055180472240604447 0.19009578532033219 0 0.047279465076640881 0.18131512523825971 0 0.058689805487457572 0.17690419539557889 0 0.046946576540230843 0.1717499906399664 0 0.058689805487457572 0.17690419539557889 0 0.055180472240604447 0.19009578532033219 0 0.068140598911221373 0.18679577619366439 0 0.058860870579015727 0.16080689646816099 0 0.046946576540230843 0.1717499906399664 0 0.042712865255188387 0.1549540834033955 0 0.058689805487457572 0.17690419539557889 0 0.058860870579015727 0.16080689646816099 0 0.046946576540230843 0.1717499906399664 0 0.058860870579015727 0.16080689646816099 0 0.055074874325343623 0.14289860323318199 0 0.042712865255188387 0.1549540834033955 0 0.058511197099589948 0.1131217083989146 0 0.055074874325343623 0.14289860323318199 0 0.07385327280487583 0.1279574730107286 0 0.058511197099589948 0.1131217083989146 0 0.055074874325343623 0.14289860323318199 0 0.034637530189456062 0.13522136757966119 0 0.055074874325343623 0.14289860323318199 0 0.034637530189456062 0.13522136757966119 0 0.042712865255188387 0.1549540834033955 0 0.026295215599970289 0.15127732770835531 0 0.034637530189456062 0.13522136757966119 0 0.042712865255188387 0.1549540834033955 0 0.017727136289162861 0.2365152537336975 0 0.022659503928717271 0.2493441035946494 0 0.036615848951573667 0.23774960138775139 0 0.022659503928717271 0.2493441035946494 0 0.036615848951573667 0.23774960138775139 0 0.022659503928717271 0.2493441035946494 0 0.036615848951573667 0.23774960138775139 0 0.032618197778325211 0.25240829851996349 0 0.017727136289162861 0.2365152537336975 0 0.022659503928717271 0.2493441035946494 0 0.01373259362453041 0.24640932094007281 0 0.017727136289162861 0.2365152537336975 0 0.022659503928717271 0.2493441035946494 0 0.01373259362453041 0.24640932094007281 0 0.0045382271797346514 0.24835001733246331 0 0.0077140321468804358 0.2385265867330339 0 -0.002811377939656971 0.22636901315550101 0 0.0045382271797346514 0.24835001733246331 0 0.0077140321468804358 0.2385265867330339 0 -0.002811377939656971 0.22636901315550101 0 0.0045382271797346514 0.24835001733246331 0 0.01373259362453041 0.24640932094007281 0 0.0077140321468804358 0.2385265867330339 0 0.01262258704722592 0.24041145083486851 0 0.017727136289162861 0.2365152537336975 0 0.01373259362453041 0.24640932094007281 0 0.01262258704722592 0.24041145083486851 0 0.0077140321468804358 0.2385265867330339 0 0.01262258704722592 0.24041145083486851 0 0.0126054823520212 0.23636423330019771 0 0.017727136289162861 0.2365152537336975 0 0.01262258704722592 0.24041145083486851 0 0.0126054823520212 0.23636423330019771 0 0.0077140321468804358 0.2385265867330339 0 0.0126054823520212 0.23636423330019771 0 0.0085416573734026155 0.22819801020688621 0 0.017727136289162861 0.2365152537336975 0 0.0126054823520212 0.23636423330019771 0 0.0085416573734026155 0.22819801020688621 0 0.017727136289162861 0.2365152537336975 0 0.0085416573734026155 0.22819801020688621 0 0.01015167987923804 0.2168118577151856 0 0.017727136289162861 0.2365152537336975 0 0.01015167987923804 0.2168118577151856 0 -0.002811377939656971 0.22636901315550101 0 0.0077140321468804358 0.2385265867330339 0 0.0085416573734026155 0.22819801020688621 0 -0.002811377939656971 0.22636901315550101 0 0.0085416573734026155 0.22819801020688621 0 0.01015167987923804 0.2168118577151856 0 0.017727136289162861 0.2365152537336975 0 0.041630573730525401 0.2203137380605836 0 0.017727136289162861 0.2365152537336975 0 0.023045620695013511 0.20817260265979351 0 0.01015167987923804 0.2168118577151856 0 0.017727136289162861 0.2365152537336975 0 0.023045620695013511 0.20817260265979351 0 0.041630573730525401 0.2203137380605836 0 0.023045620695013511 0.20817260265979351 0 0.033359213804042193 0.2018921161030709 0 0.037298629330145709 0.20911825792537209 0 0.023045620695013511 0.20817260265979351 0 0.01015167987923804 0.2168118577151856 0 0.0044606676595015504 0.19603146725900319 0 0.01015167987923804 0.2168118577151856 0 0.0044606676595015504 0.19603146725900319 0 0.0025762234693159961 0.19710846169667279 0 -0.010160983059047481 0.20438800897853851 0 0.01015167987923804 0.2168118577151856 0 0.0025762234693159961 0.19710846169667279 0 0.01015167987923804 0.2168118577151856 0 0.0025762234693159961 0.19710846169667279 0 0.023045620695013511 0.20817260265979351 0 0.0044606676595015504 0.19603146725900319 0 0.0044606676595015504 0.19603146725900319 0 0.0025762234693159961 0.19710846169667279 0 0.001391189505103608 0.1940262456256156 0 0.0025762234693159961 0.19710846169667279 0 0.001391189505103608 0.1940262456256156 0 0.0044606676595015504 0.19603146725900319 0 0.0025762234693159961 0.19710846169667279 0 0.0045407035349788599 0.18447899626232361 0 0.0044606676595015504 0.19603146725900319 0 0.001391189505103608 0.1940262456256156 0 0.0044606676595015504 0.19603146725900319 0 0.001391189505103608 0.1940262456256156 0 0.01995838361492229 0.18717423817920559 0 0.0044606676595015504 0.19603146725900319 0 0.0045407035349788599 0.18447899626232361 0 0.01995838361492229 0.18717423817920559 0 0.0044606676595015504 0.19603146725900319 0 0.023045620695013511 0.20817260265979351 0 0.0044606676595015504 0.19603146725900319 0 0.026460683776846981 0.19345906646179539 0 0.01995838361492229 0.18717423817920559 0 0.0044606676595015504 0.19603146725900319 0 0.026460683776846981 0.19345906646179539 0 0.01995838361492229 0.18717423817920559 0 0.026460683776846981 0.19345906646179539 0 0.023045620695013511 0.20817260265979351 0 0.026460683776846981 0.19345906646179539 0 0.033359213804042193 0.2018921161030709 0 0.01995838361492229 0.18717423817920559 0 0.026460683776846981 0.19345906646179539 0 0.031793966316404312 0.18879553137187011 0 0.026460683776846981 0.19345906646179539 0 0.031793966316404312 0.18879553137187011 0 0.036970293075340568 0.1955186973829284 0 0.031793966316404312 0.18879553137187011 0 0.036970293075340568 0.1955186973829284 0 0.042127991037334861 0.18836354042583461 0 0.026460683776846981 0.19345906646179539 0 0.036970293075340568 0.1955186973829284 0 0.033359213804042193 0.2018921161030709 0 0.036970293075340568 0.1955186973829284 0 0.033359213804042193 0.2018921161030709 0 0.043020842142864162 0.20319195608546509 0 0.036970293075340568 0.1955186973829284 0 0.045915301341726611 0.19617298152228299 0 0.043020842142864162 0.20319195608546509 0 0.036970293075340568 0.1955186973829284 0 0.045915301341726611 0.19617298152228299 0 0.042127991037334861 0.18836354042583461 0 0.045915301341726611 0.19617298152228299 0 0.042127991037334861 0.18836354042583461 0 0.055180472240604447 0.19009578532033219 0 0.045915301341726611 0.19617298152228299 0 0.055180472240604447 0.19009578532033219 0 0.052450764993885443 0.19960031312471849 0 0.055180472240604447 0.19009578532033219 0 0.063490582775057092 0.19862693257514311 0 0.068140598911221373 0.18679577619366439 0 0.0573842440498194 0.20281718857359429 0 0.052450764993885443 0.19960031312471849 0 0.063490582775057092 0.19862693257514311 0 0.055180472240604447 0.19009578532033219 0 0.052450764993885443 0.19960031312471849 0 0.063490582775057092 0.19862693257514311 0 0.045915301341726611 0.19617298152228299 0 0.052450764993885443 0.19960031312471849 0 0.043020842142864162 0.20319195608546509 0 0.0573842440498194 0.20281718857359429 0 0.052450764993885443 0.19960031312471849 0 0.051867526243922081 0.20528138388826031 0 0.052450764993885443 0.19960031312471849 0 0.051867526243922081 0.20528138388826031 0 0.043020842142864162 0.20319195608546509 0 0.058331101070138627 0.20899428427466779 0 0.041630573730525401 0.2203137380605836 0 0.058331101070138627 0.20899428427466779 0 0.053344203750070318 0.21785601428085991 0 0.041630573730525401 0.2203137380605836 0 0.051867526243922081 0.20528138388826031 0 0.043020842142864162 0.20319195608546509 0 0.046687969184073447 0.21004351215263781 0 0.051867526243922081 0.20528138388826031 0 0.058331101070138627 0.20899428427466779 0 0.046687969184073447 0.21004351215263781 0 0.058331101070138627 0.20899428427466779 0 0.046687969184073447 0.21004351215263781 0 0.041630573730525401 0.2203137380605836 0 0.0573842440498194 0.20281718857359429 0 0.051867526243922081 0.20528138388826031 0 0.058331101070138627 0.20899428427466779 0 0.0573842440498194 0.20281718857359429 0 0.058331101070138627 0.20899428427466779 0 0.063490582775057092 0.19862693257514311 0 0.058331101070138627 0.20899428427466779 0 0.053344203750070318 0.21785601428085991 0 0.06284294622518477 0.21596093560733071 0 0.023045620695013511 0.20817260265979351 0 0.041630573730525401 0.2203137380605836 0 0.046687969184073447 0.21004351215263781 0 0.037298629330145709 0.20911825792537209 0 0.041630573730525401 0.2203137380605836 0 0.023045620695013511 0.20817260265979351 0 0.037298629330145709 0.20911825792537209 0 0.041630573730525401 0.2203137380605836 0 0.043020842142864162 0.20319195608546509 0 0.046687969184073447 0.21004351215263781 0 0.037298629330145709 0.20911825792537209 0 0.033359213804042193 0.2018921161030709 0 0.043020842142864162 0.20319195608546509 0 0.037298629330145709 0.20911825792537209 0 0.041630573730525401 0.2203137380605836 0 0.050572193974433112 0.22615509918085699 0 0.036615848951573667 0.23774960138775139 0 0.017727136289162861 0.2365152537336975 0 0.041630573730525401 0.2203137380605836 0 0.036615848951573667 0.23774960138775139 0 0.050572193974433112 0.22615509918085699 0 0.048565307179697779 0.23893237446487689 0 0.036615848951573667 0.23774960138775139 0 0.050572193974433112 0.22615509918085699 0 0.036615848951573667 0.23774960138775139 0 0.041630573730525401 0.2203137380605836 0 0.050572193974433112 0.22615509918085699 0 0.053344203750070318 0.21785601428085991 0 0.041630573730525401 0.2203137380605836 0 0.050572193974433112 0.22615509918085699 0 0.050572193974433112 0.22615509918085699 0 0.06284294622518477 0.21596093560733071 0 0.053344203750070318 0.21785601428085991 0 0.050572193974433112 0.22615509918085699 0 0.06284294622518477 0.21596093560733071 0 0.050572193974433112 0.22615509918085699 0 0.059554267882292691 0.22471498758618499 0 0.06284294622518477 0.21596093560733071 0 0.050572193974433112 0.22615509918085699 0 0.059554267882292691 0.22471498758618499 0 0.056902228252580907 0.23029036942425271 0 0.059554267882292691 0.22471498758618499 0 0.056902228252580907 0.23029036942425271 0 0.067899703076972087 0.22645354613229979 0 0.050572193974433112 0.22615509918085699 0 0.056902228252580907 0.23029036942425271 0 0.048565307179697779 0.23893237446487689 0 0.050572193974433112 0.22615509918085699 0 0.056902228252580907 0.23029036942425271 0 0.056902228252580907 0.23029036942425271 0 0.048565307179697779 0.23893237446487689 0 0.057450374928364988 0.23781398340115331 0 0.056902228252580907 0.23029036942425271 0 0.057450374928364988 0.23781398340115331 0 0.065290672116451176 0.2368132522415087 0 0.048565307179697779 0.23893237446487689 0 0.057450374928364988 0.23781398340115331 0 0.059043292164730067 0.24521993747397511 0 0.057450374928364988 0.23781398340115331 0 0.059043292164730067 0.24521993747397511 0 0.065290672116451176 0.2368132522415087 0 0.048565307179697779 0.23893237446487689 0 0.059043292164730067 0.24521993747397511 0 0.052989832146705641 0.25358807173480552 0 0.048565307179697779 0.23893237446487689 0 0.043353722786952362 0.25366369760515528 0 0.052989832146705641 0.25358807173480552 0 0.048565307179697779 0.23893237446487689 0 0.036615848951573667 0.23774960138775139 0 0.043353722786952362 0.25366369760515528 0 0.036615848951573667 0.23774960138775139 0 0.032618197778325211 0.25240829851996349 0 0.043353722786952362 0.25366369760515528 0 0.073607151453312453 0.24577795411565251 0 0.078854539615159397 0.23343708286999859 0 0.096279408473550737 0.24077944120247879 0 0.078854539615159397 0.23343708286999859 0 0.090610893333485085 0.22897835583545201 0 0.096279408473550737 0.24077944120247879 0 0.073607151453312453 0.24577795411565251 0 0.096279408473550737 0.24077944120247879 0 0.085402592710014227 0.25523206306219659 0 0.059043292164730067 0.24521993747397511 0 0.073607151453312453 0.24577795411565251 0 0.063874182138656699 0.25465448059656948 0 0.059043292164730067 0.24521993747397511 0 0.073607151453312453 0.24577795411565251 0 0.065290672116451176 0.2368132522415087 0 0.073607151453312453 0.24577795411565251 0 0.065290672116451176 0.2368132522415087 0 0.078854539615159397 0.23343708286999859 0 0.065290672116451176 0.2368132522415087 0 0.067899703076972087 0.22645354613229979 0 0.078854539615159397 0.23343708286999859 0 0.067899703076972087 0.22645354613229979 0 0.079439409237184871 0.22181994769259991 0 0.078854539615159397 0.23343708286999859 0 0.056902228252580907 0.23029036942425271 0 0.065290672116451176 0.2368132522415087 0 0.067899703076972087 0.22645354613229979 0 0.067899703076972087 0.22645354613229979 0 0.07268331257111818 0.21604080965486619 0 0.06284294622518477 0.21596093560733071 0 0.059554267882292691 0.22471498758618499 0 0.067899703076972087 0.22645354613229979 0 0.06284294622518477 0.21596093560733071 0 0.067899703076972087 0.22645354613229979 0 0.079439409237184871 0.22181994769259991 0 0.07268331257111818 0.21604080965486619 0 0.079439409237184871 0.22181994769259991 0 0.090610893333485085 0.22897835583545201 0 0.087701606260351103 0.22003747138264601 0 0.079439409237184871 0.22181994769259991 0 0.078854539615159397 0.23343708286999859 0 0.090610893333485085 0.22897835583545201 0 0.090610893333485085 0.22897835583545201 0 0.087701606260351103 0.22003747138264601 0 0.095616937651709338 0.21688245332662329 0 0.087701606260351103 0.22003747138264601 0 0.085139184819025077 0.21246912867590859 0 0.095616937651709338 0.21688245332662329 0 0.093202579119577592 0.20932493341107411 0 0.085139184819025077 0.21246912867590859 0 0.095616937651709338 0.21688245332662329 0 0.085139184819025077 0.21246912867590859 0 0.082874514329013133 0.2025935332092311 0 0.092130046618101036 0.20168235004093421 0 0.093202579119577592 0.20932493341107411 0 0.085139184819025077 0.21246912867590859 0 0.092130046618101036 0.20168235004093421 0 0.078347574105292167 0.21164535713471769 0 0.075113698475936547 0.2057667720338045 0 0.082874514329013133 0.2025935332092311 0 0.085139184819025077 0.21246912867590859 0 0.078347574105292167 0.21164535713471769 0 0.082874514329013133 0.2025935332092311 0 0.079439409237184871 0.22181994769259991 0 0.085139184819025077 0.21246912867590859 0 0.078347574105292167 0.21164535713471769 0 0.079439409237184871 0.22181994769259991 0 0.087701606260351103 0.22003747138264601 0 0.085139184819025077 0.21246912867590859 0 0.058331101070138627 0.20899428427466779 0 0.075113698475936547 0.2057667720338045 0 0.075031628409752069 0.1976748304887522 0 0.058331101070138627 0.20899428427466779 0 0.075031628409752069 0.1976748304887522 0 0.078347574105292167 0.21164535713471769 0 0.07268331257111818 0.21604080965486619 0 0.075113698475936547 0.2057667720338045 0 0.058331101070138627 0.20899428427466779 0 0.06284294622518477 0.21596093560733071 0 0.075113698475936547 0.2057667720338045 0 0.079439409237184871 0.22181994769259991 0 0.078347574105292167 0.21164535713471769 0 0.07268331257111818 0.21604080965486619 0 0.07268331257111818 0.21604080965486619 0 0.06284294622518477 0.21596093560733071 0 0.075113698475936547 0.2057667720338045 0 0.06284294622518477 0.21596093560733071 0 0.075113698475936547 0.2057667720338045 0 0.058331101070138627 0.20899428427466779 0 0.075031628409752069 0.1976748304887522 0 0.063490582775057092 0.19862693257514311 0 0.075113698475936547 0.2057667720338045 0 0.075031628409752069 0.1976748304887522 0 0.082874514329013133 0.2025935332092311 0 0.075031628409752069 0.1976748304887522 0 0.063490582775057092 0.19862693257514311 0 0.068140598911221373 0.18679577619366439 0 0.075031628409752069 0.1976748304887522 0 0.068140598911221373 0.18679577619366439 0 0.07940754336113201 0.18227240873445241 0 0.075031628409752069 0.1976748304887522 0 0.082874514329013133 0.2025935332092311 0 0.091732155749365524 0.18635537670283661 0 0.075031628409752069 0.1976748304887522 0 0.07940754336113201 0.18227240873445241 0 0.091732155749365524 0.18635537670283661 0 0.082874514329013133 0.2025935332092311 0 0.092130046618101036 0.20168235004093421 0 0.091732155749365524 0.18635537670283661 0 0.075031628409752069 0.1976748304887522 0 0.091732155749365524 0.18635537670283661 0 0.1006945382059329 0.1939718975702264 0 0.1121216262449688 0.20063360427175819 0 0.1075647150277541 0.1749223552347727 0 0.092130046618101036 0.20168235004093421 0 0.1006945382059329 0.1939718975702264 0 0.091732155749365524 0.18635537670283661 0 0.092130046618101036 0.20168235004093421 0 0.1006945382059329 0.1939718975702264 0 0.099924147389474943 0.20626580160083041 0 0.1006945382059329 0.1939718975702264 0 0.1121216262449688 0.20063360427175819 0 0.099924147389474943 0.20626580160083041 0 0.1121216262449688 0.20063360427175819 0 0.1075647150277541 0.1749223552347727 0 0.1121216262449688 0.20063360427175819 0 0.1206305337010955 0.21187176596305199 0 0.13319201626412089 0.1916491660242258 0 0.1121216262449688 0.20063360427175819 0 0.1212782526311813 0.18036178981945181 0 0.13319201626412089 0.1916491660242258 0 0.1121216262449688 0.20063360427175819 0 0.105877918150735 0.2151689148690728 0 0.11660091187193471 0.22650794875561259 0 0.1121216262449688 0.20063360427175819 0 0.12074263321423601 0.21780597443296221 0 0.11660091187193471 0.22650794875561259 0 0.1206305337010955 0.21187176596305199 0 0.12074263321423601 0.21780597443296221 0 0.13319201626412089 0.1916491660242258 0 0.1121216262449688 0.20063360427175819 0 0.1206305337010955 0.21187176596305199 0 0.12074263321423601 0.21780597443296221 0 0.1121216262449688 0.20063360427175819 0 0.11660091187193471 0.22650794875561259 0 0.1206305337010955 0.21187176596305199 0 0.12074263321423601 0.21780597443296221 0 0.1121216262449688 0.20063360427175819 0 0.105877918150735 0.2151689148690728 0 0.099924147389474943 0.20626580160083041 0 0.093202579119577592 0.20932493341107411 0 0.099924147389474943 0.20626580160083041 0 0.095616937651709338 0.21688245332662329 0 0.093202579119577592 0.20932493341107411 0 0.092130046618101036 0.20168235004093421 0 0.099924147389474943 0.20626580160083041 0 0.105877918150735 0.2151689148690728 0 0.099924147389474943 0.20626580160083041 0 0.095616937651709338 0.21688245332662329 0 0.1010127390143328 0.2256308037084741 0 0.11660091187193471 0.22650794875561259 0 0.096279408473550737 0.24077944120247879 0 0.105877918150735 0.2151689148690728 0 0.095616937651709338 0.21688245332662329 0 0.1010127390143328 0.2256308037084741 0 0.090610893333485085 0.22897835583545201 0 0.095616937651709338 0.21688245332662329 0 0.1010127390143328 0.2256308037084741 0 0.090610893333485085 0.22897835583545201 0 0.1010127390143328 0.2256308037084741 0 0.096279408473550737 0.24077944120247879 0 0.105877918150735 0.2151689148690728 0 0.1010127390143328 0.2256308037084741 0 0.11660091187193471 0.22650794875561259 0 0.12074263321423601 0.21780597443296221 0 0.11660091187193471 0.22650794875561259 0 0.1213056860738483 0.2476122862972884 0 0.12074263321423601 0.21780597443296221 0 0.1213056860738483 0.2476122862972884 0 0.12074263321423601 0.21780597443296221 0 0.11660091187193471 0.22650794875561259 0 0.11660091187193471 0.22650794875561259 0 0.1213056860738483 0.2476122862972884 0 0.096279408473550737 0.24077944120247879 0 0.11660091187193471 0.22650794875561259 0 0.1213056860738483 0.2476122862972884 0 0.1213056860738483 0.2476122862972884 0 0.096279408473550737 0.24077944120247879 0 0.1213056860738483 0.2476122862972884 0 0.096279408473550737 0.24077944120247879 0 0.1089588400304309 0.25217858384640102 0 0.096279408473550737 0.24077944120247879 0 0.1089588400304309 0.25217858384640102 0 0.097608458260007525 0.2553956630407313 0 0.098450892593324721 0.123499857160802 0 0.078211072193228981 0.1492377902798199 0 0.10300780381053939 0.1492111061977873 0 0.078211072193228981 0.1492377902798199 0 0.088960505029699599 0.16962829372681401 0 0.10300780381053939 0.1492111061977873 0 0.098450892593324721 0.123499857160802 0 0.078211072193228981 0.1492377902798199 0 0.07385327280487583 0.1279574730107286 0 0.055074874325343623 0.14289860323318199 0 0.078211072193228981 0.1492377902798199 0 0.07385327280487583 0.1279574730107286 0 0.058860870579015727 0.16080689646816099 0 0.055074874325343623 0.14289860323318199 0 0.078211072193228981 0.1492377902798199 0 0.058689805487457572 0.17690419539557889 0 0.058860870579015727 0.16080689646816099 0 0.073172828705621501 0.17090776656019471 0 0.058860870579015727 0.16080689646816099 0 0.078211072193228981 0.1492377902798199 0 0.073172828705621501 0.17090776656019471 0 0.073172828705621501 0.17090776656019471 0 0.068140598911221373 0.18679577619366439 0 0.07940754336113201 0.18227240873445241 0 0.058689805487457572 0.17690419539557889 0 0.073172828705621501 0.17090776656019471 0 0.068140598911221373 0.18679577619366439 0 0.073172828705621501 0.17090776656019471 0 0.07940754336113201 0.18227240873445241 0 0.088960505029699599 0.16962829372681401 0 0.07940754336113201 0.18227240873445241 0 0.091732155749365524 0.18635537670283661 0 0.088960505029699599 0.16962829372681401 0 0.078211072193228981 0.1492377902798199 0 0.073172828705621501 0.17090776656019471 0 0.088960505029699599 0.16962829372681401 0 0.1075647150277541 0.1749223552347727 0 0.10300780381053939 0.1492111061977873 0 0.088960505029699599 0.16962829372681401 0 0.1075647150277541 0.1749223552347727 0 0.10300780381053939 0.1492111061977873 0 0.091732155749365524 0.18635537670283661 0 0.088960505029699599 0.16962829372681401 0 0.1075647150277541 0.1749223552347727 0 0.1006945382059329 0.1939718975702264 0 0.091732155749365524 0.18635537670283661 0 0.1075647150277541 0.1749223552347727 0 0.1121216262449688 0.20063360427175819 0 0.1075647150277541 0.1749223552347727 0 0.1212782526311813 0.18036178981945181 0 0.1075647150277541 0.1749223552347727 0 0.1212782526311813 0.18036178981945181 0 0.11980758309640439 0.16138691243435821 0 0.1212782526311813 0.18036178981945181 0 0.11980758309640439 0.16138691243435821 0 0.1337053225226584 0.17321691113214399 0 0.1075647150277541 0.1749223552347727 0 0.11980758309640439 0.16138691243435821 0 0.10300780381053939 0.1492111061977873 0 0.10300780381053939 0.1492111061977873 0 0.1127225523366135 0.13357598489691849 0 0.1277122784884161 0.1449366291204095 0 0.11980758309640439 0.16138691243435821 0 0.10300780381053939 0.1492111061977873 0 0.1277122784884161 0.1449366291204095 0 0.098450892593324721 0.123499857160802 0 0.10300780381053939 0.1492111061977873 0 0.1127225523366135 0.13357598489691849 0 0.098450892593324721 0.123499857160802 0 0.10300780381053939 0.1492111061977873 0 0.12171923445417381 0.1166563471086751 0 0.1277122784884161 0.1449366291204095 0 0.12171923445417381 0.1166563471086751 0 0.1127225523366135 0.13357598489691849 0 0.1277122784884161 0.1449366291204095 0 0.12171923445417381 0.1166563471086751 0 0.1277122784884161 0.1449366291204095 0 0.1427979363658782 0.1181546997820309 0 0.1277122784884161 0.1449366291204095 0 0.1580907823638911 0.13933554920675359 0 0.1427979363658782 0.1181546997820309 0 0.1277122784884161 0.1449366291204095 0 0.14564139931400599 0.16549235761548969 0 0.1580907823638911 0.13933554920675359 0 0.14564139931400599 0.16549235761548969 0 0.1580907823638911 0.13933554920675359 0 0.1277122784884161 0.1449366291204095 0 0.1337053225226584 0.17321691113214399 0 0.1277122784884161 0.1449366291204095 0 0.1337053225226584 0.17321691113214399 0 0.14564139931400599 0.16549235761548969 0 0.11980758309640439 0.16138691243435821 0 0.1277122784884161 0.1449366291204095 0 0.1337053225226584 0.17321691113214399 0 0.14564139931400599 0.16549235761548969 0 0.13319201626412089 0.1916491660242258 0 0.1212782526311813 0.18036178981945181 0 0.1337053225226584 0.17321691113214399 0 0.13319201626412089 0.1916491660242258 0 0.1337053225226584 0.17321691113214399 0 0.14564139931400599 0.16549235761548969 0 0.13319201626412089 0.1916491660242258 0 0.1538506588781984 0.17833322156176659 0 0.14564139931400599 0.16549235761548969 0 0.13319201626412089 0.1916491660242258 0 0.1538506588781984 0.17833322156176659 0 0.13319201626412089 0.1916491660242258 0 0.15233189469414091 0.19132578004290859 0 0.1538506588781984 0.17833322156176659 0 0.14564139931400599 0.16549235761548969 0 0.16450826066710789 0.16551465558248291 0 0.14564139931400599 0.16549235761548969 0 0.16450826066710789 0.16551465558248291 0 0.1580907823638911 0.13933554920675359 0 0.1538506588781984 0.17833322156176659 0 0.16450826066710789 0.16551465558248291 0 0.16707537341650261 0.18505123069734999 0 0.16450826066710789 0.16551465558248291 0 0.16707537341650261 0.18505123069734999 0 0.18035575123754219 0.17475737984913059 0 0.1538506588781984 0.17833322156176659 0 0.16707537341650261 0.18505123069734999 0 0.15233189469414091 0.19132578004290859 0 0.16707537341650261 0.18505123069734999 0 0.18035575123754219 0.17475737984913059 0 0.18253518333129581 0.18927148940030539 0 0.16450826066710789 0.16551465558248291 0 0.18035575123754219 0.17475737984913059 0 0.18345965878039391 0.15834935704432951 0 0.1580907823638911 0.13933554920675359 0 0.1924405511201723 0.13833584811484259 0 0.17648004765510031 0.12192929980644431 0 0.18345965878039391 0.15834935704432951 0 0.1580907823638911 0.13933554920675359 0 0.1924405511201723 0.13833584811484259 0 0.16450826066710789 0.16551465558248291 0 0.18345965878039391 0.15834935704432951 0 0.1580907823638911 0.13933554920675359 0 0.1458403771888219 0.23318108865930309 0 0.16261964669816339 0.2374608501362766 0 0.14890374320077271 0.25514729618879239 0 0.1213056860738483 0.2476122862972884 0 0.1458403771888219 0.23318108865930309 0 0.14890374320077271 0.25514729618879239 0 0.1213056860738483 0.2476122862972884 0 0.13448809580279639 0.22495508248729959 0 0.1458403771888219 0.23318108865930309 0 0.12074263321423601 0.21780597443296221 0 0.1213056860738483 0.2476122862972884 0 0.13448809580279639 0.22495508248729959 0 0.1458403771888219 0.23318108865930309 0 0.14748412209844369 0.21652126498718319 0 0.16005768199625689 0.22386159879253451 0 0.1458403771888219 0.23318108865930309 0 0.16005768199625689 0.22386159879253451 0 0.16261964669816339 0.2374608501362766 0 0.13448809580279639 0.22495508248729959 0 0.1458403771888219 0.23318108865930309 0 0.14748412209844369 0.21652126498718319 0 0.14748412209844369 0.21652126498718319 0 0.15982661458176961 0.21109402780204109 0 0.16005768199625689 0.22386159879253451 0 0.14853676747315109 0.2032719233476018 0 0.14748412209844369 0.21652126498718319 0 0.15982661458176961 0.21109402780204109 0 0.14853676747315109 0.2032719233476018 0 0.14748412209844369 0.21652126498718319 0 0.1370676604386335 0.20965479805976109 0 0.12074263321423601 0.21780597443296221 0 0.13448809580279639 0.22495508248729959 0 0.1370676604386335 0.20965479805976109 0 0.12074263321423601 0.21780597443296221 0 0.1370676604386335 0.20965479805976109 0 0.13319201626412089 0.1916491660242258 0 0.12074263321423601 0.21780597443296221 0 0.13319201626412089 0.1916491660242258 0 0.13448809580279639 0.22495508248729959 0 0.14748412209844369 0.21652126498718319 0 0.1370676604386335 0.20965479805976109 0 0.14853676747315109 0.2032719233476018 0 0.1370676604386335 0.20965479805976109 0 0.13319201626412089 0.1916491660242258 0 0.14853676747315109 0.2032719233476018 0 0.13319201626412089 0.1916491660242258 0 0.15233189469414091 0.19132578004290859 0 0.14853676747315109 0.2032719233476018 0 0.15233189469414091 0.19132578004290859 0 0.1613182967617981 0.19938650316949089 0 0.16707537341650261 0.18505123069734999 0 0.15233189469414091 0.19132578004290859 0 0.1613182967617981 0.19938650316949089 0 0.1613182967617981 0.19938650316949089 0 0.1720146732414605 0.19806135744498421 0 0.16828872442136489 0.20740218658748391 0 0.16707537341650261 0.18505123069734999 0 0.1613182967617981 0.19938650316949089 0 0.1720146732414605 0.19806135744498421 0 0.18253518333129581 0.18927148940030539 0 0.18090034696820839 0.20819120808691741 0 0.19379719541521931 0.1987780033125896 0 0.18253518333129581 0.18927148940030539 0 0.1720146732414605 0.19806135744498421 0 0.18090034696820839 0.20819120808691741 0 0.16707537341650261 0.18505123069734999 0 0.18253518333129581 0.18927148940030539 0 0.1720146732414605 0.19806135744498421 0 0.18090034696820839 0.20819120808691741 0 0.170987022037843 0.21674336550763909 0 0.16828872442136489 0.20740218658748391 0 0.18090034696820839 0.20819120808691741 0 0.1866792028962817 0.22043731278209991 0 0.19379719541521931 0.1987780033125896 0 0.1720146732414605 0.19806135744498421 0 0.18090034696820839 0.20819120808691741 0 0.16828872442136489 0.20740218658748391 0 0.18090034696820839 0.20819120808691741 0 0.17868076787319839 0.21996888150868699 0 0.1866792028962817 0.22043731278209991 0 0.18090034696820839 0.20819120808691741 0 0.170987022037843 0.21674336550763909 0 0.17868076787319839 0.21996888150868699 0 0.170987022037843 0.21674336550763909 0 0.16828872442136489 0.20740218658748391 0 0.15982661458176961 0.21109402780204109 0 0.14853676747315109 0.2032719233476018 0 0.1613182967617981 0.19938650316949089 0 0.15982661458176961 0.21109402780204109 0 0.1613182967617981 0.19938650316949089 0 0.16828872442136489 0.20740218658748391 0 0.15982661458176961 0.21109402780204109 0 0.170987022037843 0.21674336550763909 0 0.15982661458176961 0.21109402780204109 0 0.16005768199625689 0.22386159879253451 0 0.16005768199625689 0.22386159879253451 0 0.171781177141313 0.22720748741778879 0 0.16261964669816339 0.2374608501362766 0 0.170987022037843 0.21674336550763909 0 0.16005768199625689 0.22386159879253451 0 0.171781177141313 0.22720748741778879 0 0.171781177141313 0.22720748741778879 0 0.17868076787319839 0.21996888150868699 0 0.18305609032234571 0.22726503374898979 0 0.170987022037843 0.21674336550763909 0 0.171781177141313 0.22720748741778879 0 0.17868076787319839 0.21996888150868699 0 0.1866792028962817 0.22043731278209991 0 0.18305609032234571 0.22726503374898979 0 0.19154568449639139 0.22739485689808059 0 0.17868076787319839 0.21996888150868699 0 0.1866792028962817 0.22043731278209991 0 0.18305609032234571 0.22726503374898979 0 0.171781177141313 0.22720748741778879 0 0.18305609032234571 0.22726503374898979 0 0.17533844599878401 0.23881415667391109 0 0.18305609032234571 0.22726503374898979 0 0.1858253834099535 0.24956588314712119 0 0.18305609032234571 0.22726503374898979 0 0.17533844599878401 0.23881415667391109 0 0.1858253834099535 0.24956588314712119 0 0.17533844599878401 0.23881415667391109 0 0.1858253834099535 0.24956588314712119 0 0.16983780392707379 0.24873409844527969 0 0.18305609032234571 0.22726503374898979 0 0.1858253834099535 0.24956588314712119 0 0.19154568449639139 0.22739485689808059 0 0.16983780392707379 0.24873409844527969 0 0.16261964669816339 0.2374608501362766 0 0.14890374320077271 0.25514729618879239 0 0.171781177141313 0.22720748741778879 0 0.17533844599878401 0.23881415667391109 0 0.16261964669816339 0.2374608501362766 0 0.17533844599878401 0.23881415667391109 0 0.16983780392707379 0.24873409844527969 0 0.16261964669816339 0.2374608501362766 0 0.2155377013779621 0.2429191543701347 0 0.2144623988128958 0.25192455982298267 0 0.22379560274636459 0.2523722143330201 0 0.2155377013779621 0.2429191543701347 0 0.20930433378831709 0.24876862656320389 0 0.2144623988128958 0.25192455982298267 0 0.2155377013779621 0.2429191543701347 0 0.21034708715711251 0.23772122936088691 0 0.20771142261258349 0.24323494044301491 0 0.2155377013779621 0.2429191543701347 0 0.21034708715711251 0.23772122936088691 0 0.2160784329614914 0.22899805328136871 0 0.21034708715711251 0.23772122936088691 0 0.20771142261258349 0.24323494044301491 0 0.2020607916764128 0.2357327693490294 0 0.2155377013779621 0.2429191543701347 0 0.20771142261258349 0.24323494044301491 0 0.20930433378831709 0.24876862656320389 0 0.20771142261258349 0.24323494044301491 0 0.2035744353402601 0.24901880409733501 0 0.2020607916764128 0.2357327693490294 0 0.20771142261258349 0.24323494044301491 0 0.20930433378831709 0.24876862656320389 0 0.2035744353402601 0.24901880409733501 0 0.1858253834099535 0.24956588314712119 0 0.2020607916764128 0.2357327693490294 0 0.1995275457339043 0.2302896720001415 0 0.2020607916764128 0.2357327693490294 0 0.18703479091032049 0.25930512477789341 0 0.1963167190748922 0.25451843354534293 0 0.1858253834099535 0.24956588314712119 0 0.1995275457339043 0.2302896720001415 0 0.19154568449639139 0.22739485689808059 0 0.1858253834099535 0.24956588314712119 0 0.1995275457339043 0.2302896720001415 0 0.2020607916764128 0.2357327693490294 0 0.18703479091032049 0.25930512477789341 0 0.2035744353402601 0.24901880409733501 0 0.2020607916764128 0.2357327693490294 0 0.1963167190748922 0.25451843354534293 0 0.1858253834099535 0.24956588314712119 0 0.2020607916764128 0.2357327693490294 0 0.18703479091032049 0.25930512477789341 0 0.1995275457339043 0.2302896720001415 0 0.19154568449639139 0.22739485689808059 0 0.20140392368452109 0.21453884606237841 0 0.1866792028962817 0.22043731278209991 0 0.19154568449639139 0.22739485689808059 0 0.20140392368452109 0.21453884606237841 0 0.2020607916764128 0.2357327693490294 0 0.2160784329614914 0.22899805328136871 0 0.21708679244250551 0.2121604139201656 0 0.1995275457339043 0.2302896720001415 0 0.21708679244250551 0.2121604139201656 0 0.20140392368452109 0.21453884606237841 0 0.2020607916764128 0.2357327693490294 0 0.1995275457339043 0.2302896720001415 0 0.21708679244250551 0.2121604139201656 0 0.2020607916764128 0.2357327693490294 0 0.21708679244250551 0.2121604139201656 0 0.21034708715711251 0.23772122936088691 0 0.2020607916764128 0.2357327693490294 0 0.2160784329614914 0.22899805328136871 0 0.21708679244250551 0.2121604139201656 0 0.20140392368452109 0.21453884606237841 0 0.20923730709231231 0.1941843287749227 0 0.1866792028962817 0.22043731278209991 0 0.20140392368452109 0.21453884606237841 0 0.19379719541521931 0.1987780033125896 0 0.1866792028962817 0.22043731278209991 0 0.19379719541521931 0.1987780033125896 0 0.19379719541521931 0.1987780033125896 0 0.20091518793415669 0.17711869384307941 0 0.18253518333129581 0.18927148940030539 0 0.19379719541521931 0.1987780033125896 0 0.20091518793415669 0.17711869384307941 0 0.20140392368452109 0.21453884606237841 0 0.19379719541521931 0.1987780033125896 0 0.20923730709231231 0.1941843287749227 0 0.19379719541521931 0.1987780033125896 0 0.20923730709231231 0.1941843287749227 0 0.20091518793415669 0.17711869384307941 0 0.21708679244250551 0.2121604139201656 0 0.20923730709231231 0.1941843287749227 0 0.22692196052054911 0.1866638160487841 0 0.21708679244250551 0.2121604139201656 0 0.24596638305386351 0.2053019982779995 0 0.22692196052054911 0.1866638160487841 0 0.24547313587171651 0.1880758744333012 0 0.24596638305386351 0.2053019982779995 0 0.22692196052054911 0.1866638160487841 0 0.24596638305386351 0.2053019982779995 0 0.23128794367745789 0.2232427292781663 0 0.24814759964741839 0.2265731871880011 0 0.21708679244250551 0.2121604139201656 0 0.24596638305386351 0.2053019982779995 0 0.23128794367745789 0.2232427292781663 0 0.2160784329614914 0.22899805328136871 0 0.21708679244250551 0.2121604139201656 0 0.23128794367745789 0.2232427292781663 0 0.2160784329614914 0.22899805328136871 0 0.23128794367745789 0.2232427292781663 0 0.23104336182544691 0.2378540371368745 0 0.23128794367745789 0.2232427292781663 0 0.24814759964741839 0.2265731871880011 0 0.23104336182544691 0.2378540371368745 0 0.246895936366299 0.2418550977724778 0 0.23104336182544691 0.2378540371368745 0 0.23560866258503799 0.25097121006181622 0 0.24814759964741839 0.2265731871880011 0 0.246895936366299 0.2418550977724778 0 0.23104336182544691 0.2378540371368745 0 0.23104336182544691 0.2378540371368745 0 0.22379560274636459 0.2523722143330201 0 0.23560866258503799 0.25097121006181622 0 0.2155377013779621 0.2429191543701347 0 0.2160784329614914 0.22899805328136871 0 0.23104336182544691 0.2378540371368745 0 0.2155377013779621 0.2429191543701347 0 0.23104336182544691 0.2378540371368745 0 0.22379560274636459 0.2523722143330201 0 0.2080331804530943 0.15545938437356921 0 0.21515117297203179 0.13380007490405901 0 0.22889902833674791 0.16275516637046389 0 0.2080331804530943 0.15545938437356921 0 0.21515117297203179 0.13380007490405901 0 0.2080331804530943 0.15545938437356921 0 0.21515117297203179 0.13380007490405901 0 0.1924405511201723 0.13833584811484259 0 0.21515117297203179 0.13380007490405901 0 0.1924405511201723 0.13833584811484259 0 0.1964668641467498 0.11509535161944399 0 0.1924405511201723 0.13833584811484259 0 0.1964668641467498 0.11509535161944399 0 0.17648004765510031 0.12192929980644431 0 0.18345965878039391 0.15834935704432951 0 0.2080331804530943 0.15545938437356921 0 0.1924405511201723 0.13833584811484259 0 0.18035575123754219 0.17475737984913059 0 0.18345965878039391 0.15834935704432951 0 0.20091518793415669 0.17711869384307941 0 0.18345965878039391 0.15834935704432951 0 0.2080331804530943 0.15545938437356921 0 0.20091518793415669 0.17711869384307941 0 0.18035575123754219 0.17475737984913059 0 0.18253518333129581 0.18927148940030539 0 0.20091518793415669 0.17711869384307941 0 0.20923730709231231 0.1941843287749227 0 0.20091518793415669 0.17711869384307941 0 0.22692196052054911 0.1866638160487841 0 0.2080331804530943 0.15545938437356921 0 0.20091518793415669 0.17711869384307941 0 0.2080331804530943 0.15545938437356921 0 0.20091518793415669 0.17711869384307941 0 0.22889902833674791 0.16275516637046389 0 0.20091518793415669 0.17711869384307941 0 0.22889902833674791 0.16275516637046389 0 0.22692196052054911 0.1866638160487841 0 0.22889902833674791 0.16275516637046389 0 0.22692196052054911 0.1866638160487841 0 0.24962071530462759 0.1706126020952172 0 0.24547313587171651 0.1880758744333012 0 0.22692196052054911 0.1866638160487841 0 0.24962071530462759 0.1706126020952172 0 0.22889902833674791 0.16275516637046389 0 0.24962071530462759 0.1706126020952172 0 0.24293896807651871 0.1409810644847079 0 0.21515117297203179 0.13380007490405901 0 0.22889902833674791 0.16275516637046389 0 0.24293896807651871 0.1409810644847079 0 0.21515117297203179 0.13380007490405901 0 0.24293896807651871 0.1409810644847079 0 0.22897336154753531 0.1230302456476452 0 0.21515117297203179 0.13380007490405901 0 0.22897336154753531 0.1230302456476452 0 0.2155348195508543 0.1181815485627454 0 0.24293896807651871 0.1409810644847079 0 0.24574646492735239 0.1179602237306261 0 0.22897336154753531 0.1230302456476452 0 0.24574646492735239 0.1179602237306261 0 0.23952968841830041 0.10599045005687049 0 0.2263953438833895 0.1056983114176627 0 0.24574646492735239 0.1179602237306261 0 0.2263953438833895 0.1056983114176627 0 0.23952968841830041 0.10599045005687049 0 0.23681741060952929 0.094327397871516935 0 0.2599192362836501 0.098487896685821807 0 0.24574646492735239 0.1179602237306261 0 0.23952968841830041 0.10599045005687049 0 0.2599192362836501 0.098487896685821807 0 0.23952968841830041 0.10599045005687049 0 0.23681741060952929 0.094327397871516935 0 0.23243666282463779 0.102297013434387 0 0.23681741060952929 0.094327397871516935 0 0.22700420838733201 0.1031718943914977 0 0.22600355799066091 0.08673894295084382 0 0.22700420838733201 0.1031718943914977 0 0.2263953438833895 0.1056983114176627 0 0.20704422283942631 0.093436399104699613 0 0.22700420838733201 0.1031718943914977 0 0.20704422283942631 0.093436399104699613 0 0.22600355799066091 0.08673894295084382 0 0.22700420838733201 0.1031718943914977 0 0.22600355799066091 0.08673894295084382 0 0.23681741060952929 0.094327397871516935 0 0.22700420838733201 0.1031718943914977 0 0.23243666282463779 0.102297013434387 0 0.23952968841830041 0.10599045005687049 0 0.23243666282463779 0.102297013434387 0 0.2263953438833895 0.1056983114176627 0 0.22700420838733201 0.1031718943914977 0 0.23243666282463779 0.102297013434387 0 0.2263953438833895 0.1056983114176627 0 0.2263953438833895 0.1056983114176627 0 0.22173217090670541 0.1140858526629228 0 0.21378176526062309 0.1079049543038451 0 0.24574646492735239 0.1179602237306261 0 0.2263953438833895 0.1056983114176627 0 0.22897336154753531 0.1230302456476452 0 0.2263953438833895 0.1056983114176627 0 0.22897336154753531 0.1230302456476452 0 0.22173217090670541 0.1140858526629228 0 0.22897336154753531 0.1230302456476452 0 0.22173217090670541 0.1140858526629228 0 0.2155348195508543 0.1181815485627454 0 0.2155348195508543 0.1181815485627454 0 0.21378176526062309 0.1079049543038451 0 0.1964668641467498 0.11509535161944399 0 0.21515117297203179 0.13380007490405901 0 0.2155348195508543 0.1181815485627454 0 0.1964668641467498 0.11509535161944399 0 0.22173217090670541 0.1140858526629228 0 0.2155348195508543 0.1181815485627454 0 0.21378176526062309 0.1079049543038451 0 0.2263953438833895 0.1056983114176627 0 0.20704422283942631 0.093436399104699613 0 0.21378176526062309 0.1079049543038451 0 0.1964668641467498 0.11509535161944399 0 0.20704422283942631 0.093436399104699613 0 0.2263953438833895 0.1056983114176627 0 0.21378176526062309 0.1079049543038451 0 0.20704422283942631 0.093436399104699613 0 0.1964668641467498 0.11509535161944399 0 0.20704422283942631 0.093436399104699613 0 0.1880737996247609 0.095667765787705639 0 0.1964668641467498 0.11509535161944399 0 0.20704422283942631 0.093436399104699613 0 0.1961737114367765 0.075622973157315088 0 0.20419168156264131 0.071717890523052774 0 0.20543738465884059 0.077579183721712588 0 0.1961737114367765 0.075622973157315088 0 0.19622472185546991 0.064573029304959673 0 0.20419168156264131 0.071717890523052774 0 0.1961737114367765 0.075622973157315088 0 0.19622472185546991 0.064573029304959673 0 0.187542207096108 0.069809903911935131 0 0.1961737114367765 0.075622973157315088 0 0.187542207096108 0.069809903911935131 0 0.18425185968072341 0.078993930483770125 0 0.1961737114367765 0.075622973157315088 0 0.20704422283942631 0.093436399104699613 0 0.20543738465884059 0.077579183721712588 0 0.1880737996247609 0.095667765787705639 0 0.20704422283942631 0.093436399104699613 0 0.18425185968072341 0.078993930483770125 0 0.1961737114367765 0.075622973157315088 0 0.20704422283942631 0.093436399104699613 0 0.18425185968072341 0.078993930483770125 0 0.20704422283942631 0.093436399104699613 0 0.18425185968072341 0.078993930483770125 0 0.20704422283942631 0.093436399104699613 0 0.21893090829947789 0.06909637590822397 0 0.20704422283942631 0.093436399104699613 0 0.20543738465884059 0.077579183721712588 0 0.21893090829947789 0.06909637590822397 0 0.20704422283942631 0.093436399104699613 0 0.21893090829947789 0.06909637590822397 0 0.21924539918088881 0.079894427368489257 0 0.20704422283942631 0.093436399104699613 0 0.22600355799066091 0.08673894295084382 0 0.21924539918088881 0.079894427368489257 0 0.19622472185546991 0.064573029304959673 0 0.20419168156264131 0.071717890523052774 0 0.21893090829947789 0.06909637590822397 0 0.19622472185546991 0.064573029304959673 0 0.21893090829947789 0.06909637590822397 0 0.19622472185546991 0.064573029304959673 0 0.21893090829947789 0.06909637590822397 0 0.20691732942491989 0.061467504339821878 0 0.20419168156264131 0.071717890523052774 0 0.20543738465884059 0.077579183721712588 0 0.21893090829947789 0.06909637590822397 0 0.21893090829947789 0.06909637590822397 0 0.20691732942491989 0.061467504339821878 0 0.2151698145203132 0.059586891208060752 0 0.21893090829947789 0.06909637590822397 0 0.2242642439958796 0.058175458129992648 0 0.22500290759398961 0.070305991510189972 0 0.2268645167602481 0.070676846542125402 0 0.22600355799066091 0.08673894295084382 0 0.22500290759398961 0.070305991510189972 0 0.22779705887448451 0.064771106606023837 0 0.2242642439958796 0.058175458129992648 0 0.22500290759398961 0.070305991510189972 0 0.21893090829947789 0.06909637590822397 0 0.2242642439958796 0.058175458129992648 0 0.22500290759398961 0.070305991510189972 0 0.2242642439958796 0.058175458129992648 0 0.22500290759398961 0.070305991510189972 0 0.21893090829947789 0.06909637590822397 0 0.22500290759398961 0.070305991510189972 0 0.21893090829947789 0.06909637590822397 0 0.21924539918088881 0.079894427368489257 0 0.22500290759398961 0.070305991510189972 0 0.2268645167602481 0.070676846542125402 0 0.2268645167602481 0.070676846542125402 0 0.23310032929150731 0.071774543857816037 0 0.23450357035048849 0.079140436987829604 0 0.23310032929150731 0.071774543857816037 0 0.22976452125148161 0.067667097403845675 0 0.2349966983849959 0.067422824082514571 0 0.22976452125148161 0.067667097403845675 0 0.2349966983849959 0.067422824082514571 0 0.23053668651236511 0.06188615083208017 0 0.22779705887448451 0.064771106606023837 0 0.22976452125148161 0.067667097403845675 0 0.23053668651236511 0.06188615083208017 0 0.22500290759398961 0.070305991510189972 0 0.22779705887448451 0.064771106606023837 0 0.22976452125148161 0.067667097403845675 0 0.2268645167602481 0.070676846542125402 0 0.23310032929150731 0.071774543857816037 0 0.22976452125148161 0.067667097403845675 0 0.22500290759398961 0.070305991510189972 0 0.2268645167602481 0.070676846542125402 0 0.22976452125148161 0.067667097403845675 0 0.2268645167602481 0.070676846542125402 0 0.22600355799066091 0.08673894295084382 0 0.23450357035048849 0.079140436987829604 0 0.22500290759398961 0.070305991510189972 0 0.22600355799066091 0.08673894295084382 0 0.22500290759398961 0.070305991510189972 0 0.22600355799066091 0.08673894295084382 0 0.21924539918088881 0.079894427368489257 0 0.23681741060952929 0.094327397871516935 0 0.22600355799066091 0.08673894295084382 0 0.23450357035048849 0.079140436987829604 0 0.23681741060952929 0.094327397871516935 0 0.24794987632136711 0.083759477517865916 0 0.2599192362836501 0.098487896685821807 0 0.23681741060952929 0.094327397871516935 0 0.23450357035048849 0.079140436987829604 0 0.24794987632136711 0.083759477517865916 0 0.23310032929150731 0.071774543857816037 0 0.2349966983849959 0.067422824082514571 0 0.2421768721083816 0.071196105135489018 0 0.2349966983849959 0.067422824082514571 0 0.23916216136853799 0.061188983225174381 0 0.23053668651236511 0.06188615083208017 0 0.2349966983849959 0.067422824082514571 0 0.2421768721083816 0.071196105135489018 0 0.23916216136853799 0.061188983225174381 0 0.23450357035048849 0.079140436987829604 0 0.24794987632136711 0.083759477517865916 0 0.2421768721083816 0.071196105135489018 0 0.23310032929150731 0.071774543857816037 0 0.23450357035048849 0.079140436987829604 0 0.2421768721083816 0.071196105135489018 0 0.24794987632136711 0.083759477517865916 0 0.2421768721083816 0.071196105135489018 0 0.2538397355107051 0.073465031100533124 0 0.2421768721083816 0.071196105135489018 0 0.25302312704258317 0.061179725418258307 0 0.2538397355107051 0.073465031100533124 0 0.2421768721083816 0.071196105135489018 0 0.23916216136853799 0.061188983225174381 0 0.25302312704258317 0.061179725418258307 0 0.23916216136853799 0.061188983225174381 0 0.24762101120155181 0.049463817324327149 0 0.22723543519881151 0.052091435544929898 0 0.24762101120155181 0.049463817324327149 0 0.22723543519881151 0.052091435544929898 0 0.23916216136853799 0.061188983225174381 0 0.24762101120155181 0.049463817324327149 0 0.25302312704258317 0.061179725418258307 0 0.24762101120155181 0.049463817324327149 0 0.24033823497553039 0.02526121011532587 0 0.25417241108990979 0.03604870460952761 0 0.24762101120155181 0.049463817324327149 0 0.22723543519881151 0.052091435544929898 0 0.24033823497553039 0.02526121011532587 0 0.2227034520571424 0.032543710794900448 0 0.22391979406838969 0.052518808264055611 0 0.22723543519881151 0.052091435544929898 0 0.2227034520571424 0.032543710794900448 0 0.22391979406838969 0.052518808264055611 0 0.21314558555120769 0.04496664498991116 0 0.2227034520571424 0.032543710794900448 0 0.22723543519881151 0.052091435544929898 0 0.24033823497553039 0.02526121011532587 0 0.2227034520571424 0.032543710794900448 0 0.22391979406838969 0.052518808264055611 0 0.22723543519881151 0.052091435544929898 0 0.24033823497553039 0.02526121011532587 0 0.22391979406838969 0.052518808264055611 0 0.2242642439958796 0.058175458129992648 0 0.22723543519881151 0.052091435544929898 0 0.22391979406838969 0.052518808264055611 0 0.22723543519881151 0.052091435544929898 0 0.22391979406838969 0.052518808264055611 0 0.2242642439958796 0.058175458129992648 0 0.2151698145203132 0.059586891208060752 0 0.21893090829947789 0.06909637590822397 0 0.2242642439958796 0.058175458129992648 0 0.2151698145203132 0.059586891208060752 0 0.2242642439958796 0.058175458129992648 0 0.22723543519881151 0.052091435544929898 0 0.22391979406838969 0.052518808264055611 0 0.2242642439958796 0.058175458129992648 0 0.23916216136853799 0.061188983225174381 0 0.23053668651236511 0.06188615083208017 0 0.22723543519881151 0.052091435544929898 0 0.2242642439958796 0.058175458129992648 0 0.23053668651236511 0.06188615083208017 0 0.22723543519881151 0.052091435544929898 0 0.22779705887448451 0.064771106606023837 0 0.2242642439958796 0.058175458129992648 0 0.23053668651236511 0.06188615083208017 0 0.23605465630549249 0.0014166204133651461 0 0.24895436299273749 0.0076182131245065288 0 0.24759340468958241 -0.008806463094161018 0 0.24895436299273749 0.0076182131245065288 0 0.23629945375418579 0.012754958762324169 0 0.24033823497553039 0.02526121011532587 0 0.23605465630549249 0.0014166204133651461 0 0.24895436299273749 0.0076182131245065288 0 0.23629945375418579 0.012754958762324169 0 0.24895436299273749 0.0076182131245065288 0 0.24033823497553039 0.02526121011532587 0 0.24895436299273749 0.0076182131245065288 0 0.24033823497553039 0.02526121011532587 0 0.2595210127702971 0.02037293983888299 0 0.24033823497553039 0.02526121011532587 0 0.25417241108990979 0.03604870460952761 0 0.2227034520571424 0.032543710794900448 0 0.22148711004589511 0.012568613325745361 0 0.22428168170882601 0.01274076953915996 0 0.2227034520571424 0.032543710794900448 0 0.24033823497553039 0.02526121011532587 0 0.22428168170882601 0.01274076953915996 0 0.2227034520571424 0.032543710794900448 0 0.22148711004589511 0.012568613325745361 0 0.2142607435254634 0.021978020631484751 0 0.24033823497553039 0.02526121011532587 0 0.22428168170882601 0.01274076953915996 0 0.23629945375418579 0.012754958762324169 0 0.24033823497553039 0.02526121011532587 0 0.22428168170882601 0.01274076953915996 0 0.2227034520571424 0.032543710794900448 0 0.22148711004589511 0.012568613325745361 0 0.23629945375418579 0.012754958762324169 0 0.22428168170882601 0.01274076953915996 0 0.23031685974836641 0.0077046470766431591 0 0.22428168170882601 0.01274076953915996 0 0.23031685974836641 0.0077046470766431591 0 0.2216047672690743 -0.00038218306159509922 0 0.23605465630549249 0.0014166204133651461 0 0.23629945375418579 0.012754958762324169 0 0.23031685974836641 0.0077046470766431591 0 0.23605465630549249 0.0014166204133651461 0 0.23031685974836641 0.0077046470766431591 0 0.2216047672690743 -0.00038218306159509922 0 0.22148711004589511 0.012568613325745361 0 0.22428168170882601 0.01274076953915996 0 0.20822512844212371 0.0002203289629913695 0 0.22428168170882601 0.01274076953915996 0 0.20822512844212371 0.0002203289629913695 0 0.22428168170882601 0.01274076953915996 0 0.20822512844212371 0.0002203289629913695 0 0.2216047672690743 -0.00038218306159509922 0 0.20822512844212371 0.0002203289629913695 0 0.20986700592578869 0.01230130636932966 0 0.19921916991950231 0.0066032338418749864 0 0.22148711004589511 0.012568613325745361 0 0.20822512844212371 0.0002203289629913695 0 0.20986700592578869 0.01230130636932966 0 0.22148711004589511 0.012568613325745361 0 0.20986700592578869 0.01230130636932966 0 0.2142607435254634 0.021978020631484751 0 0.20986700592578869 0.01230130636932966 0 0.20491961162950889 0.019134891457568221 0 0.19921916991950231 0.0066032338418749864 0 0.20986700592578869 0.01230130636932966 0 0.20491961162950889 0.019134891457568221 0 0.2142607435254634 0.021978020631484751 0 0.2227034520571424 0.032543710794900448 0 0.2142607435254634 0.021978020631484751 0 0.20936035705912379 0.03071138724397424 0 0.20491961162950889 0.019134891457568221 0 0.2142607435254634 0.021978020631484751 0 0.20936035705912379 0.03071138724397424 0 0.20491961162950889 0.019134891457568221 0 0.20936035705912379 0.03071138724397424 0 0.19918810578960461 0.027581862143883262 0 0.19918810578960461 0.027581862143883262 0 0.18920933887774211 0.026571330282782791 0 0.19212970671609039 0.0361044451202744 0 0.19918810578960461 0.027581862143883262 0 0.18920933887774211 0.026571330282782791 0 0.19269164321551299 0.015517591496703811 0 0.20491961162950889 0.019134891457568221 0 0.19918810578960461 0.027581862143883262 0 0.19269164321551299 0.015517591496703811 0 0.20491961162950889 0.019134891457568221 0 0.19269164321551299 0.015517591496703811 0 0.19921916991950231 0.0066032338418749864 0 0.19269164321551299 0.015517591496703811 0 0.19921916991950231 0.0066032338418749864 0 0.18570202397036051 0.0033003287221531879 0 0.22391979406838969 0.052518808264055611 0 0.20463860447169019 0.055004075547767081 0 0.2151698145203132 0.059586891208060752 0 0.22391979406838969 0.052518808264055611 0 0.20463860447169019 0.055004075547767081 0 0.22391979406838969 0.052518808264055611 0 0.20463860447169019 0.055004075547767081 0 0.21314558555120769 0.04496664498991116 0 0.20463860447169019 0.055004075547767081 0 0.21314558555120769 0.04496664498991116 0 0.2045780196733088 0.046329070238673269 0 0.20463860447169019 0.055004075547767081 0 0.20691732942491989 0.061467504339821878 0 0.19962259797764809 0.059077149730098213 0 0.20463860447169019 0.055004075547767081 0 0.20691732942491989 0.061467504339821878 0 0.2151698145203132 0.059586891208060752 0 0.2227034520571424 0.032543710794900448 0 0.20936035705912379 0.03071138724397424 0 0.21314558555120769 0.04496664498991116 0 0.20936035705912379 0.03071138724397424 0 0.19918810578960461 0.027581862143883262 0 0.2019446438018159 0.03806319344609764 0 0.20936035705912379 0.03071138724397424 0 0.21314558555120769 0.04496664498991116 0 0.2019446438018159 0.03806319344609764 0 0.21314558555120769 0.04496664498991116 0 0.2045780196733088 0.046329070238673269 0 0.2019446438018159 0.03806319344609764 0 0.2045780196733088 0.046329070238673269 0 0.2019446438018159 0.03806319344609764 0 0.19629251892443289 0.04851141298885342 0 0.2019446438018159 0.03806319344609764 0 0.19212970671609039 0.0361044451202744 0 0.19629251892443289 0.04851141298885342 0 0.19918810578960461 0.027581862143883262 0 0.2019446438018159 0.03806319344609764 0 0.19212970671609039 0.0361044451202744 0 0.19212970671609039 0.0361044451202744 0 0.19629251892443289 0.04851141298885342 0 0.185613920846635 0.043312802787240902 0 0.19622472185546991 0.064573029304959673 0 0.1931735622625462 0.058676908817166008 0 0.173518535411462 0.060049682701695653 0 0.18895774551338351 0.050167904312632718 0 0.19629251892443289 0.04851141298885342 0 0.185613920846635 0.043312802787240902 0 0.18895774551338351 0.050167904312632718 0 0.19629251892443289 0.04851141298885342 0 0.1931735622625462 0.058676908817166008 0 0.18895774551338351 0.050167904312632718 0 0.1931735622625462 0.058676908817166008 0 0.18075098001991971 0.050170492657270561 0 0.20463860447169019 0.055004075547767081 0 0.2045780196733088 0.046329070238673269 0 0.19629251892443289 0.04851141298885342 0 0.20463860447169019 0.055004075547767081 0 0.19629251892443289 0.04851141298885342 0 0.19962259797764809 0.059077149730098213 0 0.19622472185546991 0.064573029304959673 0 0.20691732942491989 0.061467504339821878 0 0.19962259797764809 0.059077149730098213 0 0.19629251892443289 0.04851141298885342 0 0.19962259797764809 0.059077149730098213 0 0.1931735622625462 0.058676908817166008 0 0.19622472185546991 0.064573029304959673 0 0.19962259797764809 0.059077149730098213 0 0.1931735622625462 0.058676908817166008 0 0.1931735622625462 0.058676908817166008 0 0.1724125975954211 0.054218259992369913 0 0.19622472185546991 0.064573029304959673 0 0.173518535411462 0.060049682701695653 0 0.1931735622625462 0.058676908817166008 0 0.173518535411462 0.060049682701695653 0 0.1724125975954211 0.054218259992369913 0 0.1931735622625462 0.058676908817166008 0 0.1724125975954211 0.054218259992369913 0 0.18075098001991971 0.050170492657270561 0 0.17432829061573549 0.048847223760455367 0 0.1724125975954211 0.054218259992369913 0 0.18075098001991971 0.050170492657270561 0 0.17432829061573549 0.048847223760455367 0 0.18075098001991971 0.050170492657270561 0 0.17593058733225531 0.043719427627655322 0 0.18895774551338351 0.050167904312632718 0 0.18075098001991971 0.050170492657270561 0 0.185613920846635 0.043312802787240902 0 0.18075098001991971 0.050170492657270561 0 0.185613920846635 0.043312802787240902 0 0.17593058733225531 0.043719427627655322 0 0.185613920846635 0.043312802787240902 0 0.17908841483996099 0.033836914937410353 0 0.17593058733225531 0.043719427627655322 0 0.18920933887774211 0.026571330282782791 0 0.19212970671609039 0.0361044451202744 0 0.17908841483996099 0.033836914937410353 0 0.19212970671609039 0.0361044451202744 0 0.185613920846635 0.043312802787240902 0 0.17908841483996099 0.033836914937410353 0 0.17908841483996099 0.033836914937410353 0 0.17593058733225531 0.043719427627655322 0 0.16840022032115171 0.039157040814861301 0 0.17432829061573549 0.048847223760455367 0 0.17593058733225531 0.043719427627655322 0 0.16746074305966069 0.046526358384289278 0 0.16746074305966069 0.046526358384289278 0 0.1613208117924535 0.043312735839341178 0 0.15165163292829609 0.049759611167573811 0 0.17593058733225531 0.043719427627655322 0 0.16840022032115171 0.039157040814861301 0 0.16746074305966069 0.046526358384289278 0 0.16840022032115171 0.039157040814861301 0 0.16746074305966069 0.046526358384289278 0 0.1613208117924535 0.043312735839341178 0 0.17908841483996099 0.033836914937410353 0 0.16840022032115171 0.039157040814861301 0 0.1655348213052647 0.030345425712231981 0 0.16840022032115171 0.039157040814861301 0 0.16056382896261101 0.038000395899301993 0 0.1655348213052647 0.030345425712231981 0 0.16056382896261101 0.038000395899301993 0 0.1655348213052647 0.030345425712231981 0 0.1524583871923007 0.035352813602302913 0 0.16840022032115171 0.039157040814861301 0 0.16056382896261101 0.038000395899301993 0 0.1613208117924535 0.043312735839341178 0 0.16056382896261101 0.038000395899301993 0 0.1613208117924535 0.043312735839341178 0 0.1551049042018845 0.041833963527772591 0 0.173518535411462 0.060049682701695653 0 0.15081234896745399 0.05552633609843162 0 0.1724125975954211 0.054218259992369913 0 0.16746074305966069 0.046526358384289278 0 0.15165163292829609 0.049759611167573811 0 0.173518535411462 0.060049682701695653 0 0.1724125975954211 0.054218259992369913 0 0.15081234896745399 0.05552633609843162 0 0.1724125975954211 0.054218259992369913 0 0.15165163292829609 0.049759611167573811 0 0.173518535411462 0.060049682701695653 0 0.15677746668175649 0.061351884767031552 0 0.15081234896745399 0.05552633609843162 0 0.173518535411462 0.060049682701695653 0 0.15677746668175649 0.061351884767031552 0 0.1614594965220203 0.064551461862840984 0 0.1724125975954211 0.054218259992369913 0 0.15081234896745399 0.05552633609843162 0 0.15165163292829609 0.049759611167573811 0 0.17432829061573549 0.048847223760455367 0 0.1724125975954211 0.054218259992369913 0 0.16746074305966069 0.046526358384289278 0 0.18570202397036051 0.0033003287221531879 0 0.17641616109438871 0.018095091873225409 0 0.1685097075280971 0.0030857039186497101 0 0.19269164321551299 0.015517591496703811 0 0.18570202397036051 0.0033003287221531879 0 0.17641616109438871 0.018095091873225409 0 0.18920933887774211 0.026571330282782791 0 0.19269164321551299 0.015517591496703811 0 0.17641616109438871 0.018095091873225409 0 0.17908841483996099 0.033836914937410353 0 0.17641616109438871 0.018095091873225409 0 0.1655348213052647 0.030345425712231981 0 0.18920933887774211 0.026571330282782791 0 0.17908841483996099 0.033836914937410353 0 0.17641616109438871 0.018095091873225409 0 0.17641616109438871 0.018095091873225409 0 0.1589472428621565 0.019688392404859981 0 0.1655348213052647 0.030345425712231981 0 0.1589472428621565 0.019688392404859981 0 0.1655348213052647 0.030345425712231981 0 0.1524583871923007 0.035352813602302913 0 0.17641616109438871 0.018095091873225409 0 0.1589472428621565 0.019688392404859981 0 0.1685097075280971 0.0030857039186497101 0 0.1589472428621565 0.019688392404859981 0 0.1685097075280971 0.0030857039186497101 0 0.15021269728153511 0.0057338921009076217 0 0.1589472428621565 0.019688392404859981 0 0.14055168277135299 0.0255174272218423 0 0.1524583871923007 0.035352813602302913 0 0.1589472428621565 0.019688392404859981 0 0.15021269728153511 0.0057338921009076217 0 0.14055168277135299 0.0255174272218423 0 0.15021269728153511 0.0057338921009076217 0 0.14055168277135299 0.0255174272218423 0 0.1219597536827746 0.026103243981345749 0 0.14055168277135299 0.0255174272218423 0 0.12686517573668521 0.0089551704877156024 0 0.1239231530732975 0.036242636230916878 0 0.1219597536827746 0.026103243981345749 0 0.14055168277135299 0.0255174272218423 0 0.15021269728153511 0.0057338921009076217 0 0.12686517573668521 0.0089551704877156024 0 0.1308800845427629 -0.013455206809876949 0 0.15021269728153511 0.0057338921009076217 0 0.14055168277135299 0.0255174272218423 0 0.12686517573668521 0.0089551704877156024 0 0.15165163292829609 0.049759611167573811 0 0.13089066826117121 0.045300962342777043 0 0.15165163292829609 0.049759611167573811 0 0.13089066826117121 0.045300962342777043 0 0.14036520317009171 0.050397474775988098 0 0.15081234896745399 0.05552633609843162 0 0.15165163292829609 0.049759611167573811 0 0.14036520317009171 0.050397474775988098 0 0.1445288475076168 0.061132443779852302 0 0.15081234896745399 0.05552633609843162 0 0.13695291510888949 0.057718497818516873 0 0.1445288475076168 0.061132443779852302 0 0.15081234896745399 0.05552633609843162 0 0.1497801771176871 0.061508276708589493 0 0.15677746668175649 0.061351884767031552 0 0.15081234896745399 0.05552633609843162 0 0.1497801771176871 0.061508276708589493 0 0.15165163292829609 0.049759611167573811 0 0.14245484240638939 0.042018620588089528 0 0.13089066826117121 0.045300962342777043 0 0.14055168277135299 0.0255174272218423 0 0.1524583871923007 0.035352813602302913 0 0.14245484240638939 0.042018620588089528 0 0.1613208117924535 0.043312735839341178 0 0.15165163292829609 0.049759611167573811 0 0.1551049042018845 0.041833963527772591 0 0.15165163292829609 0.049759611167573811 0 0.1551049042018845 0.041833963527772591 0 0.15002038562988609 0.042613258627140597 0 0.1551049042018845 0.041833963527772591 0 0.15002038562988609 0.042613258627140597 0 0.1524583871923007 0.035352813602302913 0 0.16056382896261101 0.038000395899301993 0 0.1551049042018845 0.041833963527772591 0 0.1524583871923007 0.035352813602302913 0 0.15165163292829609 0.049759611167573811 0 0.15002038562988609 0.042613258627140597 0 0.14245484240638939 0.042018620588089528 0 0.15002038562988609 0.042613258627140597 0 0.1524583871923007 0.035352813602302913 0 0.14245484240638939 0.042018620588089528 0 0.14055168277135299 0.0255174272218423 0 0.14245484240638939 0.042018620588089528 0 0.13089066826117121 0.045300962342777043 0 0.1239231530732975 0.036242636230916878 0 0.14055168277135299 0.0255174272218423 0 0.13089066826117121 0.045300962342777043 0 0.14055168277135299 0.0255174272218423 0 0.13089066826117121 0.045300962342777043 0 0.1242468315981233 0.05023416415873435 0 0.13089066826117121 0.045300962342777043 0 0.12810616252344559 0.051002989495169952 0 0.15081234896745399 0.05552633609843162 0 0.12810616252344559 0.051002989495169952 0 0.15081234896745399 0.05552633609843162 0 0.12810616252344559 0.051002989495169952 0 0.13695291510888949 0.057718497818516873 0 0.1201600893798577 0.067274719233700084 0 0.12810616252344559 0.051002989495169952 0 0.12771893758574299 0.060889935655820328 0 0.15081234896745399 0.05552633609843162 0 0.12810616252344559 0.051002989495169952 0 0.14036520317009171 0.050397474775988098 0 0.1201489750271611 0.047896252752716743 0 0.1242468315981233 0.05023416415873435 0 0.13089066826117121 0.045300962342777043 0 0.1242468315981233 0.05023416415873435 0 0.12810616252344559 0.051002989495169952 0 0.1242468315981233 0.05023416415873435 0 0.12335506538163531 0.053246441230896453 0 0.12810616252344559 0.051002989495169952 0 0.13089066826117121 0.045300962342777043 0 0.12810616252344559 0.051002989495169952 0 0.13089066826117121 0.045300962342777043 0 0.12810616252344559 0.051002989495169952 0 0.14036520317009171 0.050397474775988098 0 0.1445288475076168 0.061132443779852302 0 0.13695291510888949 0.057718497818516873 0 0.13811554168584661 0.065216589355618096 0 0.13695291510888949 0.057718497818516873 0 0.13079639532234219 0.056945403048293909 0 0.13170970183256511 0.062917182698197557 0 0.13695291510888949 0.057718497818516873 0 0.13170970183256511 0.062917182698197557 0 0.13811554168584661 0.065216589355618096 0 0.13079639532234219 0.056945403048293909 0 0.12771893758574299 0.060889935655820328 0 0.13170970183256511 0.062917182698197557 0 0.12810616252344559 0.051002989495169952 0 0.13695291510888949 0.057718497818516873 0 0.13079639532234219 0.056945403048293909 0 0.12810616252344559 0.051002989495169952 0 0.13079639532234219 0.056945403048293909 0 0.12771893758574299 0.060889935655820328 0 0.1229124810055424 0.073306674020159848 0 0.1266958281290258 0.066991759230735207 0 0.1309779308414207 0.070570284545798195 0 0.12771893758574299 0.060889935655820328 0 0.1266958281290258 0.066991759230735207 0 0.13170970183256511 0.062917182698197557 0 0.1266958281290258 0.066991759230735207 0 0.13170970183256511 0.062917182698197557 0 0.1309779308414207 0.070570284545798195 0 0.1309779308414207 0.070570284545798195 0 0.1378717850404296 0.074801287379857848 0 0.12835370770090249 0.081501501688592173 0 0.1229124810055424 0.073306674020159848 0 0.1309779308414207 0.070570284545798195 0 0.12835370770090249 0.081501501688592173 0 0.1309779308414207 0.070570284545798195 0 0.1378717850404296 0.074801287379857848 0 0.13811554168584661 0.065216589355618096 0 0.13170970183256511 0.062917182698197557 0 0.1309779308414207 0.070570284545798195 0 0.13811554168584661 0.065216589355618096 0 0.1378717850404296 0.074801287379857848 0 0.13811554168584661 0.065216589355618096 0 0.14935722436598961 0.068035884701438329 0 0.1445288475076168 0.061132443779852302 0 0.13811554168584661 0.065216589355618096 0 0.14935722436598961 0.068035884701438329 0 0.14935722436598961 0.068035884701438329 0 0.14435423448689291 0.083266135557394566 0 0.16097355292898441 0.080666846826764962 0 0.1445288475076168 0.061132443779852302 0 0.1497801771176871 0.061508276708589493 0 0.14935722436598961 0.068035884701438329 0 0.1378717850404296 0.074801287379857848 0 0.14935722436598961 0.068035884701438329 0 0.14435423448689291 0.083266135557394566 0 0.15677746668175649 0.061351884767031552 0 0.14935722436598961 0.068035884701438329 0 0.1614594965220203 0.064551461862840984 0 0.15677746668175649 0.061351884767031552 0 0.1497801771176871 0.061508276708589493 0 0.14935722436598961 0.068035884701438329 0 0.14435423448689291 0.083266135557394566 0 0.15530063369452249 0.097698551773105935 0 0.16097355292898441 0.080666846826764962 0 0.14435423448689291 0.083266135557394566 0 0.13379786709192981 0.097847873421447004 0 0.15530063369452249 0.097698551773105935 0 0.1157261904199316 0.088376065096940501 0 0.12835370770090249 0.081501501688592173 0 0.13379786709192981 0.097847873421447004 0 0.1378717850404296 0.074801287379857848 0 0.14435423448689291 0.083266135557394566 0 0.12835370770090249 0.081501501688592173 0 0.14435423448689291 0.083266135557394566 0 0.12835370770090249 0.081501501688592173 0 0.13379786709192981 0.097847873421447004 0 0.12171923445417381 0.1166563471086751 0 0.13379786709192981 0.097847873421447004 0 0.1427979363658782 0.1181546997820309 0 0.1580907823638911 0.13933554920675359 0 0.1427979363658782 0.1181546997820309 0 0.16053492435712899 0.1134569112380102 0 0.1427979363658782 0.1181546997820309 0 0.15530063369452249 0.097698551773105935 0 0.16053492435712899 0.1134569112380102 0 0.13379786709192981 0.097847873421447004 0 0.1427979363658782 0.1181546997820309 0 0.15530063369452249 0.097698551773105935 0 0.15530063369452249 0.097698551773105935 0 0.16053492435712899 0.1134569112380102 0 0.17523521854235191 0.1044265020293868 0 0.15530063369452249 0.097698551773105935 0 0.17523521854235191 0.1044265020293868 0 0.1728768153078982 0.090506029600155843 0 0.1580907823638911 0.13933554920675359 0 0.16053492435712899 0.1134569112380102 0 0.17648004765510031 0.12192929980644431 0 0.16053492435712899 0.1134569112380102 0 0.17648004765510031 0.12192929980644431 0 0.17523521854235191 0.1044265020293868 0 0.1964668641467498 0.11509535161944399 0 0.17648004765510031 0.12192929980644431 0 0.17523521854235191 0.1044265020293868 0 0.1880737996247609 0.095667765787705639 0 0.1964668641467498 0.11509535161944399 0 0.17523521854235191 0.1044265020293868 0 0.1880737996247609 0.095667765787705639 0 0.17523521854235191 0.1044265020293868 0 0.1728768153078982 0.090506029600155843 0 0.1728768153078982 0.090506029600155843 0 0.18425185968072341 0.078993930483770125 0 0.16097355292898441 0.080666846826764962 0 0.1880737996247609 0.095667765787705639 0 0.1728768153078982 0.090506029600155843 0 0.18425185968072341 0.078993930483770125 0 0.187542207096108 0.069809903911935131 0 0.173518535411462 0.060049682701695653 0 0.18425185968072341 0.078993930483770125 0 0.18425185968072341 0.078993930483770125 0 0.1614594965220203 0.064551461862840984 0 0.19622472185546991 0.064573029304959673 0 0.187542207096108 0.069809903911935131 0 0.173518535411462 0.060049682701695653 0 0.173518535411462 0.060049682701695653 0 0.18425185968072341 0.078993930483770125 0 0.1614594965220203 0.064551461862840984 0 0.18425185968072341 0.078993930483770125 0 0.1614594965220203 0.064551461862840984 0 0.16097355292898441 0.080666846826764962 0 0.14935722436598961 0.068035884701438329 0 0.1614594965220203 0.064551461862840984 0 0.16097355292898441 0.080666846826764962 0 0.15530063369452249 0.097698551773105935 0 0.1728768153078982 0.090506029600155843 0 0.16097355292898441 0.080666846826764962 0 0.1074665432157685 0.47115344761314942 0 0.085588970290939981 0.46653019149610298 0 0.089701112487397566 0.48684882902834559 0 0.1074665432157685 0.47115344761314942 0 0.10900734939863289 0.48714626194809418 0 0.089701112487397566 0.48684882902834559 0 0.1074665432157685 0.47115344761314942 0 0.089701112487397566 0.48684882902834559 0 0.096143021641361348 0.5 0 0.10900734939863289 0.48714626194809418 0 0.089701112487397566 0.48684882902834559 0 0.10900734939863289 0.48714626194809418 0 0.1256526811975934 0.47772903309897619 0 0.12607338845104371 0.49999999999999811 0 0.096143021641361348 0.5 0 0.10900734939863289 0.48714626194809418 0 0.12607338845104371 0.49999999999999811 0 0.1074665432157685 0.47115344761314942 0 0.10900734939863289 0.48714626194809418 0 0.1256526811975934 0.47772903309897619 0 0.1074665432157685 0.47115344761314942 0 0.12523197394414051 0.45545806619795443 0 0.1256526811975934 0.47772903309897619 0 0.1074665432157685 0.47115344761314942 0 0.1098799946686871 0.45523593189788741 0 0.12523197394414051 0.45545806619795443 0 0.1074665432157685 0.47115344761314942 0 0.12523197394414051 0.45545806619795443 0 0.1247532003647491 0.43011324399125161 0 0.12523197394414051 0.45545806619795443 0 0.1135748224284843 0.44305869736968401 0 0.1247532003647491 0.43011324399125161 0 0.12523197394414051 0.45545806619795443 0 0.1098799946686871 0.45523593189788741 0 0.1135748224284843 0.44305869736968401 0 0.12523197394414051 0.45545806619795443 0 0.1135748224284843 0.44305869736968401 0 0.1014841998311256 0.4465505220494469 0 0.1065247433337201 0.42793572271188068 0 0.1098799946686871 0.45523593189788741 0 0.1135748224284843 0.44305869736968401 0 0.1014841998311256 0.4465505220494469 0 0.1014841998311256 0.4465505220494469 0 0.098763170075229667 0.45845863246166713 0 0.089396142369627188 0.4528230692517492 0 0.1074665432157685 0.47115344761314942 0 0.098763170075229667 0.45845863246166713 0 0.085588970290939981 0.46653019149610298 0 0.1074665432157685 0.47115344761314942 0 0.1098799946686871 0.45523593189788741 0 0.098763170075229667 0.45845863246166713 0 0.1098799946686871 0.45523593189788741 0 0.1014841998311256 0.4465505220494469 0 0.098763170075229667 0.45845863246166713 0 0.098763170075229667 0.45845863246166713 0 0.085588970290939981 0.46653019149610298 0 0.089396142369627188 0.4528230692517492 0 0.085588970290939981 0.46653019149610298 0 0.089396142369627188 0.4528230692517492 0 0.075190737658010098 0.45214513032791148 0 0.1014841998311256 0.4465505220494469 0 0.087840341606615899 0.43756319413069911 0 0.089396142369627188 0.4528230692517492 0 0.087840341606615899 0.43756319413069911 0 0.089396142369627188 0.4528230692517492 0 0.075190737658010098 0.45214513032791148 0 0.087840341606615899 0.43756319413069911 0 0.075190737658010098 0.45214513032791148 0 0.069271983306894658 0.43637846547617842 0 0.075190737658010098 0.45214513032791148 0 0.055340485372957819 0.45252435888688558 0 0.069271983306894658 0.43637846547617842 0 0.075190737658010098 0.45214513032791148 0 0.067773947418579422 0.46453353483817023 0 0.055340485372957819 0.45252435888688558 0 0.085588970290939981 0.46653019149610298 0 0.075190737658010098 0.45214513032791148 0 0.067773947418579422 0.46453353483817023 0 0.067773947418579422 0.46453353483817023 0 0.072511206166966269 0.47833390124512898 0 0.05327934580623532 0.47375695086302611 0 0.072511206166966269 0.47833390124512898 0 0.066212654831679041 0.5 0 0.05327934580623532 0.47375695086302611 0 0.085588970290939981 0.46653019149610298 0 0.067773947418579422 0.46453353483817023 0 0.072511206166966269 0.47833390124512898 0 0.085588970290939981 0.46653019149610298 0 0.072511206166966269 0.47833390124512898 0 0.089701112487397566 0.48684882902834559 0 0.096143021641361348 0.5 0 0.089701112487397566 0.48684882902834559 0 0.066212654831679041 0.5 0 0.072511206166966269 0.47833390124512898 0 0.089701112487397566 0.48684882902834559 0 0.066212654831679041 0.5 0 0.066212654831679041 0.5 0 0.05327934580623532 0.47375695086302611 0 0.036282288021996678 0.5 0 0.05327934580623532 0.47375695086302611 0 0.034234691170900181 0.47623275252095598 0 0.036282288021996678 0.5 0 0.05327934580623532 0.47375695086302611 0 0.034234691170900181 0.47623275252095598 0 0.028534716494174921 0.45740101570695407 0 0.034234691170900181 0.47623275252095598 0 0.036282288021996678 0.5 0 0.0155337681393016 0.47770613737092432 0 0.036282288021996678 0.5 0 0.0155337681393016 0.47770613737092432 0 0.0063519212123143154 0.5 0 0.034234691170900181 0.47623275252095598 0 0.0155337681393016 0.47770613737092432 0 0.028534716494174921 0.45740101570695407 0 -0.0089296983121032372 0.47872690024516901 0 0.0155337681393016 0.47770613737092432 0 0.0041477423992220923 0.45645334833604739 0 -0.0089296983121032372 0.47872690024516901 0 0.0155337681393016 0.47770613737092432 0 0.0063519212123143154 0.5 0 0.0041477423992220923 0.45645334833604739 0 0.020582651615253678 0.44143137724314702 0 0.0059266622001771848 0.42944970542445959 0 0.0041477423992220923 0.45645334833604739 0 0.028534716494174921 0.45740101570695407 0 0.0155337681393016 0.47770613737092432 0 0.0041477423992220923 0.45645334833604739 0 0.028534716494174921 0.45740101570695407 0 0.028534716494174921 0.45740101570695407 0 0.020582651615253678 0.44143137724314702 0 0.038238203705035868 0.43876235385213802 0 0.0041477423992220923 0.45645334833604739 0 0.028534716494174921 0.45740101570695407 0 0.020582651615253678 0.44143137724314702 0 0.028534716494174921 0.45740101570695407 0 0.038238203705035868 0.43876235385213802 0 0.055340485372957819 0.45252435888688558 0 0.05327934580623532 0.47375695086302611 0 0.028534716494174921 0.45740101570695407 0 0.055340485372957819 0.45252435888688558 0 0.067773947418579422 0.46453353483817023 0 0.05327934580623532 0.47375695086302611 0 0.055340485372957819 0.45252435888688558 0 0.038238203705035868 0.43876235385213802 0 0.055340485372957819 0.45252435888688558 0 0.054556782122682328 0.43397174813214318 0 0.055340485372957819 0.45252435888688558 0 0.054556782122682328 0.43397174813214318 0 0.069271983306894658 0.43637846547617842 0 0.054556782122682328 0.43397174813214318 0 0.063473244580227725 0.41518836102320061 0 0.069271983306894658 0.43637846547617842 0 0.054556782122682328 0.43397174813214318 0 0.046207920177264911 0.42058892017844479 0 0.063473244580227725 0.41518836102320061 0 0.046207920177264911 0.42058892017844479 0 0.049048403253046963 0.39861526924617741 0 0.063473244580227725 0.41518836102320061 0 0.034636236753145547 0.40926498863951372 0 0.046207920177264911 0.42058892017844479 0 0.049048403253046963 0.39861526924617741 0 0.034636236753145547 0.40926498863951372 0 0.046207920177264911 0.42058892017844479 0 0.027393981013213178 0.42397171998962291 0 0.038238203705035868 0.43876235385213802 0 0.046207920177264911 0.42058892017844479 0 0.027393981013213178 0.42397171998962291 0 0.038238203705035868 0.43876235385213802 0 0.054556782122682328 0.43397174813214318 0 0.046207920177264911 0.42058892017844479 0 0.020582651615253678 0.44143137724314702 0 0.038238203705035868 0.43876235385213802 0 0.027393981013213178 0.42397171998962291 0 0.020582651615253678 0.44143137724314702 0 0.027393981013213178 0.42397171998962291 0 0.0059266622001771848 0.42944970542445959 0 0.027393981013213178 0.42397171998962291 0 0.01556812046075721 0.40910995608313788 0 0.0059266622001771848 0.42944970542445959 0 0.034636236753145547 0.40926498863951372 0 0.027393981013213178 0.42397171998962291 0 0.01556812046075721 0.40910995608313788 0 -0.0057914275137243738 0.39961276478596952 0 -0.0078207941712278399 0.41783992013748927 0 0.01556812046075721 0.40910995608313788 0 -0.0078207941712278399 0.41783992013748927 0 0.01556812046075721 0.40910995608313788 0 0.0059266622001771848 0.42944970542445959 0 -0.0057914275137243738 0.39961276478596952 0 0.0066646140138976826 0.37890043479518071 0 0.01723364289570602 0.39242251284340562 0 -0.0057914275137243738 0.39961276478596952 0 0.01556812046075721 0.40910995608313788 0 0.01723364289570602 0.39242251284340562 0 0.034636236753145547 0.40926498863951372 0 0.01556812046075721 0.40910995608313788 0 0.033013328762175907 0.39358068581106043 0 0.01556812046075721 0.40910995608313788 0 0.01723364289570602 0.39242251284340562 0 0.033013328762175907 0.39358068581106043 0 0.01723364289570602 0.39242251284340562 0 0.025485882021779059 0.38122641297221399 0 0.033013328762175907 0.39358068581106043 0 0.0066646140138976826 0.37890043479518071 0 0.025485882021779059 0.38122641297221399 0 0.020272162550104021 0.36926543073248153 0 0.0066646140138976826 0.37890043479518071 0 0.01723364289570602 0.39242251284340562 0 0.025485882021779059 0.38122641297221399 0 0.025485882021779059 0.38122641297221399 0 0.040972013562745553 0.38200613945446238 0 0.033471950445397872 0.37121970656258102 0 0.025485882021779059 0.38122641297221399 0 0.040972013562745553 0.38200613945446238 0 0.033013328762175907 0.39358068581106043 0 0.040972013562745553 0.38200613945446238 0 0.033013328762175907 0.39358068581106043 0 0.049048403253046963 0.39861526924617741 0 0.034636236753145547 0.40926498863951372 0 0.033013328762175907 0.39358068581106043 0 0.049048403253046963 0.39861526924617741 0 0.049048403253046963 0.39861526924617741 0 0.066848990391267252 0.39407192268563301 0 0.063473244580227725 0.41518836102320061 0 0.049048403253046963 0.39861526924617741 0 0.055660443624338037 0.38057702745281718 0 0.066848990391267252 0.39407192268563301 0 0.040972013562745553 0.38200613945446238 0 0.049048403253046963 0.39861526924617741 0 0.055660443624338037 0.38057702745281718 0 0.055660443624338037 0.38057702745281718 0 0.071340618564549096 0.37623849160014539 0 0.057758738672287688 0.3683524863625845 0 0.040972013562745553 0.38200613945446238 0 0.055660443624338037 0.38057702745281718 0 0.045782060907035071 0.36970553439672582 0 0.055660443624338037 0.38057702745281718 0 0.071340618564549096 0.37623849160014539 0 0.066848990391267252 0.39407192268563301 0 0.071340618564549096 0.37623849160014539 0 0.082340562151638375 0.38797080988834931 0 0.066848990391267252 0.39407192268563301 0 0.071340618564549096 0.37623849160014539 0 0.082340562151638375 0.38797080988834931 0 0.088799630217411038 0.37770722217214908 0 0.082340562151638375 0.38797080988834931 0 0.088799630217411038 0.37770722217214908 0 0.095989337067579061 0.3865281957678306 0 0.082340562151638375 0.38797080988834931 0 0.079230670173803378 0.40584157690310813 0 0.094857634437941055 0.39857798861234672 0 0.082340562151638375 0.38797080988834931 0 0.095989337067579061 0.3865281957678306 0 0.094857634437941055 0.39857798861234672 0 0.082340562151638375 0.38797080988834931 0 0.079230670173803378 0.40584157690310813 0 0.066848990391267252 0.39407192268563301 0 0.079230670173803378 0.40584157690310813 0 0.066848990391267252 0.39407192268563301 0 0.063473244580227725 0.41518836102320061 0 0.079230670173803378 0.40584157690310813 0 0.063473244580227725 0.41518836102320061 0 0.078524693509734303 0.42510773348144071 0 0.063473244580227725 0.41518836102320061 0 0.069271983306894658 0.43637846547617842 0 0.078524693509734303 0.42510773348144071 0 0.087840341606615899 0.43756319413069911 0 0.069271983306894658 0.43637846547617842 0 0.078524693509734303 0.42510773348144071 0 0.087840341606615899 0.43756319413069911 0 0.078524693509734303 0.42510773348144071 0 0.092514169262008034 0.41704496836687599 0 0.079230670173803378 0.40584157690310813 0 0.092514169262008034 0.41704496836687599 0 0.094857634437941055 0.39857798861234672 0 0.079230670173803378 0.40584157690310813 0 0.078524693509734303 0.42510773348144071 0 0.092514169262008034 0.41704496836687599 0 0.092514169262008034 0.41704496836687599 0 0.1055378375718181 0.40796698232619039 0 0.094857634437941055 0.39857798861234672 0 0.092514169262008034 0.41704496836687599 0 0.1055378375718181 0.40796698232619039 0 0.1065247433337201 0.42793572271188068 0 0.087840341606615899 0.43756319413069911 0 0.092514169262008034 0.41704496836687599 0 0.1065247433337201 0.42793572271188068 0 0.1014841998311256 0.4465505220494469 0 0.087840341606615899 0.43756319413069911 0 0.1065247433337201 0.42793572271188068 0 0.1135748224284843 0.44305869736968401 0 0.1065247433337201 0.42793572271188068 0 0.1247532003647491 0.43011324399125161 0 0.1055378375718181 0.40796698232619039 0 0.1065247433337201 0.42793572271188068 0 0.12427442678535509 0.40476842178454892 0 0.1247532003647491 0.43011324399125161 0 0.12427442678535509 0.40476842178454892 0 0.1065247433337201 0.42793572271188068 0 0.1247532003647491 0.43011324399125161 0 0.12427442678535509 0.40476842178454892 0 0.1055378375718181 0.40796698232619039 0 0.12427442678535509 0.40476842178454892 0 0.1095182140400662 0.39150781015529962 0 0.12427442678535509 0.40476842178454892 0 0.1095182140400662 0.39150781015529962 0 0.12379565320595901 0.37942359957784622 0 0.12427442678535509 0.40476842178454892 0 0.12379565320595901 0.37942359957784622 0 0.12379565320595901 0.37942359957784622 0 0.10443064449083871 0.37687714801100841 0 0.123634947232256 0.37091631240435569 0 0.12379565320595901 0.37942359957784622 0 0.10443064449083871 0.37687714801100841 0 0.1095182140400662 0.39150781015529962 0 0.12379565320595901 0.37942359957784622 0 0.10443064449083871 0.37687714801100841 0 0.12379565320595901 0.37942359957784622 0 0.123634947232256 0.37091631240435569 0 0.1095182140400662 0.39150781015529962 0 0.10443064449083871 0.37687714801100841 0 0.095989337067579061 0.3865281957678306 0 0.088799630217411038 0.37770722217214908 0 0.10443064449083871 0.37687714801100841 0 0.095989337067579061 0.3865281957678306 0 0.1055378375718181 0.40796698232619039 0 0.1095182140400662 0.39150781015529962 0 0.094857634437941055 0.39857798861234672 0 0.1095182140400662 0.39150781015529962 0 0.095989337067579061 0.3865281957678306 0 0.094857634437941055 0.39857798861234672 0 0.094116047161085278 0.35384372889514287 0 0.12328625169632949 0.3524574275728698 0 0.094116047161085278 0.35384372889514287 0 0.11629683618771169 0.36572957552869279 0 0.091131330430878732 0.3622288241786995 0 0.088799630217411038 0.37770722217214908 0 0.10443064449083871 0.37687714801100841 0 0.091131330430878732 0.3622288241786995 0 0.10443064449083871 0.37687714801100841 0 0.10738313883156719 0.36657256829152829 0 0.091131330430878732 0.3622288241786995 0 0.10738313883156719 0.36657256829152829 0 0.091131330430878732 0.3622288241786995 0 0.10738313883156719 0.36657256829152829 0 0.11629683618771169 0.36572957552869279 0 0.091131330430878732 0.3622288241786995 0 0.11629683618771169 0.36572957552869279 0 0.091131330430878732 0.3622288241786995 0 0.10738313883156719 0.36657256829152829 0 0.123634947232256 0.37091631240435569 0 0.11629683618771169 0.36572957552869279 0 0.123634947232256 0.37091631240435569 0 0.12328625169632949 0.3524574275728698 0 0.123634947232256 0.37091631240435569 0 0.12328625169632949 0.3524574275728698 0 0.10443064449083871 0.37687714801100841 0 0.10738313883156719 0.36657256829152829 0 0.123634947232256 0.37091631240435569 0 0.10738313883156719 0.36657256829152829 0 0.11629683618771169 0.36572957552869279 0 0.123634947232256 0.37091631240435569 0 0.12328625169632949 0.3524574275728698 0 0.12295901306147231 0.33513440605155043 0 0.094116047161085278 0.35384372889514287 0 0.12328625169632949 0.3524574275728698 0 0.1109857428148794 0.34283767326297587 0 0.094116047161085278 0.35384372889514287 0 0.11629683618771169 0.36572957552869279 0 0.12328625169632949 0.3524574275728698 0 0.12295901306147231 0.33513440605155043 0 0.1109857428148794 0.34283767326297587 0 0.10358165934063029 0.32991513053234051 0 0.12328625169632949 0.3524574275728698 0 0.12295901306147231 0.33513440605155043 0 0.1109857428148794 0.34283767326297587 0 0.12295901306147231 0.33513440605155043 0 0.12263177442661261 0.31781138453023089 0 0.1274866779465112 0.33726455322393378 0 0.12328625169632949 0.3524574275728698 0 0.12295901306147231 0.33513440605155043 0 0.1274866779465112 0.33726455322393378 0 0.12263177442661261 0.31781138453023089 0 0.1058448009621695 0.31451744484980743 0 0.10358165934063029 0.32991513053234051 0 0.12295901306147231 0.33513440605155043 0 0.12263177442661261 0.31781138453023089 0 0.10358165934063029 0.32991513053234051 0 0.12295901306147231 0.33513440605155043 0 0.12263177442661261 0.31781138453023089 0 0.10358165934063029 0.32991513053234051 0 0.08478387405414918 0.3297440197469641 0 0.093209113865111631 0.31100003081129568 0 0.1058448009621695 0.31451744484980743 0 0.10358165934063029 0.32991513053234051 0 0.093209113865111631 0.31100003081129568 0 0.094116047161085278 0.35384372889514287 0 0.1109857428148794 0.34283767326297587 0 0.10358165934063029 0.32991513053234051 0 0.094116047161085278 0.35384372889514287 0 0.10358165934063029 0.32991513053234051 0 0.08478387405414918 0.3297440197469641 0 0.094116047161085278 0.35384372889514287 0 0.08478387405414918 0.3297440197469641 0 0.071138080909734669 0.34040392859969121 0 0.08478387405414918 0.3297440197469641 0 0.077564980396643807 0.31639268529517012 0 0.093209113865111631 0.31100003081129568 0 0.08478387405414918 0.3297440197469641 0 0.077564980396643807 0.31639268529517012 0 0.068754006064801254 0.32639562060937988 0 0.077564980396643807 0.31639268529517012 0 0.068754006064801254 0.32639562060937988 0 0.065215802635173487 0.31228628918081569 0 0.068754006064801254 0.32639562060937988 0 0.054855363549592119 0.32208720186861423 0 0.065215802635173487 0.31228628918081569 0 0.08478387405414918 0.3297440197469641 0 0.068754006064801254 0.32639562060937988 0 0.071138080909734669 0.34040392859969121 0 0.068754006064801254 0.32639562060937988 0 0.071138080909734669 0.34040392859969121 0 0.058240207399492198 0.33418027865722449 0 0.069047300232131667 0.35915673418064448 0 0.064945842625841188 0.35523003021741589 0 0.091131330430878732 0.3622288241786995 0 0.064945842625841188 0.35523003021741589 0 0.091131330430878732 0.3622288241786995 0 0.071138080909734669 0.34040392859969121 0 0.064945842625841188 0.35523003021741589 0 0.055949991565551097 0.34277604223531938 0 0.094116047161085278 0.35384372889514287 0 0.071138080909734669 0.34040392859969121 0 0.064945842625841188 0.35523003021741589 0 0.094116047161085278 0.35384372889514287 0 0.064945842625841188 0.35523003021741589 0 0.091131330430878732 0.3622288241786995 0 0.094116047161085278 0.35384372889514287 0 0.064945842625841188 0.35523003021741589 0 0.071340618564549096 0.37623849160014539 0 0.088799630217411038 0.37770722217214908 0 0.08007971986124264 0.36883281803290963 0 0.069047300232131667 0.35915673418064448 0 0.091131330430878732 0.3622288241786995 0 0.08007971986124264 0.36883281803290963 0 0.069047300232131667 0.35915673418064448 0 0.091131330430878732 0.3622288241786995 0 0.088799630217411038 0.37770722217214908 0 0.091131330430878732 0.3622288241786995 0 0.08007971986124264 0.36883281803290963 0 0.071340618564549096 0.37623849160014539 0 0.069047300232131667 0.35915673418064448 0 0.08007971986124264 0.36883281803290963 0 0.071340618564549096 0.37623849160014539 0 0.069047300232131667 0.35915673418064448 0 0.057758738672287688 0.3683524863625845 0 0.069047300232131667 0.35915673418064448 0 0.057758738672287688 0.3683524863625845 0 0.04696327003338463 0.35608464418258978 0 0.057758738672287688 0.3683524863625845 0 0.04696327003338463 0.35608464418258978 0 0.045782060907035071 0.36970553439672582 0 0.055660443624338037 0.38057702745281718 0 0.057758738672287688 0.3683524863625845 0 0.045782060907035071 0.36970553439672582 0 0.064945842625841188 0.35523003021741589 0 0.04696327003338463 0.35608464418258978 0 0.040632410741557518 0.34873159484295352 0 0.064945842625841188 0.35523003021741589 0 0.04696327003338463 0.35608464418258978 0 0.069047300232131667 0.35915673418064448 0 0.04696327003338463 0.35608464418258978 0 0.069047300232131667 0.35915673418064448 0 0.064945842625841188 0.35523003021741589 0 0.04696327003338463 0.35608464418258978 0 0.064945842625841188 0.35523003021741589 0 0.040632410741557518 0.34873159484295352 0 0.064945842625841188 0.35523003021741589 0 0.040632410741557518 0.34873159484295352 0 0.055949991565551097 0.34277604223531938 0 0.04696327003338463 0.35608464418258978 0 0.0253688854785456 0.35308066835897228 0 0.04696327003338463 0.35608464418258978 0 0.019369355209686009 0.35739603301980449 0 0.04696327003338463 0.35608464418258978 0 0.040632410741557518 0.34873159484295352 0 0.0253688854785456 0.35308066835897228 0 0.04696327003338463 0.35608464418258978 0 0.035471616727666577 0.36304577045438891 0 0.019369355209686009 0.35739603301980449 0 0.040972013562745553 0.38200613945446238 0 0.045782060907035071 0.36970553439672582 0 0.033471950445397872 0.37121970656258102 0 0.04696327003338463 0.35608464418258978 0 0.045782060907035071 0.36970553439672582 0 0.035471616727666577 0.36304577045438891 0 0.035471616727666577 0.36304577045438891 0 0.033471950445397872 0.37121970656258102 0 0.02766017965650425 0.36474186840541728 0 0.045782060907035071 0.36970553439672582 0 0.035471616727666577 0.36304577045438891 0 0.033471950445397872 0.37121970656258102 0 0.025485882021779059 0.38122641297221399 0 0.033471950445397872 0.37121970656258102 0 0.020272162550104021 0.36926543073248153 0 0.033471950445397872 0.37121970656258102 0 0.020272162550104021 0.36926543073248153 0 0.02766017965650425 0.36474186840541728 0 0.035471616727666577 0.36304577045438891 0 0.02766017965650425 0.36474186840541728 0 0.019369355209686009 0.35739603301980449 0 0.020272162550104021 0.36926543073248153 0 0.02766017965650425 0.36474186840541728 0 0.019369355209686009 0.35739603301980449 0 0.020272162550104021 0.36926543073248153 0 0.019369355209686009 0.35739603301980449 0 0.0080346143935874671 0.36298249558169648 0 0.04696327003338463 0.35608464418258978 0 0.0253688854785456 0.35308066835897228 0 0.019369355209686009 0.35739603301980449 0 0.040632410741557518 0.34873159484295352 0 0.016318978857273809 0.3422331594684912 0 0.040632410741557518 0.34873159484295352 0 0.0253688854785456 0.35308066835897228 0 0.016318978857273809 0.3422331594684912 0 0.0253688854785456 0.35308066835897228 0 0.019369355209686009 0.35739603301980449 0 0.016318978857273809 0.3422331594684912 0 0.019369355209686009 0.35739603301980449 0 0.0066100953138861739 0.35047348315423421 0 0.0080346143935874671 0.36298249558169648 0 0.019369355209686009 0.35739603301980449 0 0.0066100953138861739 0.35047348315423421 0 0.016318978857273809 0.3422331594684912 0 -0.002678018864106531 0.35402100360714961 0 0.0066100953138861739 0.35047348315423421 0 0.0080346143935874671 0.36298249558169648 0 -0.006157272947328085 0.36539872564088949 0 0.0066646140138976826 0.37890043479518071 0 0.0080346143935874671 0.36298249558169648 0 0.0066646140138976826 0.37890043479518071 0 0.020272162550104021 0.36926543073248153 0 0.0080346143935874671 0.36298249558169648 0 0.0075691901116045146 0.32425329424519089 0 0.022636919873687371 0.31881328253328561 0 0.01214650747786067 0.31018829727184971 0 -0.00050189098532957949 0.31325252054653158 0 0.0075691901116045146 0.32425329424519089 0 0.01214650747786067 0.31018829727184971 0 -0.007994453027009886 0.33573472409402882 0 0.016318978857273809 0.3422331594684912 0 0.0075691901116045146 0.32425329424519089 0 0.019338926588128622 0.32948159902545732 0 0.016318978857273809 0.3422331594684912 0 -0.007994453027009886 0.33573472409402882 0 0.0066100953138861739 0.35047348315423421 0 0.016318978857273809 0.3422331594684912 0 -0.007994453027009886 0.33573472409402882 0 0.0075691901116045146 0.32425329424519089 0 0.016318978857273809 0.3422331594684912 0 0.019338926588128622 0.32948159902545732 0 0.016318978857273809 0.3422331594684912 0 0.030830617509948789 0.33262665985486178 0 0.040632410741557518 0.34873159484295352 0 0.016318978857273809 0.3422331594684912 0 0.030830617509948789 0.33262665985486178 0 0.022636919873687371 0.31881328253328561 0 0.03903964855428458 0.31861647386724379 0 0.022381778994511749 0.30200260948354513 0 0.019338926588128622 0.32948159902545732 0 0.030830617509948789 0.33262665985486178 0 0.022636919873687371 0.31881328253328561 0 0.030830617509948789 0.33262665985486178 0 0.022636919873687371 0.31881328253328561 0 0.03903964855428458 0.31861647386724379 0 0.0075691901116045146 0.32425329424519089 0 0.019338926588128622 0.32948159902545732 0 0.022636919873687371 0.31881328253328561 0 0.03903964855428458 0.31861647386724379 0 0.045616770931180183 0.33422620895975769 0 0.054855363549592119 0.32208720186861423 0 0.040632410741557518 0.34873159484295352 0 0.030830617509948789 0.33262665985486178 0 0.045616770931180183 0.33422620895975769 0 0.030830617509948789 0.33262665985486178 0 0.03903964855428458 0.31861647386724379 0 0.045616770931180183 0.33422620895975769 0 0.040632410741557518 0.34873159484295352 0 0.045616770931180183 0.33422620895975769 0 0.055949991565551097 0.34277604223531938 0 0.045616770931180183 0.33422620895975769 0 0.058240207399492198 0.33418027865722449 0 0.055949991565551097 0.34277604223531938 0 0.045616770931180183 0.33422620895975769 0 0.058240207399492198 0.33418027865722449 0 0.054855363549592119 0.32208720186861423 0 0.071138080909734669 0.34040392859969121 0 0.058240207399492198 0.33418027865722449 0 0.055949991565551097 0.34277604223531938 0 0.03903964855428458 0.31861647386724379 0 0.054855363549592119 0.32208720186861423 0 0.052265745712621048 0.30681833993726398 0 0.068754006064801254 0.32639562060937988 0 0.058240207399492198 0.33418027865722449 0 0.054855363549592119 0.32208720186861423 0 0.054855363549592119 0.32208720186861423 0 0.052265745712621048 0.30681833993726398 0 0.065215802635173487 0.31228628918081569 0 0.052265745712621048 0.30681833993726398 0 0.065215802635173487 0.31228628918081569 0 0.06353363047820805 0.29756726944488371 0 0.052265745712621048 0.30681833993726398 0 0.052844236448697797 0.29238603543591241 0 0.06353363047820805 0.29756726944488371 0 0.052265745712621048 0.30681833993726398 0 0.052844236448697797 0.29238603543591241 0 0.039447919390966257 0.2999017063524857 0 0.052844236448697797 0.29238603543591241 0 0.054354047459473177 0.28125338012521273 0 0.064575121359610396 0.28363491733241147 0 0.052844236448697797 0.29238603543591241 0 0.064575121359610396 0.28363491733241147 0 0.06353363047820805 0.29756726944488371 0 0.052844236448697797 0.29238603543591241 0 0.054354047459473177 0.28125338012521273 0 0.042888954291307922 0.2851405994232169 0 0.042888954291307922 0.2851405994232169 0 0.030349534531441121 0.29406186042745458 0 0.033670583007016953 0.27798338813817342 0 0.052844236448697797 0.29238603543591241 0 0.042888954291307922 0.2851405994232169 0 0.039447919390966257 0.2999017063524857 0 0.042888954291307922 0.2851405994232169 0 0.039447919390966257 0.2999017063524857 0 0.030349534531441121 0.29406186042745458 0 0.03903964855428458 0.31861647386724379 0 0.052265745712621048 0.30681833993726398 0 0.039447919390966257 0.2999017063524857 0 0.03903964855428458 0.31861647386724379 0 0.039447919390966257 0.2999017063524857 0 0.022381778994511749 0.30200260948354513 0 0.03903964855428458 0.31861647386724379 0 0.022381778994511749 0.30200260948354513 0 0.039447919390966257 0.2999017063524857 0 0.022381778994511749 0.30200260948354513 0 0.030349534531441121 0.29406186042745458 0 0.022636919873687371 0.31881328253328561 0 0.022381778994511749 0.30200260948354513 0 0.01214650747786067 0.31018829727184971 0 0.030349534531441121 0.29406186042745458 0 0.02654854145491491 0.28573369732247589 0 0.019237437418517869 0.29231202568638759 0 0.030349534531441121 0.29406186042745458 0 0.02654854145491491 0.28573369732247589 0 0.033670583007016953 0.27798338813817342 0 0.022381778994511749 0.30200260948354513 0 0.030349534531441121 0.29406186042745458 0 0.019237437418517869 0.29231202568638759 0 0.022381778994511749 0.30200260948354513 0 0.019237437418517869 0.29231202568638759 0 0.0057239094347390027 0.28538874509984657 0 0.02654854145491491 0.28573369732247589 0 0.019237437418517869 0.29231202568638759 0 0.022936610862683719 0.27857751503788808 0 0.022381778994511749 0.30200260948354513 0 0.0057239094347390027 0.28538874509984657 0 0.022381778994511749 0.30200260948354513 0 0.0057239094347390027 0.28538874509984657 0 0.010685790728413811 0.29980616636959201 0 0.019237437418517869 0.29231202568638759 0 0.011887832299126259 0.27033102150942551 0 0.019237437418517869 0.29231202568638759 0 0.0057239094347390027 0.28538874509984657 0 0.011887832299126259 0.27033102150942551 0 0.0057239094347390027 0.28538874509984657 0 0.0024909670065438399 0.30164501362312651 0 0.010685790728413811 0.29980616636959201 0 -0.00050189098532957949 0.31325252054653158 0 0.0024909670065438399 0.30164501362312651 0 0.01214650747786067 0.31018829727184971 0 0.0024909670065438399 0.30164501362312651 0 0.01214650747786067 0.31018829727184971 0 0.010685790728413811 0.29980616636959201 0 0.022381778994511749 0.30200260948354513 0 0.01214650747786067 0.31018829727184971 0 0.010685790728413811 0.29980616636959201 0 0.0045382271797346514 0.24835001733246331 0 0.0010090436344969431 0.26174925619796269 0 0.011887832299126259 0.27033102150942551 0 0.0045382271797346514 0.24835001733246331 0 0.01400803092539812 0.25653148128311221 0 0.011887832299126259 0.27033102150942551 0 0.0045382271797346514 0.24835001733246331 0 0.011887832299126259 0.27033102150942551 0 0.01373259362453041 0.24640932094007281 0 0.0045382271797346514 0.24835001733246331 0 0.01400803092539812 0.25653148128311221 0 -0.010933960125033681 0.26877488071614808 0 0.0010090436344969431 0.26174925619796269 0 0.011887832299126259 0.27033102150942551 0 -0.010933960125033681 0.26877488071614808 0 0.0057239094347390027 0.28538874509984657 0 0.011887832299126259 0.27033102150942551 0 0.011887832299126259 0.27033102150942551 0 0.022936610862683719 0.27857751503788808 0 0.02816504346786778 0.26366374586641111 0 0.019237437418517869 0.29231202568638759 0 0.011887832299126259 0.27033102150942551 0 0.022936610862683719 0.27857751503788808 0 0.02654854145491491 0.28573369732247589 0 0.022936610862683719 0.27857751503788808 0 0.033670583007016953 0.27798338813817342 0 0.022936610862683719 0.27857751503788808 0 0.02816504346786778 0.26366374586641111 0 0.033670583007016953 0.27798338813817342 0 0.02816504346786778 0.26366374586641111 0 0.033670583007016953 0.27798338813817342 0 0.01400803092539812 0.25653148128311221 0 0.011887832299126259 0.27033102150942551 0 0.02816504346786778 0.26366374586641111 0 0.022659503928717271 0.2493441035946494 0 0.01373259362453041 0.24640932094007281 0 0.01400803092539812 0.25653148128311221 0 0.022659503928717271 0.2493441035946494 0 0.01400803092539812 0.25653148128311221 0 0.02816504346786778 0.26366374586641111 0 0.022659503928717271 0.2493441035946494 0 0.01400803092539812 0.25653148128311221 0 0.022659503928717271 0.2493441035946494 0 0.02816504346786778 0.26366374586641111 0 0.032618197778325211 0.25240829851996349 0 0.022659503928717271 0.2493441035946494 0 0.02816504346786778 0.26366374586641111 0 0.02816504346786778 0.26366374586641111 0 0.043353722786952362 0.25366369760515528 0 0.046264784169414513 0.26849618013487431 0 0.02816504346786778 0.26366374586641111 0 0.032618197778325211 0.25240829851996349 0 0.043353722786952362 0.25366369760515528 0 0.042888954291307922 0.2851405994232169 0 0.033670583007016953 0.27798338813817342 0 0.046264784169414513 0.26849618013487431 0 0.02816504346786778 0.26366374586641111 0 0.033670583007016953 0.27798338813817342 0 0.046264784169414513 0.26849618013487431 0 0.054354047459473177 0.28125338012521273 0 0.042888954291307922 0.2851405994232169 0 0.046264784169414513 0.26849618013487431 0 0.054354047459473177 0.28125338012521273 0 0.046264784169414513 0.26849618013487431 0 0.057080452002834903 0.27113733560077002 0 0.046264784169414513 0.26849618013487431 0 0.057080452002834903 0.27113733560077002 0 0.057300189827982961 0.26216752331769427 0 0.057080452002834903 0.27113733560077002 0 0.057300189827982961 0.26216752331769427 0 0.066375890736399379 0.26404668303947221 0 0.054354047459473177 0.28125338012521273 0 0.057080452002834903 0.27113733560077002 0 0.064575121359610396 0.28363491733241147 0 0.046264784169414513 0.26849618013487431 0 0.052989832146705641 0.25358807173480552 0 0.057300189827982961 0.26216752331769427 0 0.043353722786952362 0.25366369760515528 0 0.046264784169414513 0.26849618013487431 0 0.052989832146705641 0.25358807173480552 0 0.059043292164730067 0.24521993747397511 0 0.052989832146705641 0.25358807173480552 0 0.063874182138656699 0.25465448059656948 0 0.052989832146705641 0.25358807173480552 0 0.057300189827982961 0.26216752331769427 0 0.063874182138656699 0.25465448059656948 0 0.073607151453312453 0.24577795411565251 0 0.063874182138656699 0.25465448059656948 0 0.073318408509313426 0.25647364920316101 0 0.057300189827982961 0.26216752331769427 0 0.063874182138656699 0.25465448059656948 0 0.066375890736399379 0.26404668303947221 0 0.063874182138656699 0.25465448059656948 0 0.066375890736399379 0.26404668303947221 0 0.073318408509313426 0.25647364920316101 0 0.066375890736399379 0.26404668303947221 0 0.073318408509313426 0.25647364920316101 0 0.07811986217091102 0.26573235746739921 0 0.073607151453312453 0.24577795411565251 0 0.073318408509313426 0.25647364920316101 0 0.085402592710014227 0.25523206306219659 0 0.085402592710014227 0.25523206306219659 0 0.07811986217091102 0.26573235746739921 0 0.094183193550472707 0.26761657381221882 0 0.073318408509313426 0.25647364920316101 0 0.085402592710014227 0.25523206306219659 0 0.07811986217091102 0.26573235746739921 0 0.085402592710014227 0.25523206306219659 0 0.097608458260007525 0.2553956630407313 0 0.094183193550472707 0.26761657381221882 0 0.096279408473550737 0.24077944120247879 0 0.085402592710014227 0.25523206306219659 0 0.097608458260007525 0.2553956630407313 0 0.083203850289466683 0.27842003178643121 0 0.07811986217091102 0.26573235746739921 0 0.094183193550472707 0.26761657381221882 0 0.083203850289466683 0.27842003178643121 0 0.095833972525107919 0.28203628578226347 0 0.094183193550472707 0.26761657381221882 0 0.083203850289466683 0.27842003178643121 0 0.068562249768697334 0.27411475205123909 0 0.074374462192503085 0.28739190953125149 0 0.083203850289466683 0.27842003178643121 0 0.07811986217091102 0.26573235746739921 0 0.068562249768697334 0.27411475205123909 0 0.066375890736399379 0.26404668303947221 0 0.07811986217091102 0.26573235746739921 0 0.068562249768697334 0.27411475205123909 0 0.057080452002834903 0.27113733560077002 0 0.066375890736399379 0.26404668303947221 0 0.068562249768697334 0.27411475205123909 0 0.057080452002834903 0.27113733560077002 0 0.068562249768697334 0.27411475205123909 0 0.064575121359610396 0.28363491733241147 0 0.068562249768697334 0.27411475205123909 0 0.064575121359610396 0.28363491733241147 0 0.074374462192503085 0.28739190953125149 0 0.064575121359610396 0.28363491733241147 0 0.074374462192503085 0.28739190953125149 0 0.06353363047820805 0.29756726944488371 0 0.074374462192503085 0.28739190953125149 0 0.06353363047820805 0.29756726944488371 0 0.075823588776495615 0.30228361489069411 0 0.065215802635173487 0.31228628918081569 0 0.06353363047820805 0.29756726944488371 0 0.075823588776495615 0.30228361489069411 0 0.077564980396643807 0.31639268529517012 0 0.065215802635173487 0.31228628918081569 0 0.075823588776495615 0.30228361489069411 0 0.077564980396643807 0.31639268529517012 0 0.075823588776495615 0.30228361489069411 0 0.093209113865111631 0.31100003081129568 0 0.075823588776495615 0.30228361489069411 0 0.093209113865111631 0.31100003081129568 0 0.087275703874059529 0.29329693143564378 0 0.083203850289466683 0.27842003178643121 0 0.074374462192503085 0.28739190953125149 0 0.087275703874059529 0.29329693143564378 0 0.074374462192503085 0.28739190953125149 0 0.075823588776495615 0.30228361489069411 0 0.087275703874059529 0.29329693143564378 0 0.083203850289466683 0.27842003178643121 0 0.087275703874059529 0.29329693143564378 0 0.095833972525107919 0.28203628578226347 0 0.087275703874059529 0.29329693143564378 0 0.095833972525107919 0.28203628578226347 0 0.1013451108366567 0.29870191487898118 0 0.095833972525107919 0.28203628578226347 0 0.10544632487855431 0.28835853047306681 0 0.1013451108366567 0.29870191487898118 0 0.1083933714041312 0.29550675524581449 0 0.10544632487855431 0.28835853047306681 0 0.1013451108366567 0.29870191487898118 0 0.10544632487855431 0.28835853047306681 0 0.11598105352771471 0.29116253454779162 0 0.1041549754221333 0.27873752183613848 0 0.095833972525107919 0.28203628578226347 0 0.10544632487855431 0.28835853047306681 0 0.1041549754221333 0.27873752183613848 0 0.1058448009621695 0.31451744484980743 0 0.093209113865111631 0.31100003081129568 0 0.1013451108366567 0.29870191487898118 0 0.093209113865111631 0.31100003081129568 0 0.087275703874059529 0.29329693143564378 0 0.1013451108366567 0.29870191487898118 0 0.1058448009621695 0.31451744484980743 0 0.1013451108366567 0.29870191487898118 0 0.11080099637359921 0.30380404108341857 0 0.1083933714041312 0.29550675524581449 0 0.1013451108366567 0.29870191487898118 0 0.11080099637359921 0.30380404108341857 0 0.12263177442661261 0.31781138453023089 0 0.11080099637359921 0.30380404108341857 0 0.11598105352771471 0.29116253454779162 0 0.12263177442661261 0.31781138453023089 0 0.1222238581121154 0.29621753117008781 0 0.12263177442661261 0.31781138453023089 0 0.1058448009621695 0.31451744484980743 0 0.11080099637359921 0.30380404108341857 0 0.12263177442661261 0.31781138453023089 0 0.11598105352771471 0.29116253454779162 0 0.12263177442661261 0.31781138453023089 0 0.1222238581121154 0.29621753117008781 0 0.11598105352771471 0.29116253454779162 0 0.1222238581121154 0.29621753117008781 0 0.11598105352771471 0.29116253454779162 0 0.1218159417976182 0.27462367780994462 0 0.1222238581121154 0.29621753117008781 0 0.1218159417976182 0.27462367780994462 0 0.12853139442637221 0.293221679009178 0 0.1222238581121154 0.29621753117008781 0 0.1218159417976182 0.27462367780994462 0 0.1083933714041312 0.29550675524581449 0 0.10544632487855431 0.28835853047306681 0 0.11598105352771471 0.29116253454779162 0 0.1083933714041312 0.29550675524581449 0 0.11080099637359921 0.30380404108341857 0 0.11598105352771471 0.29116253454779162 0 0.1218159417976182 0.27462367780994462 0 0.1249697099547461 0.27312575172948972 0 0.1214080254831205 0.25302982444980132 0 0.11598105352771471 0.29116253454779162 0 0.10933033262881681 0.26451368456535218 0 0.11598105352771471 0.29116253454779162 0 0.10933033262881681 0.26451368456535218 0 0.1041549754221333 0.27873752183613848 0 0.11598105352771471 0.29116253454779162 0 0.1218159417976182 0.27462367780994462 0 0.10933033262881681 0.26451368456535218 0 0.1218159417976182 0.27462367780994462 0 0.1214080254831205 0.25302982444980132 0 0.10933033262881681 0.26451368456535218 0 0.1249697099547461 0.27312575172948972 0 0.1214080254831205 0.25302982444980132 0 0.1218159417976182 0.27462367780994462 0 0.1214080254831205 0.25302982444980132 0 0.1213056860738483 0.2476122862972884 0 0.1214080254831205 0.25302982444980132 0 0.1089588400304309 0.25217858384640102 0 0.1213056860738483 0.2476122862972884 0 0.1214080254831205 0.25302982444980132 0 0.1214080254831205 0.25302982444980132 0 0.10933033262881681 0.26451368456535218 0 0.1089588400304309 0.25217858384640102 0 0.10933033262881681 0.26451368456535218 0 0.1089588400304309 0.25217858384640102 0 0.097608458260007525 0.2553956630407313 0 0.10933033262881681 0.26451368456535218 0 0.097608458260007525 0.2553956630407313 0 0.094183193550472707 0.26761657381221882 0 0.095833972525107919 0.28203628578226347 0 0.094183193550472707 0.26761657381221882 0 0.1041549754221333 0.27873752183613848 0 0.10933033262881681 0.26451368456535218 0 0.094183193550472707 0.26761657381221882 0 0.1041549754221333 0.27873752183613848 0 0.14671928237127849 0.27095664225109778 0 0.1491252328930481 0.28306545072441341 0 0.16268564154770759 0.28211888751808428 0 0.14671928237127849 0.27095664225109778 0 0.13548588814267201 0.2778079889799816 0 0.1491252328930481 0.28306545072441341 0 0.14671928237127849 0.27095664225109778 0 0.14890374320077271 0.25514729618879239 0 0.13461963344748401 0.26105186610915992 0 0.14671928237127849 0.27095664225109778 0 0.14890374320077271 0.25514729618879239 0 0.16003029539845179 0.26779362904683762 0 0.1213056860738483 0.2476122862972884 0 0.14890374320077271 0.25514729618879239 0 0.1213056860738483 0.2476122862972884 0 0.14890374320077271 0.25514729618879239 0 0.13461963344748401 0.26105186610915992 0 0.1249697099547461 0.27312575172948972 0 0.1214080254831205 0.25302982444980132 0 0.13461963344748401 0.26105186610915992 0 0.1213056860738483 0.2476122862972884 0 0.1214080254831205 0.25302982444980132 0 0.13461963344748401 0.26105186610915992 0 0.1249697099547461 0.27312575172948972 0 0.13461963344748401 0.26105186610915992 0 0.13471054766427309 0.27039483364737832 0 0.1218159417976182 0.27462367780994462 0 0.1249697099547461 0.27312575172948972 0 0.12853139442637221 0.293221679009178 0 0.14671928237127849 0.27095664225109778 0 0.13461963344748401 0.26105186610915992 0 0.13471054766427309 0.27039483364737832 0 0.14671928237127849 0.27095664225109778 0 0.13471054766427309 0.27039483364737832 0 0.13548588814267201 0.2778079889799816 0 0.1249697099547461 0.27312575172948972 0 0.13471054766427309 0.27039483364737832 0 0.13548588814267201 0.2778079889799816 0 0.1249697099547461 0.27312575172948972 0 0.13548588814267201 0.2778079889799816 0 0.12853139442637221 0.293221679009178 0 0.1249697099547461 0.27312575172948972 0 0.12853139442637221 0.293221679009178 0 0.13806866371219201 0.29199639000062022 0 0.13695641189778029 0.29566755862485211 0 0.1418296782692556 0.30011228312973559 0 0.12853139442637221 0.293221679009178 0 0.13695641189778029 0.29566755862485211 0 0.139304005224269 0.30133423301167089 0 0.12853139442637221 0.293221679009178 0 0.13806866371219201 0.29199639000062022 0 0.13695641189778029 0.29566755862485211 0 0.13548588814267201 0.2778079889799816 0 0.12853139442637221 0.293221679009178 0 0.13806866371219201 0.29199639000062022 0 0.12853139442637221 0.293221679009178 0 0.13209307889799829 0.31331760628886629 0 0.12263177442661261 0.31781138453023089 0 0.1222238581121154 0.29621753117008781 0 0.13209307889799829 0.31331760628886629 0 0.12853139442637221 0.293221679009178 0 0.1372533889236959 0.30604065726795138 0 0.13209307889799829 0.31331760628886629 0 0.1222238581121154 0.29621753117008781 0 0.12853139442637221 0.293221679009178 0 0.13209307889799829 0.31331760628886629 0 0.12853139442637221 0.293221679009178 0 0.139304005224269 0.30133423301167089 0 0.1372533889236959 0.30604065726795138 0 0.13695641189778029 0.29566755862485211 0 0.139304005224269 0.30133423301167089 0 0.1418296782692556 0.30011228312973559 0 0.139304005224269 0.30133423301167089 0 0.1372533889236959 0.30604065726795138 0 0.14130222949187679 0.30445136827563912 0 0.1372533889236959 0.30604065726795138 0 0.14197416330932811 0.30938830465715511 0 0.13209307889799829 0.31331760628886629 0 0.1372533889236959 0.30604065726795138 0 0.14197416330932811 0.30938830465715511 0 0.14130222949187679 0.30445136827563912 0 0.14614991173283551 0.30538136331168281 0 0.14886948276771811 0.30155546895586982 0 0.1482616187461315 0.31263080968830698 0 0.14197416330932811 0.30938830465715511 0 0.14614991173283551 0.30538136331168281 0 0.1482616187461315 0.31263080968830698 0 0.14197416330932811 0.30938830465715511 0 0.14614991173283551 0.30538136331168281 0 0.14130222949187679 0.30445136827563912 0 0.13806866371219201 0.29199639000062022 0 0.1418296782692556 0.30011228312973559 0 0.14886948276771811 0.30155546895586982 0 0.14614991173283551 0.30538136331168281 0 0.1418296782692556 0.30011228312973559 0 0.14886948276771811 0.30155546895586982 0 0.14614991173283551 0.30538136331168281 0 0.14886948276771811 0.30155546895586982 0 0.139304005224269 0.30133423301167089 0 0.14130222949187679 0.30445136827563912 0 0.1418296782692556 0.30011228312973559 0 0.14614991173283551 0.30538136331168281 0 0.14130222949187679 0.30445136827563912 0 0.1418296782692556 0.30011228312973559 0 0.14886948276771811 0.30155546895586982 0 0.15316070692442149 0.30916969836047731 0 0.15995194683203831 0.30011137123774861 0 0.14886948276771811 0.30155546895586982 0 0.15316070692442149 0.30916969836047731 0 0.1482616187461315 0.31263080968830698 0 0.14886948276771811 0.30155546895586982 0 0.15316070692442149 0.30916969836047731 0 0.14886948276771811 0.30155546895586982 0 0.1491252328930481 0.28306545072441341 0 0.16268564154770759 0.28211888751808428 0 0.13548588814267201 0.2778079889799816 0 0.14886948276771811 0.30155546895586982 0 0.13548588814267201 0.2778079889799816 0 0.14886948276771811 0.30155546895586982 0 0.1491252328930481 0.28306545072441341 0 0.14886948276771811 0.30155546895586982 0 0.16268564154770759 0.28211888751808428 0 0.13548588814267201 0.2778079889799816 0 0.13806866371219201 0.29199639000062022 0 0.14886948276771811 0.30155546895586982 0 0.14886948276771811 0.30155546895586982 0 0.16268564154770759 0.28211888751808428 0 0.15995194683203831 0.30011137123774861 0 0.16268564154770759 0.28211888751808428 0 0.16735936202969151 0.29601588667553308 0 0.15995194683203831 0.30011137123774861 0 0.16268564154770759 0.28211888751808428 0 0.16735936202969151 0.29601588667553308 0 0.1767620392769452 0.29206974858705792 0 0.16268564154770759 0.28211888751808428 0 0.1767620392769452 0.29206974858705792 0 0.17592113271084431 0.27673991033867362 0 0.15316070692442149 0.30916969836047731 0 0.17351551338408869 0.30916434205934878 0 0.15316070692442149 0.30916969836047731 0 0.15995194683203831 0.30011137123774861 0 0.17351551338408869 0.30916434205934878 0 0.16735936202969151 0.29601588667553308 0 0.15995194683203831 0.30011137123774861 0 0.17351551338408869 0.30916434205934878 0 0.17351551338408869 0.30916434205934878 0 0.19326775467899501 0.30949857917649132 0 0.16735936202969151 0.29601588667553308 0 0.17351551338408869 0.30916434205934878 0 0.1767620392769452 0.29206974858705792 0 0.17351551338408869 0.30916434205934878 0 0.1767620392769452 0.29206974858705792 0 0.19326775467899501 0.30949857917649132 0 0.1767620392769452 0.29206974858705792 0 0.1905531410186119 0.28763805791739072 0 0.19326775467899501 0.30949857917649132 0 0.1767620392769452 0.29206974858705792 0 0.17592113271084431 0.27673991033867362 0 0.1905531410186119 0.28763805791739072 0 0.17592113271084431 0.27673991033867362 0 0.18783852735822701 0.26577753665829029 0 0.1905531410186119 0.28763805791739072 0 0.17592113271084431 0.27673991033867362 0 0.1836397548637384 0.26463115913857399 0 0.17592113271084431 0.27673991033867362 0 0.1836397548637384 0.26463115913857399 0 0.18783852735822701 0.26577753665829029 0 0.17592113271084431 0.27673991033867362 0 0.17650180032769669 0.26268230608029819 0 0.1836397548637384 0.26463115913857399 0 0.16268564154770759 0.28211888751808428 0 0.17650180032769669 0.26268230608029819 0 0.16268564154770759 0.28211888751808428 0 0.16003029539845179 0.26779362904683762 0 0.17650180032769669 0.26268230608029819 0 0.16268564154770759 0.28211888751808428 0 0.17592113271084431 0.27673991033867362 0 0.17650180032769669 0.26268230608029819 0 0.14671928237127849 0.27095664225109778 0 0.16268564154770759 0.28211888751808428 0 0.16003029539845179 0.26779362904683762 0 0.16983780392707379 0.24873409844527969 0 0.14890374320077271 0.25514729618879239 0 0.17650180032769669 0.26268230608029819 0 0.14890374320077271 0.25514729618879239 0 0.16003029539845179 0.26779362904683762 0 0.17650180032769669 0.26268230608029819 0 0.14890374320077271 0.25514729618879239 0 0.17650180032769669 0.26268230608029819 0 0.1858253834099535 0.24956588314712119 0 0.16983780392707379 0.24873409844527969 0 0.17650180032769669 0.26268230608029819 0 0.17650180032769669 0.26268230608029819 0 0.18703479091032049 0.25930512477789341 0 0.1836397548637384 0.26463115913857399 0 0.17650180032769669 0.26268230608029819 0 0.1836397548637384 0.26463115913857399 0 0.18703479091032049 0.25930512477789341 0 0.1836397548637384 0.26463115913857399 0 0.18703479091032049 0.25930512477789341 0 0.18783852735822701 0.26577753665829029 0 0.1836397548637384 0.26463115913857399 0 0.18783852735822701 0.26577753665829029 0 0.18703479091032049 0.25930512477789341 0 0.1836397548637384 0.26463115913857399 0 0.18783852735822701 0.26577753665829029 0 0.1858253834099535 0.24956588314712119 0 0.17650180032769669 0.26268230608029819 0 0.18703479091032049 0.25930512477789341 0 0.1858253834099535 0.24956588314712119 0 0.18703479091032049 0.25930512477789341 0 0.1858253834099535 0.24956588314712119 0 0.17650180032769669 0.26268230608029819 0 0.19801718814945049 0.26039749665118223 0 0.18783852735822701 0.26577753665829029 0 0.20437638468583569 0.26402879487789882 0 0.18703479091032049 0.25930512477789341 0 0.1963167190748922 0.25451843354534293 0 0.18783852735822701 0.26577753665829029 0 0.19801718814945049 0.26039749665118223 0 0.1963167190748922 0.25451843354534293 0 0.18783852735822701 0.26577753665829029 0 0.19801718814945049 0.26039749665118223 0 0.2033756980882557 0.25906828181032621 0 0.20437638468583569 0.26402879487789882 0 0.19801718814945049 0.26039749665118223 0 0.20051949516040879 0.25612923550550032 0 0.2033756980882557 0.25906828181032621 0 0.2035744353402601 0.24901880409733501 0 0.20051949516040879 0.25612923550550032 0 0.1963167190748922 0.25451843354534293 0 0.19801718814945049 0.26039749665118223 0 0.20051949516040879 0.25612923550550032 0 0.1963167190748922 0.25451843354534293 0 0.18783852735822701 0.26577753665829029 0 0.2130568539689876 0.27266281628451378 0 0.18783852735822701 0.26577753665829029 0 0.2130568539689876 0.27266281628451378 0 0.20437638468583569 0.26402879487789882 0 0.18783852735822701 0.26577753665829029 0 0.1905531410186119 0.28763805791739072 0 0.18783852735822701 0.26577753665829029 0 0.19884566273912879 0.27570336229068793 0 0.2130568539689876 0.27266281628451378 0 0.18783852735822701 0.26577753665829029 0 0.19884566273912879 0.27570336229068793 0 0.1905531410186119 0.28763805791739072 0 0.19884566273912879 0.27570336229068793 0 0.20684961063337179 0.27780406310118622 0 0.2027441728611776 0.28292491916598028 0 0.19884566273912879 0.27570336229068793 0 0.20684961063337179 0.27780406310118622 0 0.2130568539689876 0.27266281628451378 0 0.20684961063337179 0.27780406310118622 0 0.21275175296419299 0.27992515466356283 0 0.2027441728611776 0.28292491916598028 0 0.20684961063337179 0.27780406310118622 0 0.2130568539689876 0.27266281628451378 0 0.21275175296419299 0.27992515466356283 0 0.2130568539689876 0.27266281628451378 0 0.20437638468583569 0.26402879487789882 0 0.21245240576449259 0.26517707100516008 0 0.21794983288748801 0.26603182797243252 0 0.2130568539689876 0.27266281628451378 0 0.22349081663852399 0.26946585041075688 0 0.21794983288748801 0.26603182797243252 0 0.2130568539689876 0.27266281628451378 0 0.21245240576449259 0.26517707100516008 0 0.2130568539689876 0.27266281628451378 0 0.21811142491731131 0.27957285053969488 0 0.22259764922551839 0.27935859779472749 0 0.21811142491731131 0.27957285053969488 0 0.21275175296419299 0.27992515466356283 0 0.2197237090031729 0.28324830263394801 0 0.2130568539689876 0.27266281628451378 0 0.21811142491731131 0.27957285053969488 0 0.21275175296419299 0.27992515466356283 0 0.20583198866000851 0.25471196427328457 0 0.2097646693733301 0.25947951655644269 0 0.2144623988128958 0.25192455982298267 0 0.20930433378831709 0.24876862656320389 0 0.20583198866000851 0.25471196427328457 0 0.2144623988128958 0.25192455982298267 0 0.2035744353402601 0.24901880409733501 0 0.20051949516040879 0.25612923550550032 0 0.20583198866000851 0.25471196427328457 0 0.20930433378831709 0.24876862656320389 0 0.2035744353402601 0.24901880409733501 0 0.20583198866000851 0.25471196427328457 0 0.20051949516040879 0.25612923550550032 0 0.20583198866000851 0.25471196427328457 0 0.2033756980882557 0.25906828181032621 0 0.20583198866000851 0.25471196427328457 0 0.2033756980882557 0.25906828181032621 0 0.2097646693733301 0.25947951655644269 0 0.20437638468583569 0.26402879487789882 0 0.2097646693733301 0.25947951655644269 0 0.21245240576449259 0.26517707100516008 0 0.2033756980882557 0.25906828181032621 0 0.20437638468583569 0.26402879487789882 0 0.2097646693733301 0.25947951655644269 0 0.2097646693733301 0.25947951655644269 0 0.21245240576449259 0.26517707100516008 0 0.2172375525925628 0.26010964311834173 0 0.21794983288748801 0.26603182797243252 0 0.21245240576449259 0.26517707100516008 0 0.2172375525925628 0.26010964311834173 0 0.2097646693733301 0.25947951655644269 0 0.2172375525925628 0.26010964311834173 0 0.2144623988128958 0.25192455982298267 0 0.2172375525925628 0.26010964311834173 0 0.2144623988128958 0.25192455982298267 0 0.22379560274636459 0.2523722143330201 0 0.22379560274636459 0.2523722143330201 0 0.2298918845073499 0.26062760975291432 0 0.23560866258503799 0.25097121006181622 0 0.2298918845073499 0.26062760975291432 0 0.23319537142936811 0.2678153547350412 0 0.23986373793192239 0.2622975197666057 0 0.2298918845073499 0.26062760975291432 0 0.22324123205804169 0.26247763817554909 0 0.22349081663852399 0.26946585041075688 0 0.2172375525925628 0.26010964311834173 0 0.22379560274636459 0.2523722143330201 0 0.22324123205804169 0.26247763817554909 0 0.22379560274636459 0.2523722143330201 0 0.2298918845073499 0.26062760975291432 0 0.22324123205804169 0.26247763817554909 0 0.21794983288748801 0.26603182797243252 0 0.2172375525925628 0.26010964311834173 0 0.22324123205804169 0.26247763817554909 0 0.2130568539689876 0.27266281628451378 0 0.22259764922551839 0.27935859779472749 0 0.2294407471792913 0.28026636889743478 0 0.2130568539689876 0.27266281628451378 0 0.23867297898262571 0.27980429617375041 0 0.2130568539689876 0.27266281628451378 0 0.22349081663852399 0.26946585041075688 0 0.23867297898262571 0.27980429617375041 0 0.2130568539689876 0.27266281628451378 0 0.2294407471792913 0.28026636889743478 0 0.23867297898262571 0.27980429617375041 0 0.21794983288748801 0.26603182797243252 0 0.22324123205804169 0.26247763817554909 0 0.22349081663852399 0.26946585041075688 0 0.21811142491731131 0.27957285053969488 0 0.22259764922551839 0.27935859779472749 0 0.22242715942468441 0.28266938132172248 0 0.22259764922551839 0.27935859779472749 0 0.2294407471792913 0.28026636889743478 0 0.22557685813730741 0.28256741724744788 0 0.2298918845073499 0.26062760975291432 0 0.22349081663852399 0.26946585041075688 0 0.23319537142936811 0.2678153547350412 0 0.22349081663852399 0.26946585041075688 0 0.23319537142936811 0.2678153547350412 0 0.23867297898262571 0.27980429617375041 0 0.23319537142936811 0.2678153547350412 0 0.23867297898262571 0.27980429617375041 0 0.23986373793192239 0.2622975197666057 0 0.23867297898262571 0.27980429617375041 0 0.25208543646511339 0.25897896952323762 0 0.23867297898262571 0.27980429617375041 0 0.2494758077648995 0.28219508434063778 0 0.25208543646511339 0.25897896952323762 0 0.23867297898262571 0.27980429617375041 0 0.23986373793192239 0.2622975197666057 0 0.25208543646511339 0.25897896952323762 0 0.2294407471792913 0.28026636889743478 0 0.23867297898262571 0.27980429617375041 0 0.23657625162174861 0.28305985409401557 0 0.246895936366299 0.2418550977724778 0 0.23560866258503799 0.25097121006181622 0 0.25208543646511339 0.25897896952323762 0 0.23560866258503799 0.25097121006181622 0 0.23986373793192239 0.2622975197666057 0 0.25208543646511339 0.25897896952323762 0 0.2298918845073499 0.26062760975291432 0 0.23560866258503799 0.25097121006181622 0 0.23986373793192239 0.2622975197666057 0 0.24010716797632831 0.31029117127960593 0 0.24263022926561409 0.3008963439042468 0 0.25803545738558742 0.30799646086812449 0 0.24263022926561409 0.3008963439042468 0 0.2333697933925046 0.30464760038185412 0 0.23245302615182489 0.29743906184806451 0 0.24010716797632831 0.31029117127960593 0 0.24263022926561409 0.3008963439042468 0 0.2333697933925046 0.30464760038185412 0 0.24263022926561409 0.3008963439042468 0 0.24939931002380411 0.29366779673498089 0 0.24127171643694151 0.29218704415336649 0 0.24939931002380411 0.29366779673498089 0 0.24390427485442909 0.28710301951299022 0 0.24127171643694151 0.29218704415336649 0 0.24939931002380411 0.29366779673498089 0 0.24390427485442909 0.28710301951299022 0 0.2494758077648995 0.28219508434063778 0 0.24390427485442909 0.28710301951299022 0 0.2494758077648995 0.28219508434063778 0 0.23657625162174861 0.28305985409401557 0 0.23867297898262571 0.27980429617375041 0 0.2494758077648995 0.28219508434063778 0 0.23657625162174861 0.28305985409401557 0 0.24390427485442909 0.28710301951299022 0 0.23657625162174861 0.28305985409401557 0 0.24127171643694151 0.29218704415336649 0 0.23867297898262571 0.27980429617375041 0 0.23657625162174861 0.28305985409401557 0 0.24263022926561409 0.3008963439042468 0 0.24127171643694151 0.29218704415336649 0 0.23245302615182489 0.29743906184806451 0 0.23657625162174861 0.28305985409401557 0 0.24127171643694151 0.29218704415336649 0 0.23245302615182489 0.29743906184806451 0 0.23657625162174861 0.28305985409401557 0 0.2210670667783835 0.30714073866479369 0 0.23657625162174861 0.28305985409401557 0 0.22683466171588071 0.29072295133341319 0 0.2210670667783835 0.30714073866479369 0 0.23657625162174861 0.28305985409401557 0 0.23245302615182489 0.29743906184806451 0 0.2210670667783835 0.30714073866479369 0 0.23657625162174861 0.28305985409401557 0 0.22683466171588071 0.29072295133341319 0 0.229207733864287 0.28432135112510792 0 0.2294407471792913 0.28026636889743478 0 0.23657625162174861 0.28305985409401557 0 0.229207733864287 0.28432135112510792 0 0.22683466171588071 0.29072295133341319 0 0.229207733864287 0.28432135112510792 0 0.22421100099275551 0.28622138709824663 0 0.2294407471792913 0.28026636889743478 0 0.229207733864287 0.28432135112510792 0 0.22557685813730741 0.28256741724744788 0 0.22421100099275551 0.28622138709824663 0 0.2197237090031729 0.28324830263394801 0 0.21803289509577531 0.29319059760798932 0 0.229207733864287 0.28432135112510792 0 0.22557685813730741 0.28256741724744788 0 0.22421100099275551 0.28622138709824663 0 0.22259764922551839 0.27935859779472749 0 0.22557685813730741 0.28256741724744788 0 0.22242715942468441 0.28266938132172248 0 0.22557685813730741 0.28256741724744788 0 0.22421100099275551 0.28622138709824663 0 0.22242715942468441 0.28266938132172248 0 0.22421100099275551 0.28622138709824663 0 0.2197237090031729 0.28324830263394801 0 0.22242715942468441 0.28266938132172248 0 0.21811142491731131 0.27957285053969488 0 0.2197237090031729 0.28324830263394801 0 0.22242715942468441 0.28266938132172248 0 0.22683466171588071 0.29072295133341319 0 0.22421100099275551 0.28622138709824663 0 0.2231112553222287 0.29287142568490249 0 0.22421100099275551 0.28622138709824663 0 0.2231112553222287 0.29287142568490249 0 0.21803289509577531 0.29319059760798932 0 0.24010716797632831 0.31029117127960593 0 0.2237198767451232 0.31001387409104292 0 0.22683466171588071 0.29072295133341319 0 0.2231112553222287 0.29287142568490249 0 0.2210670667783835 0.30714073866479369 0 0.2231112553222287 0.29287142568490249 0 0.2210670667783835 0.30714073866479369 0 0.21803289509577531 0.29319059760798932 0 0.24010716797632831 0.31029117127960593 0 0.2237198767451232 0.31001387409104292 0 0.2330207753122453 0.31600865033204689 0 0.24010716797632831 0.31029117127960593 0 0.2333697933925046 0.30464760038185412 0 0.2237198767451232 0.31001387409104292 0 0.22793866682363251 0.30459755078631001 0 0.23245302615182489 0.29743906184806451 0 0.2210670667783835 0.30714073866479369 0 0.22793866682363251 0.30459755078631001 0 0.2333697933925046 0.30464760038185412 0 0.23245302615182489 0.29743906184806451 0 0.22793866682363251 0.30459755078631001 0 0.2333697933925046 0.30464760038185412 0 0.2237198767451232 0.31001387409104292 0 0.22793866682363251 0.30459755078631001 0 0.2237198767451232 0.31001387409104292 0 0.2210670667783835 0.30714073866479369 0 0.2237198767451232 0.31001387409104292 0 0.2210670667783835 0.30714073866479369 0 0.20733258551391809 0.30973657690248207 0 0.20733258551391809 0.30973657690248207 0 0.2029842071962947 0.29282386691387108 0 0.20041829625649979 0.30263673630553389 0 0.2237198767451232 0.31001387409104292 0 0.20733258551391809 0.30973657690248207 0 0.2237198767451232 0.31001387409104292 0 0.20733258551391809 0.30973657690248207 0 0.21986651633290721 0.31691451649343411 0 0.2210670667783835 0.30714073866479369 0 0.20733258551391809 0.30973657690248207 0 0.21803289509577531 0.29319059760798932 0 0.21275175296419299 0.27992515466356283 0 0.20733258551391809 0.30973657690248207 0 0.21803289509577531 0.29319059760798932 0 0.21275175296419299 0.27992515466356283 0 0.20733258551391809 0.30973657690248207 0 0.2029842071962947 0.29282386691387108 0 0.21275175296419299 0.27992515466356283 0 0.20733258551391809 0.30973657690248207 0 0.21275175296419299 0.27992515466356283 0 0.2197237090031729 0.28324830263394801 0 0.21803289509577531 0.29319059760798932 0 0.21275175296419299 0.27992515466356283 0 0.2027441728611776 0.28292491916598028 0 0.2029842071962947 0.29282386691387108 0 0.19884566273912879 0.27570336229068793 0 0.2027441728611776 0.28292491916598028 0 0.1905531410186119 0.28763805791739072 0 0.2027441728611776 0.28292491916598028 0 0.2029842071962947 0.29282386691387108 0 0.1905531410186119 0.28763805791739072 0 0.2029842071962947 0.29282386691387108 0 0.1905531410186119 0.28763805791739072 0 0.20041829625649979 0.30263673630553389 0 0.1905531410186119 0.28763805791739072 0 0.19326775467899501 0.30949857917649132 0 0.1905531410186119 0.28763805791739072 0 0.20041829625649979 0.30263673630553389 0 0.19326775467899501 0.30949857917649132 0 0.20733258551391809 0.30973657690248207 0 0.20041829625649979 0.30263673630553389 0 0.19326775467899501 0.30949857917649132 0 0.20733258551391809 0.30973657690248207 0 0.19326775467899501 0.30949857917649132 0 0.19326775467899501 0.30949857917649132 0 0.1961307501657798 0.33255400493260379 0 0.19326775467899501 0.30949857917649132 0 0.1961307501657798 0.33255400493260379 0 0.18002020734167551 0.32486467953769732 0 0.19326775467899501 0.30949857917649132 0 0.19985386195797469 0.3203861987423427 0 0.1961307501657798 0.33255400493260379 0 0.20733258551391809 0.30973657690248207 0 0.19326775467899501 0.30949857917649132 0 0.19985386195797469 0.3203861987423427 0 0.1961307501657798 0.33255400493260379 0 0.2031631655832413 0.33267300379559939 0 0.19899374565256359 0.35560943068871648 0 0.19985386195797469 0.3203861987423427 0 0.1961307501657798 0.33255400493260379 0 0.2031631655832413 0.33267300379559939 0 0.2031631655832413 0.33267300379559939 0 0.2160524261161475 0.3338718267246118 0 0.21255295706865859 0.34543950577466698 0 0.2031631655832413 0.33267300379559939 0 0.2160524261161475 0.3338718267246118 0 0.21605283870547631 0.32355943223274009 0 0.2160524261161475 0.3338718267246118 0 0.21605283870547631 0.32355943223274009 0 0.22337410412034889 0.32767877879161172 0 0.2160524261161475 0.3338718267246118 0 0.22511906510301241 0.34000841302844048 0 0.21255295706865859 0.34543950577466698 0 0.20733258551391809 0.30973657690248207 0 0.2031631655832413 0.33267300379559939 0 0.20733258551391809 0.30973657690248207 0 0.19985386195797469 0.3203861987423427 0 0.2031631655832413 0.33267300379559939 0 0.20733258551391809 0.30973657690248207 0 0.2031631655832413 0.33267300379559939 0 0.21605283870547631 0.32355943223274009 0 0.20733258551391809 0.30973657690248207 0 0.21605283870547631 0.32355943223274009 0 0.21986651633290721 0.31691451649343411 0 0.21986651633290721 0.31691451649343411 0 0.2259980821096069 0.31575666991760187 0 0.22686471078855991 0.32058773393771672 0 0.2237198767451232 0.31001387409104292 0 0.21986651633290721 0.31691451649343411 0 0.2259980821096069 0.31575666991760187 0 0.2237198767451232 0.31001387409104292 0 0.2259980821096069 0.31575666991760187 0 0.2330207753122453 0.31600865033204689 0 0.2259980821096069 0.31575666991760187 0 0.2330207753122453 0.31600865033204689 0 0.22686471078855991 0.32058773393771672 0 0.23238933461398259 0.32448036843199762 0 0.22686471078855991 0.32058773393771672 0 0.22337410412034889 0.32767877879161172 0 0.23238933461398259 0.32448036843199762 0 0.22337410412034889 0.32767877879161172 0 0.23059514744142731 0.33162843356899341 0 0.2330207753122453 0.31600865033204689 0 0.23238933461398259 0.32448036843199762 0 0.22686471078855991 0.32058773393771672 0 0.21605283870547631 0.32355943223274009 0 0.21986651633290721 0.31691451649343411 0 0.22686471078855991 0.32058773393771672 0 0.21605283870547631 0.32355943223274009 0 0.22686471078855991 0.32058773393771672 0 0.22337410412034889 0.32767877879161172 0 0.22337410412034889 0.32767877879161172 0 0.22511906510301241 0.34000841302844048 0 0.23059514744142731 0.33162843356899341 0 0.2160524261161475 0.3338718267246118 0 0.22337410412034889 0.32767877879161172 0 0.22511906510301241 0.34000841302844048 0 0.22511906510301241 0.34000841302844048 0 0.23059514744142731 0.33162843356899341 0 0.23500053886893671 0.3412441835782527 0 0.23059514744142731 0.33162843356899341 0 0.23703237278494169 0.33319576478063839 0 0.23500053886893671 0.3412441835782527 0 0.23238933461398259 0.32448036843199762 0 0.23059514744142731 0.33162843356899341 0 0.23703237278494169 0.33319576478063839 0 0.23703237278494169 0.33319576478063839 0 0.24463387223857971 0.33388315683653091 0 0.2401720279435352 0.32341440798059329 0 0.24463387223857971 0.33388315683653091 0 0.24379515658040249 0.34862275454131292 0 0.25567612667128908 0.33240349966978722 0 0.23500053886893671 0.3412441835782527 0 0.24463387223857971 0.33388315683653091 0 0.24379515658040249 0.34862275454131292 0 0.23703237278494169 0.33319576478063839 0 0.23500053886893671 0.3412441835782527 0 0.24463387223857971 0.33388315683653091 0 0.24463387223857971 0.33388315683653091 0 0.2401720279435352 0.32341440798059329 0 0.25305629836335769 0.32182631747230472 0 0.24010716797632831 0.31029117127960593 0 0.2401720279435352 0.32341440798059329 0 0.25305629836335769 0.32182631747230472 0 0.24010716797632831 0.31029117127960593 0 0.2330207753122453 0.31600865033204689 0 0.2401720279435352 0.32341440798059329 0 0.23238933461398259 0.32448036843199762 0 0.23703237278494169 0.33319576478063839 0 0.2401720279435352 0.32341440798059329 0 0.2330207753122453 0.31600865033204689 0 0.23238933461398259 0.32448036843199762 0 0.2401720279435352 0.32341440798059329 0 0.2448729335286644 0.36402486923318539 0 0.233182525843424 0.37730608861931708 0 0.25439672724151918 0.3751801555116801 0 0.2448729335286644 0.36402486923318539 0 0.232756739603214 0.35292989732252122 0 0.233182525843424 0.37730608861931708 0 0.2448729335286644 0.36402486923318539 0 0.24379515658040249 0.34862275454131292 0 0.25796870936454919 0.35291826875179799 0 0.23500053886893671 0.3412441835782527 0 0.24379515658040249 0.34862275454131292 0 0.232756739603214 0.35292989732252122 0 0.2448729335286644 0.36402486923318539 0 0.24379515658040249 0.34862275454131292 0 0.232756739603214 0.35292989732252122 0 0.22511906510301241 0.34000841302844048 0 0.23500053886893671 0.3412441835782527 0 0.232756739603214 0.35292989732252122 0 0.22511906510301241 0.34000841302844048 0 0.232756739603214 0.35292989732252122 0 0.21995860088712291 0.35232050578212393 0 0.22511906510301241 0.34000841302844048 0 0.21995860088712291 0.35232050578212393 0 0.21255295706865859 0.34543950577466698 0 0.232756739603214 0.35292989732252122 0 0.21995860088712291 0.35232050578212393 0 0.21904642307845659 0.365852097576292 0 0.21904642307845659 0.365852097576292 0 0.21632837405120181 0.37970150079629478 0 0.233182525843424 0.37730608861931708 0 0.232756739603214 0.35292989732252122 0 0.21904642307845659 0.365852097576292 0 0.233182525843424 0.37730608861931708 0 0.232756739603214 0.35292989732252122 0 0.233182525843424 0.37730608861931708 0 0.21904642307845659 0.365852097576292 0 0.2011210533831797 0.37274043409757929 0 0.21632837405120181 0.37970150079629478 0 0.21031781958227269 0.35737261520869879 0 0.19899374565256359 0.35560943068871648 0 0.2011210533831797 0.37274043409757929 0 0.21904642307845659 0.365852097576292 0 0.21031781958227269 0.35737261520869879 0 0.2011210533831797 0.37274043409757929 0 0.2031631655832413 0.33267300379559939 0 0.21255295706865859 0.34543950577466698 0 0.19899374565256359 0.35560943068871648 0 0.21995860088712291 0.35232050578212393 0 0.21904642307845659 0.365852097576292 0 0.21031781958227269 0.35737261520869879 0 0.21995860088712291 0.35232050578212393 0 0.21255295706865859 0.34543950577466698 0 0.21031781958227269 0.35737261520869879 0 0.21255295706865859 0.34543950577466698 0 0.21031781958227269 0.35737261520869879 0 0.19899374565256359 0.35560943068871648 0 0.1961307501657798 0.33255400493260379 0 0.19899374565256359 0.35560943068871648 0 0.17516818473043569 0.34821915802807157 0 0.2031631655832413 0.33267300379559939 0 0.19899374565256359 0.35560943068871648 0 0.1961307501657798 0.33255400493260379 0 0.19899374565256359 0.35560943068871648 0 0.19899374565256359 0.35560943068871648 0 0.19382872976213919 0.3840227378974439 0 0.19899374565256359 0.35560943068871648 0 0.2011210533831797 0.37274043409757929 0 0.19899374565256359 0.35560943068871648 0 0.184276745191433 0.36800667773609308 0 0.19382872976213919 0.3840227378974439 0 0.19899374565256359 0.35560943068871648 0 0.2011210533831797 0.37274043409757929 0 0.19382872976213919 0.3840227378974439 0 0.184276745191433 0.36800667773609308 0 0.1692306955552412 0.37151639641993428 0 0.17516818473043569 0.34821915802807157 0 0.184276745191433 0.36800667773609308 0 0.1692306955552412 0.37151639641993428 0 0.1815859757375651 0.37755741645551361 0 0.1692306955552412 0.37151639641993428 0 0.156719936360118 0.34887326115666989 0 0.1517856537950355 0.36695291817177528 0 0.1692306955552412 0.37151639641993428 0 0.1517856537950355 0.36695291817177528 0 0.15476710376910069 0.38349627003072279 0 0.1692306955552412 0.37151639641993428 0 0.156719936360118 0.34887326115666989 0 0.17516818473043569 0.34821915802807157 0 0.19899374565256359 0.35560943068871648 0 0.184276745191433 0.36800667773609308 0 0.17516818473043569 0.34821915802807157 0 0.17516818473043569 0.34821915802807157 0 0.18002020734167551 0.32486467953769732 0 0.16201883374907661 0.32488731349197081 0 0.1961307501657798 0.33255400493260379 0 0.17516818473043569 0.34821915802807157 0 0.18002020734167551 0.32486467953769732 0 0.17351551338408869 0.30916434205934878 0 0.19326775467899501 0.30949857917649132 0 0.18002020734167551 0.32486467953769732 0 0.17351551338408869 0.30916434205934878 0 0.18002020734167551 0.32486467953769732 0 0.16201883374907661 0.32488731349197081 0 0.15316070692442149 0.30916969836047731 0 0.16201883374907661 0.32488731349197081 0 0.15316070692442149 0.30916969836047731 0 0.17351551338408869 0.30916434205934878 0 0.16201883374907661 0.32488731349197081 0 0.156719936360118 0.34887326115666989 0 0.17516818473043569 0.34821915802807157 0 0.16201883374907661 0.32488731349197081 0 0.17516818473043569 0.34821915802807157 0 0.16201883374907661 0.32488731349197081 0 0.156719936360118 0.34887326115666989 0 0.14892783398791001 0.33343950995596477 0 0.1455285628609235 0.34375117367669072 0 0.156719936360118 0.34887326115666989 0 0.16201883374907661 0.32488731349197081 0 0.14892783398791001 0.33343950995596477 0 0.14892783398791001 0.33343950995596477 0 0.14004826121493941 0.32673131497952262 0 0.13870195311901981 0.33662008270394278 0 0.14892783398791001 0.33343950995596477 0 0.13870195311901981 0.33662008270394278 0 0.1455285628609235 0.34375117367669072 0 0.15316070692442149 0.30916969836047731 0 0.16201883374907661 0.32488731349197081 0 0.1482616187461315 0.31263080968830698 0 0.16201883374907661 0.32488731349197081 0 0.14840663391643541 0.32249782124380988 0 0.1482616187461315 0.31263080968830698 0 0.16201883374907661 0.32488731349197081 0 0.14892783398791001 0.33343950995596477 0 0.14840663391643541 0.32249782124380988 0 0.14892783398791001 0.33343950995596477 0 0.14840663391643541 0.32249782124380988 0 0.14004826121493941 0.32673131497952262 0 0.14840663391643541 0.32249782124380988 0 0.14182770599883571 0.31674615593401823 0 0.14004826121493941 0.32673131497952262 0 0.14840663391643541 0.32249782124380988 0 0.14182770599883571 0.31674615593401823 0 0.1482616187461315 0.31263080968830698 0 0.14197416330932811 0.30938830465715511 0 0.14182770599883571 0.31674615593401823 0 0.1482616187461315 0.31263080968830698 0 0.12263177442661261 0.31781138453023089 0 0.1274866779465112 0.33726455322393378 0 0.12263177442661261 0.31781138453023089 0 0.1298955766481879 0.32633096680717222 0 0.1274866779465112 0.33726455322393378 0 0.14182770599883571 0.31674615593401823 0 0.13609610691844229 0.32068183247122561 0 0.13209307889799829 0.31331760628886629 0 0.14197416330932811 0.30938830465715511 0 0.14182770599883571 0.31674615593401823 0 0.13209307889799829 0.31331760628886629 0 0.14004826121493941 0.32673131497952262 0 0.13609610691844229 0.32068183247122561 0 0.1298955766481879 0.32633096680717222 0 0.14182770599883571 0.31674615593401823 0 0.14004826121493941 0.32673131497952262 0 0.13609610691844229 0.32068183247122561 0 0.13609610691844229 0.32068183247122561 0 0.1298955766481879 0.32633096680717222 0 0.13209307889799829 0.31331760628886629 0 0.12263177442661261 0.31781138453023089 0 0.1298955766481879 0.32633096680717222 0 0.13209307889799829 0.31331760628886629 0 0.13870195311901981 0.33662008270394278 0 0.13343649657287029 0.34175959603424139 0 0.1371412277844658 0.34577657575995752 0 0.13870195311901981 0.33662008270394278 0 0.1371412277844658 0.34577657575995752 0 0.1455285628609235 0.34375117367669072 0 0.13870195311901981 0.33662008270394278 0 0.13343649657287029 0.34175959603424139 0 0.13322729294248831 0.33336351526861219 0 0.14004826121493941 0.32673131497952262 0 0.1298955766481879 0.32633096680717222 0 0.13322729294248831 0.33336351526861219 0 0.14004826121493941 0.32673131497952262 0 0.13870195311901981 0.33662008270394278 0 0.13322729294248831 0.33336351526861219 0 0.1298955766481879 0.32633096680717222 0 0.13322729294248831 0.33336351526861219 0 0.1274866779465112 0.33726455322393378 0 0.13343649657287029 0.34175959603424139 0 0.13322729294248831 0.33336351526861219 0 0.1274866779465112 0.33726455322393378 0 0.13343649657287029 0.34175959603424139 0 0.1274866779465112 0.33726455322393378 0 0.13234158146640981 0.35671772191763668 0 0.1274866779465112 0.33726455322393378 0 0.13234158146640981 0.35671772191763668 0 0.1274866779465112 0.33726455322393378 0 0.13234158146640981 0.35671772191763668 0 0.12712916744232861 0.35227479466833778 0 0.12328625169632949 0.3524574275728698 0 0.1274866779465112 0.33726455322393378 0 0.12712916744232861 0.35227479466833778 0 0.1371412277844658 0.34577657575995752 0 0.13750434211127011 0.354272429744655 0 0.1434869470476422 0.3544813198176231 0 0.13343649657287029 0.34175959603424139 0 0.1371412277844658 0.34577657575995752 0 0.13234158146640981 0.35671772191763668 0 0.1371412277844658 0.34577657575995752 0 0.13750434211127011 0.354272429744655 0 0.13234158146640981 0.35671772191763668 0 0.13750434211127011 0.354272429744655 0 0.13704761214656239 0.36011410148340273 0 0.1434869470476422 0.3544813198176231 0 0.13750434211127011 0.354272429744655 0 0.13234158146640981 0.35671772191763668 0 0.13704761214656239 0.36011410148340273 0 0.12328625169632949 0.3524574275728698 0 0.13234158146640981 0.35671772191763668 0 0.1310314038582587 0.36445748276045897 0 0.12328625169632949 0.3524574275728698 0 0.13234158146640981 0.35671772191763668 0 0.12712916744232861 0.35227479466833778 0 0.12328625169632949 0.3524574275728698 0 0.12712916744232861 0.35227479466833778 0 0.123634947232256 0.37091631240435569 0 0.12328625169632949 0.3524574275728698 0 0.1310314038582587 0.36445748276045897 0 0.123634947232256 0.37091631240435569 0 0.13455561545135511 0.37383516224034569 0 0.123634947232256 0.37091631240435569 0 0.1310314038582587 0.36445748276045897 0 0.13455561545135511 0.37383516224034569 0 0.123634947232256 0.37091631240435569 0 0.13455561545135511 0.37383516224034569 0 0.13040895854759141 0.37641703909176139 0 0.1310314038582587 0.36445748276045897 0 0.13455561545135511 0.37383516224034569 0 0.1369790870406426 0.36749420130461202 0 0.1369790870406426 0.36749420130461202 0 0.14192582818610669 0.36488020228397522 0 0.14168272064284371 0.37290365463869268 0 0.13455561545135511 0.37383516224034569 0 0.1369790870406426 0.36749420130461202 0 0.14168272064284371 0.37290365463869268 0 0.13234158146640981 0.35671772191763668 0 0.1310314038582587 0.36445748276045897 0 0.13704761214656239 0.36011410148340273 0 0.1310314038582587 0.36445748276045897 0 0.1369790870406426 0.36749420130461202 0 0.13704761214656239 0.36011410148340273 0 0.1369790870406426 0.36749420130461202 0 0.13704761214656239 0.36011410148340273 0 0.14192582818610669 0.36488020228397522 0 0.14168272064284371 0.37290365463869268 0 0.1517856537950355 0.36695291817177528 0 0.15476710376910069 0.38349627003072279 0 0.14192582818610669 0.36488020228397522 0 0.1517856537950355 0.36695291817177528 0 0.1434869470476422 0.3544813198176231 0 0.13704761214656239 0.36011410148340273 0 0.14192582818610669 0.36488020228397522 0 0.1434869470476422 0.3544813198176231 0 0.14192582818610669 0.36488020228397522 0 0.14168272064284371 0.37290365463869268 0 0.1517856537950355 0.36695291817177528 0 0.156719936360118 0.34887326115666989 0 0.1517856537950355 0.36695291817177528 0 0.1434869470476422 0.3544813198176231 0 0.156719936360118 0.34887326115666989 0 0.1455285628609235 0.34375117367669072 0 0.1434869470476422 0.3544813198176231 0 0.1371412277844658 0.34577657575995752 0 0.1455285628609235 0.34375117367669072 0 0.1434869470476422 0.3544813198176231 0 0.15207125089351239 0.40419984217645061 0 0.15476710376910069 0.38349627003072279 0 0.13121739102490601 0.4031888768453421 0 0.15476710376910069 0.38349627003072279 0 0.13052647509675441 0.38030868629286219 0 0.14168272064284371 0.37290365463869268 0 0.15476710376910069 0.38349627003072279 0 0.13052647509675441 0.38030868629286219 0 0.12379565320595901 0.37942359957784622 0 0.13052647509675441 0.38030868629286219 0 0.13121739102490601 0.4031888768453421 0 0.15476710376910069 0.38349627003072279 0 0.13052647509675441 0.38030868629286219 0 0.13121739102490601 0.4031888768453421 0 0.13455561545135511 0.37383516224034569 0 0.14168272064284371 0.37290365463869268 0 0.13052647509675441 0.38030868629286219 0 0.12379565320595901 0.37942359957784622 0 0.123634947232256 0.37091631240435569 0 0.13040895854759141 0.37641703909176139 0 0.13455561545135511 0.37383516224034569 0 0.13040895854759141 0.37641703909176139 0 0.13052647509675441 0.38030868629286219 0 0.13040895854759141 0.37641703909176139 0 0.13052647509675441 0.38030868629286219 0 0.12379565320595901 0.37942359957784622 0 0.13052647509675441 0.38030868629286219 0 0.12379565320595901 0.37942359957784622 0 0.13040895854759141 0.37641703909176139 0 0.13052647509675441 0.38030868629286219 0 0.12427442678535509 0.40476842178454892 0 0.12379565320595901 0.37942359957784622 0 0.13121739102490601 0.4031888768453421 0 0.13052647509675441 0.38030868629286219 0 0.13121739102490601 0.4031888768453421 0 0.1247532003647491 0.43011324399125161 0 0.12427442678535509 0.40476842178454892 0 0.13190830695305519 0.42606906739782208 0 0.12427442678535509 0.40476842178454892 0 0.13121739102490601 0.4031888768453421 0 0.13190830695305519 0.42606906739782208 0 0.13121739102490601 0.4031888768453421 0 0.13190830695305519 0.42606906739782208 0 0.13121739102490601 0.4031888768453421 0 0.13190830695305519 0.42606906739782208 0 0.14652091976922901 0.41931206683961192 0 0.1247532003647491 0.43011324399125161 0 0.13190830695305519 0.42606906739782208 0 0.13259922288120299 0.44894925795030222 0 0.13190830695305519 0.42606906739782208 0 0.1479997208366409 0.43534324450259282 0 0.13259922288120299 0.44894925795030222 0 0.13190830695305519 0.42606906739782208 0 0.1479997208366409 0.43534324450259282 0 0.14652091976922901 0.41931206683961192 0 0.1479997208366409 0.43534324450259282 0 0.14652091976922901 0.41931206683961192 0 0.16340021879207939 0.42173723105488381 0 0.1479997208366409 0.43534324450259282 0 0.16340021879207939 0.42173723105488381 0 0.15207125089351239 0.40419984217645061 0 0.14652091976922901 0.41931206683961192 0 0.16340021879207939 0.42173723105488381 0 0.15207125089351239 0.40419984217645061 0 0.13121739102490601 0.4031888768453421 0 0.14652091976922901 0.41931206683961192 0 0.15207125089351239 0.40419984217645061 0 0.16340021879207939 0.42173723105488381 0 0.17085503259625151 0.40321398250926671 0 0.1479997208366409 0.43534324450259282 0 0.16340021879207939 0.42173723105488381 0 0.16060083141860751 0.44461555110194279 0 0.16340021879207939 0.42173723105488381 0 0.18086285889243819 0.44566916290352537 0 0.16060083141860751 0.44461555110194279 0 0.16340021879207939 0.42173723105488381 0 0.18451969710107169 0.42215151712823729 0 0.18086285889243819 0.44566916290352537 0 0.18451969710107169 0.42215151712823729 0 0.1949081959025265 0.43631427328140149 0 0.18086285889243819 0.44566916290352537 0 0.18451969710107169 0.42215151712823729 0 0.17085503259625151 0.40321398250926671 0 0.1907149480407567 0.40553704973473592 0 0.16340021879207939 0.42173723105488381 0 0.18451969710107169 0.42215151712823729 0 0.17085503259625151 0.40321398250926671 0 0.17085503259625151 0.40321398250926671 0 0.17900773244144719 0.38668385376858311 0 0.1907149480407567 0.40553704973473592 0 0.15476710376910069 0.38349627003072279 0 0.17085503259625151 0.40321398250926671 0 0.17900773244144719 0.38668385376858311 0 0.15207125089351239 0.40419984217645061 0 0.15476710376910069 0.38349627003072279 0 0.17085503259625151 0.40321398250926671 0 0.1692306955552412 0.37151639641993428 0 0.15476710376910069 0.38349627003072279 0 0.17900773244144719 0.38668385376858311 0 0.15476710376910069 0.38349627003072279 0 0.17900773244144719 0.38668385376858311 0 0.1692306955552412 0.37151639641993428 0 0.17900773244144719 0.38668385376858311 0 0.1815859757375651 0.37755741645551361 0 0.184276745191433 0.36800667773609308 0 0.1815859757375651 0.37755741645551361 0 0.19382872976213919 0.3840227378974439 0 0.17900773244144719 0.38668385376858311 0 0.1815859757375651 0.37755741645551361 0 0.19382872976213919 0.3840227378974439 0 0.2011210533831797 0.37274043409757929 0 0.19382872976213919 0.3840227378974439 0 0.20324836111379371 0.38987143750644249 0 0.17900773244144719 0.38668385376858311 0 0.20324836111379371 0.38987143750644249 0 0.17900773244144719 0.38668385376858311 0 0.19382872976213919 0.3840227378974439 0 0.20324836111379371 0.38987143750644249 0 0.2011210533831797 0.37274043409757929 0 0.20324836111379371 0.38987143750644249 0 0.17900773244144719 0.38668385376858311 0 0.1907149480407567 0.40553704973473592 0 0.20324836111379371 0.38987143750644249 0 0.1907149480407567 0.40553704973473592 0 0.20324836111379371 0.38987143750644249 0 0.20561301424729339 0.40891376048947731 0 0.20324836111379371 0.38987143750644249 0 0.2250435068371546 0.39273744618184248 0 0.20324836111379371 0.38987143750644249 0 0.20561301424729339 0.40891376048947731 0 0.20324836111379371 0.38987143750644249 0 0.21945451559059789 0.40667112004088679 0 0.20561301424729339 0.40891376048947731 0 0.20324836111379371 0.38987143750644249 0 0.2250435068371546 0.39273744618184248 0 0.21945451559059789 0.40667112004088679 0 0.21632837405120181 0.37970150079629478 0 0.20324836111379371 0.38987143750644249 0 0.2250435068371546 0.39273744618184248 0 0.2011210533831797 0.37274043409757929 0 0.21632837405120181 0.37970150079629478 0 0.20324836111379371 0.38987143750644249 0 0.233182525843424 0.37730608861931708 0 0.233608312083634 0.40168227991611299 0 0.21632837405120181 0.37970150079629478 0 0.233182525843424 0.37730608861931708 0 0.2250435068371546 0.39273744618184248 0 0.233182525843424 0.37730608861931708 0 0.2250435068371546 0.39273744618184248 0 0.233608312083634 0.40168227991611299 0 0.2250435068371546 0.39273744618184248 0 0.233608312083634 0.40168227991611299 0 0.21945451559059789 0.40667112004088679 0 0.233608312083634 0.40168227991611299 0 0.24758799327385811 0.4053273129893008 0 0.25098761556260168 0.38918689609641077 0 0.233182525843424 0.37730608861931708 0 0.233608312083634 0.40168227991611299 0 0.25098761556260168 0.38918689609641077 0 0.233182525843424 0.37730608861931708 0 0.25098761556260168 0.38918689609641077 0 0.25439672724151918 0.3751801555116801 0 0.23403409832384389 0.42605847121290902 0 0.25706332978617119 0.41597569311123 0 0.2507850171926021 0.43228369652040932 0 0.23403409832384389 0.42605847121290902 0 0.23445988456405389 0.45043466250970488 0 0.2507850171926021 0.43228369652040932 0 0.233608312083634 0.40168227991611299 0 0.24758799327385811 0.4053273129893008 0 0.23403409832384389 0.42605847121290902 0 0.24758799327385811 0.4053273129893008 0 0.23403409832384389 0.42605847121290902 0 0.25706332978617119 0.41597569311123 0 0.233608312083634 0.40168227991611299 0 0.21945451559059789 0.40667112004088679 0 0.23403409832384389 0.42605847121290902 0 0.21945451559059789 0.40667112004088679 0 0.23403409832384389 0.42605847121290902 0 0.21517980093786809 0.42076332493853591 0 0.233608312083634 0.40168227991611299 0 0.23403409832384389 0.42605847121290902 0 0.23403409832384389 0.42605847121290902 0 0.2125008236429862 0.43747696307116718 0 0.21517980093786809 0.42076332493853591 0 0.2125008236429862 0.43747696307116718 0 0.21517980093786809 0.42076332493853591 0 0.20050158222028769 0.4217687531901394 0 0.21945451559059789 0.40667112004088679 0 0.21517980093786809 0.42076332493853591 0 0.20561301424729339 0.40891376048947731 0 0.21517980093786809 0.42076332493853591 0 0.20561301424729339 0.40891376048947731 0 0.20050158222028769 0.4217687531901394 0 0.18451969710107169 0.42215151712823729 0 0.1907149480407567 0.40553704973473592 0 0.20050158222028769 0.4217687531901394 0 0.1907149480407567 0.40553704973473592 0 0.20561301424729339 0.40891376048947731 0 0.20050158222028769 0.4217687531901394 0 0.2125008236429862 0.43747696307116718 0 0.20050158222028769 0.4217687531901394 0 0.1949081959025265 0.43631427328140149 0 0.18451969710107169 0.42215151712823729 0 0.20050158222028769 0.4217687531901394 0 0.1949081959025265 0.43631427328140149 0 0.2125008236429862 0.43747696307116718 0 0.1949081959025265 0.43631427328140149 0 0.19987934037861879 0.45925187217764391 0 0.1949081959025265 0.43631427328140149 0 0.19987934037861879 0.45925187217764391 0 0.18086285889243819 0.44566916290352537 0 0.19987934037861879 0.45925187217764391 0 0.18086285889243819 0.44566916290352537 0 0.19987934037861879 0.45925187217764391 0 0.21889582186479931 0.47283458145176238 0 0.19987934037861879 0.45925187217764391 0 0.21870515456687559 0.45705454046791499 0 0.21889582186479931 0.47283458145176238 0 0.2125008236429862 0.43747696307116718 0 0.19987934037861879 0.45925187217764391 0 0.21870515456687559 0.45705454046791499 0 0.23403409832384389 0.42605847121290902 0 0.2125008236429862 0.43747696307116718 0 0.23445988456405389 0.45043466250970488 0 0.2125008236429862 0.43747696307116718 0 0.21870515456687559 0.45705454046791499 0 0.23445988456405389 0.45043466250970488 0 0.23403409832384389 0.42605847121290902 0 0.23445988456405389 0.45043466250970488 0 0.21870515456687559 0.45705454046791499 0 0.2348856708042639 0.47481085380650079 0 0.21889582186479931 0.47283458145176238 0 0.21870515456687559 0.45705454046791499 0 0.23445988456405389 0.45043466250970488 0 0.2348856708042639 0.47481085380650079 0 0.23445988456405389 0.45043466250970488 0 0.2348856708042639 0.47481085380650079 0 0.23445988456405389 0.45043466250970488 0 0.2348856708042639 0.47481085380650079 0 0.25050947198620499 0.46354431455112882 0 0.23445988456405389 0.45043466250970488 0 0.26268475315187129 0.44561572551739659 0 0.25050947198620499 0.46354431455112882 0 0.23445988456405389 0.45043466250970488 0 0.26268475315187129 0.44561572551739659 0 0.2507850171926021 0.43228369652040932 0 0.23791230335097999 0.48641729072588091 0 0.24801404957544171 0.47758519041104192 0 0.25692878483716047 0.49999999999999972 0 0.23791230335097999 0.48641729072588091 0 0.23075770555993719 0.5 0 0.25692878483716047 0.49999999999999972 0 0.23791230335097999 0.48641729072588091 0 0.25692878483716047 0.49999999999999972 0 0.24801404957544171 0.47758519041104192 0 0.2348856708042639 0.47481085380650079 0 0.25050947198620499 0.46354431455112882 0 0.23791230335097999 0.48641729072588091 0 0.24801404957544171 0.47758519041104192 0 0.2348856708042639 0.47481085380650079 0 0.23791230335097999 0.48641729072588091 0 0.2348856708042639 0.47481085380650079 0 0.21889582186479931 0.47283458145176238 0 0.23791230335097999 0.48641729072588091 0 0.21889582186479931 0.47283458145176238 0 0.2183218792427796 0.48783970022511669 0 0.23791230335097999 0.48641729072588091 0 0.21889582186479931 0.47283458145176238 0 0.23791230335097999 0.48641729072588091 0 0.23075770555993719 0.5 0 0.2183218792427796 0.48783970022511669 0 0.23075770555993719 0.5 0 0.20458662628271401 0.5 0 0.2183218792427796 0.48783970022511669 0 0.20458662628271401 0.5 0 0.2183218792427796 0.48783970022511669 0 0.19945693915546761 0.47994662894794021 0 0.21889582186479931 0.47283458145176238 0 0.2183218792427796 0.48783970022511669 0 0.19945693915546761 0.47994662894794021 0 0.19987934037861879 0.45925187217764391 0 0.21889582186479931 0.47283458145176238 0 0.19945693915546761 0.47994662894794021 0 0.19987934037861879 0.45925187217764391 0 0.19945693915546761 0.47994662894794021 0 0.17990062099731691 0.47594338482021259 0 0.20458662628271401 0.5 0 0.19945693915546761 0.47994662894794021 0 0.17841554700549059 0.5 0 0.17841554700549059 0.5 0 0.1664776736196866 0.48664465668583612 0 0.17990062099731691 0.47594338482021259 0 0.19945693915546761 0.47994662894794021 0 0.17841554700549059 0.5 0 0.17990062099731691 0.47594338482021259 0 0.17841554700549059 0.5 0 0.1664776736196866 0.48664465668583612 0 0.15224446772826711 0.5 0 0.1664776736196866 0.48664465668583612 0 0.15224446772826711 0.5 0 0.1531611244573334 0.48228975970864479 0 0.1664776736196866 0.48664465668583612 0 0.16258691884314749 0.47182884139498549 0 0.17990062099731691 0.47594338482021259 0 0.1664776736196866 0.48664465668583612 0 0.16258691884314749 0.47182884139498549 0 0.1531611244573334 0.48228975970864479 0 0.16258691884314749 0.47182884139498549 0 0.17990062099731691 0.47594338482021259 0 0.17328486054044759 0.45919747157466478 0 0.19987934037861879 0.45925187217764391 0 0.17328486054044759 0.45919747157466478 0 0.18086285889243819 0.44566916290352537 0 0.19987934037861879 0.45925187217764391 0 0.17990062099731691 0.47594338482021259 0 0.17328486054044759 0.45919747157466478 0 0.17328486054044759 0.45919747157466478 0 0.18086285889243819 0.44566916290352537 0 0.16060083141860751 0.44461555110194279 0 0.16258691884314749 0.47182884139498549 0 0.17328486054044759 0.45919747157466478 0 0.15514705104261661 0.45895206387248721 0 0.17328486054044759 0.45919747157466478 0 0.16060083141860751 0.44461555110194279 0 0.15514705104261661 0.45895206387248721 0 0.16258691884314749 0.47182884139498549 0 0.15514705104261661 0.45895206387248721 0 0.14579448239362799 0.47052822408280859 0 0.15514705104261661 0.45895206387248721 0 0.14212932846980469 0.45919428767796427 0 0.14769523092977449 0.44941088102105781 0 0.15514705104261661 0.45895206387248721 0 0.14212932846980469 0.45919428767796427 0 0.14579448239362799 0.47052822408280859 0 0.1479997208366409 0.43534324450259282 0 0.16060083141860751 0.44461555110194279 0 0.14769523092977449 0.44941088102105781 0 0.16060083141860751 0.44461555110194279 0 0.15514705104261661 0.45895206387248721 0 0.14769523092977449 0.44941088102105781 0 0.14212932846980469 0.45919428767796427 0 0.14769523092977449 0.44941088102105781 0 0.13259922288120299 0.44894925795030222 0 0.1479997208366409 0.43534324450259282 0 0.14769523092977449 0.44941088102105781 0 0.13259922288120299 0.44894925795030222 0 0.13190830695305519 0.42606906739782208 0 0.13259922288120299 0.44894925795030222 0 0.1247532003647491 0.43011324399125161 0 0.13259922288120299 0.44894925795030222 0 0.12523197394414051 0.45545806619795443 0 0.1479997208366409 0.43534324450259282 0 0.13259922288120299 0.44894925795030222 0 0.13259922288120299 0.44894925795030222 0 0.12523197394414051 0.45545806619795443 0 0.13259922288120299 0.44894925795030222 0 0.13324386817870909 0.47029716244163988 0 0.12523197394414051 0.45545806619795443 0 0.1256526811975934 0.47772903309897619 0 0.14212932846980469 0.45919428767796427 0 0.13259922288120299 0.44894925795030222 0 0.13324386817870909 0.47029716244163988 0 0.12523197394414051 0.45545806619795443 0 0.13324386817870909 0.47029716244163988 0 0.1256526811975934 0.47772903309897619 0 0.13259922288120299 0.44894925795030222 0 0.12523197394414051 0.45545806619795443 0 0.13324386817870909 0.47029716244163988 0 0.14212932846980469 0.45919428767796427 0 0.13324386817870909 0.47029716244163988 0 0.14579448239362799 0.47052822408280859 0 0.13324386817870909 0.47029716244163988 0 0.13917988949458501 0.48344595460859641 0 0.14579448239362799 0.47052822408280859 0 0.13324386817870909 0.47029716244163988 0 0.13917988949458501 0.48344595460859641 0 0.1256526811975934 0.47772903309897619 0 0.13917988949458501 0.48344595460859641 0 0.12607338845104371 0.49999999999999811 0 0.15224446772826711 0.5 0 0.1256526811975934 0.47772903309897619 0 0.12607338845104371 0.49999999999999811 0 0.13917988949458501 0.48344595460859641 0 0.1256526811975934 0.47772903309897619 0 0.12607338845104371 0.49999999999999811 0 0.13917988949458501 0.48344595460859641 0 0.15224446772826711 0.5 0 0.1531611244573334 0.48228975970864479 0 0.16258691884314749 0.47182884139498549 0 0.1531611244573334 0.48228975970864479 0 0.14579448239362799 0.47052822408280859 0 0.13917988949458501 0.48344595460859641 0 0.1531611244573334 0.48228975970864479 0 0.14579448239362799 0.47052822408280859 0 0.35555222744404458 0.47991546557493442 0 0.35095028823005447 0.4709867861779326 0 0.3659522148986209 0.47365542692057461 0 0.35095028823005447 0.4709867861779326 0 0.34125497776665348 0.46338703029515083 0 0.34203699609142069 0.47676612996569079 0 0.35555222744404458 0.47991546557493442 0 0.35095028823005447 0.4709867861779326 0 0.34203699609142069 0.47676612996569079 0 0.35555222744404458 0.47991546557493442 0 0.34596183967483718 0.48987454787320961 0 0.34203699609142069 0.47676612996569079 0 0.35555222744404458 0.47991546557493442 0 0.34596183967483718 0.48987454787320961 0 0.37285979832528982 0.48829443693726388 0 0.34596183967483718 0.48987454787320961 0 0.35688680495236008 0.5 0 0.37285979832528982 0.48829443693726388 0 0.34596183967483718 0.48987454787320961 0 0.35688680495236008 0.5 0 0.33189729992356021 0.5 0 0.35688680495236008 0.5 0 0.37285979832528982 0.48829443693726388 0 0.38187630998116012 0.50000000000000466 0 0.34596183967483718 0.48987454787320961 0 0.37285979832528982 0.48829443693726388 0 0.37285979832528982 0.48829443693726388 0 0.3659522148986209 0.47365542692057461 0 0.37909621764700902 0.47207419846093751 0 0.35555222744404458 0.47991546557493442 0 0.37285979832528982 0.48829443693726388 0 0.3659522148986209 0.47365542692057461 0 0.3659522148986209 0.47365542692057461 0 0.3760173384061069 0.46228690860706528 0 0.37909621764700902 0.47207419846093751 0 0.36527706490916773 0.46109678221137979 0 0.36355614297702599 0.45051187827906991 0 0.37927118659071429 0.45255638898808842 0 0.3659522148986209 0.47365542692057461 0 0.36527706490916773 0.46109678221137979 0 0.3760173384061069 0.46228690860706528 0 0.36527706490916773 0.46109678221137979 0 0.37927118659071429 0.45255638898808842 0 0.3760173384061069 0.46228690860706528 0 0.36527706490916773 0.46109678221137979 0 0.36355614297702599 0.45051187827906991 0 0.35344844540052428 0.4558507752487318 0 0.35095028823005447 0.4709867861779326 0 0.3659522148986209 0.47365542692057461 0 0.36527706490916773 0.46109678221137979 0 0.37161690958419608 0.44370129370976419 0 0.36355614297702599 0.45051187827906991 0 0.37927118659071429 0.45255638898808842 0 0.37161690958419608 0.44370129370976419 0 0.37084000430854691 0.43249494094515328 0 0.38100842571857879 0.43928460998051527 0 0.37161690958419608 0.44370129370976419 0 0.35862000596582738 0.44110273865440047 0 0.37084000430854691 0.43249494094515328 0 0.37161690958419608 0.44370129370976419 0 0.36355614297702599 0.45051187827906991 0 0.35862000596582738 0.44110273865440047 0 0.35862000596582738 0.44110273865440047 0 0.34112882286365298 0.44829143761889229 0 0.34627483976954931 0.43554656540073888 0 0.35862000596582738 0.44110273865440047 0 0.35344844540052428 0.4558507752487318 0 0.34112882286365298 0.44829143761889229 0 0.36355614297702599 0.45051187827906991 0 0.35862000596582738 0.44110273865440047 0 0.35344844540052428 0.4558507752487318 0 0.35095028823005447 0.4709867861779326 0 0.36527706490916773 0.46109678221137979 0 0.35344844540052428 0.4558507752487318 0 0.35344844540052428 0.4558507752487318 0 0.34125497776665348 0.46338703029515083 0 0.34112882286365298 0.44829143761889229 0 0.35095028823005447 0.4709867861779326 0 0.35344844540052428 0.4558507752487318 0 0.34125497776665348 0.46338703029515083 0 0.34125497776665348 0.46338703029515083 0 0.34112882286365298 0.44829143761889229 0 0.32679276778406469 0.45847039610005907 0 0.34125497776665348 0.46338703029515083 0 0.32679276778406469 0.45847039610005907 0 0.33096879142179741 0.47155799209101479 0 0.34112882286365298 0.44829143761889229 0 0.32659012813687333 0.43922417764017913 0 0.32679276778406469 0.45847039610005907 0 0.34112882286365298 0.44829143761889229 0 0.32659012813687333 0.43922417764017913 0 0.34627483976954931 0.43554656540073888 0 0.32659012813687333 0.43922417764017913 0 0.31563381119124678 0.45104869200505832 0 0.32679276778406469 0.45847039610005907 0 0.32659012813687333 0.43922417764017913 0 0.31563381119124678 0.45104869200505832 0 0.30627428639068921 0.43821505462695221 0 0.32679276778406469 0.45847039610005907 0 0.31723128882383378 0.47565328853109018 0 0.33096879142179741 0.47155799209101479 0 0.32679276778406469 0.45847039610005907 0 0.31723128882383378 0.47565328853109018 0 0.30792168514278889 0.46278604200439011 0 0.31563381119124678 0.45104869200505832 0 0.32679276778406469 0.45847039610005907 0 0.30792168514278889 0.46278604200439011 0 0.31723128882383378 0.47565328853109018 0 0.33105255940725481 0.48106132345403219 0 0.31906388102438471 0.4914546588091554 0 0.31723128882383378 0.47565328853109018 0 0.33096879142179741 0.47155799209101479 0 0.33105255940725481 0.48106132345403219 0 0.33096879142179741 0.47155799209101479 0 0.33105255940725481 0.48106132345403219 0 0.34203699609142069 0.47676612996569079 0 0.34596183967483718 0.48987454787320961 0 0.33105255940725481 0.48106132345403219 0 0.34203699609142069 0.47676612996569079 0 0.34125497776665348 0.46338703029515083 0 0.33096879142179741 0.47155799209101479 0 0.34203699609142069 0.47676612996569079 0 0.34596183967483718 0.48987454787320961 0 0.31906388102438471 0.4914546588091554 0 0.34596183967483718 0.48987454787320961 0 0.33105255940725481 0.48106132345403219 0 0.31906388102438471 0.4914546588091554 0 0.34596183967483718 0.48987454787320961 0 0.33189729992356021 0.5 0 0.31906388102438471 0.4914546588091554 0 0.33189729992356021 0.5 0 0.31906388102438471 0.4914546588091554 0 0.30690779489476028 0.5 0 0.31723128882383378 0.47565328853109018 0 0.31906388102438471 0.4914546588091554 0 0.30686752532708889 0.48687011319632001 0 0.31906388102438471 0.4914546588091554 0 0.30690779489476028 0.5 0 0.30686752532708889 0.48687011319632001 0 0.30690779489476028 0.5 0 0.30686752532708889 0.48687011319632001 0 0.29209519942070361 0.48820145485686628 0 0.31723128882383378 0.47565328853109018 0 0.30686752532708889 0.48687011319632001 0 0.29935178692507802 0.47633235207487401 0 0.31723128882383378 0.47565328853109018 0 0.29935178692507802 0.47633235207487401 0 0.30792168514278889 0.46278604200439011 0 0.30686752532708889 0.48687011319632001 0 0.29935178692507802 0.47633235207487401 0 0.29209519942070361 0.48820145485686628 0 0.29935178692507802 0.47633235207487401 0 0.28138656390620459 0.46888240757061589 0 0.29209519942070361 0.48820145485686628 0 0.28138656390620459 0.46888240757061589 0 0.29209519942070361 0.48820145485686628 0 0.27506271735912913 0.48544551093002353 0 0.28191828986596029 0.5 0 0.29209519942070361 0.48820145485686628 0 0.27506271735912913 0.48544551093002353 0 0.30690779489476028 0.5 0 0.28191828986596029 0.5 0 0.29209519942070361 0.48820145485686628 0 0.28191828986596029 0.5 0 0.27506271735912913 0.48544551093002353 0 0.25692878483716047 0.49999999999999972 0 0.28138656390620459 0.46888240757061589 0 0.27506271735912913 0.48544551093002353 0 0.26259592512021213 0.47534836555562687 0 0.24801404957544171 0.47758519041104192 0 0.26259592512021213 0.47534836555562687 0 0.25692878483716047 0.49999999999999972 0 0.24801404957544171 0.47758519041104192 0 0.26259592512021213 0.47534836555562687 0 0.25050947198620499 0.46354431455112882 0 0.27506271735912913 0.48544551093002353 0 0.26259592512021213 0.47534836555562687 0 0.25692878483716047 0.49999999999999972 0 0.26268475315187129 0.44561572551739659 0 0.25050947198620499 0.46354431455112882 0 0.26726584717180751 0.45992161734266013 0 0.26259592512021213 0.47534836555562687 0 0.25050947198620499 0.46354431455112882 0 0.26726584717180751 0.45992161734266013 0 0.28138656390620459 0.46888240757061589 0 0.26259592512021213 0.47534836555562687 0 0.26726584717180751 0.45992161734266013 0 0.28138656390620459 0.46888240757061589 0 0.26726584717180751 0.45992161734266013 0 0.27750281636745289 0.44676514632703401 0 0.26268475315187129 0.44561572551739659 0 0.27750281636745289 0.44676514632703401 0 0.26893662045321121 0.42888960496552908 0 0.26268475315187129 0.44561572551739659 0 0.26726584717180751 0.45992161734266013 0 0.27750281636745289 0.44676514632703401 0 0.27750281636745289 0.44676514632703401 0 0.29399469150004309 0.45207225431429843 0 0.2867139220487574 0.4300444570186418 0 0.29399469150004309 0.45207225431429843 0 0.2867139220487574 0.4300444570186418 0 0.29399469150004309 0.45207225431429843 0 0.30627428639068921 0.43821505462695221 0 0.2867139220487574 0.4300444570186418 0 0.29935178692507802 0.47633235207487401 0 0.28138656390620459 0.46888240757061589 0 0.29399469150004309 0.45207225431429843 0 0.28138656390620459 0.46888240757061589 0 0.27750281636745289 0.44676514632703401 0 0.29399469150004309 0.45207225431429843 0 0.29935178692507802 0.47633235207487401 0 0.29399469150004309 0.45207225431429843 0 0.30792168514278889 0.46278604200439011 0 0.31563381119124678 0.45104869200505832 0 0.29399469150004309 0.45207225431429843 0 0.30792168514278889 0.46278604200439011 0 0.31563381119124678 0.45104869200505832 0 0.29399469150004309 0.45207225431429843 0 0.30627428639068921 0.43821505462695221 0 0.30627428639068921 0.43821505462695221 0 0.30933765761295662 0.41972604741396868 0 0.2867139220487574 0.4300444570186418 0 0.29693716705868972 0.40735443055338211 0 0.30933765761295662 0.41972604741396868 0 0.2867139220487574 0.4300444570186418 0 0.29693716705868972 0.40735443055338211 0 0.30933765761295662 0.41972604741396868 0 0.31328991027293668 0.3944611815278567 0 0.29693716705868972 0.40735443055338211 0 0.2867139220487574 0.4300444570186418 0 0.27943315259747159 0.40801665972298512 0 0.2867139220487574 0.4300444570186418 0 0.27943315259747159 0.40801665972298512 0 0.2867139220487574 0.4300444570186418 0 0.26893662045321121 0.42888960496552908 0 0.27943315259747159 0.40801665972298512 0 0.27750281636745289 0.44676514632703401 0 0.2867139220487574 0.4300444570186418 0 0.26893662045321121 0.42888960496552908 0 0.26893662045321121 0.42888960496552908 0 0.27943315259747159 0.40801665972298512 0 0.25706332978617119 0.41597569311123 0 0.27943315259747159 0.40801665972298512 0 0.25706332978617119 0.41597569311123 0 0.26246932855881699 0.39994889335743361 0 0.24758799327385811 0.4053273129893008 0 0.25706332978617119 0.41597569311123 0 0.26246932855881699 0.39994889335743361 0 0.26893662045321121 0.42888960496552908 0 0.25706332978617119 0.41597569311123 0 0.2507850171926021 0.43228369652040932 0 0.26268475315187129 0.44561572551739659 0 0.26893662045321121 0.42888960496552908 0 0.2507850171926021 0.43228369652040932 0 0.25098761556260168 0.38918689609641077 0 0.25439672724151918 0.3751801555116801 0 0.27215238314618578 0.38598886242732838 0 0.25439672724151918 0.3751801555116801 0 0.27215238314618578 0.38598886242732838 0 0.26487161369489998 0.3639610651316717 0 0.24758799327385811 0.4053273129893008 0 0.25098761556260168 0.38918689609641077 0 0.26246932855881699 0.39994889335743361 0 0.25098761556260168 0.38918689609641077 0 0.26246932855881699 0.39994889335743361 0 0.27215238314618578 0.38598886242732838 0 0.27943315259747159 0.40801665972298512 0 0.27215238314618578 0.38598886242732838 0 0.27943315259747159 0.40801665972298512 0 0.26246932855881699 0.39994889335743361 0 0.27215238314618578 0.38598886242732838 0 0.29440430549082008 0.39103855163618018 0 0.30316637662143348 0.37720153633863351 0 0.28547009296354708 0.37477861882390578 0 0.27215238314618578 0.38598886242732838 0 0.29440430549082008 0.39103855163618018 0 0.28547009296354708 0.37477861882390578 0 0.29693716705868972 0.40735443055338211 0 0.27943315259747159 0.40801665972298512 0 0.29440430549082008 0.39103855163618018 0 0.27943315259747159 0.40801665972298512 0 0.27215238314618578 0.38598886242732838 0 0.29440430549082008 0.39103855163618018 0 0.29693716705868972 0.40735443055338211 0 0.29440430549082008 0.39103855163618018 0 0.31328991027293668 0.3944611815278567 0 0.30316637662143348 0.37720153633863351 0 0.31328991027293668 0.3944611815278567 0 0.31933328251396143 0.37393867887734111 0 0.29440430549082008 0.39103855163618018 0 0.30316637662143348 0.37720153633863351 0 0.31328991027293668 0.3944611815278567 0 0.33620776705978039 0.38852403928688378 0 0.31328991027293668 0.3944611815278567 0 0.31933328251396143 0.37393867887734111 0 0.33620776705978039 0.38852403928688378 0 0.35648702128282611 0.39080112246098908 0 0.33809720451279501 0.37305539047972702 0 0.33620776705978039 0.38852403928688378 0 0.33809720451279501 0.37305539047972702 0 0.31933328251396143 0.37393867887734111 0 0.33620776705978039 0.38852403928688378 0 0.332912339447891 0.40526358493747838 0 0.35648702128282611 0.39080112246098908 0 0.33620776705978039 0.38852403928688378 0 0.332912339447891 0.40526358493747838 0 0.31328991027293668 0.3944611815278567 0 0.30933765761295662 0.41972604741396868 0 0.332912339447891 0.40526358493747838 0 0.33726433659874527 0.42377951129366931 0 0.30933765761295662 0.41972604741396868 0 0.332912339447891 0.40526358493747838 0 0.30933765761295662 0.41972604741396868 0 0.332912339447891 0.40526358493747838 0 0.31328991027293668 0.3944611815278567 0 0.32659012813687333 0.43922417764017913 0 0.30933765761295662 0.41972604741396868 0 0.33726433659874527 0.42377951129366931 0 0.32659012813687333 0.43922417764017913 0 0.30627428639068921 0.43821505462695221 0 0.30933765761295662 0.41972604741396868 0 0.32659012813687333 0.43922417764017913 0 0.33726433659874527 0.42377951129366931 0 0.34627483976954931 0.43554656540073888 0 0.332912339447891 0.40526358493747838 0 0.33726433659874527 0.42377951129366931 0 0.34874874163221409 0.40471197283910121 0 0.35914937852799222 0.42149754907104042 0 0.36421353585368138 0.40437243968827802 0 0.34874874163221409 0.40471197283910121 0 0.33726433659874527 0.42377951129366931 0 0.35914937852799222 0.42149754907104042 0 0.34874874163221409 0.40471197283910121 0 0.35862000596582738 0.44110273865440047 0 0.35914937852799222 0.42149754907104042 0 0.34627483976954931 0.43554656540073888 0 0.33726433659874527 0.42377951129366931 0 0.35914937852799222 0.42149754907104042 0 0.34627483976954931 0.43554656540073888 0 0.35862000596582738 0.44110273865440047 0 0.35914937852799222 0.42149754907104042 0 0.37084000430854691 0.43249494094515328 0 0.35914937852799222 0.42149754907104042 0 0.37084000430854691 0.43249494094515328 0 0.374179710367677 0.42176963034215209 0 0.35914937852799222 0.42149754907104042 0 0.37298947952168632 0.41202153999026431 0 0.36421353585368138 0.40437243968827802 0 0.35914937852799222 0.42149754907104042 0 0.374179710367677 0.42176963034215209 0 0.37298947952168632 0.41202153999026431 0 0.37407534889783722 0.40187530729839782 0 0.36421353585368138 0.40437243968827802 0 0.37009448808250861 0.39524976709362819 0 0.37298947952168632 0.41202153999026431 0 0.37407534889783722 0.40187530729839782 0 0.36421353585368138 0.40437243968827802 0 0.36421353585368138 0.40437243968827802 0 0.36045054726442338 0.39573175800585803 0 0.364668233488331 0.39589266980226678 0 0.36421353585368138 0.40437243968827802 0 0.36045054726442338 0.39573175800585803 0 0.3571514440662773 0.39729391108851081 0 0.36421353585368138 0.40437243968827802 0 0.364668233488331 0.39589266980226678 0 0.37009448808250861 0.39524976709362819 0 0.3622893064602794 0.3906586210670468 0 0.36608828489353429 0.39284689210720242 0 0.37089547600147582 0.38905221910929572 0 0.3622893064602794 0.3906586210670468 0 0.35981488144597051 0.39248869652639268 0 0.35648702128282611 0.39080112246098908 0 0.362493920435077 0.39338118346377449 0 0.3622893064602794 0.3906586210670468 0 0.35981488144597051 0.39248869652639268 0 0.362493920435077 0.39338118346377449 0 0.35981488144597051 0.39248869652639268 0 0.36045054726442338 0.39573175800585803 0 0.362493920435077 0.39338118346377449 0 0.36045054726442338 0.39573175800585803 0 0.364668233488331 0.39589266980226678 0 0.364668233488331 0.39589266980226678 0 0.36608828489353429 0.39284689210720242 0 0.37009448808250861 0.39524976709362819 0 0.362493920435077 0.39338118346377449 0 0.364668233488331 0.39589266980226678 0 0.36608828489353429 0.39284689210720242 0 0.362493920435077 0.39338118346377449 0 0.3622893064602794 0.3906586210670468 0 0.36608828489353429 0.39284689210720242 0 0.36608828489353429 0.39284689210720242 0 0.37009448808250861 0.39524976709362819 0 0.37089547600147582 0.38905221910929572 0 0.37407534889783722 0.40187530729839782 0 0.37009448808250861 0.39524976709362819 0 0.37628335663096302 0.39118777347189598 0 0.37009448808250861 0.39524976709362819 0 0.37089547600147582 0.38905221910929572 0 0.37628335663096302 0.39118777347189598 0 0.35648702128282611 0.39080112246098908 0 0.38056359531724709 0.37603076199659913 0 0.3622893064602794 0.3906586210670468 0 0.37089547600147582 0.38905221910929572 0 0.38056359531724709 0.37603076199659913 0 0.35648702128282611 0.39080112246098908 0 0.36489171966462708 0.37179407185163288 0 0.38056359531724709 0.37603076199659913 0 0.3622893064602794 0.3906586210670468 0 0.35648702128282611 0.39080112246098908 0 0.38056359531724709 0.37603076199659913 0 0.35648702128282611 0.39080112246098908 0 0.36489171966462708 0.37179407185163288 0 0.33809720451279501 0.37305539047972702 0 0.35648702128282611 0.39080112246098908 0 0.33809720451279501 0.37305539047972702 0 0.332912339447891 0.40526358493747838 0 0.35648702128282611 0.39080112246098908 0 0.332912339447891 0.40526358493747838 0 0.34874874163221409 0.40471197283910121 0 0.35648702128282611 0.39080112246098908 0 0.36421353585368138 0.40437243968827802 0 0.34874874163221409 0.40471197283910121 0 0.3571514440662773 0.39729391108851081 0 0.36045054726442338 0.39573175800585803 0 0.3571514440662773 0.39729391108851081 0 0.35648702128282611 0.39080112246098908 0 0.34874874163221409 0.40471197283910121 0 0.3571514440662773 0.39729391108851081 0 0.35648702128282611 0.39080112246098908 0 0.35981488144597051 0.39248869652639268 0 0.36045054726442338 0.39573175800585803 0 0.35648702128282611 0.39080112246098908 0 0.34946832158016311 0.35615170184389461 0 0.36566478144423248 0.35584414586303698 0 0.35878310893519322 0.34076763768525242 0 0.34946832158016311 0.35615170184389461 0 0.35878310893519322 0.34076763768525242 0 0.33453469907484179 0.33642345201148088 0 0.36489171966462708 0.37179407185163288 0 0.33809720451279501 0.37305539047972702 0 0.34946832158016311 0.35615170184389461 0 0.36489171966462708 0.37179407185163288 0 0.33809720451279501 0.37305539047972702 0 0.36489171966462708 0.37179407185163288 0 0.36566478144423248 0.35584414586303698 0 0.37833332931177449 0.36069129482346129 0 0.34946832158016311 0.35615170184389461 0 0.36489171966462708 0.37179407185163288 0 0.36566478144423248 0.35584414586303698 0 0.36566478144423248 0.35584414586303698 0 0.35878310893519322 0.34076763768525242 0 0.37748006842153048 0.34702616135265818 0 0.36566478144423248 0.35584414586303698 0 0.37748006842153048 0.34702616135265818 0 0.37833332931177449 0.36069129482346129 0 0.36652715657189111 0.31657334068562432 0 0.35878310893519322 0.34076763768525242 0 0.38021295671976518 0.32910247805387632 0 0.35878310893519322 0.34076763768525242 0 0.38021295671976518 0.32910247805387632 0 0.37748006842153048 0.34702616135265818 0 0.36652715657189111 0.31657334068562432 0 0.34840147891267109 0.31912325431287542 0 0.35723394301662598 0.3036127696267148 0 0.36652715657189111 0.31657334068562432 0 0.34840147891267109 0.31912325431287542 0 0.35878310893519322 0.34076763768525242 0 0.35878310893519322 0.34076763768525242 0 0.33453469907484179 0.33642345201148088 0 0.34840147891267109 0.31912325431287542 0 0.35878310893519322 0.34076763768525242 0 0.33453469907484179 0.33642345201148088 0 0.33453469907484179 0.33642345201148088 0 0.33199218343674058 0.31409438210105478 0 0.32325159978437928 0.32434837683287487 0 0.34840147891267109 0.31912325431287542 0 0.33453469907484179 0.33642345201148088 0 0.33199218343674058 0.31409438210105478 0 0.32325159978437928 0.32434837683287487 0 0.31606532743665472 0.3128874690107547 0 0.31028628921449031 0.33207926633770951 0 0.33199218343674058 0.31409438210105478 0 0.32325159978437928 0.32434837683287487 0 0.31606532743665472 0.3128874690107547 0 0.33453469907484179 0.33642345201148088 0 0.32325159978437928 0.32434837683287487 0 0.31028628921449031 0.33207926633770951 0 0.33453469907484179 0.33642345201148088 0 0.32080345379602793 0.34210178053474127 0 0.31028628921449031 0.33207926633770951 0 0.33453469907484179 0.33642345201148088 0 0.31028628921449031 0.33207926633770951 0 0.32080345379602793 0.34210178053474127 0 0.31963486523631268 0.35523967601966572 0 0.30117252595982857 0.33742396155960608 0 0.32080345379602793 0.34210178053474127 0 0.31963486523631268 0.35523967601966572 0 0.33515473619535252 0.35763058229309402 0 0.33453469907484179 0.33642345201148088 0 0.32080345379602793 0.34210178053474127 0 0.33515473619535252 0.35763058229309402 0 0.34946832158016311 0.35615170184389461 0 0.33453469907484179 0.33642345201148088 0 0.33515473619535252 0.35763058229309402 0 0.31963486523631268 0.35523967601966572 0 0.33515473619535252 0.35763058229309402 0 0.33809720451279501 0.37305539047972702 0 0.31963486523631268 0.35523967601966572 0 0.33809720451279501 0.37305539047972702 0 0.34946832158016311 0.35615170184389461 0 0.33515473619535252 0.35763058229309402 0 0.33809720451279501 0.37305539047972702 0 0.33809720451279501 0.37305539047972702 0 0.31933328251396143 0.37393867887734111 0 0.31963486523631268 0.35523967601966572 0 0.33809720451279501 0.37305539047972702 0 0.31933328251396143 0.37393867887734111 0 0.31963486523631268 0.35523967601966572 0 0.31933328251396143 0.37393867887734111 0 0.30883907511446301 0.36403925589386049 0 0.30316637662143348 0.37720153633863351 0 0.31933328251396143 0.37393867887734111 0 0.30883907511446301 0.36403925589386049 0 0.30316637662143348 0.37720153633863351 0 0.30883907511446301 0.36403925589386049 0 0.29499982557715709 0.36067669754514642 0 0.31963486523631268 0.35523967601966572 0 0.30117252595982857 0.33742396155960608 0 0.31963486523631268 0.35523967601966572 0 0.30410482221842999 0.35285931100193252 0 0.30117252595982857 0.33742396155960608 0 0.31963486523631268 0.35523967601966572 0 0.30883907511446301 0.36403925589386049 0 0.30410482221842999 0.35285931100193252 0 0.30883907511446301 0.36403925589386049 0 0.30410482221842999 0.35285931100193252 0 0.29499982557715709 0.36067669754514642 0 0.30410482221842999 0.35285931100193252 0 0.29382279616938489 0.34515718075841417 0 0.29499982557715709 0.36067669754514642 0 0.30410482221842999 0.35285931100193252 0 0.29382279616938489 0.34515718075841417 0 0.30117252595982857 0.33742396155960608 0 0.29382279616938489 0.34515718075841417 0 0.28279892773737031 0.3470908530214491 0 0.29499982557715709 0.36067669754514642 0 0.28279892773737031 0.3470908530214491 0 0.29499982557715709 0.36067669754514642 0 0.28019795722578827 0.35985351961629808 0 0.30316637662143348 0.37720153633863351 0 0.29499982557715709 0.36067669754514642 0 0.28547009296354708 0.37477861882390578 0 0.29499982557715709 0.36067669754514642 0 0.28547009296354708 0.37477861882390578 0 0.28019795722578827 0.35985351961629808 0 0.28547009296354708 0.37477861882390578 0 0.28019795722578827 0.35985351961629808 0 0.26487161369489998 0.3639610651316717 0 0.27215238314618578 0.38598886242732838 0 0.28547009296354708 0.37477861882390578 0 0.26487161369489998 0.3639610651316717 0 0.27215238314618578 0.38598886242732838 0 0.26487161369489998 0.3639610651316717 0 0.28279892773737031 0.3470908530214491 0 0.28019795722578827 0.35985351961629808 0 0.27018820467823651 0.35240551980997858 0 0.28279892773737031 0.3470908530214491 0 0.27018820467823651 0.35240551980997858 0 0.2649165179672705 0.33817891760262458 0 0.28019795722578827 0.35985351961629808 0 0.27018820467823651 0.35240551980997858 0 0.26487161369489998 0.3639610651316717 0 0.24379515658040249 0.34862275454131292 0 0.25796870936454919 0.35291826875179799 0 0.2649165179672705 0.33817891760262458 0 0.27018820467823651 0.35240551980997858 0 0.25796870936454919 0.35291826875179799 0 0.26487161369489998 0.3639610651316717 0 0.27018820467823651 0.35240551980997858 0 0.25796870936454919 0.35291826875179799 0 0.2649165179672705 0.33817891760262458 0 0.2448729335286644 0.36402486923318539 0 0.25796870936454919 0.35291826875179799 0 0.26487161369489998 0.3639610651316717 0 0.2448729335286644 0.36402486923318539 0 0.25439672724151918 0.3751801555116801 0 0.26487161369489998 0.3639610651316717 0 0.25305629836335769 0.32182631747230472 0 0.26954708885874828 0.32478069906812129 0 0.25803545738558742 0.30799646086812449 0 0.24010716797632831 0.31029117127960593 0 0.25305629836335769 0.32182631747230472 0 0.25803545738558742 0.30799646086812449 0 0.25305629836335769 0.32182631747230472 0 0.25567612667128908 0.33240349966978722 0 0.26954708885874828 0.32478069906812129 0 0.25305629836335769 0.32182631747230472 0 0.26954708885874828 0.32478069906812129 0 0.24379515658040249 0.34862275454131292 0 0.2649165179672705 0.33817891760262458 0 0.24463387223857971 0.33388315683653091 0 0.25305629836335769 0.32182631747230472 0 0.25567612667128908 0.33240349966978722 0 0.24379515658040249 0.34862275454131292 0 0.25567612667128908 0.33240349966978722 0 0.2649165179672705 0.33817891760262458 0 0.25567612667128908 0.33240349966978722 0 0.2649165179672705 0.33817891760262458 0 0.26954708885874828 0.32478069906812129 0 0.28279892773737031 0.3470908530214491 0 0.2649165179672705 0.33817891760262458 0 0.28603787935413899 0.32773508066393708 0 0.2649165179672705 0.33817891760262458 0 0.28603787935413899 0.32773508066393708 0 0.2649165179672705 0.33817891760262458 0 0.26954708885874828 0.32478069906812129 0 0.28603787935413899 0.32773508066393708 0 0.26954708885874828 0.32478069906812129 0 0.27704747463324558 0.3144508958768778 0 0.25803545738558742 0.30799646086812449 0 0.26954708885874828 0.32478069906812129 0 0.28603787935413899 0.32773508066393708 0 0.26954708885874828 0.32478069906812129 0 0.27704747463324558 0.3144508958768778 0 0.28603787935413899 0.32773508066393708 0 0.28603787935413899 0.32773508066393708 0 0.30105160339539672 0.32031127483734562 0 0.28841606206928999 0.31026631031888507 0 0.27704747463324558 0.3144508958768778 0 0.28603787935413899 0.32773508066393708 0 0.28841606206928999 0.31026631031888507 0 0.28603787935413899 0.32773508066393708 0 0.30105160339539672 0.32031127483734562 0 0.30105160339539672 0.32031127483734562 0 0.30030734930754821 0.30814401131885621 0 0.28841606206928999 0.31026631031888507 0 0.29382279616938489 0.34515718075841417 0 0.28603787935413899 0.32773508066393708 0 0.30117252595982857 0.33742396155960608 0 0.29382279616938489 0.34515718075841417 0 0.28279892773737031 0.3470908530214491 0 0.28603787935413899 0.32773508066393708 0 0.28603787935413899 0.32773508066393708 0 0.31028628921449031 0.33207926633770951 0 0.32080345379602793 0.34210178053474127 0 0.31028628921449031 0.33207926633770951 0 0.30117252595982857 0.33742396155960608 0 0.28603787935413899 0.32773508066393708 0 0.31028628921449031 0.33207926633770951 0 0.30117252595982857 0.33742396155960608 0 0.28603787935413899 0.32773508066393708 0 0.31028628921449031 0.33207926633770951 0 0.30105160339539672 0.32031127483734562 0 0.31606532743665472 0.3128874690107547 0 0.30105160339539672 0.32031127483734562 0 0.30030734930754821 0.30814401131885621 0 0.31606532743665472 0.3128874690107547 0 0.31028628921449031 0.33207926633770951 0 0.30105160339539672 0.32031127483734562 0 0.31606532743665472 0.3128874690107547 0 0.30105160339539672 0.32031127483734562 0 0.31606532743665472 0.3128874690107547 0 0.30725434496678827 0.29812930754518951 0 0.30030734930754821 0.30814401131885621 0 0.30725434496678827 0.29812930754518951 0 0.30030734930754821 0.30814401131885621 0 0.29096211583536291 0.294157150632752 0 0.30725434496678827 0.29812930754518951 0 0.30489338156562068 0.28245017310908688 0 0.29096211583536291 0.294157150632752 0 0.30725434496678827 0.29812930754518951 0 0.30489338156562068 0.28245017310908688 0 0.32151484877546949 0.28977537413897958 0 0.29096211583536291 0.294157150632752 0 0.27666453789856532 0.28370233102523962 0 0.29262707993071169 0.27228527539907521 0 0.30489338156562068 0.28245017310908688 0 0.29096211583536291 0.294157150632752 0 0.29262707993071169 0.27228527539907521 0 0.30030734930754821 0.30814401131885621 0 0.29096211583536291 0.294157150632752 0 0.28841606206928999 0.31026631031888507 0 0.29096211583536291 0.294157150632752 0 0.28841606206928999 0.31026631031888507 0 0.27552413450416741 0.30087465183811679 0 0.27704747463324558 0.3144508958768778 0 0.27552413450416741 0.30087465183811679 0 0.25803545738558742 0.30799646086812449 0 0.27704747463324558 0.3144508958768778 0 0.28841606206928999 0.31026631031888507 0 0.27552413450416741 0.30087465183811679 0 0.27552413450416741 0.30087465183811679 0 0.27666453789856532 0.28370233102523962 0 0.26248778631113218 0.29149938814528448 0 0.29096211583536291 0.294157150632752 0 0.27552413450416741 0.30087465183811679 0 0.27666453789856532 0.28370233102523962 0 0.27666453789856532 0.28370233102523962 0 0.26248778631113218 0.29149938814528448 0 0.262893190205573 0.27702543054285828 0 0.2494758077648995 0.28219508434063778 0 0.26248778631113218 0.29149938814528448 0 0.262893190205573 0.27702543054285828 0 0.24939931002380411 0.29366779673498089 0 0.2494758077648995 0.28219508434063778 0 0.26248778631113218 0.29149938814528448 0 0.24939931002380411 0.29366779673498089 0 0.26248778631113218 0.29149938814528448 0 0.25803545738558742 0.30799646086812449 0 0.27552413450416741 0.30087465183811679 0 0.26248778631113218 0.29149938814528448 0 0.25803545738558742 0.30799646086812449 0 0.24263022926561409 0.3008963439042468 0 0.24939931002380411 0.29366779673498089 0 0.25803545738558742 0.30799646086812449 0 0.25208543646511339 0.25897896952323762 0 0.262893190205573 0.27702543054285828 0 0.27739364451291809 0.26279226036524439 0 0.2494758077648995 0.28219508434063778 0 0.25208543646511339 0.25897896952323762 0 0.262893190205573 0.27702543054285828 0 0.262893190205573 0.27702543054285828 0 0.27739364451291809 0.26279226036524439 0 0.27666453789856532 0.28370233102523962 0 0.262893190205573 0.27702543054285828 0 0.27739364451291809 0.26279226036524439 0 0.25208543646511339 0.25897896952323762 0 0.27739364451291809 0.26279226036524439 0 0.26759462130847839 0.23489808495245951 0 0.27739364451291809 0.26279226036524439 0 0.29262707993071169 0.27228527539907521 0 0.29189409882026318 0.24855909018763039 0 0.27739364451291809 0.26279226036524439 0 0.29189409882026318 0.24855909018763039 0 0.27666453789856532 0.28370233102523962 0 0.27739364451291809 0.26279226036524439 0 0.29262707993071169 0.27228527539907521 0 0.30489338156562068 0.28245017310908688 0 0.29262707993071169 0.27228527539907521 0 0.31395470095153971 0.2620506470744981 0 0.29262707993071169 0.27228527539907521 0 0.31395470095153971 0.2620506470744981 0 0.29189409882026318 0.24855909018763039 0 0.31395470095153971 0.2620506470744981 0 0.34335377136112027 0.25444694437046178 0 0.32644146528316442 0.24144255057862879 0 0.31395470095153971 0.2620506470744981 0 0.34335377136112027 0.25444694437046178 0 0.33666303521289748 0.27617147172322298 0 0.34335377136112027 0.25444694437046178 0 0.33666303521289748 0.27617147172322298 0 0.31395470095153971 0.2620506470744981 0 0.33666303521289748 0.27617147172322298 0 0.32151484877546949 0.28977537413897958 0 0.31395470095153971 0.2620506470744981 0 0.32151484877546949 0.28977537413897958 0 0.30489338156562068 0.28245017310908688 0 0.31395470095153971 0.2620506470744981 0 0.32151484877546949 0.28977537413897958 0 0.30725434496678827 0.29812930754518951 0 0.32151484877546949 0.28977537413897958 0 0.31859135545843109 0.30128456308756868 0 0.32151484877546949 0.28977537413897958 0 0.31859135545843109 0.30128456308756868 0 0.32997229906467462 0.29789599907598419 0 0.33199218343674058 0.31409438210105478 0 0.31859135545843109 0.30128456308756868 0 0.32997229906467462 0.29789599907598419 0 0.33199218343674058 0.31409438210105478 0 0.31606532743665472 0.3128874690107547 0 0.31859135545843109 0.30128456308756868 0 0.31606532743665472 0.3128874690107547 0 0.30725434496678827 0.29812930754518951 0 0.31859135545843109 0.30128456308756868 0 0.34840147891267109 0.31912325431287542 0 0.33199218343674058 0.31409438210105478 0 0.34284226805763979 0.30284314896778508 0 0.33199218343674058 0.31409438210105478 0 0.32997229906467462 0.29789599907598419 0 0.34284226805763979 0.30284314896778508 0 0.32997229906467462 0.29789599907598419 0 0.34284226805763979 0.30284314896778508 0 0.33982482539265868 0.29149381137752017 0 0.33666303521289748 0.27617147172322298 0 0.32151484877546949 0.28977537413897958 0 0.32997229906467462 0.29789599907598419 0 0.33666303521289748 0.27617147172322298 0 0.32997229906467462 0.29789599907598419 0 0.33982482539265868 0.29149381137752017 0 0.33666303521289748 0.27617147172322298 0 0.32997229906467462 0.29789599907598419 0 0.33666303521289748 0.27617147172322298 0 0.33982482539265868 0.29149381137752017 0 0.34982169923542328 0.28906462574308861 0 0.34982169923542328 0.28906462574308861 0 0.36468181925562182 0.28720251550681358 0 0.35914539137511109 0.27140075509184802 0 0.34982169923542328 0.28906462574308861 0 0.35723394301662598 0.3036127696267148 0 0.36468181925562182 0.28720251550681358 0 0.34284226805763979 0.30284314896778508 0 0.33982482539265868 0.29149381137752017 0 0.34982169923542328 0.28906462574308861 0 0.34840147891267109 0.31912325431287542 0 0.34284226805763979 0.30284314896778508 0 0.35723394301662598 0.3036127696267148 0 0.34284226805763979 0.30284314896778508 0 0.34982169923542328 0.28906462574308861 0 0.35723394301662598 0.3036127696267148 0 0.36652715657189111 0.31657334068562432 0 0.35723394301662598 0.3036127696267148 0 0.37129224066406391 0.29937482119437941 0 0.37129224066406391 0.29937482119437941 0 0.36468181925562182 0.28720251550681358 0 0.38199782170795971 0.28208603297498469 0 0.35723394301662598 0.3036127696267148 0 0.37129224066406391 0.29937482119437941 0 0.36468181925562182 0.28720251550681358 0 0.35914539137511109 0.27140075509184802 0 0.37609089792647238 0.26078008622062432 0 0.38199782170795971 0.28208603297498469 0 0.36468181925562182 0.28720251550681358 0 0.35914539137511109 0.27140075509184802 0 0.38199782170795971 0.28208603297498469 0 0.36071123265651628 0.25122403705458429 0 0.35914539137511109 0.27140075509184802 0 0.37609089792647238 0.26078008622062432 0 0.34335377136112027 0.25444694437046178 0 0.36071123265651628 0.25122403705458429 0 0.35914539137511109 0.27140075509184802 0 0.33666303521289748 0.27617147172322298 0 0.34982169923542328 0.28906462574308861 0 0.35914539137511109 0.27140075509184802 0 0.34335377136112027 0.25444694437046178 0 0.33666303521289748 0.27617147172322298 0 0.35914539137511109 0.27140075509184802 0 0.39786129752238469 0.27465838285989541 0 0.39570516225810071 0.25413470773057523 0 0.41260534972107699 0.26780139728845659 0 0.39570516225810071 0.25413470773057523 0 0.37609089792647238 0.26078008622062432 0 0.37142125706545392 0.236710425985967 0 0.39786129752238469 0.27465838285989541 0 0.39570516225810071 0.25413470773057523 0 0.37609089792647238 0.26078008622062432 0 0.39786129752238469 0.27465838285989541 0 0.37609089792647238 0.26078008622062432 0 0.38199782170795971 0.28208603297498469 0 0.38199782170795971 0.28208603297498469 0 0.38724933717912879 0.30865422696867972 0 0.40207787289156133 0.29552749891452679 0 0.37129224066406391 0.29937482119437941 0 0.38199782170795971 0.28208603297498469 0 0.38724933717912879 0.30865422696867972 0 0.36652715657189111 0.31657334068562432 0 0.37129224066406391 0.29937482119437941 0 0.38724933717912879 0.30865422696867972 0 0.38724933717912879 0.30865422696867972 0 0.40567937993834902 0.31076994424317372 0 0.40207787289156133 0.29552749891452679 0 0.39786129752238469 0.27465838285989541 0 0.40207787289156133 0.29552749891452679 0 0.41869068062913761 0.28762057403020491 0 0.39786129752238469 0.27465838285989541 0 0.38199782170795971 0.28208603297498469 0 0.40207787289156133 0.29552749891452679 0 0.40207787289156133 0.29552749891452679 0 0.41869068062913761 0.28762057403020491 0 0.42135765144348442 0.30693683118737108 0 0.40567937993834902 0.31076994424317372 0 0.40207787289156133 0.29552749891452679 0 0.42135765144348442 0.30693683118737108 0 0.41869068062913761 0.28762057403020491 0 0.42135765144348442 0.30693683118737108 0 0.44497620794800702 0.30153308093210379 0 0.42135765144348442 0.30693683118737108 0 0.44497620794800702 0.30153308093210379 0 0.43733177913940507 0.32259429647818549 0 0.41869068062913761 0.28762057403020491 0 0.43663054660181411 0.28020201413853318 0 0.44497620794800702 0.30153308093210379 0 0.43663054660181411 0.28020201413853318 0 0.41260534972107699 0.26780139728845659 0 0.42828488525562142 0.25887094734496269 0 0.43663054660181411 0.28020201413853318 0 0.42828488525562142 0.25887094734496269 0 0.41869068062913761 0.28762057403020491 0 0.43663054660181411 0.28020201413853318 0 0.41260534972107699 0.26780139728845659 0 0.43663054660181411 0.28020201413853318 0 0.42828488525562142 0.25887094734496269 0 0.44359186890989238 0.26248185096113602 0 0.39786129752238469 0.27465838285989541 0 0.41869068062913761 0.28762057403020491 0 0.41260534972107699 0.26780139728845659 0 0.41260534972107699 0.26780139728845659 0 0.41115766623781769 0.25020831820798722 0 0.42828488525562142 0.25887094734496269 0 0.41260534972107699 0.26780139728845659 0 0.42828488525562142 0.25887094734496269 0 0.39570516225810071 0.25413470773057523 0 0.41260534972107699 0.26780139728845659 0 0.41115766623781769 0.25020831820798722 0 0.42828488525562142 0.25887094734496269 0 0.44927356463825457 0.24691661679775681 0 0.42828488525562142 0.25887094734496269 0 0.44359186890989238 0.26248185096113602 0 0.44927356463825457 0.24691661679775681 0 0.44359186890989238 0.26248185096113602 0 0.45252846183252882 0.27177799000727332 0 0.4574621359504093 0.26023631636581618 0 0.44359186890989238 0.26248185096113602 0 0.4574621359504093 0.26023631636581618 0 0.44927356463825457 0.24691661679775681 0 0.43663054660181411 0.28020201413853318 0 0.45252846183252882 0.27177799000727332 0 0.45540540388801187 0.28475344563081317 0 0.43663054660181411 0.28020201413853318 0 0.44359186890989238 0.26248185096113602 0 0.45252846183252882 0.27177799000727332 0 0.46162090008283291 0.27179775670625173 0 0.47099024758803237 0.25906110592596743 0 0.47171825115518168 0.28315992560138808 0 0.46162090008283291 0.27179775670625173 0 0.47171825115518168 0.28315992560138808 0 0.45540540388801187 0.28475344563081317 0 0.45252846183252882 0.27177799000727332 0 0.46162090008283291 0.27179775670625173 0 0.45540540388801187 0.28475344563081317 0 0.45252846183252882 0.27177799000727332 0 0.46162090008283291 0.27179775670625173 0 0.4574621359504093 0.26023631636581618 0 0.4574621359504093 0.26023631636581618 0 0.46335158447895869 0.2472314570336511 0 0.44927356463825457 0.24691661679775681 0 0.46162090008283291 0.27179775670625173 0 0.4574621359504093 0.26023631636581618 0 0.47099024758803237 0.25906110592596743 0 0.4574621359504093 0.26023631636581618 0 0.47099024758803237 0.25906110592596743 0 0.46335158447895869 0.2472314570336511 0 0.47896907034853009 0.25284088784540287 0 0.48114665629599901 0.27599515149084319 0 0.47896907034853009 0.25284088784540287 0 0.48114665629599901 0.27599515149084319 0 0.48941679443200781 0.25987618408844021 0 0.47896907034853009 0.25284088784540287 0 0.47099024758803237 0.25906110592596743 0 0.48114665629599901 0.27599515149084319 0 0.47099024758803237 0.25906110592596743 0 0.48114665629599901 0.27599515149084319 0 0.47171825115518168 0.28315992560138808 0 0.47099024758803237 0.25906110592596743 0 0.47171825115518168 0.28315992560138808 0 0.48114665629599901 0.27599515149084319 0 0.5 0.27158379703127922 0 0.49111772463486669 0.2866106348772548 0 0.48114665629599901 0.27599515149084319 0 0.5 0.27158379703127922 0 0.48941679443200781 0.25987618408844021 0 0.5 0.27158379703127922 0 0.48941679443200781 0.25987618408844021 0 0.5 0.2434534182119453 0 0.47896907034853009 0.25284088784540287 0 0.48941679443200781 0.25987618408844021 0 0.48820014283709212 0.24626045252303669 0 0.49220651760860118 0.31225295610964188 0 0.48332424224346793 0.29914941513628351 0 0.48550182819093679 0.32230367878172372 0 0.48332424224346793 0.29914941513628351 0 0.48550182819093679 0.32230367878172372 0 0.5 0.29971417585061322 0 0.49220651760860118 0.31225295610964188 0 0.48332424224346793 0.29914941513628351 0 0.5 0.27158379703127922 0 0.5 0.29971417585061322 0 0.49111772463486669 0.2866106348772548 0 0.48114665629599901 0.27599515149084319 0 0.49111772463486669 0.2866106348772548 0 0.48332424224346793 0.29914941513628351 0 0.5 0.29971417585061322 0 0.49111772463486669 0.2866106348772548 0 0.48332424224346793 0.29914941513628351 0 0.47171825115518168 0.28315992560138808 0 0.48332424224346793 0.29914941513628351 0 0.47244625472233093 0.30725874527680891 0 0.48114665629599901 0.27599515149084319 0 0.47171825115518168 0.28315992560138808 0 0.48332424224346793 0.29914941513628351 0 0.47171825115518168 0.28315992560138808 0 0.47244625472233093 0.30725874527680891 0 0.48114665629599901 0.27599515149084319 0 0.48332424224346793 0.29914941513628351 0 0.48332424224346793 0.29914941513628351 0 0.47244625472233093 0.30725874527680891 0 0.48550182819093679 0.32230367878172372 0 0.46110406842756052 0.29750501945905672 0 0.44497620794800702 0.30153308093210379 0 0.45708450456115413 0.31419751166615961 0 0.47244625472233093 0.30725874527680891 0 0.46110406842756052 0.29750501945905672 0 0.45708450456115413 0.31419751166615961 0 0.47171825115518168 0.28315992560138808 0 0.46110406842756052 0.29750501945905672 0 0.45540540388801187 0.28475344563081317 0 0.47171825115518168 0.28315992560138808 0 0.47244625472233093 0.30725874527680891 0 0.46110406842756052 0.29750501945905672 0 0.46110406842756052 0.29750501945905672 0 0.45540540388801187 0.28475344563081317 0 0.44497620794800702 0.30153308093210379 0 0.43663054660181411 0.28020201413853318 0 0.45540540388801187 0.28475344563081317 0 0.44497620794800702 0.30153308093210379 0 0.43663054660181411 0.28020201413853318 0 0.44497620794800702 0.30153308093210379 0 0.45669801444524361 0.33414601254250009 0 0.45708450456115413 0.31419751166615961 0 0.43733177913940507 0.32259429647818549 0 0.44497620794800702 0.30153308093210379 0 0.45708450456115413 0.31419751166615961 0 0.43733177913940507 0.32259429647818549 0 0.45669801444524361 0.33414601254250009 0 0.44280714342558081 0.34728793196017388 0 0.43733177913940507 0.32259429647818549 0 0.45669801444524361 0.33414601254250009 0 0.47354775043808572 0.33515386798305119 0 0.46790879273146452 0.3517137908555657 0 0.45669801444524361 0.33414601254250009 0 0.46995070268437789 0.3221479153083025 0 0.47354775043808572 0.33515386798305119 0 0.45669801444524361 0.33414601254250009 0 0.45708450456115413 0.31419751166615961 0 0.46995070268437789 0.3221479153083025 0 0.47244625472233093 0.30725874527680891 0 0.45708450456115413 0.31419751166615961 0 0.46995070268437789 0.3221479153083025 0 0.47244625472233093 0.30725874527680891 0 0.46995070268437789 0.3221479153083025 0 0.48550182819093679 0.32230367878172372 0 0.46995070268437789 0.3221479153083025 0 0.47354775043808572 0.33515386798305119 0 0.48550182819093679 0.32230367878172372 0 0.47354775043808572 0.33515386798305119 0 0.48550182819093679 0.32230367878172372 0 0.48767941413840582 0.34545794242716399 0 0.48550182819093679 0.32230367878172372 0 0.48767941413840582 0.34545794242716399 0 0.5 0.32784455466994711 0 0.48550182819093679 0.32230367878172372 0 0.48767941413840582 0.34545794242716399 0 0.5 0.32784455466994711 0 0.5 0.35597493348928089 0 0.48767941413840582 0.34545794242716399 0 0.49220651760860118 0.31225295610964188 0 0.5 0.32784455466994711 0 0.48550182819093679 0.32230367878172372 0 0.5 0.29971417585061322 0 0.49220651760860118 0.31225295610964188 0 0.5 0.32784455466994711 0 0.4864721100937856 0.36183323555633379 0 0.5 0.35597493348928089 0 0.5 0.38410531230861472 0 0.4864721100937856 0.36183323555633379 0 0.47677234359905762 0.37191419870104392 0 0.5 0.38410531230861472 0 0.4864721100937856 0.36183323555633379 0 0.5 0.35597493348928089 0 0.48767941413840582 0.34545794242716399 0 0.47354775043808572 0.33515386798305119 0 0.48767941413840582 0.34545794242716399 0 0.46790879273146452 0.3517137908555657 0 0.4864721100937856 0.36183323555633379 0 0.48767941413840582 0.34545794242716399 0 0.46790879273146452 0.3517137908555657 0 0.4864721100937856 0.36183323555633379 0 0.47677234359905762 0.37191419870104392 0 0.46790879273146452 0.3517137908555657 0 0.47677234359905762 0.37191419870104392 0 0.46790879273146452 0.3517137908555657 0 0.44527526512012311 0.36801011596734567 0 0.45669801444524361 0.33414601254250009 0 0.46790879273146452 0.3517137908555657 0 0.44280714342558081 0.34728793196017388 0 0.46790879273146452 0.3517137908555657 0 0.44280714342558081 0.34728793196017388 0 0.44527526512012311 0.36801011596734567 0 0.44527526512012311 0.36801011596734567 0 0.4184807499682911 0.36927143459544137 0 0.42654925062321603 0.38593014965328798 0 0.44527526512012311 0.36801011596734567 0 0.4184807499682911 0.36927143459544137 0 0.4226133962176184 0.3536676162763252 0 0.44527526512012311 0.36801011596734567 0 0.4184807499682911 0.36927143459544137 0 0.4184807499682911 0.36927143459544137 0 0.4226133962176184 0.3536676162763252 0 0.40589926744102839 0.35992661907325751 0 0.4226133962176184 0.3536676162763252 0 0.40589926744102839 0.35992661907325751 0 0.40440363885798658 0.34997518765704227 0 0.4226133962176184 0.3536676162763252 0 0.41229273412984868 0.33783662347433141 0 0.40440363885798658 0.34997518765704227 0 0.44280714342558081 0.34728793196017388 0 0.4226133962176184 0.3536676162763252 0 0.4263440024307632 0.33902703067926071 0 0.44280714342558081 0.34728793196017388 0 0.44527526512012311 0.36801011596734567 0 0.4226133962176184 0.3536676162763252 0 0.44280714342558081 0.34728793196017388 0 0.4263440024307632 0.33902703067926071 0 0.43733177913940507 0.32259429647818549 0 0.4263440024307632 0.33902703067926071 0 0.43733177913940507 0.32259429647818549 0 0.41807753255534402 0.32398113845812709 0 0.42135765144348442 0.30693683118737108 0 0.43733177913940507 0.32259429647818549 0 0.41807753255534402 0.32398113845812709 0 0.40567937993834902 0.31076994424317372 0 0.42135765144348442 0.30693683118737108 0 0.41807753255534402 0.32398113845812709 0 0.40567937993834902 0.31076994424317372 0 0.41807753255534402 0.32398113845812709 0 0.40035461487832041 0.32432558237196091 0 0.4226133962176184 0.3536676162763252 0 0.4263440024307632 0.33902703067926071 0 0.41229273412984868 0.33783662347433141 0 0.41807753255534402 0.32398113845812709 0 0.41229273412984868 0.33783662347433141 0 0.40035461487832041 0.32432558237196091 0 0.4263440024307632 0.33902703067926071 0 0.41807753255534402 0.32398113845812709 0 0.41229273412984868 0.33783662347433141 0 0.41229273412984868 0.33783662347433141 0 0.39394273979800132 0.34005772031256998 0 0.40035461487832041 0.32432558237196091 0 0.41229273412984868 0.33783662347433141 0 0.39394273979800132 0.34005772031256998 0 0.40440363885798658 0.34997518765704227 0 0.39394273979800132 0.34005772031256998 0 0.40035461487832041 0.32432558237196091 0 0.38021295671976518 0.32910247805387632 0 0.38724933717912879 0.30865422696867972 0 0.40567937993834902 0.31076994424317372 0 0.40035461487832041 0.32432558237196091 0 0.36652715657189111 0.31657334068562432 0 0.38724933717912879 0.30865422696867972 0 0.38021295671976518 0.32910247805387632 0 0.38724933717912879 0.30865422696867972 0 0.40035461487832041 0.32432558237196091 0 0.38021295671976518 0.32910247805387632 0 0.39394273979800132 0.34005772031256998 0 0.38021295671976518 0.32910247805387632 0 0.37748006842153048 0.34702616135265818 0 0.39394273979800132 0.34005772031256998 0 0.37748006842153048 0.34702616135265818 0 0.39231231734478672 0.35618610361394148 0 0.37748006842153048 0.34702616135265818 0 0.37833332931177449 0.36069129482346129 0 0.39231231734478672 0.35618610361394148 0 0.36489171966462708 0.37179407185163288 0 0.37833332931177449 0.36069129482346129 0 0.39168623481645909 0.37053275322353718 0 0.36489171966462708 0.37179407185163288 0 0.39168623481645909 0.37053275322353718 0 0.38056359531724709 0.37603076199659913 0 0.36489171966462708 0.37179407185163288 0 0.39168623481645909 0.37053275322353718 0 0.37833332931177449 0.36069129482346129 0 0.39168623481645909 0.37053275322353718 0 0.39231231734478672 0.35618610361394148 0 0.4184807499682911 0.36927143459544137 0 0.39168623481645909 0.37053275322353718 0 0.4184807499682911 0.36927143459544137 0 0.39168623481645909 0.37053275322353718 0 0.40589926744102839 0.35992661907325751 0 0.39168623481645909 0.37053275322353718 0 0.40589926744102839 0.35992661907325751 0 0.39231231734478672 0.35618610361394148 0 0.4184807499682911 0.36927143459544137 0 0.39168623481645909 0.37053275322353718 0 0.40367477799290302 0.37596608842809298 0 0.40589926744102839 0.35992661907325751 0 0.40440363885798658 0.34997518765704227 0 0.39231231734478672 0.35618610361394148 0 0.39394273979800132 0.34005772031256998 0 0.40440363885798658 0.34997518765704227 0 0.39231231734478672 0.35618610361394148 0 0.39092472619900892 0.39134475250199457 0 0.40301075222123611 0.39940254472255599 0 0.4006694943979402 0.38769400374230328 0 0.39092472619900892 0.39134475250199457 0 0.39123393668702861 0.40112949080947669 0 0.40301075222123611 0.39940254472255599 0 0.39123393668702861 0.40112949080947669 0 0.40301075222123611 0.39940254472255599 0 0.39483741760669921 0.4104529821060266 0 0.40301075222123611 0.39940254472255599 0 0.4006694943979402 0.38769400374230328 0 0.41015873334834102 0.39049700026278072 0 0.4006694943979402 0.38769400374230328 0 0.40367477799290302 0.37596608842809298 0 0.41015873334834102 0.39049700026278072 0 0.4006694943979402 0.38769400374230328 0 0.40367477799290302 0.37596608842809298 0 0.39114434277886662 0.38106165895798771 0 0.39168623481645909 0.37053275322353718 0 0.40367477799290302 0.37596608842809298 0 0.39114434277886662 0.38106165895798771 0 0.39092472619900892 0.39134475250199457 0 0.4006694943979402 0.38769400374230328 0 0.39114434277886662 0.38106165895798771 0 0.39092472619900892 0.39134475250199457 0 0.39114434277886662 0.38106165895798771 0 0.38433843779214127 0.38718024602334239 0 0.39114434277886662 0.38106165895798771 0 0.38433843779214127 0.38718024602334239 0 0.38056359531724709 0.37603076199659913 0 0.39168623481645909 0.37053275322353718 0 0.39114434277886662 0.38106165895798771 0 0.38056359531724709 0.37603076199659913 0 0.38433843779214127 0.38718024602334239 0 0.38056359531724709 0.37603076199659913 0 0.37628335663096302 0.39118777347189598 0 0.37089547600147582 0.38905221910929572 0 0.38056359531724709 0.37603076199659913 0 0.37628335663096302 0.39118777347189598 0 0.38433843779214127 0.38718024602334239 0 0.37628335663096302 0.39118777347189598 0 0.3830689144827778 0.39641579685236461 0 0.37407534889783722 0.40187530729839782 0 0.37628335663096302 0.39118777347189598 0 0.3830689144827778 0.39641579685236461 0 0.39092472619900892 0.39134475250199457 0 0.38433843779214127 0.38718024602334239 0 0.3830689144827778 0.39641579685236461 0 0.39092472619900892 0.39134475250199457 0 0.39123393668702861 0.40112949080947669 0 0.3830689144827778 0.39641579685236461 0 0.39123393668702861 0.40112949080947669 0 0.3830689144827778 0.39641579685236461 0 0.3836463744775947 0.40614937718691779 0 0.39123393668702861 0.40112949080947669 0 0.3836463744775947 0.40614937718691779 0 0.39483741760669921 0.4104529821060266 0 0.37407534889783722 0.40187530729839782 0 0.3830689144827778 0.39641579685236461 0 0.3836463744775947 0.40614937718691779 0 0.37298947952168632 0.41202153999026431 0 0.37407534889783722 0.40187530729839782 0 0.3836463744775947 0.40614937718691779 0 0.37298947952168632 0.41202153999026431 0 0.3836463744775947 0.40614937718691779 0 0.38267252900533538 0.41646493635479931 0 0.374179710367677 0.42176963034215209 0 0.37298947952168632 0.41202153999026431 0 0.38267252900533538 0.41646493635479931 0 0.38267252900533538 0.41646493635479931 0 0.39086162477913572 0.42222744076860619 0 0.39483741760669921 0.4104529821060266 0 0.3836463744775947 0.40614937718691779 0 0.38267252900533538 0.41646493635479931 0 0.39483741760669921 0.4104529821060266 0 0.37084000430854691 0.43249494094515328 0 0.38187082226145908 0.42784029487232239 0 0.38100842571857879 0.43928460998051527 0 0.37084000430854691 0.43249494094515328 0 0.374179710367677 0.42176963034215209 0 0.38187082226145908 0.42784029487232239 0 0.374179710367677 0.42176963034215209 0 0.38267252900533538 0.41646493635479931 0 0.38187082226145908 0.42784029487232239 0 0.38267252900533538 0.41646493635479931 0 0.38187082226145908 0.42784029487232239 0 0.39086162477913572 0.42222744076860619 0 0.38187082226145908 0.42784029487232239 0 0.39166263938948109 0.43480021084270798 0 0.39086162477913572 0.42222744076860619 0 0.38187082226145908 0.42784029487232239 0 0.39166263938948109 0.43480021084270798 0 0.38100842571857879 0.43928460998051527 0 0.39166263938948109 0.43480021084270798 0 0.40209298077747962 0.43092556882560568 0 0.40124475533844578 0.44423513639809931 0 0.39166263938948109 0.43480021084270798 0 0.39086162477913572 0.42222744076860619 0 0.40209298077747962 0.43092556882560568 0 0.39086162477913572 0.42222744076860619 0 0.40209298077747962 0.43092556882560568 0 0.40078570150741061 0.42003517055104678 0 0.40209298077747962 0.43092556882560568 0 0.40078570150741061 0.42003517055104678 0 0.40844022198981561 0.42330012057981292 0 0.40209298077747962 0.43092556882560568 0 0.41505332105677328 0.43409447787451882 0 0.40124475533844578 0.44423513639809931 0 0.39086162477913572 0.42222744076860619 0 0.39483741760669921 0.4104529821060266 0 0.40078570150741061 0.42003517055104678 0 0.39483741760669921 0.4104529821060266 0 0.40078570150741061 0.42003517055104678 0 0.40691334214020503 0.41207861965246689 0 0.40078570150741061 0.42003517055104678 0 0.40691334214020503 0.41207861965246689 0 0.40844022198981561 0.42330012057981292 0 0.40301075222123611 0.39940254472255599 0 0.39483741760669921 0.4104529821060266 0 0.40691334214020503 0.41207861965246689 0 0.40691334214020503 0.41207861965246689 0 0.41840293999426559 0.41713084381092708 0 0.41626419864380848 0.40259608917050121 0 0.40691334214020503 0.41207861965246689 0 0.41840293999426559 0.41713084381092708 0 0.40844022198981561 0.42330012057981292 0 0.41840293999426559 0.41713084381092708 0 0.40844022198981561 0.42330012057981292 0 0.41505332105677328 0.43409447787451882 0 0.41840293999426559 0.41713084381092708 0 0.41505332105677328 0.43409447787451882 0 0.43086502787264352 0.42649535146943912 0 0.40209298077747962 0.43092556882560568 0 0.40844022198981561 0.42330012057981292 0 0.41505332105677328 0.43409447787451882 0 0.41505332105677328 0.43409447787451882 0 0.43086502787264352 0.42649535146943912 0 0.43300661480397301 0.4413634527908481 0 0.43086502787264352 0.42649535146943912 0 0.44598688954481153 0.43775880893211327 0 0.43300661480397301 0.4413634527908481 0 0.43086502787264352 0.42649535146943912 0 0.43104971066534442 0.40838667548780011 0 0.44691286587982287 0.42154221595313363 0 0.41840293999426559 0.41713084381092708 0 0.43086502787264352 0.42649535146943912 0 0.43104971066534442 0.40838667548780011 0 0.41840293999426559 0.41713084381092708 0 0.43104971066534442 0.40838667548780011 0 0.41626419864380848 0.40259608917050121 0 0.43104971066534442 0.40838667548780011 0 0.41626419864380848 0.40259608917050121 0 0.42654925062321603 0.38593014965328798 0 0.43104971066534442 0.40838667548780011 0 0.42654925062321603 0.38593014965328798 0 0.44942372325352908 0.39589421087848309 0 0.41626419864380848 0.40259608917050121 0 0.41015873334834102 0.39049700026278072 0 0.42654925062321603 0.38593014965328798 0 0.40301075222123611 0.39940254472255599 0 0.41626419864380848 0.40259608917050121 0 0.41015873334834102 0.39049700026278072 0 0.40301075222123611 0.39940254472255599 0 0.40691334214020503 0.41207861965246689 0 0.41626419864380848 0.40259608917050121 0 0.40367477799290302 0.37596608842809298 0 0.42654925062321603 0.38593014965328798 0 0.4184807499682911 0.36927143459544137 0 0.40367477799290302 0.37596608842809298 0 0.42654925062321603 0.38593014965328798 0 0.40367477799290302 0.37596608842809298 0 0.41015873334834102 0.39049700026278072 0 0.42654925062321603 0.38593014965328798 0 0.44527526512012311 0.36801011596734567 0 0.42654925062321603 0.38593014965328798 0 0.44942372325352908 0.39589421087848309 0 0.47677234359905762 0.37191419870104392 0 0.44527526512012311 0.36801011596734567 0 0.46634970774455797 0.38855502529969921 0 0.42654925062321603 0.38593014965328798 0 0.44942372325352908 0.39589421087848309 0 0.44942372325352908 0.39589421087848309 0 0.46634970774455797 0.38855502529969921 0 0.47229819588384198 0.40585827210367809 0 0.44942372325352908 0.39589421087848309 0 0.47229819588384198 0.40585827210367809 0 0.44527526512012311 0.36801011596734567 0 0.44942372325352908 0.39589421087848309 0 0.46634970774455797 0.38855502529969921 0 0.47677234359905762 0.37191419870104392 0 0.46634970774455797 0.38855502529969921 0 0.48797901086623829 0.40109832884794488 0 0.46634970774455797 0.38855502529969921 0 0.47229819588384198 0.40585827210367809 0 0.48797901086623829 0.40109832884794488 0 0.48797901086623829 0.40109832884794488 0 0.5 0.38410531230861472 0 0.49999999999999711 0.41223569112794828 0 0.47677234359905762 0.37191419870104392 0 0.48797901086623829 0.40109832884794488 0 0.5 0.38410531230861472 0 0.49646666000062079 0.43531111422104263 0 0.49517266851415442 0.41582233332887442 0 0.47852247349443128 0.42819320371277841 0 0.49646666000062079 0.43531111422104263 0 0.49999999999999761 0.41792510646190179 0 0.49517266851415442 0.41582233332887442 0 0.49517266851415442 0.41582233332887442 0 0.47852247349443128 0.42819320371277841 0 0.47229819588384198 0.40585827210367809 0 0.48797901086623829 0.40109832884794488 0 0.49517266851415442 0.41582233332887442 0 0.49999999999999761 0.41792510646190179 0 0.49517266851415442 0.41582233332887442 0 0.49999999999999711 0.41223569112794828 0 0.49999999999999761 0.41792510646190179 0 0.49517266851415442 0.41582233332887442 0 0.48797901086623829 0.40109832884794488 0 0.49517266851415442 0.41582233332887442 0 0.49999999999999711 0.41223569112794828 0 0.49517266851415442 0.41582233332887442 0 0.49999999999999711 0.41223569112794828 0 0.47229819588384198 0.40585827210367809 0 0.47852247349443128 0.42819320371277841 0 0.46364900140686 0.42030337514037969 0 0.47229819588384198 0.40585827210367809 0 0.49517266851415442 0.41582233332887442 0 0.47229819588384198 0.40585827210367809 0 0.49517266851415442 0.41582233332887442 0 0.47852247349443128 0.42819320371277841 0 0.47852247349443128 0.42819320371277841 0 0.46187227847470658 0.44056407409668003 0 0.46364900140686 0.42030337514037969 0 0.44691286587982287 0.42154221595313363 0 0.46187227847470658 0.44056407409668003 0 0.47852247349443128 0.42819320371277841 0 0.46364900140686 0.42030337514037969 0 0.46187227847470658 0.44056407409668003 0 0.44942372325352908 0.39589421087848309 0 0.46364900140686 0.42030337514037969 0 0.44691286587982287 0.42154221595313363 0 0.44942372325352908 0.39589421087848309 0 0.47229819588384198 0.40585827210367809 0 0.46364900140686 0.42030337514037969 0 0.43104971066534442 0.40838667548780011 0 0.44942372325352908 0.39589421087848309 0 0.44691286587982287 0.42154221595313363 0 0.44691286587982287 0.42154221595313363 0 0.44598688954481153 0.43775880893211327 0 0.46187227847470658 0.44056407409668003 0 0.43086502787264352 0.42649535146943912 0 0.44691286587982287 0.42154221595313363 0 0.44598688954481153 0.43775880893211327 0 0.49646666000062079 0.43531111422104263 0 0.5 0.5 0 0.47527428687682222 0.48140285120516979 0 0.49646666000062079 0.43531111422104263 0 0.49999999999999761 0.41792510646190179 0 0.5 0.5 0 0.44522208345498282 0.45293494448058319 0 0.44598688954481153 0.43775880893211327 0 0.43300661480397301 0.4413634527908481 0 0.44522208345498282 0.45293494448058319 0 0.44598688954481153 0.43775880893211327 0 0.46187227847470658 0.44056407409668003 0 0.44522208345498282 0.45293494448058319 0 0.43300661480397301 0.4413634527908481 0 0.45564216906586419 0.46280570241034069 0 0.43886615063715412 0.47410406051824078 0 0.44522208345498282 0.45293494448058319 0 0.45564216906586419 0.46280570241034069 0 0.43886615063715412 0.47410406051824078 0 0.44522208345498282 0.45293494448058319 0 0.45564216906586419 0.46280570241034069 0 0.45564216906586419 0.46280570241034069 0 0.47605441453324299 0.44905840831569249 0 0.47343955711147118 0.46222842147910148 0 0.45564216906586419 0.46280570241034069 0 0.47605441453324299 0.44905840831569249 0 0.45564216906586419 0.46280570241034069 0 0.46187227847470658 0.44056407409668003 0 0.47605441453324299 0.44905840831569249 0 0.44522208345498282 0.45293494448058319 0 0.45564216906586419 0.46280570241034069 0 0.46187227847470658 0.44056407409668003 0 0.44522208345498282 0.45293494448058319 0 0.46187227847470658 0.44056407409668003 0 0.49646666000062079 0.43531111422104263 0 0.47605441453324299 0.44905840831569249 0 0.47343955711147118 0.46222842147910148 0 0.49646666000062079 0.43531111422104263 0 0.47343955711147118 0.46222842147910148 0 0.47527428687682222 0.48140285120516979 0 0.49646666000062079 0.43531111422104263 0 0.47852247349443128 0.42819320371277841 0 0.47605441453324299 0.44905840831569249 0 0.47852247349443128 0.42819320371277841 0 0.46187227847470658 0.44056407409668003 0 0.47605441453324299 0.44905840831569249 0 0.49646666000062079 0.43531111422104263 0 0.47605441453324299 0.44905840831569249 0 0.5 0.5 0 0.49490640468777952 0.4999999999999995 0 0.47527428687682222 0.48140285120516979 0 0.49490640468777952 0.4999999999999995 0 0.47527428687682222 0.48140285120516979 0 0.49490640468777952 0.4999999999999995 0 0.47527428687682222 0.48140285120516979 0 0.46664888101112462 0.5 0 0.47527428687682222 0.48140285120516979 0 0.46664888101112462 0.5 0 0.45203579041726838 0.48364327167246851 0 0.45564216906586419 0.46280570241034069 0 0.47527428687682222 0.48140285120516979 0 0.45203579041726838 0.48364327167246851 0 0.45564216906586419 0.46280570241034069 0 0.47527428687682222 0.48140285120516979 0 0.45564216906586419 0.46280570241034069 0 0.47343955711147118 0.46222842147910148 0 0.47527428687682222 0.48140285120516979 0 0.45203579041726838 0.48364327167246851 0 0.43886615063715412 0.47410406051824078 0 0.42209013220844221 0.48540241862613842 0 0.45564216906586419 0.46280570241034069 0 0.45203579041726838 0.48364327167246851 0 0.43886615063715412 0.47410406051824078 0 0.45203579041726838 0.48364327167246851 0 0.43839135733446971 0.5 0 0.42209013220844221 0.48540241862613842 0 0.46664888101112462 0.5 0 0.45203579041726838 0.48364327167246851 0 0.43839135733446971 0.5 0 0.45203579041726838 0.48364327167246851 0 0.42209013220844221 0.48540241862613842 0 0.43839135733446971 0.5 0 0.42209013220844221 0.48540241862613842 0 0.41013383365781492 0.5 0 0.42209013220844221 0.48540241862613842 0 0.40633745652979159 0.4960115731005037 0 0.42209013220844221 0.48540241862613842 0 0.41013383365781492 0.5 0 0.40633745652979159 0.4960115731005037 0 0.42209013220844221 0.48540241862613842 0 0.40633745652979159 0.4960115731005037 0 0.39975775697574262 0.48671432600132131 0 0.42209013220844221 0.48540241862613842 0 0.39975775697574262 0.48671432600132131 0 0.42248992021536291 0.46982463524095253 0 0.39975775697574262 0.48671432600132131 0 0.42248992021536291 0.46982463524095253 0 0.39975775697574262 0.48671432600132131 0 0.40414053957227503 0.46878269567447678 0 0.42209013220844221 0.48540241862613842 0 0.42248992021536291 0.46982463524095253 0 0.39975775697574262 0.48671432600132131 0 0.43886615063715412 0.47410406051824078 0 0.42209013220844221 0.48540241862613842 0 0.42248992021536291 0.46982463524095253 0 0.43886615063715412 0.47410406051824078 0 0.42209013220844221 0.48540241862613842 0 0.44522208345498282 0.45293494448058319 0 0.42248992021536291 0.46982463524095253 0 0.44522208345498282 0.45293494448058319 0 0.43886615063715412 0.47410406051824078 0 0.42248992021536291 0.46982463524095253 0 0.44522208345498282 0.45293494448058319 0 0.42248992021536291 0.46982463524095253 0 0.43300661480397301 0.4413634527908481 0 0.42248992021536291 0.46982463524095253 0 0.43300661480397301 0.4413634527908481 0 0.4116988577507732 0.45307071092881512 0 0.41505332105677328 0.43409447787451882 0 0.43300661480397301 0.4413634527908481 0 0.4116988577507732 0.45307071092881512 0 0.41505332105677328 0.43409447787451882 0 0.4116988577507732 0.45307071092881512 0 0.40124475533844578 0.44423513639809931 0 0.42248992021536291 0.46982463524095253 0 0.4116988577507732 0.45307071092881512 0 0.40414053957227503 0.46878269567447678 0 0.4116988577507732 0.45307071092881512 0 0.39252808736646899 0.4610481412315996 0 0.40414053957227503 0.46878269567447678 0 0.39252808736646899 0.4610481412315996 0 0.40414053957227503 0.46878269567447678 0 0.39076825925034542 0.4751042122449014 0 0.39252808736646899 0.4610481412315996 0 0.40124475533844578 0.44423513639809931 0 0.38914301888073782 0.44638489748820209 0 0.4116988577507732 0.45307071092881512 0 0.39252808736646899 0.4610481412315996 0 0.40124475533844578 0.44423513639809931 0 0.39166263938948109 0.43480021084270798 0 0.40124475533844578 0.44423513639809931 0 0.38914301888073782 0.44638489748820209 0 0.39166263938948109 0.43480021084270798 0 0.38914301888073782 0.44638489748820209 0 0.38100842571857879 0.43928460998051527 0 0.38914301888073782 0.44638489748820209 0 0.37927118659071429 0.45255638898808842 0 0.38100842571857879 0.43928460998051527 0 0.37161690958419608 0.44370129370976419 0 0.37927118659071429 0.45255638898808842 0 0.38100842571857879 0.43928460998051527 0 0.39252808736646899 0.4610481412315996 0 0.37927118659071429 0.45255638898808842 0 0.3760173384061069 0.46228690860706528 0 0.39252808736646899 0.4610481412315996 0 0.3760173384061069 0.46228690860706528 0 0.37909621764700902 0.47207419846093751 0 0.39252808736646899 0.4610481412315996 0 0.38914301888073782 0.44638489748820209 0 0.37927118659071429 0.45255638898808842 0 0.37285979832528982 0.48829443693726388 0 0.39975775697574262 0.48671432600132131 0 0.39076825925034542 0.4751042122449014 0 0.37285979832528982 0.48829443693726388 0 0.37909621764700902 0.47207419846093751 0 0.39076825925034542 0.4751042122449014 0 0.39252808736646899 0.4610481412315996 0 0.37909621764700902 0.47207419846093751 0 0.39076825925034542 0.4751042122449014 0 0.37285979832528982 0.48829443693726388 0 0.38187630998116012 0.50000000000000466 0 0.39975775697574262 0.48671432600132131 0 0.37285979832528982 0.48829443693726388 0 0.39975775697574262 0.48671432600132131 0 0.41013383365781492 0.5 0 0.40633745652979159 0.4960115731005037 0 0.38187630998116012 0.50000000000000466 0 0.40633745652979159 0.4960115731005037 0 0.38187630998116012 0.50000000000000466 0 0.39975775697574262 0.48671432600132131 0 0.38187630998116012 0.50000000000000466 0 0.39975775697574262 0.48671432600132131 0 0.39975775697574262 0.48671432600132131 0 0.40414053957227503 0.46878269567447678 0 0.39076825925034542 0.4751042122449014 0 0.32415273216408003 0.07481513093931938 0 0.33623982019092652 0.10326686867299489 0 0.34407959345430589 0.081926427412889774 0 0.32415273216408003 0.07481513093931938 0 0.34635410674462591 0.06247742236280103 0 0.32643160476679539 0.055064882541608767 0 0.32415273216408003 0.07481513093931938 0 0.34407959345430589 0.081926427412889774 0 0.34635410674462591 0.06247742236280103 0 0.32415273216408003 0.07481513093931938 0 0.34635410674462591 0.06247742236280103 0 0.32415273216408003 0.07481513093931938 0 0.32643160476679539 0.055064882541608767 0 0.30016806255122958 0.060358509943671028 0 0.32415273216408003 0.07481513093931938 0 0.3161826277932957 0.098475473056853099 0 0.30195135758353409 0.087152839515837716 0 0.32415273216408003 0.07481513093931938 0 0.3161826277932957 0.098475473056853099 0 0.33623982019092652 0.10326686867299489 0 0.32415273216408003 0.07481513093931938 0 0.30195135758353409 0.087152839515837716 0 0.3161826277932957 0.098475473056853099 0 0.31754325734991412 0.1160217160653642 0 0.33623982019092652 0.10326686867299489 0 0.31754325734991412 0.1160217160653642 0 0.32938656094391161 0.1226708529835661 0 0.33623982019092652 0.10326686867299489 0 0.31754325734991412 0.1160217160653642 0 0.31003257905962828 0.1294590886004259 0 0.31943431350538898 0.12919346266839421 0 0.31754325734991412 0.1160217160653642 0 0.32938656094391161 0.1226708529835661 0 0.31943431350538898 0.12919346266839421 0 0.32938656094391161 0.1226708529835661 0 0.34177213711973492 0.1239033688347121 0 0.33623982019092652 0.10326686867299489 0 0.33623982019092652 0.10326686867299489 0 0.35641533358636612 0.113636810532804 0 0.35793865131706848 0.092641968305044925 0 0.34177213711973492 0.1239033688347121 0 0.35641533358636612 0.113636810532804 0 0.35373485490919099 0.13402886286235849 0 0.34177213711973492 0.1239033688347121 0 0.33623982019092652 0.10326686867299489 0 0.35641533358636612 0.113636810532804 0 0.35641533358636612 0.113636810532804 0 0.37473189579381488 0.12398013122460259 0 0.37507741079161361 0.099679012309614914 0 0.35641533358636612 0.113636810532804 0 0.37473189579381488 0.12398013122460259 0 0.35373485490919099 0.13402886286235849 0 0.35641533358636612 0.113636810532804 0 0.35793865131706848 0.092641968305044925 0 0.37507741079161361 0.099679012309614914 0 0.35793865131706848 0.092641968305044925 0 0.35898041591206792 0.074617141674102563 0 0.37711984197598281 0.075370889559536594 0 0.35793865131706848 0.092641968305044925 0 0.37711984197598281 0.075370889559536594 0 0.37507741079161361 0.099679012309614914 0 0.34407959345430589 0.081926427412889774 0 0.35793865131706848 0.092641968305044925 0 0.35898041591206792 0.074617141674102563 0 0.33623982019092652 0.10326686867299489 0 0.34407959345430589 0.081926427412889774 0 0.35793865131706848 0.092641968305044925 0 0.34407959345430589 0.081926427412889774 0 0.35898041591206792 0.074617141674102563 0 0.34635410674462591 0.06247742236280103 0 0.35898041591206792 0.074617141674102563 0 0.36855548132517169 0.050139713786282687 0 0.37711984197598281 0.075370889559536594 0 0.36855548132517169 0.050139713786282687 0 0.36663536484893611 0.020540273504914251 0 0.34274155754747299 0.040256767553645462 0 0.36855548132517169 0.050139713786282687 0 0.34635410674462591 0.06247742236280103 0 0.34274155754747299 0.040256767553645462 0 0.35898041591206792 0.074617141674102563 0 0.36855548132517169 0.050139713786282687 0 0.34635410674462591 0.06247742236280103 0 0.36855548132517169 0.050139713786282687 0 0.34635410674462591 0.06247742236280103 0 0.36663536484893611 0.020540273504914251 0 0.354279588865272 0.003684158160236305 0 0.36843064509257062 -0.0098917636647739664 0 0.36663536484893611 0.020540273504914251 0 0.33731506710190778 0.014474653873542831 0 0.34274155754747299 0.040256767553645462 0 0.36663536484893611 0.020540273504914251 0 0.354279588865272 0.003684158160236305 0 0.33731506710190778 0.014474653873542831 0 0.354279588865272 0.003684158160236305 0 0.33731506710190778 0.014474653873542831 0 0.34473727841767349 -0.0103865310727379 0 0.33731506710190778 0.014474653873542831 0 0.30755173205394049 0.017413035958346298 0 0.30522463180752252 -0.002299032575220602 0 0.33731506710190778 0.014474653873542831 0 0.34274155754747299 0.040256767553645462 0 0.31874156482656868 0.03741658190860693 0 0.33731506710190778 0.014474653873542831 0 0.31874156482656868 0.03741658190860693 0 0.30755173205394049 0.017413035958346298 0 0.33731506710190778 0.014474653873542831 0 0.31874156482656868 0.03741658190860693 0 0.34635410674462591 0.06247742236280103 0 0.34274155754747299 0.040256767553645462 0 0.32643160476679539 0.055064882541608767 0 0.34274155754747299 0.040256767553645462 0 0.31874156482656868 0.03741658190860693 0 0.32643160476679539 0.055064882541608767 0 0.31874156482656868 0.03741658190860693 0 0.32643160476679539 0.055064882541608767 0 0.30016806255122958 0.060358509943671028 0 0.31874156482656868 0.03741658190860693 0 0.30016806255122958 0.060358509943671028 0 0.31874156482656868 0.03741658190860693 0 0.30016806255122958 0.060358509943671028 0 0.28986529711694531 0.044018699885765802 0 0.31874156482656868 0.03741658190860693 0 0.28986529711694531 0.044018699885765802 0 0.29185696572371689 0.026829659191401411 0 0.28986529711694531 0.044018699885765802 0 0.29185696572371689 0.026829659191401411 0 0.27328079011691869 0.032568907773156422 0 0.30016806255122958 0.060358509943671028 0 0.28986529711694531 0.044018699885765802 0 0.28471440123793718 0.059864474181899913 0 0.30755173205394049 0.017413035958346298 0 0.28837090299618379 0.01012826580632014 0 0.30522463180752252 -0.002299032575220602 0 0.31874156482656868 0.03741658190860693 0 0.30755173205394049 0.017413035958346298 0 0.29185696572371689 0.026829659191401411 0 0.29185696572371689 0.026829659191401411 0 0.28837090299618379 0.01012826580632014 0 0.27667222310714612 0.020112328119384189 0 0.30755173205394049 0.017413035958346298 0 0.29185696572371689 0.026829659191401411 0 0.28837090299618379 0.01012826580632014 0 0.28837090299618379 0.01012826580632014 0 0.287007768912864 -0.0062103002009000069 0 0.30522463180752252 -0.002299032575220602 0 0.28837090299618379 0.01012826580632014 0 0.26992981447287823 0.006555578672520726 0 0.287007768912864 -0.0062103002009000069 0 0.28837090299618379 0.01012826580632014 0 0.26992981447287823 0.006555578672520726 0 0.27667222310714612 0.020112328119384189 0 0.26992981447287823 0.006555578672520726 0 0.27667222310714612 0.020112328119384189 0 0.2595210127702971 0.02037293983888299 0 0.27667222310714612 0.020112328119384189 0 0.2595210127702971 0.02037293983888299 0 0.27328079011691869 0.032568907773156422 0 0.29185696572371689 0.026829659191401411 0 0.27667222310714612 0.020112328119384189 0 0.27328079011691869 0.032568907773156422 0 0.24033823497553039 0.02526121011532587 0 0.2595210127702971 0.02037293983888299 0 0.25417241108990979 0.03604870460952761 0 0.2595210127702971 0.02037293983888299 0 0.27328079011691869 0.032568907773156422 0 0.25417241108990979 0.03604870460952761 0 0.24895436299273749 0.0076182131245065288 0 0.26992981447287823 0.006555578672520726 0 0.26441350175974021 -0.01012269031476231 0 0.24895436299273749 0.0076182131245065288 0 0.26992981447287823 0.006555578672520726 0 0.2595210127702971 0.02037293983888299 0 0.28471440123793718 0.059864474181899913 0 0.26800658720429232 0.046836199103725468 0 0.28471440123793718 0.059864474181899913 0 0.26800658720429232 0.046836199103725468 0 0.26733239486203109 0.064928216620301835 0 0.28986529711694531 0.044018699885765802 0 0.28471440123793718 0.059864474181899913 0 0.26800658720429232 0.046836199103725468 0 0.28986529711694531 0.044018699885765802 0 0.26800658720429232 0.046836199103725468 0 0.28986529711694531 0.044018699885765802 0 0.27328079011691869 0.032568907773156422 0 0.26800658720429232 0.046836199103725468 0 0.24762101120155181 0.049463817324327149 0 0.26800658720429232 0.046836199103725468 0 0.25417241108990979 0.03604870460952761 0 0.26800658720429232 0.046836199103725468 0 0.25417241108990979 0.03604870460952761 0 0.27328079011691869 0.032568907773156422 0 0.26800658720429232 0.046836199103725468 0 0.25417241108990979 0.03604870460952761 0 0.26800658720429232 0.046836199103725468 0 0.25302312704258317 0.061179725418258307 0 0.26733239486203109 0.064928216620301835 0 0.24762101120155181 0.049463817324327149 0 0.26800658720429232 0.046836199103725468 0 0.24762101120155181 0.049463817324327149 0 0.26800658720429232 0.046836199103725468 0 0.25302312704258317 0.061179725418258307 0 0.2538397355107051 0.073465031100533124 0 0.26331494875194378 0.08069547880488924 0 0.26733239486203109 0.064928216620301835 0 0.25302312704258317 0.061179725418258307 0 0.2538397355107051 0.073465031100533124 0 0.26733239486203109 0.064928216620301835 0 0.24794987632136711 0.083759477517865916 0 0.26331494875194378 0.08069547880488924 0 0.2599192362836501 0.098487896685821807 0 0.24794987632136711 0.083759477517865916 0 0.2538397355107051 0.073465031100533124 0 0.26331494875194378 0.08069547880488924 0 0.26331494875194378 0.08069547880488924 0 0.28159456027589053 0.083300437978735126 0 0.2599192362836501 0.098487896685821807 0 0.28471440123793718 0.059864474181899913 0 0.26733239486203109 0.064928216620301835 0 0.28159456027589053 0.083300437978735126 0 0.26331494875194378 0.08069547880488924 0 0.26733239486203109 0.064928216620301835 0 0.28159456027589053 0.083300437978735126 0 0.30016806255122958 0.060358509943671028 0 0.28471440123793718 0.059864474181899913 0 0.28159456027589053 0.083300437978735126 0 0.30016806255122958 0.060358509943671028 0 0.28159456027589053 0.083300437978735126 0 0.30195135758353409 0.087152839515837716 0 0.30016806255122958 0.060358509943671028 0 0.28159456027589053 0.083300437978735126 0 0.28159456027589053 0.083300437978735126 0 0.30195135758353409 0.087152839515837716 0 0.28598396917391511 0.099679045114496018 0 0.32415273216408003 0.07481513093931938 0 0.30016806255122958 0.060358509943671028 0 0.30195135758353409 0.087152839515837716 0 0.31754325734991412 0.1160217160653642 0 0.30102597167802392 0.1111208100907492 0 0.31003257905962828 0.1294590886004259 0 0.30102597167802392 0.1111208100907492 0 0.29719795007829958 0.13135884543498849 0 0.31003257905962828 0.1294590886004259 0 0.3161826277932957 0.098475473056853099 0 0.30195135758353409 0.087152839515837716 0 0.30102597167802392 0.1111208100907492 0 0.3161826277932957 0.098475473056853099 0 0.31754325734991412 0.1160217160653642 0 0.30102597167802392 0.1111208100907492 0 0.30102597167802392 0.1111208100907492 0 0.28598396917391511 0.099679045114496018 0 0.27855859318097492 0.11492337106040509 0 0.30195135758353409 0.087152839515837716 0 0.30102597167802392 0.1111208100907492 0 0.28598396917391511 0.099679045114496018 0 0.30102597167802392 0.1111208100907492 0 0.27855859318097492 0.11492337106040509 0 0.29719795007829958 0.13135884543498849 0 0.27855859318097492 0.11492337106040509 0 0.29719795007829958 0.13135884543498849 0 0.27855859318097492 0.11492337106040509 0 0.2599192362836501 0.098487896685821807 0 0.26233047009082322 0.1153984068801106 0 0.27855859318097492 0.11492337106040509 0 0.26233047009082322 0.1153984068801106 0 0.26509758597131527 0.13022213604358951 0 0.27855859318097492 0.11492337106040509 0 0.26509758597131527 0.13022213604358951 0 0.28034586751850282 0.12946408429862641 0 0.28598396917391511 0.099679045114496018 0 0.27855859318097492 0.11492337106040509 0 0.2599192362836501 0.098487896685821807 0 0.28159456027589053 0.083300437978735126 0 0.28598396917391511 0.099679045114496018 0 0.2599192362836501 0.098487896685821807 0 0.27855859318097492 0.11492337106040509 0 0.2599192362836501 0.098487896685821807 0 0.24574646492735239 0.1179602237306261 0 0.26233047009082322 0.1153984068801106 0 0.26509758597131527 0.13022213604358951 0 0.24574646492735239 0.1179602237306261 0 0.26509758597131527 0.13022213604358951 0 0.24574646492735239 0.1179602237306261 0 0.2599192362836501 0.098487896685821807 0 0.26233047009082322 0.1153984068801106 0 0.24293896807651871 0.1409810644847079 0 0.24574646492735239 0.1179602237306261 0 0.26509758597131527 0.13022213604358951 0 0.26509758597131527 0.13022213604358951 0 0.28034586751850282 0.12946408429862641 0 0.2844487070152783 0.1424840483565529 0 0.26509758597131527 0.13022213604358951 0 0.2844487070152783 0.1424840483565529 0 0.26819408886361418 0.1507385425252194 0 0.2844487070152783 0.1424840483565529 0 0.28498665032982828 0.1543464324017379 0 0.26509758597131527 0.13022213604358951 0 0.26819408886361418 0.1507385425252194 0 0.2844487070152783 0.1424840483565529 0 0.24293896807651871 0.1409810644847079 0 0.26509758597131527 0.13022213604358951 0 0.26819408886361418 0.1507385425252194 0 0.24962071530462759 0.1706126020952172 0 0.24293896807651871 0.1409810644847079 0 0.26819408886361418 0.1507385425252194 0 0.24962071530462759 0.1706126020952172 0 0.26819408886361418 0.1507385425252194 0 0.27674742796359902 0.16676040491123589 0 0.24547313587171651 0.1880758744333012 0 0.24962071530462759 0.1706126020952172 0 0.26393014977359092 0.18744886131174399 0 0.24962071530462759 0.1706126020952172 0 0.26393014977359092 0.18744886131174399 0 0.27674742796359902 0.16676040491123589 0 0.26393014977359092 0.18744886131174399 0 0.27674742796359902 0.16676040491123589 0 0.29212622862347248 0.1820008316972547 0 0.26819408886361418 0.1507385425252194 0 0.27674742796359902 0.16676040491123589 0 0.28498665032982828 0.1543464324017379 0 0.27674742796359902 0.16676040491123589 0 0.29612787615323932 0.16328539695562649 0 0.29212622862347248 0.1820008316972547 0 0.27674742796359902 0.16676040491123589 0 0.29612787615323932 0.16328539695562649 0 0.28498665032982828 0.1543464324017379 0 0.29212622862347248 0.1820008316972547 0 0.30996378154891152 0.17349342710160731 0 0.30770374504892389 0.19073030749269679 0 0.29612787615323932 0.16328539695562649 0 0.29212622862347248 0.1820008316972547 0 0.30996378154891152 0.17349342710160731 0 0.29612787615323932 0.16328539695562649 0 0.30845093649991878 0.1586716132615959 0 0.29941515165341082 0.14846376926005481 0 0.29612787615323932 0.16328539695562649 0 0.30996378154891152 0.17349342710160731 0 0.30845093649991878 0.1586716132615959 0 0.30845093649991878 0.1586716132615959 0 0.29941515165341082 0.14846376926005481 0 0.31583730697562429 0.14779431980957181 0 0.29941515165341082 0.14846376926005481 0 0.29719795007829958 0.13135884543498849 0 0.31583730697562429 0.14779431980957181 0 0.29719795007829958 0.13135884543498849 0 0.31003257905962828 0.1294590886004259 0 0.3137230205228429 0.14121228683821671 0 0.29719795007829958 0.13135884543498849 0 0.3137230205228429 0.14121228683821671 0 0.31583730697562429 0.14779431980957181 0 0.29719795007829958 0.13135884543498849 0 0.31583730697562429 0.14779431980957181 0 0.28034586751850282 0.12946408429862641 0 0.29719795007829958 0.13135884543498849 0 0.2844487070152783 0.1424840483565529 0 0.27855859318097492 0.11492337106040509 0 0.28034586751850282 0.12946408429862641 0 0.29719795007829958 0.13135884543498849 0 0.29941515165341082 0.14846376926005481 0 0.29719795007829958 0.13135884543498849 0 0.2844487070152783 0.1424840483565529 0 0.29612787615323932 0.16328539695562649 0 0.29941515165341082 0.14846376926005481 0 0.28498665032982828 0.1543464324017379 0 0.29941515165341082 0.14846376926005481 0 0.2844487070152783 0.1424840483565529 0 0.28498665032982828 0.1543464324017379 0 0.27739364451291809 0.26279226036524439 0 0.26759462130847839 0.23489808495245951 0 0.29189409882026318 0.24855909018763039 0 0.246895936366299 0.2418550977724778 0 0.25208543646511339 0.25897896952323762 0 0.26759462130847839 0.23489808495245951 0 0.25208543646511339 0.25897896952323762 0 0.26759462130847839 0.23489808495245951 0 0.24814759964741839 0.2265731871880011 0 0.246895936366299 0.2418550977724778 0 0.26759462130847839 0.23489808495245951 0 0.24814759964741839 0.2265731871880011 0 0.26759462130847839 0.23489808495245951 0 0.27274815392605078 0.21075521990177079 0 0.26759462130847839 0.23489808495245951 0 0.27274815392605078 0.21075521990177079 0 0.28757836361158851 0.22734033818110269 0 0.24596638305386351 0.2053019982779995 0 0.24814759964741839 0.2265731871880011 0 0.27274815392605078 0.21075521990177079 0 0.24596638305386351 0.2053019982779995 0 0.26393014977359092 0.18744886131174399 0 0.27274815392605078 0.21075521990177079 0 0.24547313587171651 0.1880758744333012 0 0.24596638305386351 0.2053019982779995 0 0.26393014977359092 0.18744886131174399 0 0.26393014977359092 0.18744886131174399 0 0.29212622862347248 0.1820008316972547 0 0.27274815392605078 0.21075521990177079 0 0.29212622862347248 0.1820008316972547 0 0.27274815392605078 0.21075521990177079 0 0.29926039087554118 0.20816337585363559 0 0.29212622862347248 0.1820008316972547 0 0.29926039087554118 0.20816337585363559 0 0.29212622862347248 0.1820008316972547 0 0.30770374504892389 0.19073030749269679 0 0.29926039087554118 0.20816337585363559 0 0.30770374504892389 0.19073030749269679 0 0.29926039087554118 0.20816337585363559 0 0.31729065762954639 0.20277545273414271 0 0.29926039087554118 0.20816337585363559 0 0.31832614103630202 0.2226142648029398 0 0.31729065762954639 0.20277545273414271 0 0.27274815392605078 0.21075521990177079 0 0.29926039087554118 0.20816337585363559 0 0.28757836361158851 0.22734033818110269 0 0.29926039087554118 0.20816337585363559 0 0.28757836361158851 0.22734033818110269 0 0.30639455312760883 0.2343259200100169 0 0.29926039087554118 0.20816337585363559 0 0.30639455312760883 0.2343259200100169 0 0.29926039087554118 0.20816337585363559 0 0.30639455312760883 0.2343259200100169 0 0.31832614103630202 0.2226142648029398 0 0.30639455312760883 0.2343259200100169 0 0.31832614103630202 0.2226142648029398 0 0.31395470095153971 0.2620506470744981 0 0.30639455312760883 0.2343259200100169 0 0.29189409882026318 0.24855909018763039 0 0.30639455312760883 0.2343259200100169 0 0.29189409882026318 0.24855909018763039 0 0.31395470095153971 0.2620506470744981 0 0.30639455312760883 0.2343259200100169 0 0.28757836361158851 0.22734033818110269 0 0.30639455312760883 0.2343259200100169 0 0.29189409882026318 0.24855909018763039 0 0.26759462130847839 0.23489808495245951 0 0.28757836361158851 0.22734033818110269 0 0.29189409882026318 0.24855909018763039 0 0.34335377136112027 0.25444694437046178 0 0.32644146528316442 0.24144255057862879 0 0.35004450750934318 0.23272241701770049 0 0.31395470095153971 0.2620506470744981 0 0.30639455312760883 0.2343259200100169 0 0.32644146528316442 0.24144255057862879 0 0.30639455312760883 0.2343259200100169 0 0.32644146528316442 0.24144255057862879 0 0.31832614103630202 0.2226142648029398 0 0.32644146528316442 0.24144255057862879 0 0.31832614103630202 0.2226142648029398 0 0.33378561269932711 0.22463338955889109 0 0.31832614103630202 0.2226142648029398 0 0.33378561269932711 0.22463338955889109 0 0.33025772894499561 0.21090260959586299 0 0.33378561269932711 0.22463338955889109 0 0.34265909051931193 0.21066944369667059 0 0.35004450750934318 0.23272241701770049 0 0.32644146528316442 0.24144255057862879 0 0.33378561269932711 0.22463338955889109 0 0.35004450750934318 0.23272241701770049 0 0.34265909051931193 0.21066944369667059 0 0.33025772894499561 0.21090260959586299 0 0.3305985420661825 0.19779268684397369 0 0.33378561269932711 0.22463338955889109 0 0.34265909051931193 0.21066944369667059 0 0.33025772894499561 0.21090260959586299 0 0.31832614103630202 0.2226142648029398 0 0.33025772894499561 0.21090260959586299 0 0.31832614103630202 0.2226142648029398 0 0.33025772894499561 0.21090260959586299 0 0.31729065762954639 0.20277545273414271 0 0.33025772894499561 0.21090260959586299 0 0.31729065762954639 0.20277545273414271 0 0.3305985420661825 0.19779268684397369 0 0.31729065762954639 0.20277545273414271 0 0.3305985420661825 0.19779268684397369 0 0.31987766656714778 0.18721845007684379 0 0.30770374504892389 0.19073030749269679 0 0.31729065762954639 0.20277545273414271 0 0.31987766656714778 0.18721845007684379 0 0.3305985420661825 0.19779268684397369 0 0.31987766656714778 0.18721845007684379 0 0.33544713285049832 0.18390586886128399 0 0.34265909051931193 0.21066944369667059 0 0.3305985420661825 0.19779268684397369 0 0.34309360993268267 0.1955753561275976 0 0.3305985420661825 0.19779268684397369 0 0.34309360993268267 0.1955753561275976 0 0.33544713285049832 0.18390586886128399 0 0.34309360993268267 0.1955753561275976 0 0.35046455756748729 0.18899638457130219 0 0.33544713285049832 0.18390586886128399 0 0.34309360993268267 0.1955753561275976 0 0.35046455756748729 0.18899638457130219 0 0.35437289213427953 0.2003989017158051 0 0.34265909051931193 0.21066944369667059 0 0.34309360993268267 0.1955753561275976 0 0.35437289213427953 0.2003989017158051 0 0.35046455756748729 0.18899638457130219 0 0.35437289213427953 0.2003989017158051 0 0.36208197534341813 0.18857110551665221 0 0.36208197534341813 0.18857110551665221 0 0.369700766434501 0.20253066580226561 0 0.3667516162044353 0.2126407657513098 0 0.36208197534341813 0.18857110551665221 0 0.36102030547876318 0.18309872901401991 0 0.37547673584204461 0.1959013335407811 0 0.35437289213427953 0.2003989017158051 0 0.36208197534341813 0.18857110551665221 0 0.3667516162044353 0.2126407657513098 0 0.36208197534341813 0.18857110551665221 0 0.3667516162044353 0.2126407657513098 0 0.36208197534341813 0.18857110551665221 0 0.37426936207808259 0.19931747855270041 0 0.37547673584204461 0.1959013335407811 0 0.36208197534341813 0.18857110551665221 0 0.37426936207808259 0.19931747855270041 0 0.36102030547876318 0.18309872901401991 0 0.37547673584204461 0.1959013335407811 0 0.36102030547876318 0.18309872901401991 0 0.37148294183704822 0.18564397676379221 0 0.37547673584204461 0.1959013335407811 0 0.37148294183704822 0.18564397676379221 0 0.37547673584204461 0.1959013335407811 0 0.37781849588795668 0.18847738298280839 0 0.36208197534341813 0.18857110551665221 0 0.369700766434501 0.20253066580226561 0 0.37426936207808259 0.19931747855270041 0 0.369700766434501 0.20253066580226561 0 0.37426936207808259 0.19931747855270041 0 0.37570011211206722 0.20959331338840079 0 0.369700766434501 0.20253066580226561 0 0.3667516162044353 0.2126407657513098 0 0.37570011211206722 0.20959331338840079 0 0.3667516162044353 0.2126407657513098 0 0.37819677812192709 0.22118367872650849 0 0.37570011211206722 0.20959331338840079 0 0.3667516162044353 0.2126407657513098 0 0.35673524365756609 0.21099788966493929 0 0.35977404840256733 0.22382635565098261 0 0.34265909051931193 0.21066944369667059 0 0.35673524365756609 0.21099788966493929 0 0.35004450750934318 0.23272241701770049 0 0.35437289213427953 0.2003989017158051 0 0.3667516162044353 0.2126407657513098 0 0.35673524365756609 0.21099788966493929 0 0.34265909051931193 0.21066944369667059 0 0.35437289213427953 0.2003989017158051 0 0.35673524365756609 0.21099788966493929 0 0.35673524365756609 0.21099788966493929 0 0.35004450750934318 0.23272241701770049 0 0.35977404840256733 0.22382635565098261 0 0.35673524365756609 0.21099788966493929 0 0.35004450750934318 0.23272241701770049 0 0.3667516162044353 0.2126407657513098 0 0.37142125706545392 0.236710425985967 0 0.3667516162044353 0.2126407657513098 0 0.35977404840256733 0.22382635565098261 0 0.37142125706545392 0.236710425985967 0 0.3667516162044353 0.2126407657513098 0 0.37142125706545392 0.236710425985967 0 0.37819677812192709 0.22118367872650849 0 0.35004450750934318 0.23272241701770049 0 0.35977404840256733 0.22382635565098261 0 0.37142125706545392 0.236710425985967 0 0.37609089792647238 0.26078008622062432 0 0.37142125706545392 0.236710425985967 0 0.36071123265651628 0.25122403705458429 0 0.35004450750934318 0.23272241701770049 0 0.37142125706545392 0.236710425985967 0 0.36071123265651628 0.25122403705458429 0 0.37609089792647238 0.26078008622062432 0 0.37142125706545392 0.236710425985967 0 0.34335377136112027 0.25444694437046178 0 0.36071123265651628 0.25122403705458429 0 0.35004450750934318 0.23272241701770049 0 0.34335377136112027 0.25444694437046178 0 0.35004450750934318 0.23272241701770049 0 0.33369097504921208 0.1441564340614315 0 0.32798121707364641 0.15383933564055441 0 0.3442368701061434 0.14956264677555911 0 0.33369097504921208 0.1441564340614315 0 0.33013278626852982 0.1358437058824209 0 0.32503292581733101 0.1427619775198429 0 0.33369097504921208 0.1441564340614315 0 0.32503292581733101 0.1427619775198429 0 0.32798121707364641 0.15383933564055441 0 0.33369097504921208 0.1441564340614315 0 0.34088865185293682 0.13812373877169659 0 0.3442368701061434 0.14956264677555911 0 0.34177213711973492 0.1239033688347121 0 0.34088865185293682 0.13812373877169659 0 0.33013278626852982 0.1358437058824209 0 0.32938656094391161 0.1226708529835661 0 0.34177213711973492 0.1239033688347121 0 0.33013278626852982 0.1358437058824209 0 0.33369097504921208 0.1441564340614315 0 0.34088865185293682 0.13812373877169659 0 0.33013278626852982 0.1358437058824209 0 0.33013278626852982 0.1358437058824209 0 0.32033552483568001 0.13673345954453439 0 0.32503292581733101 0.1427619775198429 0 0.33013278626852982 0.1358437058824209 0 0.32033552483568001 0.13673345954453439 0 0.31943431350538898 0.12919346266839421 0 0.32938656094391161 0.1226708529835661 0 0.33013278626852982 0.1358437058824209 0 0.31943431350538898 0.12919346266839421 0 0.31003257905962828 0.1294590886004259 0 0.32033552483568001 0.13673345954453439 0 0.31943431350538898 0.12919346266839421 0 0.32033552483568001 0.13673345954453439 0 0.3137230205228429 0.14121228683821671 0 0.32503292581733101 0.1427619775198429 0 0.31003257905962828 0.1294590886004259 0 0.32033552483568001 0.13673345954453439 0 0.3137230205228429 0.14121228683821671 0 0.31583730697562429 0.14779431980957181 0 0.32798121707364641 0.15383933564055441 0 0.33447666387294922 0.16422979418415479 0 0.3137230205228429 0.14121228683821671 0 0.31583730697562429 0.14779431980957181 0 0.32798121707364641 0.15383933564055441 0 0.31583730697562429 0.14779431980957181 0 0.33447666387294922 0.16422979418415479 0 0.3137230205228429 0.14121228683821671 0 0.32503292581733101 0.1427619775198429 0 0.32798121707364641 0.15383933564055441 0 0.3137230205228429 0.14121228683821671 0 0.32798121707364641 0.15383933564055441 0 0.30845093649991878 0.1586716132615959 0 0.31583730697562429 0.14779431980957181 0 0.32091056616840818 0.1603211531811192 0 0.31583730697562429 0.14779431980957181 0 0.32091056616840818 0.1603211531811192 0 0.33447666387294922 0.16422979418415479 0 0.30996378154891152 0.17349342710160731 0 0.30845093649991878 0.1586716132615959 0 0.32091056616840818 0.1603211531811192 0 0.30996378154891152 0.17349342710160731 0 0.32091056616840818 0.1603211531811192 0 0.32447551964404681 0.1734448280101421 0 0.32091056616840818 0.1603211531811192 0 0.32447551964404681 0.1734448280101421 0 0.33447666387294922 0.16422979418415479 0 0.32091056616840818 0.1603211531811192 0 0.33447666387294922 0.16422979418415479 0 0.30996378154891152 0.17349342710160731 0 0.30770374504892389 0.19073030749269679 0 0.31987766656714778 0.18721845007684379 0 0.30996378154891152 0.17349342710160731 0 0.31987766656714778 0.18721845007684379 0 0.32447551964404681 0.1734448280101421 0 0.31987766656714778 0.18721845007684379 0 0.32447551964404681 0.1734448280101421 0 0.33544713285049832 0.18390586886128399 0 0.32447551964404681 0.1734448280101421 0 0.33544713285049832 0.18390586886128399 0 0.33566965899391948 0.1744952352264961 0 0.33544713285049832 0.18390586886128399 0 0.33566965899391948 0.1744952352264961 0 0.34827931960818392 0.17640044985040321 0 0.32798121707364641 0.15383933564055441 0 0.34223941362445082 0.166466384442891 0 0.3442368701061434 0.14956264677555911 0 0.32798121707364641 0.15383933564055441 0 0.33447666387294922 0.16422979418415479 0 0.34223941362445082 0.166466384442891 0 0.32798121707364641 0.15383933564055441 0 0.34223941362445082 0.166466384442891 0 0.32447551964404681 0.1734448280101421 0 0.33566965899391948 0.1744952352264961 0 0.33447666387294922 0.16422979418415479 0 0.33447666387294922 0.16422979418415479 0 0.34223941362445082 0.166466384442891 0 0.34827931960818392 0.17640044985040321 0 0.33447666387294922 0.16422979418415479 0 0.34223941362445082 0.166466384442891 0 0.33566965899391948 0.1744952352264961 0 0.33447666387294922 0.16422979418415479 0 0.34827931960818392 0.17640044985040321 0 0.33447666387294922 0.16422979418415479 0 0.34827931960818392 0.17640044985040321 0 0.34223941362445082 0.166466384442891 0 0.3493425132671733 0.15860399645644649 0 0.3442368701061434 0.14956264677555911 0 0.34223941362445082 0.166466384442891 0 0.37077226813283121 0.17468722196698969 0 0.34223941362445082 0.166466384442891 0 0.37077226813283121 0.17468722196698969 0 0.35951743094860961 0.1615990032669927 0 0.34223941362445082 0.166466384442891 0 0.3493425132671733 0.15860399645644649 0 0.35951743094860961 0.1615990032669927 0 0.34223941362445082 0.166466384442891 0 0.34827931960818392 0.17640044985040321 0 0.36102030547876318 0.18309872901401991 0 0.34223941362445082 0.166466384442891 0 0.36102030547876318 0.18309872901401991 0 0.36005949140092908 0.17814621358714541 0 0.34223941362445082 0.166466384442891 0 0.36005949140092908 0.17814621358714541 0 0.37077226813283121 0.17468722196698969 0 0.34223941362445082 0.166466384442891 0 0.36102030547876318 0.18309872901401991 0 0.35046455756748729 0.18899638457130219 0 0.33544713285049832 0.18390586886128399 0 0.34827931960818392 0.17640044985040321 0 0.36208197534341813 0.18857110551665221 0 0.34827931960818392 0.17640044985040321 0 0.35046455756748729 0.18899638457130219 0 0.36208197534341813 0.18857110551665221 0 0.34827931960818392 0.17640044985040321 0 0.36208197534341813 0.18857110551665221 0 0.34827931960818392 0.17640044985040321 0 0.36102030547876318 0.18309872901401991 0 0.36208197534341813 0.18857110551665221 0 0.36102030547876318 0.18309872901401991 0 0.36102030547876318 0.18309872901401991 0 0.36005949140092908 0.17814621358714541 0 0.36102030547876318 0.18309872901401991 0 0.36005949140092908 0.17814621358714541 0 0.37077226813283121 0.17468722196698969 0 0.37077226813283121 0.17468722196698969 0 0.37148294183704822 0.18564397676379221 0 0.37781849588795668 0.18847738298280839 0 0.36102030547876318 0.18309872901401991 0 0.37077226813283121 0.17468722196698969 0 0.37148294183704822 0.18564397676379221 0 0.35951743094860961 0.1615990032669927 0 0.37337374737634021 0.15944089567757361 0 0.36257476661162408 0.14838688810035561 0 0.37077226813283121 0.17468722196698969 0 0.35951743094860961 0.1615990032669927 0 0.37337374737634021 0.15944089567757361 0 0.37337374737634021 0.15944089567757361 0 0.36257476661162408 0.14838688810035561 0 0.3806232811993201 0.14273131679826359 0 0.36257476661162408 0.14838688810035561 0 0.3442368701061434 0.14956264677555911 0 0.35373485490919099 0.13402886286235849 0 0.3493425132671733 0.15860399645644649 0 0.35951743094860961 0.1615990032669927 0 0.36257476661162408 0.14838688810035561 0 0.3493425132671733 0.15860399645644649 0 0.36257476661162408 0.14838688810035561 0 0.3442368701061434 0.14956264677555911 0 0.34177213711973492 0.1239033688347121 0 0.34088865185293682 0.13812373877169659 0 0.35373485490919099 0.13402886286235849 0 0.34088865185293682 0.13812373877169659 0 0.3442368701061434 0.14956264677555911 0 0.35373485490919099 0.13402886286235849 0 0.37473189579381488 0.12398013122460259 0 0.36257476661162408 0.14838688810035561 0 0.3806232811993201 0.14273131679826359 0 0.37473189579381488 0.12398013122460259 0 0.36257476661162408 0.14838688810035561 0 0.35373485490919099 0.13402886286235849 0 0.37473189579381488 0.12398013122460259 0 0.39772188596686242 0.13063362730324399 0 0.3806232811993201 0.14273131679826359 0 0.39772188596686242 0.13063362730324399 0 0.39471411024795888 0.15121504168554251 0 0.3806232811993201 0.14273131679826359 0 0.39772188596686242 0.13063362730324399 0 0.39471411024795888 0.15121504168554251 0 0.41955624351442761 0.14043513171381189 0 0.37337374737634021 0.15944089567757361 0 0.39471411024795888 0.15121504168554251 0 0.3806232811993201 0.14273131679826359 0 0.37077226813283121 0.17468722196698969 0 0.37337374737634021 0.15944089567757361 0 0.38982444308882602 0.16624639549551221 0 0.37337374737634021 0.15944089567757361 0 0.39471411024795888 0.15121504168554251 0 0.38982444308882602 0.16624639549551221 0 0.37077226813283121 0.17468722196698969 0 0.38982444308882602 0.16624639549551221 0 0.39930512264121121 0.18290805949108979 0 0.37077226813283121 0.17468722196698969 0 0.38616943138921261 0.18716458958134921 0 0.39930512264121121 0.18290805949108979 0 0.37077226813283121 0.17468722196698969 0 0.39930512264121121 0.18290805949108979 0 0.37077226813283121 0.17468722196698969 0 0.38616943138921261 0.18716458958134921 0 0.37781849588795668 0.18847738298280839 0 0.39471411024795888 0.15121504168554251 0 0.38982444308882602 0.16624639549551221 0 0.41095696704578832 0.16298075865636519 0 0.38982444308882602 0.16624639549551221 0 0.39930512264121121 0.18290805949108979 0 0.41095696704578832 0.16298075865636519 0 0.39930512264121121 0.18290805949108979 0 0.41095696704578832 0.16298075865636519 0 0.43006212145722361 0.17851101439131231 0 0.39930512264121121 0.18290805949108979 0 0.43006212145722361 0.17851101439131231 0 0.4177342685414589 0.1956390580400453 0 0.41095696704578832 0.16298075865636519 0 0.43006212145722361 0.17851101439131231 0 0.43596792457111577 0.15571333986222821 0 0.41095696704578832 0.16298075865636519 0 0.43596792457111577 0.15571333986222821 0 0.41955624351442761 0.14043513171381189 0 0.43596792457111577 0.15571333986222821 0 0.41955624351442761 0.14043513171381189 0 0.43596792457111577 0.15571333986222821 0 0.43666622851025272 0.14091883941574801 0 0.41955624351442761 0.14043513171381189 0 0.43666622851025272 0.14091883941574801 0 0.41955624351442761 0.14043513171381189 0 0.44118565318325931 0.1235516629137704 0 0.39772188596686242 0.13063362730324399 0 0.41955624351442761 0.14043513171381189 0 0.41862300558446058 0.1099093910465332 0 0.39471411024795888 0.15121504168554251 0 0.41095696704578832 0.16298075865636519 0 0.41955624351442761 0.14043513171381189 0 0.39570516225810071 0.25413470773057523 0 0.41115766623781769 0.25020831820798722 0 0.39522200847279121 0.232574923741378 0 0.39570516225810071 0.25413470773057523 0 0.37142125706545392 0.236710425985967 0 0.39522200847279121 0.232574923741378 0 0.37819677812192709 0.22118367872650849 0 0.39522200847279121 0.232574923741378 0 0.3864567488127465 0.21006385158874941 0 0.37142125706545392 0.236710425985967 0 0.37819677812192709 0.22118367872650849 0 0.39522200847279121 0.232574923741378 0 0.3864567488127465 0.21006385158874941 0 0.39777501653315528 0.1985803211444109 0 0.41008916711295568 0.21236365895190551 0 0.39522200847279121 0.232574923741378 0 0.3864567488127465 0.21006385158874941 0 0.41008916711295568 0.21236365895190551 0 0.37819677812192709 0.22118367872650849 0 0.37570011211206722 0.20959331338840079 0 0.3864567488127465 0.21006385158874941 0 0.37426936207808259 0.19931747855270041 0 0.3864567488127465 0.21006385158874941 0 0.37426936207808259 0.19931747855270041 0 0.37570011211206722 0.20959331338840079 0 0.3864567488127465 0.21006385158874941 0 0.3864567488127465 0.21006385158874941 0 0.38350317822545382 0.19816731395998979 0 0.39777501653315528 0.1985803211444109 0 0.37426936207808259 0.19931747855270041 0 0.3864567488127465 0.21006385158874941 0 0.38350317822545382 0.19816731395998979 0 0.37426936207808259 0.19931747855270041 0 0.38350317822545382 0.19816731395998979 0 0.37547673584204461 0.1959013335407811 0 0.38616943138921261 0.18716458958134921 0 0.38350317822545382 0.19816731395998979 0 0.37781849588795668 0.18847738298280839 0 0.38350317822545382 0.19816731395998979 0 0.37547673584204461 0.1959013335407811 0 0.37781849588795668 0.18847738298280839 0 0.38616943138921261 0.18716458958134921 0 0.38350317822545382 0.19816731395998979 0 0.39777501653315528 0.1985803211444109 0 0.38616943138921261 0.18716458958134921 0 0.39930512264121121 0.18290805949108979 0 0.39777501653315528 0.1985803211444109 0 0.39930512264121121 0.18290805949108979 0 0.39777501653315528 0.1985803211444109 0 0.4177342685414589 0.1956390580400453 0 0.39777501653315528 0.1985803211444109 0 0.4177342685414589 0.1956390580400453 0 0.41008916711295568 0.21236365895190551 0 0.43006212145722361 0.17851101439131231 0 0.4177342685414589 0.1956390580400453 0 0.44112432877832958 0.20156549073816149 0 0.4177342685414589 0.1956390580400453 0 0.42899791743899418 0.21703098519076541 0 0.44112432877832958 0.20156549073816149 0 0.4177342685414589 0.1956390580400453 0 0.42899791743899418 0.21703098519076541 0 0.41008916711295568 0.21236365895190551 0 0.42899791743899418 0.21703098519076541 0 0.41008916711295568 0.21236365895190551 0 0.41918702618428849 0.2356173031484341 0 0.39522200847279121 0.232574923741378 0 0.41008916711295568 0.21236365895190551 0 0.41918702618428849 0.2356173031484341 0 0.41008916711295568 0.21236365895190551 0 0.41918702618428849 0.2356173031484341 0 0.42899791743899418 0.21703098519076541 0 0.43637072360643342 0.23423561081884359 0 0.41918702618428849 0.2356173031484341 0 0.42828488525562142 0.25887094734496269 0 0.41918702618428849 0.2356173031484341 0 0.42828488525562142 0.25887094734496269 0 0.43637072360643342 0.23423561081884359 0 0.41918702618428849 0.2356173031484341 0 0.41115766623781769 0.25020831820798722 0 0.39522200847279121 0.232574923741378 0 0.41918702618428849 0.2356173031484341 0 0.41115766623781769 0.25020831820798722 0 0.42828488525562142 0.25887094734496269 0 0.41918702618428849 0.2356173031484341 0 0.44927356463825457 0.24691661679775681 0 0.47026224402088518 0.23496228625054649 0 0.46335158447895869 0.2472314570336511 0 0.44927356463825457 0.24691661679775681 0 0.47026224402088518 0.23496228625054649 0 0.47099024758803237 0.25906110592596743 0 0.46335158447895869 0.2472314570336511 0 0.47026224402088518 0.23496228625054649 0 0.44927356463825457 0.24691661679775681 0 0.44957259273400091 0.22440137026403861 0 0.47026224402088518 0.23496228625054649 0 0.42828488525562142 0.25887094734496269 0 0.43637072360643342 0.23423561081884359 0 0.44927356463825457 0.24691661679775681 0 0.43637072360643342 0.23423561081884359 0 0.44927356463825457 0.24691661679775681 0 0.44957259273400091 0.22440137026403861 0 0.42899791743899418 0.21703098519076541 0 0.43637072360643342 0.23423561081884359 0 0.44957259273400091 0.22440137026403861 0 0.44957259273400091 0.22440137026403861 0 0.46146135179420072 0.2204752005445548 0 0.47026224402088518 0.23496228625054649 0 0.46146135179420072 0.2204752005445548 0 0.46952676535268367 0.21061602120480599 0 0.47026224402088518 0.23496228625054649 0 0.46146135179420072 0.2204752005445548 0 0.45569477534313751 0.2111749327268721 0 0.46952676535268367 0.21061602120480599 0 0.45569477534313751 0.2111749327268721 0 0.45678883805647269 0.19881658088279949 0 0.46952676535268367 0.21061602120480599 0 0.44957259273400091 0.22440137026403861 0 0.46146135179420072 0.2204752005445548 0 0.45569477534313751 0.2111749327268721 0 0.44957259273400091 0.22440137026403861 0 0.45569477534313751 0.2111749327268721 0 0.44112432877832958 0.20156549073816149 0 0.45569477534313751 0.2111749327268721 0 0.44112432877832958 0.20156549073816149 0 0.45678883805647269 0.19881658088279949 0 0.42899791743899418 0.21703098519076541 0 0.44957259273400091 0.22440137026403861 0 0.44112432877832958 0.20156549073816149 0 0.43006212145722361 0.17851101439131231 0 0.44112432877832958 0.20156549073816149 0 0.4498292361208629 0.18723087803639671 0 0.44112432877832958 0.20156549073816149 0 0.45678883805647269 0.19881658088279949 0 0.4498292361208629 0.18723087803639671 0 0.45678883805647269 0.19881658088279949 0 0.4498292361208629 0.18723087803639671 0 0.46879128668448838 0.1862697561590653 0 0.45678883805647269 0.19881658088279949 0 0.46952676535268367 0.21061602120480599 0 0.46879128668448838 0.1862697561590653 0 0.46952676535268367 0.21061602120480599 0 0.46879128668448838 0.1862697561590653 0 0.48439564334224822 0.20079639777583549 0 0.46952676535268367 0.21061602120480599 0 0.46879128668448838 0.1862697561590653 0 0.48439564334224822 0.20079639777583549 0 0.46879128668448838 0.1862697561590653 0 0.48439564334224822 0.20079639777583549 0 0.50000000000000266 0.21532303939261141 0 0.5 0.186733988033845 0 0.50000000000000266 0.21532303939261141 0 0.48340546380853788 0.21546410991826179 0 0.48844815655334939 0.2238712923085443 0 0.48439564334224822 0.20079639777583549 0 0.50000000000000266 0.21532303939261141 0 0.48340546380853788 0.21546410991826179 0 0.48439564334224822 0.20079639777583549 0 0.50000000000000266 0.21532303939261141 0 0.48340546380853788 0.21546410991826179 0 0.46952676535268367 0.21061602120480599 0 0.47957582713756719 0.2296576337221112 0 0.48439564334224822 0.20079639777583549 0 0.48340546380853788 0.21546410991826179 0 0.46952676535268367 0.21061602120480599 0 0.46952676535268367 0.21061602120480599 0 0.47026224402088518 0.23496228625054649 0 0.46952676535268367 0.21061602120480599 0 0.47957582713756719 0.2296576337221112 0 0.47026224402088518 0.23496228625054649 0 0.47957582713756719 0.2296576337221112 0 0.47026224402088518 0.23496228625054649 0 0.48340546380853788 0.21546410991826179 0 0.47957582713756719 0.2296576337221112 0 0.48844815655334939 0.2238712923085443 0 0.50000000000000266 0.21532303939261141 0 0.48844815655334939 0.2238712923085443 0 0.49081133526728871 0.23504038620119419 0 0.50000000000000266 0.21532303939261141 0 0.49081133526728871 0.23504038620119419 0 0.5 0.2434534182119453 0 0.47957582713756719 0.2296576337221112 0 0.48844815655334939 0.2238712923085443 0 0.49081133526728871 0.23504038620119419 0 0.49081133526728871 0.23504038620119419 0 0.48820014283709212 0.24626045252303669 0 0.48180351413763378 0.2400913862682009 0 0.48941679443200781 0.25987618408844021 0 0.5 0.2434534182119453 0 0.48820014283709212 0.24626045252303669 0 0.49081133526728871 0.23504038620119419 0 0.5 0.2434534182119453 0 0.48820014283709212 0.24626045252303669 0 0.47896907034853009 0.25284088784540287 0 0.48180351413763378 0.2400913862682009 0 0.47026224402088518 0.23496228625054649 0 0.47896907034853009 0.25284088784540287 0 0.48820014283709212 0.24626045252303669 0 0.48180351413763378 0.2400913862682009 0 0.47896907034853009 0.25284088784540287 0 0.47099024758803237 0.25906110592596743 0 0.47026224402088518 0.23496228625054649 0 0.47099024758803237 0.25906110592596743 0 0.47026224402088518 0.23496228625054649 0 0.47957582713756719 0.2296576337221112 0 0.48180351413763378 0.2400913862682009 0 0.47026224402088518 0.23496228625054649 0 0.47957582713756719 0.2296576337221112 0 0.49081133526728871 0.23504038620119419 0 0.48180351413763378 0.2400913862682009 0 0.46716348900220378 0.1323854009395497 0 0.45100721138566169 0.14669998740957479 0 0.46797738784334397 0.1593275785493076 0 0.46716348900220378 0.1323854009395497 0 0.46797738784334397 0.1593275785493076 0 0.46716348900220378 0.1323854009395497 0 0.45100721138566169 0.14669998740957479 0 0.44118565318325931 0.1235516629137704 0 0.43666622851025272 0.14091883941574801 0 0.45100721138566169 0.14669998740957479 0 0.44118565318325931 0.1235516629137704 0 0.43596792457111577 0.15571333986222821 0 0.43666622851025272 0.14091883941574801 0 0.45100721138566169 0.14669998740957479 0 0.43596792457111577 0.15571333986222821 0 0.45100721138566169 0.14669998740957479 0 0.4523796056278041 0.17099154801064459 0 0.43006212145722361 0.17851101439131231 0 0.43596792457111577 0.15571333986222821 0 0.4523796056278041 0.17099154801064459 0 0.43596792457111577 0.15571333986222821 0 0.4523796056278041 0.17099154801064459 0 0.43006212145722361 0.17851101439131231 0 0.4523796056278041 0.17099154801064459 0 0.4498292361208629 0.18723087803639671 0 0.4523796056278041 0.17099154801064459 0 0.4498292361208629 0.18723087803639671 0 0.46879128668448838 0.1862697561590653 0 0.4523796056278041 0.17099154801064459 0 0.46797738784334397 0.1593275785493076 0 0.46879128668448838 0.1862697561590653 0 0.46797738784334397 0.1593275785493076 0 0.46879128668448838 0.1862697561590653 0 0.4523796056278041 0.17099154801064459 0 0.46879128668448838 0.1862697561590653 0 0.45100721138566169 0.14669998740957479 0 0.4523796056278041 0.17099154801064459 0 0.46797738784334397 0.1593275785493076 0 0.46797738784334397 0.1593275785493076 0 0.48447599791702872 0.1725267219331981 0 0.48368645679563937 0.1450631972439769 0 0.48439564334224822 0.20079639777583549 0 0.46879128668448838 0.1862697561590653 0 0.48447599791702872 0.1725267219331981 0 0.46797738784334397 0.1593275785493076 0 0.46879128668448838 0.1862697561590653 0 0.48447599791702872 0.1725267219331981 0 0.48439564334224822 0.20079639777583549 0 0.5 0.186733988033845 0 0.48447599791702872 0.1725267219331981 0 0.5 0.186733988033845 0 0.48447599791702872 0.1725267219331981 0 0.5 0.15814493667507859 0 0.48447599791702872 0.1725267219331981 0 0.5 0.15814493667507859 0 0.48368645679563937 0.1450631972439769 0 0.5 0.15814493667507859 0 0.48368645679563937 0.1450631972439769 0 0.5 0.12955588531631201 0 0.46716348900220378 0.1323854009395497 0 0.46797738784334397 0.1593275785493076 0 0.48368645679563937 0.1450631972439769 0 0.46716348900220378 0.1323854009395497 0 0.48368645679563937 0.1450631972439769 0 0.48313617825896349 0.1174855251604167 0 0.48368645679563937 0.1450631972439769 0 0.5 0.12955588531631201 0 0.48313617825896349 0.1174855251604167 0 0.5 0.12955588531631201 0 0.5 0.1009668339575457 0 0.48313617825896349 0.1174855251604167 0 0.5 0.1009668339575457 0 0.48313617825896349 0.1174855251604167 0 0.48206762286298183 0.090234662176474204 0 0.48313617825896349 0.1174855251604167 0 0.48206762286298183 0.090234662176474204 0 0.46634959016106359 0.10544322332979179 0 0.46716348900220378 0.1323854009395497 0 0.48313617825896349 0.1174855251604167 0 0.46634959016106359 0.10544322332979179 0 0.49999999999999672 0.07237778259877925 0 0.47738427743794037 0.066633562292277737 0 0.4819539468188207 0.048497236549648957 0 0.49999999999999672 0.07237778259877925 0 0.48206762286298183 0.090234662176474204 0 0.47738427743794037 0.066633562292277737 0 0.5 0.1009668339575457 0 0.49999999999999672 0.07237778259877925 0 0.48206762286298183 0.090234662176474204 0 0.48206762286298183 0.090234662176474204 0 0.47738427743794037 0.066633562292277737 0 0.46553569131992339 0.07850104572003401 0 0.48206762286298183 0.090234662176474204 0 0.46553569131992339 0.07850104572003401 0 0.46634959016106359 0.10544322332979179 0 0.47738427743794037 0.066633562292277737 0 0.46553569131992339 0.07850104572003401 0 0.4647217924787832 0.05155886811027624 0 0.46553569131992339 0.07850104572003401 0 0.45072457067567562 0.064480774817399944 0 0.4647217924787832 0.05155886811027624 0 0.46553569131992339 0.07850104572003401 0 0.4647217924787832 0.05155886811027624 0 0.46553569131992339 0.07850104572003401 0 0.46634959016106359 0.10544322332979179 0 0.46553569131992339 0.07850104572003401 0 0.44131984746795139 0.079455845966629329 0 0.44289067602401949 0.097678188057127413 0 0.46553569131992339 0.07850104572003401 0 0.44131984746795139 0.079455845966629329 0 0.45072457067567562 0.064480774817399944 0 0.44131984746795139 0.079455845966629329 0 0.43931973392859008 0.066455470784407333 0 0.43320060707027053 0.07589204889813593 0 0.44131984746795139 0.079455845966629329 0 0.43931973392859008 0.066455470784407333 0 0.45072457067567562 0.064480774817399944 0 0.46716348900220378 0.1323854009395497 0 0.46634959016106359 0.10544322332979179 0 0.44118565318325931 0.1235516629137704 0 0.46716348900220378 0.1323854009395497 0 0.46634959016106359 0.10544322332979179 0 0.46553569131992339 0.07850104572003401 0 0.46634959016106359 0.10544322332979179 0 0.44289067602401949 0.097678188057127413 0 0.46634959016106359 0.10544322332979179 0 0.44289067602401949 0.097678188057127413 0 0.44118565318325931 0.1235516629137704 0 0.44289067602401949 0.097678188057127413 0 0.44118565318325931 0.1235516629137704 0 0.41862300558446058 0.1099093910465332 0 0.41955624351442761 0.14043513171381189 0 0.44118565318325931 0.1235516629137704 0 0.41862300558446058 0.1099093910465332 0 0.41862300558446058 0.1099093910465332 0 0.41034064960108252 0.087065081873690345 0 0.39253627269744867 0.1055226065491465 0 0.41862300558446058 0.1099093910465332 0 0.42612965810412468 0.084479438914941862 0 0.41034064960108252 0.087065081873690345 0 0.44289067602401949 0.097678188057127413 0 0.41862300558446058 0.1099093910465332 0 0.42612965810412468 0.084479438914941862 0 0.44131984746795139 0.079455845966629329 0 0.44289067602401949 0.097678188057127413 0 0.42612965810412468 0.084479438914941862 0 0.44131984746795139 0.079455845966629329 0 0.42612965810412468 0.084479438914941862 0 0.43320060707027053 0.07589204889813593 0 0.42612965810412468 0.084479438914941862 0 0.43320060707027053 0.07589204889813593 0 0.42814502650471631 0.06860755719823422 0 0.43931973392859008 0.066455470784407333 0 0.43320060707027053 0.07589204889813593 0 0.42814502650471631 0.06860755719823422 0 0.42633520636402528 0.068128372838953261 0 0.42022622170858581 0.063313937020372496 0 0.42351003927332692 0.056389343303801277 0 0.42814502650471631 0.06860755719823422 0 0.42633520636402528 0.068128372838953261 0 0.41338278973935699 0.073411457373366781 0 0.42814502650471631 0.06860755719823422 0 0.41034064960108252 0.087065081873690345 0 0.41338278973935699 0.073411457373366781 0 0.39612275139902181 0.061697711169060657 0 0.41346470540708441 0.057731388670929702 0 0.42022622170858581 0.063313937020372496 0 0.41338278973935699 0.073411457373366781 0 0.41346470540708441 0.057731388670929702 0 0.42814502650471631 0.06860755719823422 0 0.41338278973935699 0.073411457373366781 0 0.41034064960108252 0.087065081873690345 0 0.42633520636402528 0.068128372838953261 0 0.42022622170858581 0.063313937020372496 0 0.41338278973935699 0.073411457373366781 0 0.42612965810412468 0.084479438914941862 0 0.42814502650471631 0.06860755719823422 0 0.41034064960108252 0.087065081873690345 0 0.41338278973935699 0.073411457373366781 0 0.41034064960108252 0.087065081873690345 0 0.39409661936741769 0.083791126472402624 0 0.41034064960108252 0.087065081873690345 0 0.39409661936741769 0.083791126472402624 0 0.39253627269744867 0.1055226065491465 0 0.41338278973935699 0.073411457373366781 0 0.39409661936741769 0.083791126472402624 0 0.39612275139902181 0.061697711169060657 0 0.39409661936741769 0.083791126472402624 0 0.37711984197598281 0.075370889559536594 0 0.39612275139902181 0.061697711169060657 0 0.39409661936741769 0.083791126472402624 0 0.37711984197598281 0.075370889559536594 0 0.37507741079161361 0.099679012309614914 0 0.39409661936741769 0.083791126472402624 0 0.37507741079161361 0.099679012309614914 0 0.39253627269744867 0.1055226065491465 0 0.37473189579381488 0.12398013122460259 0 0.39253627269744867 0.1055226065491465 0 0.37473189579381488 0.12398013122460259 0 0.37507741079161361 0.099679012309614914 0 0.39253627269744867 0.1055226065491465 0 0.37473189579381488 0.12398013122460259 0 0.39772188596686242 0.13063362730324399 0 0.39253627269744867 0.1055226065491465 0 0.39772188596686242 0.13063362730324399 0 0.41862300558446058 0.1099093910465332 0 0.39253627269744867 0.1055226065491465 0 0.41034064960108252 0.087065081873690345 0 0.39253627269744867 0.1055226065491465 0 0.39104565734127061 0.01031574085175003 0 0.39075685590571763 0.037802005209764358 0 0.4129582304862634 0.025464296633246029 0 0.36663536484893611 0.020540273504914251 0 0.39104565734127061 0.01031574085175003 0 0.36843064509257062 -0.0098917636647739664 0 0.36663536484893611 0.020540273504914251 0 0.39104565734127061 0.01031574085175003 0 0.39075685590571763 0.037802005209764358 0 0.36855548132517169 0.050139713786282687 0 0.39075685590571763 0.037802005209764358 0 0.36855548132517169 0.050139713786282687 0 0.36663536484893611 0.020540273504914251 0 0.39075685590571763 0.037802005209764358 0 0.36855548132517169 0.050139713786282687 0 0.37711984197598281 0.075370889559536594 0 0.39612275139902181 0.061697711169060657 0 0.36855548132517169 0.050139713786282687 0 0.39612275139902181 0.061697711169060657 0 0.39075685590571763 0.037802005209764358 0 0.39612275139902181 0.061697711169060657 0 0.39075685590571763 0.037802005209764358 0 0.40510565198828108 0.046318365171313283 0 0.39612275139902181 0.061697711169060657 0 0.40510565198828108 0.046318365171313283 0 0.41346470540708441 0.057731388670929702 0 0.39075685590571763 0.037802005209764358 0 0.40510565198828108 0.046318365171313283 0 0.4129582304862634 0.025464296633246029 0 0.39075685590571763 0.037802005209764358 0 0.4129582304862634 0.025464296633246029 0 0.41965139937639512 0.045275698335492318 0 0.42886449440709667 0.035858632667470899 0 0.4129582304862634 0.025464296633246029 0 0.40510565198828108 0.046318365171313283 0 0.41965139937639512 0.045275698335492318 0 0.4129582304862634 0.025464296633246029 0 0.40510565198828108 0.046318365171313283 0 0.41965139937639512 0.045275698335492318 0 0.41346470540708441 0.057731388670929702 0 0.41965139937639512 0.045275698335492318 0 0.41346470540708441 0.057731388670929702 0 0.42351003927332692 0.056389343303801277 0 0.42022622170858581 0.063313937020372496 0 0.41346470540708441 0.057731388670929702 0 0.42351003927332692 0.056389343303801277 0 0.42814502650471631 0.06860755719823422 0 0.42633520636402528 0.068128372838953261 0 0.44320861792433658 0.043841127041637229 0 0.42633520636402528 0.068128372838953261 0 0.44320861792433658 0.043841127041637229 0 0.42633520636402528 0.068128372838953261 0 0.42351003927332692 0.056389343303801277 0 0.43016362505538991 0.048695150044748281 0 0.42633520636402528 0.068128372838953261 0 0.43016362505538991 0.048695150044748281 0 0.44320861792433658 0.043841127041637229 0 0.43931973392859008 0.066455470784407333 0 0.42814502650471631 0.06860755719823422 0 0.44320861792433658 0.043841127041637229 0 0.41965139937639512 0.045275698335492318 0 0.42351003927332692 0.056389343303801277 0 0.43016362505538991 0.048695150044748281 0 0.41965139937639512 0.045275698335492318 0 0.43016362505538991 0.048695150044748281 0 0.42886449440709667 0.035858632667470899 0 0.43016362505538991 0.048695150044748281 0 0.42886449440709667 0.035858632667470899 0 0.44320861792433658 0.043841127041637229 0 0.43105655504148638 0.024091993030329991 0 0.4129582304862634 0.025464296633246029 0 0.4293185222061775 0.0124110321019072 0 0.42886449440709667 0.035858632667470899 0 0.43105655504148638 0.024091993030329991 0 0.4129582304862634 0.025464296633246029 0 0.42886449440709667 0.035858632667470899 0 0.43105655504148638 0.024091993030329991 0 0.44320343317628519 0.027108390771333511 0 0.43105655504148638 0.024091993030329991 0 0.4293185222061775 0.0124110321019072 0 0.43878365964322441 0.0186186578102456 0 0.4129582304862634 0.025464296633246029 0 0.4293185222061775 0.0124110321019072 0 0.41631284971756349 -0.00079219708431698896 0 0.39104565734127061 0.01031574085175003 0 0.4129582304862634 0.025464296633246029 0 0.41631284971756349 -0.00079219708431698896 0 0.4293185222061775 0.0124110321019072 0 0.41631284971756349 -0.00079219708431698896 0 0.43149764510862559 -0.0019106439098489629 0 0.4293185222061775 0.0124110321019072 0 0.44155963586465768 0.01197874315237887 0 0.43878365964322441 0.0186186578102456 0 0.4293185222061775 0.0124110321019072 0 0.44155963586465768 0.01197874315237887 0 0.43149764510862559 -0.0019106439098489629 0 0.45100200268700408 0.0075381792018016439 0 0.44155963586465768 0.01197874315237887 0 0.45170841481371099 -0.002949229063120578 0 0.45100200268700408 0.0075381792018016439 0 0.44155963586465768 0.01197874315237887 0 0.4487801519275153 0.017503129995278421 0 0.44155963586465768 0.01197874315237887 0 0.43878365964322441 0.0186186578102456 0 0.4487801519275153 0.017503129995278421 0 0.44320343317628519 0.027108390771333511 0 0.46008202948464633 0.019553881244320209 0 0.44320861792433658 0.043841127041637229 0 0.43105655504148638 0.024091993030329991 0 0.43878365964322441 0.0186186578102456 0 0.44320343317628519 0.027108390771333511 0 0.43878365964322441 0.0186186578102456 0 0.44320343317628519 0.027108390771333511 0 0.4487801519275153 0.017503129995278421 0 0.44320343317628519 0.027108390771333511 0 0.4487801519275153 0.017503129995278421 0 0.46008202948464633 0.019553881244320209 0 0.46008202948464633 0.019553881244320209 0 0.4639078936376454 0.024616690500518359 0 0.44320861792433658 0.043841127041637229 0 0.46008202948464633 0.019553881244320209 0 0.4639078936376454 0.024616690500518359 0 0.46360189853279149 0.01448745324657703 0 0.4639078936376454 0.024616690500518359 0 0.46360189853279149 0.01448745324657703 0 0.4639078936376454 0.024616690500518359 0 0.46360189853279149 0.01448745324657703 0 0.47443604117896238 0.01181858260413597 0 0.46008202948464633 0.019553881244320209 0 0.46360189853279149 0.01448745324657703 0 0.46008202948464633 0.019553881244320209 0 0.4639078936376454 0.024616690500518359 0 0.46360189853279149 0.01448745324657703 0 0.47315694413662363 0.00073411472606749184 0 0.46300814249555278 -0.0051674225236733248 0 0.46360189853279149 0.01448745324657703 0 0.45809332820024762 0.0030243134254838268 0 0.46300814249555278 -0.0051674225236733248 0 0.46360189853279149 0.01448745324657703 0 0.46300814249555278 -0.0051674225236733248 0 0.46360189853279149 0.01448745324657703 0 0.47315694413662363 0.00073411472606749184 0 0.45100200268700408 0.0075381792018016439 0 0.45809332820024762 0.0030243134254838268 0 0.45170841481371099 -0.002949229063120578 0 0.45100200268700408 0.0075381792018016439 0 0.45809332820024762 0.0030243134254838268 0 0.45804821882254532 0.01011710453354696 0 0.46360189853279149 0.01448745324657703 0 0.45809332820024762 0.0030243134254838268 0 0.45804821882254532 0.01011710453354696 0 0.46008202948464633 0.019553881244320209 0 0.46360189853279149 0.01448745324657703 0 0.45804821882254532 0.01011710453354696 0 0.45100200268700408 0.0075381792018016439 0 0.4487801519275153 0.017503129995278421 0 0.46008202948464633 0.019553881244320209 0 0.45100200268700408 0.0075381792018016439 0 0.46008202948464633 0.019553881244320209 0 0.45804821882254532 0.01011710453354696 0 0.45100200268700408 0.0075381792018016439 0 0.46008202948464633 0.019553881244320209 0 0.45072457067567562 0.064480774817399944 0 0.44320861792433658 0.043841127041637229 0 0.4647217924787832 0.05155886811027624 0 0.43931973392859008 0.066455470784407333 0 0.45072457067567562 0.064480774817399944 0 0.44320861792433658 0.043841127041637229 0 0.42886449440709667 0.035858632667470899 0 0.44320343317628519 0.027108390771333511 0 0.44320861792433658 0.043841127041637229 0 0.46008202948464633 0.019553881244320209 0 0.44320861792433658 0.043841127041637229 0 0.4639078936376454 0.024616690500518359 0 0.4647217924787832 0.05155886811027624 0 0.4639078936376454 0.024616690500518359 0 0.44320861792433658 0.043841127041637229 0 0.4647217924787832 0.05155886811027624 0 0.47738427743794037 0.066633562292277737 0 0.4647217924787832 0.05155886811027624 0 0.4819539468188207 0.048497236549648957 0 0.4639078936376454 0.024616690500518359 0 0.4819539468188207 0.048497236549648957 0 0.48546243978275511 0.033839763682579793 0 0.4639078936376454 0.024616690500518359 0 0.4819539468188207 0.048497236549648957 0 0.4639078936376454 0.024616690500518359 0 0.4647217924787832 0.05155886811027624 0 0.4819539468188207 0.048497236549648957 0 0.4819539468188207 0.048497236549648957 0 0.48546243978275511 0.033839763682579793 0 0.5 0.051120659923529647 0 0.48546243978275511 0.033839763682579793 0 0.5 0.051120659923529647 0 0.5 0.029863537248279951 0 0.49999999999999672 0.07237778259877925 0 0.4819539468188207 0.048497236549648957 0 0.5 0.051120659923529647 0 0.49999999999999672 0.07237778259877925 0 0.4819539468188207 0.048497236549648957 0 0.4830669216880577 0.0054320190302359324 0 0.47443604117896238 0.01181858260413597 0 0.4850296333842451 0.019020207042386911 0 0.4830669216880577 0.0054320190302359324 0 0.47315694413662363 0.00073411472606749184 0 0.47443604117896238 0.01181858260413597 0 0.46360189853279149 0.01448745324657703 0 0.47315694413662363 0.00073411472606749184 0 0.47443604117896238 0.01181858260413597 0 0.4639078936376454 0.024616690500518359 0 0.48546243978275511 0.033839763682579793 0 0.4850296333842451 0.019020207042386911 0 0.4639078936376454 0.024616690500518359 0 0.47443604117896238 0.01181858260413597 0 0.4850296333842451 0.019020207042386911 0 0.4850296333842451 0.019020207042386911 0 0.5 0.029863537248279951 0 0.49999999999999839 0.0086064145730303538 0 0.48546243978275511 0.033839763682579793 0 0.4850296333842451 0.019020207042386911 0 0.5 0.029863537248279951 0 0.4830669216880577 0.0054320190302359324 0 0.49999999999999839 0.0086064145730303538 0 0.48271198974045731 -0.013019223794440749 0 0.4830669216880577 0.0054320190302359324 0 0.4850296333842451 0.019020207042386911 0 0.49999999999999839 0.0086064145730303538 0 0.49999999999999839 0.0086064145730303538 0 0.5 -0.01464840998168093 0 0.48271198974045731 -0.013019223794440749 0 0.49999999999999839 0.0086064145730303538 0 0.48271198974045731 -0.013019223794440749 0 0.47315694413662363 0.00073411472606749184 0 0.48271198974045731 -0.013019223794440749 0 0.4830669216880577 0.0054320190302359324 0 0.47315694413662363 0.00073411472606749184 0 0.48271198974045731 -0.013019223794440749 0 0.47315694413662363 0.00073411472606749184 0 0.48271198974045731 -0.013019223794440749 0 0.47060281902855322 -0.01380813661077601 0 0.47315694413662363 0.00073411472606749184 0 0.47060281902855322 -0.01380813661077601 0 0.46300814249555278 -0.0051674225236733248 0 0.48271198974045731 -0.013019223794440749 0 0.47060281902855322 -0.01380813661077601 0 0.47172263231182049 -0.026765853167908769 0 0.48271198974045731 -0.013019223794440749 0 0.47172263231182049 -0.026765853167908769 0 0.48271198974045731 -0.013019223794440749 0 0.47172263231182049 -0.026765853167908769 0 0.50000000000000133 -0.037903234536392272 0 0.48271198974045731 -0.013019223794440749 0 0.50000000000000133 -0.037903234536392272 0 0.5 -0.01464840998168093 0 0.48271198974045731 -0.013019223794440749 0 0.50000000000000133 -0.037903234536392272 0 0.49999999999999928 -0.060596780156445318 0 0.4776248342805724 -0.060901939439756768 0 0.47864722499010998 -0.044461888419191853 0 0.49999999999999928 -0.060596780156445318 0 0.4776248342805724 -0.060901939439756768 0 0.50000000000000133 -0.037903234536392272 0 0.49999999999999928 -0.060596780156445318 0 0.47864722499010998 -0.044461888419191853 0 0.4776248342805724 -0.060901939439756768 0 0.47864722499010998 -0.044461888419191853 0 0.46481940181641801 -0.051360187287325033 0 0.47172263231182049 -0.026765853167908769 0 0.50000000000000133 -0.037903234536392272 0 0.47864722499010998 -0.044461888419191853 0 0.47172263231182049 -0.026765853167908769 0 0.47864722499010998 -0.044461888419191853 0 0.46073327488318327 -0.040512482541376522 0 0.47172263231182049 -0.026765853167908769 0 0.46073327488318327 -0.040512482541376522 0 0.47864722499010998 -0.044461888419191853 0 0.46073327488318327 -0.040512482541376522 0 0.46481940181641801 -0.051360187287325033 0 0.4776248342805724 -0.060901939439756768 0 0.4552496685611454 -0.061207098723068218 0 0.4776248342805724 -0.060901939439756768 0 0.46481940181641801 -0.051360187287325033 0 0.4552496685611454 -0.061207098723068218 0 0.46073327488318327 -0.040512482541376522 0 0.46481940181641801 -0.051360187287325033 0 0.45184200636707861 -0.049717527313231792 0 0.46481940181641801 -0.051360187287325033 0 0.4552496685611454 -0.061207098723068218 0 0.45184200636707861 -0.049717527313231792 0 0.44110988507206023 -0.060129710915625863 0 0.44125980200292603 -0.036093559559624303 0 0.45184200636707861 -0.049717527313231792 0 0.44110988507206023 -0.060129710915625863 0 0.44125980200292603 -0.036093559559624303 0 0.44110988507206023 -0.060129710915625863 0 0.44125980200292603 -0.036093559559624303 0 0.43133430618033952 -0.048027641477454162 0 0.4552496685611454 -0.061207098723068218 0 0.45184200636707861 -0.049717527313231792 0 0.44110988507206023 -0.060129710915625863 0 0.46073327488318327 -0.040512482541376522 0 0.45184200636707861 -0.049717527313231792 0 0.44125980200292603 -0.036093559559624303 0 0.46073327488318327 -0.040512482541376522 0 0.44125980200292603 -0.036093559559624303 0 0.45190320280511642 -0.02559516904106092 0 0.44125980200292603 -0.036093559559624303 0 0.44140971893379188 -0.012057408203622701 0 0.44125980200292603 -0.036093559559624303 0 0.45190320280511642 -0.02559516904106092 0 0.44140971893379188 -0.012057408203622701 0 0.45190320280511642 -0.02559516904106092 0 0.44140971893379188 -0.012057408203622701 0 0.45369883174736741 -0.014490096606757499 0 0.44155963586465768 0.01197874315237887 0 0.44140971893379188 -0.012057408203622701 0 0.45170841481371099 -0.002949229063120578 0 0.44155963586465768 0.01197874315237887 0 0.44140971893379188 -0.012057408203622701 0 0.43149764510862559 -0.0019106439098489629 0 0.44155963586465768 0.01197874315237887 0 0.44140971893379188 -0.012057408203622701 0 0.44140971893379188 -0.012057408203622701 0 0.45170841481371099 -0.002949229063120578 0 0.45369883174736741 -0.014490096606757499 0 0.46300814249555278 -0.0051674225236733248 0 0.46241438645831368 -0.0248222982939236 0 0.47060281902855322 -0.01380813661077601 0 0.46300814249555278 -0.0051674225236733248 0 0.46241438645831368 -0.0248222982939236 0 0.45369883174736741 -0.014490096606757499 0 0.46300814249555278 -0.0051674225236733248 0 0.46241438645831368 -0.0248222982939236 0 0.45809332820024762 0.0030243134254838268 0 0.45170841481371099 -0.002949229063120578 0 0.46300814249555278 -0.0051674225236733248 0 0.45170841481371099 -0.002949229063120578 0 0.45369883174736741 -0.014490096606757499 0 0.46300814249555278 -0.0051674225236733248 0 0.47060281902855322 -0.01380813661077601 0 0.47172263231182049 -0.026765853167908769 0 0.46241438645831368 -0.0248222982939236 0 0.47172263231182049 -0.026765853167908769 0 0.46073327488318327 -0.040512482541376522 0 0.46241438645831368 -0.0248222982939236 0 0.46073327488318327 -0.040512482541376522 0 0.45190320280511642 -0.02559516904106092 0 0.46241438645831368 -0.0248222982939236 0 0.45190320280511642 -0.02559516904106092 0 0.45369883174736741 -0.014490096606757499 0 0.46241438645831368 -0.0248222982939236 0 0.4758219481667017 -0.1219505294762471 0 0.4684747661109509 -0.1080730495801052 0 0.47989094847546482 -0.11872823272874861 0 0.47887020386437412 -0.1078302033620908 0 0.4684747661109509 -0.1080730495801052 0 0.4758219481667017 -0.1219505294762471 0 0.4684747661109509 -0.1080730495801052 0 0.46693139065159178 -0.1169801680559019 0 0.4758219481667017 -0.1219505294762471 0 0.47989094847546482 -0.11872823272874861 0 0.4684747661109509 -0.1080730495801052 0 0.47989094847546482 -0.11872823272874861 0 0.4867715552505294 -0.1122040743432247 0 0.47887020386437412 -0.1078302033620908 0 0.48426157126586411 -0.1233864683102833 0 0.47989094847546482 -0.11872823272874861 0 0.48877079028603609 -0.1197807551111596 0 0.4758219481667017 -0.1219505294762471 0 0.48426157126586411 -0.1233864683102833 0 0.47989094847546482 -0.11872823272874861 0 0.4758219481667017 -0.1219505294762471 0 0.47989094847546482 -0.11872823272874861 0 0.48877079028603609 -0.1197807551111596 0 0.5 -0.1141076084123353 0 0.4897785820492494 -0.12994724613398159 0 0.48426157126586411 -0.1233864683102833 0 0.48877079028603609 -0.1197807551111596 0 0.4897785820492494 -0.12994724613398159 0 0.48877079028603609 -0.1197807551111596 0 0.5 -0.1141076084123353 0 0.4867715552505294 -0.1122040743432247 0 0.47989094847546482 -0.11872823272874861 0 0.48877079028603609 -0.1197807551111596 0 0.4867715552505294 -0.1122040743432247 0 0.5 -0.1141076084123353 0 0.48632583362677212 -0.1005735721017892 0 0.5 -0.087352194284390339 0 0.5 -0.1141076084123353 0 0.4867715552505294 -0.1122040743432247 0 0.48632583362677212 -0.1005735721017892 0 0.47487851171039203 -0.097825781786182481 0 0.46630523560589349 -0.089300744747663849 0 0.4684747661109509 -0.1080730495801052 0 0.4867715552505294 -0.1122040743432247 0 0.48632583362677212 -0.1005735721017892 0 0.47887020386437412 -0.1078302033620908 0 0.48632583362677212 -0.1005735721017892 0 0.47887020386437412 -0.1078302033620908 0 0.47487851171039203 -0.097825781786182481 0 0.47887020386437412 -0.1078302033620908 0 0.47487851171039203 -0.097825781786182481 0 0.4684747661109509 -0.1080730495801052 0 0.48281099250674109 -0.082419009543257232 0 0.466872552913911 -0.073834243716510359 0 0.46630523560589349 -0.089300744747663849 0 0.48632583362677212 -0.1005735721017892 0 0.47487851171039203 -0.097825781786182481 0 0.48281099250674109 -0.082419009543257232 0 0.47487851171039203 -0.097825781786182481 0 0.48281099250674109 -0.082419009543257232 0 0.46630523560589349 -0.089300744747663849 0 0.48632583362677212 -0.1005735721017892 0 0.48281099250674109 -0.082419009543257232 0 0.5 -0.087352194284390339 0 0.49999999999999928 -0.060596780156445318 0 0.4776248342805724 -0.060901939439756768 0 0.48281099250674109 -0.082419009543257232 0 0.49999999999999928 -0.060596780156445318 0 0.48281099250674109 -0.082419009543257232 0 0.5 -0.087352194284390339 0 0.4776248342805724 -0.060901939439756768 0 0.48281099250674109 -0.082419009543257232 0 0.466872552913911 -0.073834243716510359 0 0.4776248342805724 -0.060901939439756768 0 0.4552496685611454 -0.061207098723068218 0 0.466872552913911 -0.073834243716510359 0 0.4552496685611454 -0.061207098723068218 0 0.466872552913911 -0.073834243716510359 0 0.45237203361520278 -0.075342426128805789 0 0.44110988507206023 -0.060129710915625863 0 0.45237203361520278 -0.075342426128805789 0 0.44095996814119442 -0.08416586227162734 0 0.44110988507206023 -0.060129710915625863 0 0.44095996814119442 -0.08416586227162734 0 0.4552496685611454 -0.061207098723068218 0 0.44110988507206023 -0.060129710915625863 0 0.45237203361520278 -0.075342426128805789 0 0.44095996814119442 -0.08416586227162734 0 0.44775829883162582 -0.096773065807190334 0 0.4315606362479974 -0.094646887153856732 0 0.45237203361520278 -0.075342426128805789 0 0.44095996814119442 -0.08416586227162734 0 0.44775829883162582 -0.096773065807190334 0 0.45237203361520278 -0.075342426128805789 0 0.46630523560589349 -0.089300744747663849 0 0.44775829883162582 -0.096773065807190334 0 0.466872552913911 -0.073834243716510359 0 0.45237203361520278 -0.075342426128805789 0 0.46630523560589349 -0.089300744747663849 0 0.46630523560589349 -0.089300744747663849 0 0.45955122212832922 -0.1117598347409981 0 0.46630523560589349 -0.089300744747663849 0 0.44775829883162582 -0.096773065807190334 0 0.45955122212832922 -0.1117598347409981 0 0.46630523560589349 -0.089300744747663849 0 0.4684747661109509 -0.1080730495801052 0 0.45955122212832922 -0.1117598347409981 0 0.44775829883162582 -0.096773065807190334 0 0.44677504210138341 -0.11390450965013491 0 0.45955122212832922 -0.1117598347409981 0 0.44775829883162582 -0.096773065807190334 0 0.44677504210138341 -0.11390450965013491 0 0.43678395398138048 -0.10829119595724571 0 0.44775829883162582 -0.096773065807190334 0 0.43678395398138048 -0.10829119595724571 0 0.4315606362479974 -0.094646887153856732 0 0.44677504210138341 -0.11390450965013491 0 0.45955122212832922 -0.1117598347409981 0 0.44863286444306971 -0.12743380747437449 0 0.44677504210138341 -0.11390450965013491 0 0.43898338372036272 -0.1226185853414587 0 0.43678395398138048 -0.10829119595724571 0 0.44677504210138341 -0.11390450965013491 0 0.43898338372036272 -0.1226185853414587 0 0.44863286444306971 -0.12743380747437449 0 0.45955122212832922 -0.1117598347409981 0 0.44863286444306971 -0.12743380747437449 0 0.452797208650767 -0.13421892473433311 0 0.45955122212832922 -0.1117598347409981 0 0.452797208650767 -0.13421892473433311 0 0.45955122212832922 -0.1117598347409981 0 0.46262887198345409 -0.1249304573877927 0 0.452797208650767 -0.13421892473433311 0 0.4684747661109509 -0.1080730495801052 0 0.45955122212832922 -0.1117598347409981 0 0.46693139065159178 -0.1169801680559019 0 0.4758219481667017 -0.1219505294762471 0 0.46693139065159178 -0.1169801680559019 0 0.46262887198345409 -0.1249304573877927 0 0.45955122212832922 -0.1117598347409981 0 0.46693139065159178 -0.1169801680559019 0 0.46262887198345409 -0.1249304573877927 0 0.41610783293513481 -0.1179543234269245 0 0.42278940533992421 -0.10609591331542829 0 0.40495837957622322 -0.1080048815970891 0 0.41610783293513481 -0.1179543234269245 0 0.40495837957622322 -0.1080048815970891 0 0.40389929182747558 -0.12540575427266309 0 0.41610783293513481 -0.1179543234269245 0 0.40389929182747558 -0.12540575427266309 0 0.41771782829441523 -0.12930509682923591 0 0.41610783293513481 -0.1179543234269245 0 0.42761914860622469 -0.1192410269490102 0 0.41771782829441523 -0.12930509682923591 0 0.43898338372036272 -0.1226185853414587 0 0.42761914860622469 -0.1192410269490102 0 0.43060134334286781 -0.1315981597681749 0 0.43898338372036272 -0.1226185853414587 0 0.42761914860622469 -0.1192410269490102 0 0.43678395398138048 -0.10829119595724571 0 0.42761914860622469 -0.1192410269490102 0 0.42278940533992421 -0.10609591331542829 0 0.43678395398138048 -0.10829119595724571 0 0.41610783293513481 -0.1179543234269245 0 0.42761914860622469 -0.1192410269490102 0 0.42278940533992421 -0.10609591331542829 0 0.42278940533992421 -0.10609591331542829 0 0.4315606362479974 -0.094646887153856732 0 0.41389204946336527 -0.091400146108756575 0 0.42278940533992421 -0.10609591331542829 0 0.43678395398138048 -0.10829119595724571 0 0.4315606362479974 -0.094646887153856732 0 0.42278940533992421 -0.10609591331542829 0 0.41389204946336527 -0.091400146108756575 0 0.40495837957622322 -0.1080048815970891 0 0.44095996814119442 -0.08416586227162734 0 0.4315606362479974 -0.094646887153856732 0 0.42466276615124482 -0.0720456710755987 0 0.4315606362479974 -0.094646887153856732 0 0.41389204946336527 -0.091400146108756575 0 0.42466276615124482 -0.0720456710755987 0 0.44110988507206023 -0.060129710915625863 0 0.44095996814119442 -0.08416586227162734 0 0.42466276615124482 -0.0720456710755987 0 0.42466276615124482 -0.0720456710755987 0 0.40225606148151588 -0.070861077723292865 0 0.41405528909937028 -0.047358244698166727 0 0.41389204946336527 -0.091400146108756575 0 0.42466276615124482 -0.0720456710755987 0 0.40225606148151588 -0.070861077723292865 0 0.40225606148151588 -0.070861077723292865 0 0.3833138383283784 -0.065225580184700288 0 0.38714416888335762 -0.07770079842788688 0 0.3833138383283784 -0.065225580184700288 0 0.38714416888335762 -0.07770079842788688 0 0.37128194913103479 -0.082193052631733252 0 0.38714416888335762 -0.07770079842788688 0 0.39172482659250119 -0.092523483171821103 0 0.37128194913103479 -0.082193052631733252 0 0.39172482659250119 -0.092523483171821103 0 0.37128194913103479 -0.082193052631733252 0 0.36932974788989792 -0.1035060761223118 0 0.41389204946336527 -0.091400146108756575 0 0.40225606148151588 -0.070861077723292865 0 0.39172482659250119 -0.092523483171821103 0 0.40225606148151588 -0.070861077723292865 0 0.38714416888335762 -0.07770079842788688 0 0.39172482659250119 -0.092523483171821103 0 0.39172482659250119 -0.092523483171821103 0 0.40495837957622322 -0.1080048815970891 0 0.38399428494165933 -0.1159151624798434 0 0.41389204946336527 -0.091400146108756575 0 0.39172482659250119 -0.092523483171821103 0 0.40495837957622322 -0.1080048815970891 0 0.39172482659250119 -0.092523483171821103 0 0.38399428494165933 -0.1159151624798434 0 0.36932974788989792 -0.1035060761223118 0 0.40495837957622322 -0.1080048815970891 0 0.38399428494165933 -0.1159151624798434 0 0.40389929182747558 -0.12540575427266309 0 0.41631284971756349 -0.00079219708431698896 0 0.42556223823071881 -0.02412806034421091 0 0.40476581273089068 -0.025592773607029801 0 0.44140971893379188 -0.012057408203622701 0 0.43149764510862559 -0.0019106439098489629 0 0.42556223823071881 -0.02412806034421091 0 0.41631284971756349 -0.00079219708431698896 0 0.43149764510862559 -0.0019106439098489629 0 0.42556223823071881 -0.02412806034421091 0 0.44125980200292603 -0.036093559559624303 0 0.44140971893379188 -0.012057408203622701 0 0.42556223823071881 -0.02412806034421091 0 0.44125980200292603 -0.036093559559624303 0 0.42556223823071881 -0.02412806034421091 0 0.43133430618033952 -0.048027641477454162 0 0.42556223823071881 -0.02412806034421091 0 0.43133430618033952 -0.048027641477454162 0 0.41405528909937028 -0.047358244698166727 0 0.44110988507206023 -0.060129710915625863 0 0.42466276615124482 -0.0720456710755987 0 0.43133430618033952 -0.048027641477454162 0 0.42466276615124482 -0.0720456710755987 0 0.43133430618033952 -0.048027641477454162 0 0.41405528909937028 -0.047358244698166727 0 0.42556223823071881 -0.02412806034421091 0 0.41405528909937028 -0.047358244698166727 0 0.40476581273089068 -0.025592773607029801 0 0.41405528909937028 -0.047358244698166727 0 0.39354226929519109 -0.04717871514084452 0 0.40476581273089068 -0.025592773607029801 0 0.39354226929519109 -0.04717871514084452 0 0.38337903037812038 -0.029100266707954611 0 0.40476581273089068 -0.025592773607029801 0 0.40225606148151588 -0.070861077723292865 0 0.3833138383283784 -0.065225580184700288 0 0.39354226929519109 -0.04717871514084452 0 0.40225606148151588 -0.070861077723292865 0 0.41405528909937028 -0.047358244698166727 0 0.39354226929519109 -0.04717871514084452 0 0.3833138383283784 -0.065225580184700288 0 0.39354226929519109 -0.04717871514084452 0 0.37547373440097181 -0.047157749603531647 0 0.3833138383283784 -0.065225580184700288 0 0.37547373440097181 -0.047157749603531647 0 0.36731551417557928 -0.06560317197278745 0 0.37547373440097181 -0.047157749603531647 0 0.38337903037812038 -0.029100266707954611 0 0.36767398099542242 -0.032808136755348181 0 0.39354226929519109 -0.04717871514084452 0 0.37547373440097181 -0.047157749603531647 0 0.38337903037812038 -0.029100266707954611 0 0.38337903037812038 -0.029100266707954611 0 0.39117999799657271 -0.011228169488333521 0 0.36843064509257062 -0.0098917636647739664 0 0.38337903037812038 -0.029100266707954611 0 0.40476581273089068 -0.025592773607029801 0 0.39117999799657271 -0.011228169488333521 0 0.41631284971756349 -0.00079219708431698896 0 0.40476581273089068 -0.025592773607029801 0 0.39117999799657271 -0.011228169488333521 0 0.39104565734127061 0.01031574085175003 0 0.41631284971756349 -0.00079219708431698896 0 0.39117999799657271 -0.011228169488333521 0 0.39104565734127061 0.01031574085175003 0 0.39117999799657271 -0.011228169488333521 0 0.36843064509257062 -0.0098917636647739664 0 0.36843064509257062 -0.0098917636647739664 0 0.35166910724630779 -0.029686233075633811 0 0.36767398099542242 -0.032808136755348181 0 0.38337903037812038 -0.029100266707954611 0 0.36843064509257062 -0.0098917636647739664 0 0.36767398099542242 -0.032808136755348181 0 0.36843064509257062 -0.0098917636647739664 0 0.35166910724630779 -0.029686233075633811 0 0.34473727841767349 -0.0103865310727379 0 0.354279588865272 0.003684158160236305 0 0.36843064509257062 -0.0098917636647739664 0 0.34473727841767349 -0.0103865310727379 0 0.33731506710190778 0.014474653873542831 0 0.32287005064550839 -0.013807155344981481 0 0.30522463180752252 -0.002299032575220602 0 0.33731506710190778 0.014474653873542831 0 0.34473727841767349 -0.0103865310727379 0 0.32287005064550839 -0.013807155344981481 0 0.35166910724630779 -0.029686233075633811 0 0.34473727841767349 -0.0103865310727379 0 0.33304077841876611 -0.029699642505797579 0 0.34473727841767349 -0.0103865310727379 0 0.33304077841876611 -0.029699642505797579 0 0.32287005064550839 -0.013807155344981481 0 0.33304077841876611 -0.029699642505797579 0 0.32287005064550839 -0.013807155344981481 0 0.31685897436131832 -0.031345298427727063 0 0.32287005064550839 -0.013807155344981481 0 0.31685897436131832 -0.031345298427727063 0 0.30276074758054689 -0.02156443191997966 0 0.32465346232435072 -0.047517417686666313 0 0.32570279337036773 -0.07376620155327776 0 0.30525052559603111 -0.065107394856454351 0 0.33304077841876611 -0.029699642505797579 0 0.32465346232435072 -0.047517417686666313 0 0.31685897436131832 -0.031345298427727063 0 0.32465346232435072 -0.047517417686666313 0 0.31685897436131832 -0.031345298427727063 0 0.30096983283741929 -0.044137844681210313 0 0.35166910724630779 -0.029686233075633811 0 0.33304077841876611 -0.029699642505797579 0 0.34158252658664839 -0.052567388453329172 0 0.33304077841876611 -0.029699642505797579 0 0.32465346232435072 -0.047517417686666313 0 0.34158252658664839 -0.052567388453329172 0 0.32465346232435072 -0.047517417686666313 0 0.34158252658664839 -0.052567388453329172 0 0.32570279337036773 -0.07376620155327776 0 0.34158252658664839 -0.052567388453329172 0 0.35941738785914162 -0.048204670724846903 0 0.35299062358996591 -0.063124789127462735 0 0.35166910724630779 -0.029686233075633811 0 0.34158252658664839 -0.052567388453329172 0 0.35941738785914162 -0.048204670724846903 0 0.37547373440097181 -0.047157749603531647 0 0.36767398099542242 -0.032808136755348181 0 0.35941738785914162 -0.048204670724846903 0 0.35166910724630779 -0.029686233075633811 0 0.36767398099542242 -0.032808136755348181 0 0.35941738785914162 -0.048204670724846903 0 0.37547373440097181 -0.047157749603531647 0 0.35941738785914162 -0.048204670724846903 0 0.36731551417557928 -0.06560317197278745 0 0.35941738785914162 -0.048204670724846903 0 0.36731551417557928 -0.06560317197278745 0 0.35299062358996591 -0.063124789127462735 0 0.3833138383283784 -0.065225580184700288 0 0.36731551417557928 -0.06560317197278745 0 0.37128194913103479 -0.082193052631733252 0 0.36731551417557928 -0.06560317197278745 0 0.37128194913103479 -0.082193052631733252 0 0.35718418072002278 -0.076249076563913942 0 0.37128194913103479 -0.082193052631733252 0 0.35421824226630899 -0.091698344518570674 0 0.35718418072002278 -0.076249076563913942 0 0.37128194913103479 -0.082193052631733252 0 0.35421824226630899 -0.091698344518570674 0 0.36932974788989792 -0.1035060761223118 0 0.35421824226630899 -0.091698344518570674 0 0.35718418072002278 -0.076249076563913942 0 0.34360353329763871 -0.07597276449961915 0 0.35299062358996591 -0.063124789127462735 0 0.35718418072002278 -0.076249076563913942 0 0.34360353329763871 -0.07597276449961915 0 0.34158252658664839 -0.052567388453329172 0 0.35299062358996591 -0.063124789127462735 0 0.34360353329763871 -0.07597276449961915 0 0.36731551417557928 -0.06560317197278745 0 0.35299062358996591 -0.063124789127462735 0 0.35718418072002278 -0.076249076563913942 0 0.38399428494165933 -0.1159151624798434 0 0.35933908253574087 -0.12572926999595471 0 0.37623402252563221 -0.13284116733776111 0 0.36932974788989792 -0.1035060761223118 0 0.35542010187214229 -0.11297714393594779 0 0.35933908253574087 -0.12572926999595471 0 0.38399428494165933 -0.1159151624798434 0 0.35933908253574087 -0.12572926999595471 0 0.38399428494165933 -0.1159151624798434 0 0.36932974788989792 -0.1035060761223118 0 0.35933908253574087 -0.12572926999595471 0 0.35421824226630899 -0.091698344518570674 0 0.36932974788989792 -0.1035060761223118 0 0.35542010187214229 -0.11297714393594779 0 0.35421824226630899 -0.091698344518570674 0 0.35542010187214229 -0.11297714393594779 0 0.32935173484966762 -0.1008945234080383 0 0.35542010187214229 -0.11297714393594779 0 0.33860093251572643 -0.11834219572363661 0 0.35933908253574087 -0.12572926999595471 0 0.33860093251572643 -0.11834219572363661 0 0.31420986319125871 -0.1165666637661761 0 0.33468388012982248 -0.13554337751206599 0 0.35542010187214229 -0.11297714393594779 0 0.33860093251572643 -0.11834219572363661 0 0.32935173484966762 -0.1008945234080383 0 0.35542010187214229 -0.11297714393594779 0 0.32935173484966762 -0.1008945234080383 0 0.32935173484966762 -0.1008945234080383 0 0.31420986319125871 -0.1165666637661761 0 0.30328336782719301 -0.088811902880128829 0 0.32935173484966762 -0.1008945234080383 0 0.30328336782719301 -0.088811902880128829 0 0.33860093251572643 -0.11834219572363661 0 0.32935173484966762 -0.1008945234080383 0 0.31420986319125871 -0.1165666637661761 0 0.34158252658664839 -0.052567388453329172 0 0.34360353329763871 -0.07597276449961915 0 0.32570279337036773 -0.07376620155327776 0 0.32935173484966762 -0.1008945234080383 0 0.34360353329763871 -0.07597276449961915 0 0.32570279337036773 -0.07376620155327776 0 0.35421824226630899 -0.091698344518570674 0 0.32935173484966762 -0.1008945234080383 0 0.34360353329763871 -0.07597276449961915 0 0.32935173484966762 -0.1008945234080383 0 0.32570279337036773 -0.07376620155327776 0 0.30328336782719301 -0.088811902880128829 0 0.30525052559603111 -0.065107394856454351 0 0.30328336782719301 -0.088811902880128829 0 0.29124637474266318 -0.072598771598143139 0 0.32570279337036773 -0.07376620155327776 0 0.30525052559603111 -0.065107394856454351 0 0.30328336782719301 -0.088811902880128829 0 0.30328336782719301 -0.088811902880128829 0 0.29124637474266318 -0.072598771598143139 0 0.27721500080471828 -0.076729282352219375 0 0.30328336782719301 -0.088811902880128829 0 0.27721500080471828 -0.076729282352219375 0 0.30328336782719301 -0.088811902880128829 0 0.28603256824887618 -0.091878519473946693 0 0.27721500080471828 -0.076729282352219375 0 0.27701618494665498 -0.074102428090765518 0 0.28034671293539137 -0.051471718794143598 0 0.2894463251437922 -0.062148945642759509 0 0.30525052559603111 -0.065107394856454351 0 0.29124637474266318 -0.072598771598143139 0 0.2894463251437922 -0.062148945642759509 0 0.29124637474266318 -0.072598771598143139 0 0.27721500080471828 -0.076729282352219375 0 0.27701618494665498 -0.074102428090765518 0 0.29124637474266318 -0.072598771598143139 0 0.27701618494665498 -0.074102428090765518 0 0.2894463251437922 -0.062148945642759509 0 0.31420986319125871 -0.1165666637661761 0 0.28994624740567482 -0.1052397552760512 0 0.2932796477707672 -0.1247335011961718 0 0.31420986319125871 -0.1165666637661761 0 0.30328336782719301 -0.088811902880128829 0 0.28994624740567482 -0.1052397552760512 0 0.30328336782719301 -0.088811902880128829 0 0.28603256824887618 -0.091878519473946693 0 0.28994624740567482 -0.1052397552760512 0 0.28603256824887618 -0.091878519473946693 0 0.28994624740567482 -0.1052397552760512 0 0.27368565695791869 -0.096733137387387383 0 0.28994624740567482 -0.1052397552760512 0 0.2932796477707672 -0.1247335011961718 0 0.26854802569847902 -0.1158824314059651 0 0.26854802569847902 -0.1158824314059651 0 0.27368565695791869 -0.096733137387387383 0 0.2587226237665356 -0.096937270185878679 0 0.28994624740567482 -0.1052397552760512 0 0.26854802569847902 -0.1158824314059651 0 0.27368565695791869 -0.096733137387387383 0 0.26854802569847902 -0.1158824314059651 0 0.2587226237665356 -0.096937270185878679 0 0.250728825519209 -0.10952628152772161 0 0.2587226237665356 -0.096937270185878679 0 0.250728825519209 -0.10952628152772161 0 0.24087005257016719 -0.095822805459919502 0 0.26854802569847902 -0.1158824314059651 0 0.250728825519209 -0.10952628152772161 0 0.25121007103462362 -0.1249300637175189 0 0.26996167667366783 -0.066242406373271293 0 0.27701618494665498 -0.074102428090765518 0 0.28034671293539137 -0.051471718794143598 0 0.27701618494665498 -0.074102428090765518 0 0.28034671293539137 -0.051471718794143598 0 0.26944625148687817 -0.074506028097128335 0 0.27701618494665498 -0.074102428090765518 0 0.26783101157108291 -0.083515495121003647 0 0.26944625148687817 -0.074506028097128335 0 0.26783101157108291 -0.083515495121003647 0 0.26297613275610721 -0.074163782803472869 0 0.26944625148687817 -0.074506028097128335 0 0.26996167667366783 -0.066242406373271293 0 0.27701618494665498 -0.074102428090765518 0 0.26944625148687817 -0.074506028097128335 0 0.26996167667366783 -0.066242406373271293 0 0.26297613275610721 -0.074163782803472869 0 0.27368565695791869 -0.096733137387387383 0 0.27701618494665498 -0.074102428090765518 0 0.26783101157108291 -0.083515495121003647 0 0.28603256824887618 -0.091878519473946693 0 0.27368565695791869 -0.096733137387387383 0 0.27721500080471828 -0.076729282352219375 0 0.27368565695791869 -0.096733137387387383 0 0.27721500080471828 -0.076729282352219375 0 0.27701618494665498 -0.074102428090765518 0 0.27368565695791869 -0.096733137387387383 0 0.27701618494665498 -0.074102428090765518 0 0.27368565695791869 -0.096733137387387383 0 0.2587226237665356 -0.096937270185878679 0 0.26783101157108291 -0.083515495121003647 0 0.2587226237665356 -0.096937270185878679 0 0.25123937454177309 -0.081869322144254728 0 0.24087005257016719 -0.095822805459919502 0 0.26783101157108291 -0.083515495121003647 0 0.25123937454177309 -0.081869322144254728 0 0.26297613275610721 -0.074163782803472869 0 0.2587226237665356 -0.096937270185878679 0 0.26783101157108291 -0.083515495121003647 0 0.25123937454177309 -0.081869322144254728 0 0.25123937454177309 -0.081869322144254728 0 0.26297613275610721 -0.074163782803472869 0 0.24948334623598961 -0.068992067819948766 0 0.26297613275610721 -0.074163782803472869 0 0.26187680030737898 -0.059496359648754778 0 0.24948334623598961 -0.068992067819948766 0 0.26996167667366783 -0.066242406373271293 0 0.26297613275610721 -0.074163782803472869 0 0.26187680030737898 -0.059496359648754778 0 0.26187680030737898 -0.059496359648754778 0 0.26543830645258099 -0.044142078596916941 0 0.24163829920233831 -0.052397508783544072 0 0.26187680030737898 -0.059496359648754778 0 0.24163829920233831 -0.052397508783544072 0 0.24948334623598961 -0.068992067819948766 0 0.26187680030737898 -0.059496359648754778 0 0.28034671293539137 -0.051471718794143598 0 0.26543830645258099 -0.044142078596916941 0 0.26996167667366783 -0.066242406373271293 0 0.26187680030737898 -0.059496359648754778 0 0.28034671293539137 -0.051471718794143598 0 0.28034671293539137 -0.051471718794143598 0 0.26543830645258099 -0.044142078596916941 0 0.28367724092412772 -0.02884100949752175 0 0.26543830645258099 -0.044142078596916941 0 0.25647444479392889 -0.029207765780008031 0 0.28367724092412772 -0.02884100949752175 0 0.26543830645258099 -0.044142078596916941 0 0.25647444479392889 -0.029207765780008031 0 0.24163829920233831 -0.052397508783544072 0 0.25647444479392889 -0.029207765780008031 0 0.26441350175974021 -0.01012269031476231 0 0.24759340468958241 -0.008806463094161018 0 0.24895436299273749 0.0076182131245065288 0 0.26441350175974021 -0.01012269031476231 0 0.24759340468958241 -0.008806463094161018 0 0.26441350175974021 -0.01012269031476231 0 0.28367724092412772 -0.02884100949752175 0 0.287007768912864 -0.0062103002009000069 0 0.26992981447287823 0.006555578672520726 0 0.26441350175974021 -0.01012269031476231 0 0.287007768912864 -0.0062103002009000069 0 0.25647444479392889 -0.029207765780008031 0 0.26441350175974021 -0.01012269031476231 0 0.28367724092412772 -0.02884100949752175 0 0.28367724092412772 -0.02884100949752175 0 0.287007768912864 -0.0062103002009000069 0 0.30276074758054689 -0.02156443191997966 0 0.28367724092412772 -0.02884100949752175 0 0.287007768912864 -0.0062103002009000069 0 0.32287005064550839 -0.013807155344981481 0 0.30522463180752252 -0.002299032575220602 0 0.30276074758054689 -0.02156443191997966 0 0.287007768912864 -0.0062103002009000069 0 0.30522463180752252 -0.002299032575220602 0 0.30276074758054689 -0.02156443191997966 0 0.31685897436131832 -0.031345298427727063 0 0.30276074758054689 -0.02156443191997966 0 0.30096983283741929 -0.044137844681210313 0 0.32465346232435072 -0.047517417686666313 0 0.30525052559603111 -0.065107394856454351 0 0.30096983283741929 -0.044137844681210313 0 0.30525052559603111 -0.065107394856454351 0 0.30096983283741929 -0.044137844681210313 0 0.2894463251437922 -0.062148945642759509 0 0.28034671293539137 -0.051471718794143598 0 0.30096983283741929 -0.044137844681210313 0 0.2894463251437922 -0.062148945642759509 0 0.28034671293539137 -0.051471718794143598 0 0.28367724092412772 -0.02884100949752175 0 0.30096983283741929 -0.044137844681210313 0 0.28034671293539137 -0.051471718794143598 0 0.28367724092412772 -0.02884100949752175 0 0.28367724092412772 -0.02884100949752175 0 0.30276074758054689 -0.02156443191997966 0 0.30096983283741929 -0.044137844681210313 0 0.28874228172255018 -0.20345427068962921 0 0.30073969145645468 -0.22411421234961881 0 0.27642713901426241 -0.21829867931669311 0 0.28874228172255018 -0.20345427068962921 0 0.30073969145645468 -0.22411421234961881 0 0.28874228172255018 -0.20345427068962921 0 0.29666432765211848 -0.20007819870478291 0 0.30508748648390138 -0.20849223158066221 0 0.28874228172255018 -0.20345427068962921 0 0.28397201803963001 -0.19203566101619149 0 0.27849145608690168 -0.20207105369989881 0 0.28397201803963001 -0.19203566101619149 0 0.29666432765211848 -0.20007819870478291 0 0.3088555243623925 -0.19633063153264849 0 0.28397201803963001 -0.19203566101619149 0 0.3088555243623925 -0.19633063153264849 0 0.29672920544517922 -0.18609602031489539 0 0.28397201803963001 -0.19203566101619149 0 0.3088555243623925 -0.19633063153264849 0 0.28874228172255018 -0.20345427068962921 0 0.28397201803963001 -0.19203566101619149 0 0.29666432765211848 -0.20007819870478291 0 0.29666432765211848 -0.20007819870478291 0 0.3088555243623925 -0.19633063153264849 0 0.30508748648390138 -0.20849223158066221 0 0.3088555243623925 -0.19633063153264849 0 0.30508748648390138 -0.20849223158066221 0 0.31851231117607798 -0.2089993916661057 0 0.28874228172255018 -0.20345427068962921 0 0.30508748648390138 -0.20849223158066221 0 0.30242672251223351 -0.21578383194848111 0 0.28874228172255018 -0.20345427068962921 0 0.30242672251223351 -0.21578383194848111 0 0.30073969145645468 -0.22411421234961881 0 0.30508748648390138 -0.20849223158066221 0 0.30242672251223351 -0.21578383194848111 0 0.31081805685290198 -0.21632191851640831 0 0.30508748648390138 -0.20849223158066221 0 0.31081805685290198 -0.21632191851640831 0 0.31851231117607798 -0.2089993916661057 0 0.30242672251223351 -0.21578383194848111 0 0.31081805685290198 -0.21632191851640831 0 0.30731874719274149 -0.22242940459949551 0 0.30073969145645468 -0.22411421234961881 0 0.31226432028124712 -0.24396000943867199 0 0.30813070577448343 -0.22927361724832479 0 0.30073969145645468 -0.22411421234961881 0 0.31226432028124712 -0.24396000943867199 0 0.31081805685290198 -0.21632191851640831 0 0.31219836286761421 -0.2223915809318989 0 0.30731874719274149 -0.22242940459949551 0 0.30731874719274149 -0.22242940459949551 0 0.30813070577448343 -0.22927361724832479 0 0.30301239328827478 -0.22465783986912061 0 0.31219836286761421 -0.2223915809318989 0 0.30731874719274149 -0.22242940459949551 0 0.30813070577448343 -0.22927361724832479 0 0.31219836286761421 -0.2223915809318989 0 0.30813070577448343 -0.22927361724832479 0 0.31696521497511759 -0.23137211594045581 0 0.30242672251223351 -0.21578383194848111 0 0.30073969145645468 -0.22411421234961881 0 0.3033743886124261 -0.22174632219167889 0 0.30242672251223351 -0.21578383194848111 0 0.30731874719274149 -0.22242940459949551 0 0.3033743886124261 -0.22174632219167889 0 0.30813070577448343 -0.22927361724832479 0 0.30073969145645468 -0.22411421234961881 0 0.30301239328827478 -0.22465783986912061 0 0.30731874719274149 -0.22242940459949551 0 0.3033743886124261 -0.22174632219167889 0 0.30301239328827478 -0.22465783986912061 0 0.30073969145645468 -0.22411421234961881 0 0.30301239328827478 -0.22465783986912061 0 0.30073969145645468 -0.22411421234961881 0 0.3033743886124261 -0.22174632219167889 0 0.30301239328827478 -0.22465783986912061 0 0.30073969145645468 -0.22411421234961881 0 0.31226432028124712 -0.24396000943867199 0 0.29659977674898758 -0.23630412010254709 0 0.31226432028124712 -0.24396000943867199 0 0.28676671322231928 -0.24776255559662569 0 0.31226432028124712 -0.24396000943867199 0 0.28676671322231928 -0.24776255559662569 0 0.29659977674898758 -0.23630412010254709 0 0.30813070577448343 -0.22927361724832479 0 0.31226432028124712 -0.24396000943867199 0 0.31696521497511759 -0.23137211594045581 0 0.28676671322231928 -0.24776255559662569 0 0.29659977674898758 -0.23630412010254709 0 0.28599829720206732 -0.22993737541529261 0 0.30073969145645468 -0.22411421234961881 0 0.28599829720206732 -0.22993737541529261 0 0.27642713901426241 -0.21829867931669311 0 0.30073969145645468 -0.22411421234961881 0 0.27642713901426241 -0.21829867931669311 0 0.30073969145645468 -0.22411421234961881 0 0.29659977674898758 -0.23630412010254709 0 0.28599829720206732 -0.22993737541529261 0 0.28599829720206732 -0.22993737541529261 0 0.2634766799909275 -0.23178531106973749 0 0.27642713901426241 -0.21829867931669311 0 0.28676671322231928 -0.24776255559662569 0 0.2612691061633915 -0.25156510175457908 0 0.28676671322231928 -0.24776255559662569 0 0.2634766799909275 -0.23178531106973749 0 0.2612691061633915 -0.25156510175457908 0 0.28676671322231928 -0.24776255559662569 0 0.28599829720206732 -0.22993737541529261 0 0.2634766799909275 -0.23178531106973749 0 0.2634766799909275 -0.23178531106973749 0 0.2612691061633915 -0.25156510175457908 0 0.24584166464846011 -0.24079157979837809 0 0.2634766799909275 -0.23178531106973749 0 0.25211458657206992 -0.21248314628376849 0 0.23660272874062749 -0.2236038021687817 0 0.2634766799909275 -0.23178531106973749 0 0.25211458657206992 -0.21248314628376849 0 0.27642713901426241 -0.21829867931669311 0 0.25211458657206992 -0.21248314628376849 0 0.26908912908871452 -0.20379437748794851 0 0.26170657936619612 -0.1956861824831522 0 0.25211458657206992 -0.21248314628376849 0 0.27642713901426241 -0.21829867931669311 0 0.28874228172255018 -0.20345427068962921 0 0.27642713901426241 -0.21829867931669311 0 0.27849145608690168 -0.20207105369989881 0 0.27642713901426241 -0.21829867931669311 0 0.26908912908871452 -0.20379437748794851 0 0.27849145608690168 -0.20207105369989881 0 0.25211458657206992 -0.21248314628376849 0 0.27642713901426241 -0.21829867931669311 0 0.26908912908871452 -0.20379437748794851 0 0.26908912908871452 -0.20379437748794851 0 0.27422671256935138 -0.1927722799890316 0 0.27849145608690168 -0.20207105369989881 0 0.28397201803963001 -0.19203566101619149 0 0.27422671256935138 -0.1927722799890316 0 0.27849145608690168 -0.20207105369989881 0 0.26908912908871452 -0.20379437748794851 0 0.27422671256935138 -0.1927722799890316 0 0.26170657936619612 -0.1956861824831522 0 0.27422671256935138 -0.1927722799890316 0 0.26170657936619612 -0.1956861824831522 0 0.2677030613816197 -0.18511711951900051 0 0.26170657936619612 -0.1956861824831522 0 0.25642120127970819 -0.1859541871741241 0 0.2677030613816197 -0.18511711951900051 0 0.25211458657206992 -0.21248314628376849 0 0.26170657936619612 -0.1956861824831522 0 0.25073010050419769 -0.19351177456775781 0 0.25073010050419769 -0.19351177456775781 0 0.25642120127970819 -0.1859541871741241 0 0.24504845166777409 -0.1838975875625567 0 0.26170657936619612 -0.1956861824831522 0 0.25073010050419769 -0.19351177456775781 0 0.25642120127970819 -0.1859541871741241 0 0.25642120127970819 -0.1859541871741241 0 0.2552377180248096 -0.17446587061074559 0 0.24504845166777409 -0.1838975875625567 0 0.25642120127970819 -0.1859541871741241 0 0.2552377180248096 -0.17446587061074559 0 0.2677030613816197 -0.18511711951900051 0 0.2552377180248096 -0.17446587061074559 0 0.26071827291206739 -0.1649857000603997 0 0.24789827463338179 -0.16179654705755231 0 0.26071827291206739 -0.1649857000603997 0 0.25598110841636712 -0.15185599457751739 0 0.24789827463338179 -0.16179654705755231 0 0.26071827291206739 -0.1649857000603997 0 0.28537347531798568 -0.1551715925442885 0 0.28310899913450122 -0.17682788644049571 0 0.26071827291206739 -0.1649857000603997 0 0.28537347531798568 -0.1551715925442885 0 0.26071827291206739 -0.1649857000603997 0 0.26882682279382958 -0.14969416862685361 0 0.28537347531798568 -0.1551715925442885 0 0.28397201803963001 -0.19203566101619149 0 0.27422671256935138 -0.1927722799890316 0 0.28310899913450122 -0.17682788644049571 0 0.2552377180248096 -0.17446587061074559 0 0.28310899913450122 -0.17682788644049571 0 0.27422671256935138 -0.1927722799890316 0 0.2677030613816197 -0.18511711951900051 0 0.28310899913450122 -0.17682788644049571 0 0.2552377180248096 -0.17446587061074559 0 0.2677030613816197 -0.18511711951900051 0 0.28310899913450122 -0.17682788644049571 0 0.2552377180248096 -0.17446587061074559 0 0.26071827291206739 -0.1649857000603997 0 0.28310899913450122 -0.17682788644049571 0 0.25121007103462362 -0.1249300637175189 0 0.26131947583994419 -0.1380367662802581 0 0.2411426959026125 -0.14476679086252331 0 0.26854802569847902 -0.1158824314059651 0 0.25121007103462362 -0.1249300637175189 0 0.26131947583994419 -0.1380367662802581 0 0.26131947583994419 -0.1380367662802581 0 0.25598110841636712 -0.15185599457751739 0 0.2411426959026125 -0.14476679086252331 0 0.26131947583994419 -0.1380367662802581 0 0.25598110841636712 -0.15185599457751739 0 0.26882682279382958 -0.14969416862685361 0 0.26071827291206739 -0.1649857000603997 0 0.25598110841636712 -0.15185599457751739 0 0.26882682279382958 -0.14969416862685361 0 0.26131947583994419 -0.1380367662802581 0 0.26882682279382958 -0.14969416862685361 0 0.28145822911132318 -0.13788653342455509 0 0.26882682279382958 -0.14969416862685361 0 0.28145822911132318 -0.13788653342455509 0 0.28537347531798568 -0.1551715925442885 0 0.2932796477707672 -0.1247335011961718 0 0.26854802569847902 -0.1158824314059651 0 0.28145822911132318 -0.13788653342455509 0 0.26854802569847902 -0.1158824314059651 0 0.26131947583994419 -0.1380367662802581 0 0.28145822911132318 -0.13788653342455509 0 0.2932796477707672 -0.1247335011961718 0 0.28145822911132318 -0.13788653342455509 0 0.31002867772390408 -0.14535748502817719 0 0.28145822911132318 -0.13788653342455509 0 0.28537347531798568 -0.1551715925442885 0 0.31002867772390408 -0.14535748502817719 0 0.28537347531798568 -0.1551715925442885 0 0.31002867772390408 -0.14535748502817719 0 0.29794098222320481 -0.16743224435283191 0 0.28537347531798568 -0.1551715925442885 0 0.31002867772390408 -0.14535748502817719 0 0.31420986319125871 -0.1165666637661761 0 0.2932796477707672 -0.1247335011961718 0 0.31002867772390408 -0.14535748502817719 0 0.28397201803963001 -0.19203566101619149 0 0.29672920544517922 -0.18609602031489539 0 0.28310899913450122 -0.17682788644049571 0 0.28537347531798568 -0.1551715925442885 0 0.28310899913450122 -0.17682788644049571 0 0.29794098222320481 -0.16743224435283191 0 0.31002867772390408 -0.14535748502817719 0 0.29794098222320481 -0.16743224435283191 0 0.31188581108673891 -0.16438983103893551 0 0.29794098222320481 -0.16743224435283191 0 0.31188581108673891 -0.16438983103893551 0 0.31098028024419277 -0.17918990227024581 0 0.3088555243623925 -0.19633063153264849 0 0.29672920544517922 -0.18609602031489539 0 0.31098028024419277 -0.17918990227024581 0 0.28310899913450122 -0.17682788644049571 0 0.29794098222320481 -0.16743224435283191 0 0.31098028024419277 -0.17918990227024581 0 0.29672920544517922 -0.18609602031489539 0 0.28310899913450122 -0.17682788644049571 0 0.31098028024419277 -0.17918990227024581 0 0.28310899913450122 -0.17682788644049571 0 0.31098028024419277 -0.17918990227024581 0 0.31098028024419277 -0.17918990227024581 0 0.33885156135388439 -0.18155191809999591 0 0.32310659916140611 -0.18942451348799891 0 0.31098028024419277 -0.17918990227024581 0 0.32470506985216091 -0.16208665088429769 0 0.33885156135388439 -0.18155191809999591 0 0.31098028024419277 -0.17918990227024581 0 0.33885156135388439 -0.18155191809999591 0 0.31002867772390408 -0.14535748502817719 0 0.31188581108673891 -0.16438983103893551 0 0.32470506985216091 -0.16208665088429769 0 0.31188581108673891 -0.16438983103893551 0 0.31098028024419277 -0.17918990227024581 0 0.32470506985216091 -0.16208665088429769 0 0.32470506985216091 -0.16208665088429769 0 0.33885156135388439 -0.18155191809999591 0 0.34375337397752831 -0.1588481504980512 0 0.31002867772390408 -0.14535748502817719 0 0.33468388012982248 -0.13554337751206599 0 0.31420986319125871 -0.1165666637661761 0 0.31002867772390408 -0.14535748502817719 0 0.33468388012982248 -0.13554337751206599 0 0.31002867772390408 -0.14535748502817719 0 0.32470506985216091 -0.16208665088429769 0 0.33468388012982248 -0.13554337751206599 0 0.33468388012982248 -0.13554337751206599 0 0.35165887004214808 -0.14411123290621131 0 0.34375337397752831 -0.1588481504980512 0 0.32470506985216091 -0.16208665088429769 0 0.33468388012982248 -0.13554337751206599 0 0.34375337397752831 -0.1588481504980512 0 0.33468388012982248 -0.13554337751206599 0 0.35933908253574087 -0.12572926999595471 0 0.35165887004214808 -0.14411123290621131 0 0.33860093251572643 -0.11834219572363661 0 0.33468388012982248 -0.13554337751206599 0 0.35933908253574087 -0.12572926999595471 0 0.35933908253574087 -0.12572926999595471 0 0.35165887004214808 -0.14411123290621131 0 0.36645691586078027 -0.14332206445469101 0 0.33468388012982248 -0.13554337751206599 0 0.35933908253574087 -0.12572926999595471 0 0.35165887004214808 -0.14411123290621131 0 0.34375337397752831 -0.1588481504980512 0 0.35827187034203689 -0.1581928850315473 0 0.35165887004214808 -0.14411123290621131 0 0.36645691586078027 -0.14332206445469101 0 0.35827187034203689 -0.1581928850315473 0 0.37091834881109709 -0.15621951701969211 0 0.36645691586078027 -0.14332206445469101 0 0.3834435968894308 -0.1522311944286544 0 0.37091834881109709 -0.15621951701969211 0 0.36645691586078027 -0.14332206445469101 0 0.35827187034203689 -0.1581928850315473 0 0.35933908253574087 -0.12572926999595471 0 0.36645691586078027 -0.14332206445469101 0 0.37623402252563221 -0.13284116733776111 0 0.33885156135388439 -0.18155191809999591 0 0.36672284246357612 -0.183913933929746 0 0.356079602209942 -0.19075369225309871 0 0.33885156135388439 -0.18155191809999591 0 0.35434899214511689 -0.17160283855418951 0 0.36672284246357612 -0.183913933929746 0 0.33885156135388439 -0.18155191809999591 0 0.36672284246357612 -0.183913933929746 0 0.33885156135388439 -0.18155191809999591 0 0.34375337397752831 -0.1588481504980512 0 0.35434899214511689 -0.17160283855418951 0 0.34375337397752831 -0.1588481504980512 0 0.35827187034203689 -0.1581928850315473 0 0.35434899214511689 -0.17160283855418951 0 0.37091834881109709 -0.15621951701969211 0 0.36644055941616921 -0.16817537727736601 0 0.38338260560159632 -0.16717028198591849 0 0.35827187034203689 -0.1581928850315473 0 0.35434899214511689 -0.17160283855418951 0 0.36644055941616921 -0.16817537727736601 0 0.37091834881109709 -0.15621951701969211 0 0.35827187034203689 -0.1581928850315473 0 0.36644055941616921 -0.16817537727736601 0 0.35434899214511689 -0.17160283855418951 0 0.36644055941616921 -0.16817537727736601 0 0.36672284246357612 -0.183913933929746 0 0.36644055941616921 -0.16817537727736601 0 0.36672284246357612 -0.183913933929746 0 0.37778503276365222 -0.17638388573813141 0 0.36760860215419772 -0.1949362202025782 0 0.36882636877280872 -0.2066817856364451 0 0.38411006467893283 -0.19457841874752749 0 0.36672284246357612 -0.183913933929746 0 0.36760860215419772 -0.1949362202025782 0 0.37738148972098229 -0.187859035160133 0 0.36760860215419772 -0.1949362202025782 0 0.36325321975673558 -0.20075560195828249 0 0.35957743523827768 -0.19654606573120409 0 0.36760860215419772 -0.1949362202025782 0 0.36325321975673558 -0.20075560195828249 0 0.36882636877280872 -0.2066817856364451 0 0.36325321975673558 -0.20075560195828249 0 0.35957743523827768 -0.19654606573120409 0 0.35717943952698022 -0.20095100689671511 0 0.36325321975673558 -0.20075560195828249 0 0.35862253700791752 -0.20492057256556209 0 0.35717943952698022 -0.20095100689671511 0 0.36672284246357612 -0.183913933929746 0 0.36760860215419772 -0.1949362202025782 0 0.356079602209942 -0.19075369225309871 0 0.36760860215419772 -0.1949362202025782 0 0.35957743523827768 -0.19654606573120409 0 0.356079602209942 -0.19075369225309871 0 0.36882636877280872 -0.2066817856364451 0 0.3614006255590495 -0.21256233279539299 0 0.37296603985658539 -0.21879191572707671 0 0.36882636877280872 -0.2066817856364451 0 0.35862253700791752 -0.20492057256556209 0 0.36325321975673558 -0.20075560195828249 0 0.36882636877280872 -0.2066817856364451 0 0.35862253700791752 -0.20492057256556209 0 0.36882636877280872 -0.2066817856364451 0 0.3614006255590495 -0.21256233279539299 0 0.35862253700791752 -0.20492057256556209 0 0.3614006255590495 -0.21256233279539299 0 0.35862253700791752 -0.20492057256556209 0 0.36882636877280872 -0.2066817856364451 0 0.3614006255590495 -0.21256233279539299 0 0.35862253700791752 -0.20492057256556209 0 0.34691322135036079 -0.21350323565644039 0 0.33373903068515498 -0.20062560204910551 0 0.3614006255590495 -0.21256233279539299 0 0.34691322135036079 -0.21350323565644039 0 0.34267742035472948 -0.22738949392946911 0 0.3614006255590495 -0.21256233279539299 0 0.35862253700791752 -0.20492057256556209 0 0.34691322135036079 -0.21350323565644039 0 0.35862253700791752 -0.20492057256556209 0 0.34970641388790191 -0.1956894332016372 0 0.33373903068515498 -0.20062560204910551 0 0.35862253700791752 -0.20492057256556209 0 0.33373903068515498 -0.20062560204910551 0 0.33885156135388439 -0.18155191809999591 0 0.356079602209942 -0.19075369225309871 0 0.34970641388790191 -0.1956894332016372 0 0.356079602209942 -0.19075369225309871 0 0.35510160552370612 -0.19579898032771581 0 0.34970641388790191 -0.1956894332016372 0 0.35957743523827768 -0.19654606573120409 0 0.356079602209942 -0.19075369225309871 0 0.35510160552370612 -0.19579898032771581 0 0.35862253700791752 -0.20492057256556209 0 0.35717943952698022 -0.20095100689671511 0 0.34970641388790191 -0.1956894332016372 0 0.35957743523827768 -0.19654606573120409 0 0.35717943952698022 -0.20095100689671511 0 0.35510160552370612 -0.19579898032771581 0 0.35862253700791752 -0.20492057256556209 0 0.35717943952698022 -0.20095100689671511 0 0.35717943952698022 -0.20095100689671511 0 0.35510160552370612 -0.19579898032771581 0 0.34970641388790191 -0.1956894332016372 0 0.33885156135388439 -0.18155191809999591 0 0.34970641388790191 -0.1956894332016372 0 0.33373903068515498 -0.20062560204910551 0 0.33885156135388439 -0.18155191809999591 0 0.33373903068515498 -0.20062560204910551 0 0.32310659916140611 -0.18942451348799891 0 0.34691322135036079 -0.21350323565644039 0 0.33373903068515498 -0.20062560204910551 0 0.33217977799445109 -0.2154280912645983 0 0.33373903068515498 -0.20062560204910551 0 0.33217977799445109 -0.2154280912645983 0 0.31851231117607798 -0.2089993916661057 0 0.33217977799445109 -0.2154280912645983 0 0.31851231117607798 -0.2089993916661057 0 0.31936471088484392 -0.2198350703718063 0 0.31081805685290198 -0.21632191851640831 0 0.31851231117607798 -0.2089993916661057 0 0.31936471088484392 -0.2198350703718063 0 0.3088555243623925 -0.19633063153264849 0 0.33373903068515498 -0.20062560204910551 0 0.31851231117607798 -0.2089993916661057 0 0.3088555243623925 -0.19633063153264849 0 0.33373903068515498 -0.20062560204910551 0 0.3088555243623925 -0.19633063153264849 0 0.33373903068515498 -0.20062560204910551 0 0.32310659916140611 -0.18942451348799891 0 0.3088555243623925 -0.19633063153264849 0 0.31098028024419277 -0.17918990227024581 0 0.32310659916140611 -0.18942451348799891 0 0.32395421515040801 -0.24221665506354301 0 0.31588284367281178 -0.24860848403542071 0 0.32430218291005558 -0.25061057777062279 0 0.32395421515040801 -0.24221665506354301 0 0.32430218291005558 -0.25061057777062279 0 0.33492522435758898 -0.25012319656376852 0 0.32395421515040801 -0.24221665506354301 0 0.31588284367281178 -0.24860848403542071 0 0.31226432028124712 -0.24396000943867199 0 0.32395421515040801 -0.24221665506354301 0 0.31588284367281178 -0.24860848403542071 0 0.31226432028124712 -0.24396000943867199 0 0.32395421515040801 -0.24221665506354301 0 0.31226432028124712 -0.24396000943867199 0 0.32395421515040801 -0.24221665506354301 0 0.31696521497511759 -0.23137211594045581 0 0.31081805685290198 -0.21632191851640831 0 0.31219836286761421 -0.2223915809318989 0 0.31936471088484392 -0.2198350703718063 0 0.31219836286761421 -0.2223915809318989 0 0.31696521497511759 -0.23137211594045581 0 0.31936471088484392 -0.2198350703718063 0 0.31696521497511759 -0.23137211594045581 0 0.31936471088484392 -0.2198350703718063 0 0.32740086061372808 -0.22686116751402791 0 0.33217977799445109 -0.2154280912645983 0 0.31936471088484392 -0.2198350703718063 0 0.32740086061372808 -0.22686116751402791 0 0.32395421515040801 -0.24221665506354301 0 0.31696521497511759 -0.23137211594045581 0 0.32740086061372808 -0.22686116751402791 0 0.32395421515040801 -0.24221665506354301 0 0.32740086061372808 -0.22686116751402791 0 0.34267742035472948 -0.22738949392946911 0 0.33217977799445109 -0.2154280912645983 0 0.32740086061372808 -0.22686116751402791 0 0.34267742035472948 -0.22738949392946911 0 0.34691322135036079 -0.21350323565644039 0 0.33217977799445109 -0.2154280912645983 0 0.34267742035472948 -0.22738949392946911 0 0.32395421515040801 -0.24221665506354301 0 0.34267742035472948 -0.22738949392946911 0 0.3366921759872602 -0.2403169989927405 0 0.34267742035472948 -0.22738949392946911 0 0.3366921759872602 -0.2403169989927405 0 0.34676533715720192 -0.2383207019101638 0 0.32395421515040801 -0.24221665506354301 0 0.34267742035472948 -0.22738949392946911 0 0.32395421515040801 -0.24221665506354301 0 0.3366921759872602 -0.2403169989927405 0 0.32395421515040801 -0.24221665506354301 0 0.3366921759872602 -0.2403169989927405 0 0.33492522435758898 -0.25012319656376852 0 0.3366921759872602 -0.2403169989927405 0 0.34463979734214922 -0.24799431301806471 0 0.33492522435758898 -0.25012319656376852 0 0.3366921759872602 -0.2403169989927405 0 0.34463979734214922 -0.24799431301806471 0 0.34676533715720192 -0.2383207019101638 0 0.34463979734214922 -0.24799431301806471 0 0.35368085243288672 -0.2431763341683584 0 0.35494987809103229 -0.25462931183528009 0 0.34463979734214922 -0.24799431301806471 0 0.34676533715720192 -0.2383207019101638 0 0.35368085243288672 -0.2431763341683584 0 0.35368085243288672 -0.2431763341683584 0 0.35645667938894621 -0.23391865005642809 0 0.36195937008714801 -0.24426279346283289 0 0.34676533715720192 -0.2383207019101638 0 0.35368085243288672 -0.2431763341683584 0 0.35645667938894621 -0.23391865005642809 0 0.35368085243288672 -0.2431763341683584 0 0.36195937008714801 -0.24426279346283289 0 0.35494987809103229 -0.25462931183528009 0 0.3614006255590495 -0.21256233279539299 0 0.34267742035472948 -0.22738949392946911 0 0.35645667938894621 -0.23391865005642809 0 0.3614006255590495 -0.21256233279539299 0 0.34267742035472948 -0.22738949392946911 0 0.34267742035472948 -0.22738949392946911 0 0.34676533715720192 -0.2383207019101638 0 0.35645667938894621 -0.23391865005642809 0 0.3614006255590495 -0.21256233279539299 0 0.35645667938894621 -0.23391865005642809 0 0.37095725753778508 -0.23885000823915059 0 0.37296603985658539 -0.21879191572707671 0 0.37095725753778508 -0.23885000823915059 0 0.37776591212172822 -0.22922219643972611 0 0.3614006255590495 -0.21256233279539299 0 0.37296603985658539 -0.21879191572707671 0 0.37095725753778508 -0.23885000823915059 0 0.3614006255590495 -0.21256233279539299 0 0.37095725753778508 -0.23885000823915059 0 0.36195937008714801 -0.24426279346283289 0 0.35494987809103229 -0.25462931183528009 0 0.37081177953647548 -0.25030232056885798 0 0.35645667938894621 -0.23391865005642809 0 0.36195937008714801 -0.24426279346283289 0 0.37095725753778508 -0.23885000823915059 0 0.36195937008714801 -0.24426279346283289 0 0.37095725753778508 -0.23885000823915059 0 0.37081177953647548 -0.25030232056885798 0 0.37095725753778508 -0.23885000823915059 0 0.38233627906098222 -0.24243545013876699 0 0.38051388951651688 -0.26513768368290941 0 0.37095725753778508 -0.23885000823915059 0 0.38233627906098222 -0.24243545013876699 0 0.37776591212172822 -0.22922219643972611 0 0.38233627906098222 -0.24243545013876699 0 0.391988822457361 -0.24519461495045389 0 0.39045551367151993 -0.23377274738159509 0 0.38233627906098222 -0.24243545013876699 0 0.39045551367151993 -0.23377274738159509 0 0.37776591212172822 -0.22922219643972611 0 0.391988822457361 -0.24519461495045389 0 0.40356165349530537 -0.23201626959986199 0 0.39045551367151993 -0.23377274738159509 0 0.391988822457361 -0.24519461495045389 0 0.40356165349530537 -0.23201626959986199 0 0.40656155532676092 -0.24536674100641531 0 0.391988822457361 -0.24519461495045389 0 0.40656155532676092 -0.24536674100641531 0 0.40186511362074012 -0.25894426053141528 0 0.39689130171485981 -0.2229433554671284 0 0.37776591212172822 -0.22922219643972611 0 0.39833869899814273 -0.21177570554249511 0 0.40356165349530537 -0.23201626959986199 0 0.39689130171485981 -0.2229433554671284 0 0.40195610505540658 -0.21240008106901959 0 0.40356165349530537 -0.23201626959986199 0 0.39689130171485981 -0.2229433554671284 0 0.39045551367151993 -0.23377274738159509 0 0.39689130171485981 -0.2229433554671284 0 0.39045551367151993 -0.23377274738159509 0 0.37776591212172822 -0.22922219643972611 0 0.37296603985658539 -0.21879191572707671 0 0.37776591212172822 -0.22922219643972611 0 0.39833869899814273 -0.21177570554249511 0 0.37776591212172822 -0.22922219643972611 0 0.39833869899814273 -0.21177570554249511 0 0.36882636877280872 -0.2066817856364451 0 0.39833869899814273 -0.21177570554249511 0 0.36882636877280872 -0.2066817856364451 0 0.37296603985658539 -0.21879191572707671 0 0.39833869899814273 -0.21177570554249511 0 0.36882636877280872 -0.2066817856364451 0 0.38411006467893283 -0.19457841874752749 0 0.39833869899814273 -0.21177570554249511 0 0.37738148972098229 -0.187859035160133 0 0.38411006467893283 -0.19457841874752749 0 0.3945941235732679 -0.1862759497594953 0 0.36760860215419772 -0.1949362202025782 0 0.37738148972098229 -0.187859035160133 0 0.38411006467893283 -0.19457841874752749 0 0.37738148972098229 -0.187859035160133 0 0.38411006467893283 -0.19457841874752749 0 0.36882636877280872 -0.2066817856364451 0 0.38411006467893283 -0.19457841874752749 0 0.38411006467893283 -0.19457841874752749 0 0.3945941235732679 -0.1862759497594953 0 0.38411006467893283 -0.19457841874752749 0 0.39995679372499748 -0.21040350083865531 0 0.38411006467893283 -0.19457841874752749 0 0.40152898679271698 -0.19578345274686909 0 0.3945941235732679 -0.1862759497594953 0 0.38411006467893283 -0.19457841874752749 0 0.40152898679271698 -0.19578345274686909 0 0.39995679372499748 -0.21040350083865531 0 0.40152898679271698 -0.19578345274686909 0 0.39995679372499748 -0.21040350083865531 0 0.41264626079592359 -0.1996423592843522 0 0.40152898679271698 -0.19578345274686909 0 0.40996492572005871 -0.18757858374477249 0 0.3945941235732679 -0.1862759497594953 0 0.38411006467893283 -0.19457841874752749 0 0.39833869899814273 -0.21177570554249511 0 0.39995679372499748 -0.21040350083865531 0 0.39995679372499748 -0.21040350083865531 0 0.40195610505540658 -0.21240008106901959 0 0.41264626079592359 -0.1996423592843522 0 0.39689130171485981 -0.2229433554671284 0 0.39833869899814273 -0.21177570554249511 0 0.40195610505540658 -0.21240008106901959 0 0.39995679372499748 -0.21040350083865531 0 0.40195610505540658 -0.21240008106901959 0 0.39833869899814273 -0.21177570554249511 0 0.40195610505540658 -0.21240008106901959 0 0.39833869899814273 -0.21177570554249511 0 0.39995679372499748 -0.21040350083865531 0 0.40195610505540658 -0.21240008106901959 0 0.39833869899814273 -0.21177570554249511 0 0.39995679372499748 -0.21040350083865531 0 0.40195610505540658 -0.21240008106901959 0 0.42793757122787779 -0.21688456286742741 0 0.42705670245663108 -0.2198137117462938 0 0.40195610505540658 -0.21240008106901959 0 0.42793757122787779 -0.21688456286742741 0 0.40195610505540658 -0.21240008106901959 0 0.41264626079592359 -0.1996423592843522 0 0.42793757122787779 -0.21688456286742741 0 0.39995679372499748 -0.21040350083865531 0 0.41264626079592359 -0.1996423592843522 0 0.40152898679271698 -0.19578345274686909 0 0.40996492572005871 -0.18757858374477249 0 0.41264626079592359 -0.1996423592843522 0 0.41264626079592359 -0.1996423592843522 0 0.42533572786684959 -0.18888121773004901 0 0.40996492572005871 -0.18757858374477249 0 0.42533572786684959 -0.18888121773004901 0 0.40996492572005871 -0.18757858374477249 0 0.41264626079592359 -0.1996423592843522 0 0.42533572786684959 -0.18888121773004901 0 0.41264626079592359 -0.1996423592843522 0 0.42533572786684959 -0.18888121773004901 0 0.42793757122787779 -0.21688456286742741 0 0.42533572786684959 -0.18888121773004901 0 0.43608493134165222 -0.18979218370483689 0 0.42793757122787779 -0.21688456286742741 0 0.42533572786684959 -0.18888121773004901 0 0.43608493134165222 -0.18979218370483689 0 0.43608493134165222 -0.18979218370483689 0 0.42793757122787779 -0.21688456286742741 0 0.43608493134165222 -0.18979218370483689 0 0.42793757122787779 -0.21688456286742741 0 0.43705005390370028 -0.2081830893419151 0 0.42793757122787779 -0.21688456286742741 0 0.42705670245663108 -0.2198137117462938 0 0.42793757122787779 -0.21688456286742741 0 0.43705005390370028 -0.2081830893419151 0 0.43532392113015311 -0.21815946981353959 0 0.42793757122787779 -0.21688456286742741 0 0.43532392113015311 -0.21815946981353959 0 0.43532392113015311 -0.21815946981353959 0 0.43743171450158019 -0.22556724494655581 0 0.43194023056590519 -0.2227343754037909 0 0.43743171450158019 -0.22556724494655581 0 0.43194023056590519 -0.2227343754037909 0 0.43245933507840162 -0.2304197911589804 0 0.42793757122787779 -0.21688456286742741 0 0.43532392113015311 -0.21815946981353959 0 0.43194023056590519 -0.2227343754037909 0 0.43194023056590519 -0.2227343754037909 0 0.42705670245663108 -0.2198137117462938 0 0.42109287165959169 -0.23151070645990171 0 0.42793757122787779 -0.21688456286742741 0 0.43194023056590519 -0.2227343754037909 0 0.42705670245663108 -0.2198137117462938 0 0.43245933507840162 -0.2304197911589804 0 0.43117647146287807 -0.23854732710916821 0 0.42109287165959169 -0.23151070645990171 0 0.43194023056590519 -0.2227343754037909 0 0.43245933507840162 -0.2304197911589804 0 0.42109287165959169 -0.23151070645990171 0 0.43245933507840162 -0.2304197911589804 0 0.43117647146287807 -0.23854732710916821 0 0.43776005864925888 -0.23260975141312901 0 0.43743171450158019 -0.22556724494655581 0 0.43245933507840162 -0.2304197911589804 0 0.43776005864925888 -0.23260975141312901 0 0.43607018031341599 -0.24902227896638879 0 0.41547662598497981 -0.24488610390270271 0 0.42109287165959169 -0.23151070645990171 0 0.42109287165959169 -0.23151070645990171 0 0.44022963826377859 -0.25062133185078228 0 0.43607018031341599 -0.24902227896638879 0 0.42109287165959169 -0.23151070645990171 0 0.44022963826377859 -0.25062133185078228 0 0.43117647146287807 -0.23854732710916821 0 0.42109287165959169 -0.23151070645990171 0 0.44022963826377859 -0.25062133185078228 0 0.41547662598497981 -0.24488610390270271 0 0.41189286444498358 -0.23767356997190461 0 0.42109287165959169 -0.23151070645990171 0 0.43607018031341599 -0.24902227896638879 0 0.41547662598497981 -0.24488610390270271 0 0.41403503238638528 -0.25541409025794409 0 0.41547662598497981 -0.24488610390270271 0 0.40656155532676092 -0.24536674100641531 0 0.41403503238638528 -0.25541409025794409 0 0.41547662598497981 -0.24488610390270271 0 0.40656155532676092 -0.24536674100641531 0 0.41189286444498358 -0.23767356997190461 0 0.40356165349530537 -0.23201626959986199 0 0.40656155532676092 -0.24536674100641531 0 0.41189286444498358 -0.23767356997190461 0 0.40356165349530537 -0.23201626959986199 0 0.41189286444498358 -0.23767356997190461 0 0.42109287165959169 -0.23151070645990171 0 0.40195610505540658 -0.21240008106901959 0 0.42109287165959169 -0.23151070645990171 0 0.40195610505540658 -0.21240008106901959 0 0.42705670245663108 -0.2198137117462938 0 0.42109287165959169 -0.23151070645990171 0 0.40356165349530537 -0.23201626959986199 0 0.40195610505540658 -0.21240008106901959 0 0.42109287165959169 -0.23151070645990171 0 0.40389929182747558 -0.12540575427266309 0 0.39048706462484789 -0.1345059760622323 0 0.4071018943324885 -0.14166773801088969 0 0.38399428494165933 -0.1159151624798434 0 0.40389929182747558 -0.12540575427266309 0 0.39048706462484789 -0.1345059760622323 0 0.38399428494165933 -0.1159151624798434 0 0.37623402252563221 -0.13284116733776111 0 0.39048706462484789 -0.1345059760622323 0 0.37623402252563221 -0.13284116733776111 0 0.39048706462484789 -0.1345059760622323 0 0.3834435968894308 -0.1522311944286544 0 0.36645691586078027 -0.14332206445469101 0 0.37623402252563221 -0.13284116733776111 0 0.3834435968894308 -0.1522311944286544 0 0.39048706462484789 -0.1345059760622323 0 0.3834435968894308 -0.1522311944286544 0 0.39525448357015908 -0.14670753210061949 0 0.39048706462484789 -0.1345059760622323 0 0.39525448357015908 -0.14670753210061949 0 0.4071018943324885 -0.14166773801088969 0 0.3834435968894308 -0.1522311944286544 0 0.39525448357015908 -0.14670753210061949 0 0.39998537843386889 -0.15842521990070171 0 0.39525448357015908 -0.14670753210061949 0 0.39998537843386889 -0.15842521990070171 0 0.4071018943324885 -0.14166773801088969 0 0.39998537843386889 -0.15842521990070171 0 0.39817069419540979 -0.1705522289761941 0 0.38338260560159632 -0.16717028198591849 0 0.39998537843386889 -0.15842521990070171 0 0.39817069419540979 -0.1705522289761941 0 0.4147206691729064 -0.1703374642586612 0 0.36644055941616921 -0.16817537727736601 0 0.38338260560159632 -0.16717028198591849 0 0.37778503276365222 -0.17638388573813141 0 0.3834435968894308 -0.1522311944286544 0 0.39998537843386889 -0.15842521990070171 0 0.38338260560159632 -0.16717028198591849 0 0.37091834881109709 -0.15621951701969211 0 0.3834435968894308 -0.1522311944286544 0 0.38338260560159632 -0.16717028198591849 0 0.36672284246357612 -0.183913933929746 0 0.37778503276365222 -0.17638388573813141 0 0.3945941235732679 -0.1862759497594953 0 0.36672284246357612 -0.183913933929746 0 0.37738148972098229 -0.187859035160133 0 0.3945941235732679 -0.1862759497594953 0 0.38338260560159632 -0.16717028198591849 0 0.37778503276365222 -0.17638388573813141 0 0.3945941235732679 -0.1862759497594953 0 0.36672284246357612 -0.183913933929746 0 0.3945941235732679 -0.1862759497594953 0 0.39817069419540979 -0.1705522289761941 0 0.3945941235732679 -0.1862759497594953 0 0.4147206691729064 -0.1703374642586612 0 0.3945941235732679 -0.1862759497594953 0 0.4147206691729064 -0.1703374642586612 0 0.39817069419540979 -0.1705522289761941 0 0.38338260560159632 -0.16717028198591849 0 0.3945941235732679 -0.1862759497594953 0 0.40996492572005871 -0.18757858374477249 0 0.3945941235732679 -0.1862759497594953 0 0.40996492572005871 -0.18757858374477249 0 0.42533572786684959 -0.18888121773004901 0 0.4147206691729064 -0.1703374642586612 0 0.40996492572005871 -0.18757858374477249 0 0.3945941235732679 -0.1862759497594953 0 0.4147206691729064 -0.1703374642586612 0 0.42533572786684959 -0.18888121773004901 0 0.4311933856300102 -0.1727257335139786 0 0.4147206691729064 -0.1703374642586612 0 0.42533572786684959 -0.18888121773004901 0 0.4311933856300102 -0.1727257335139786 0 0.44013242709011607 -0.17633306468406151 0 0.42533572786684959 -0.18888121773004901 0 0.44013242709011607 -0.17633306468406151 0 0.42533572786684959 -0.18888121773004901 0 0.43608493134165222 -0.18979218370483689 0 0.44013242709011607 -0.17633306468406151 0 0.4311933856300102 -0.1727257335139786 0 0.44013242709011607 -0.17633306468406151 0 0.44093088924763357 -0.17367794213929449 0 0.4147206691729064 -0.1703374642586612 0 0.43484721477254362 -0.15439897875782541 0 0.4147206691729064 -0.1703374642586612 0 0.41959041424774418 -0.15209509677013139 0 0.43484721477254362 -0.15439897875782541 0 0.4311933856300102 -0.1727257335139786 0 0.43484721477254362 -0.15439897875782541 0 0.44093088924763357 -0.17367794213929449 0 0.4311933856300102 -0.1727257335139786 0 0.4147206691729064 -0.1703374642586612 0 0.43484721477254362 -0.15439897875782541 0 0.39998537843386889 -0.15842521990070171 0 0.4147206691729064 -0.1703374642586612 0 0.41959041424774418 -0.15209509677013139 0 0.39998537843386889 -0.15842521990070171 0 0.4071018943324885 -0.14166773801088969 0 0.41959041424774418 -0.15209509677013139 0 0.4071018943324885 -0.14166773801088969 0 0.41959041424774418 -0.15209509677013139 0 0.42097745872229991 -0.13996357854775321 0 0.41959041424774418 -0.15209509677013139 0 0.43484721477254362 -0.15439897875782541 0 0.43271427144070967 -0.1476397518206598 0 0.43484721477254362 -0.15439897875782541 0 0.43271427144070967 -0.1476397518206598 0 0.43271427144070967 -0.1476397518206598 0 0.42772074153405332 -0.142013867085789 0 0.43422525169156329 -0.1384887601096659 0 0.41959041424774418 -0.15209509677013139 0 0.42772074153405332 -0.142013867085789 0 0.42097745872229991 -0.13996357854775321 0 0.41959041424774418 -0.15209509677013139 0 0.43271427144070967 -0.1476397518206598 0 0.42772074153405332 -0.142013867085789 0 0.43060134334286781 -0.1315981597681749 0 0.41771782829441523 -0.12930509682923591 0 0.42097745872229991 -0.13996357854775321 0 0.42772074153405332 -0.142013867085789 0 0.43060134334286781 -0.1315981597681749 0 0.42097745872229991 -0.13996357854775321 0 0.43271427144070967 -0.1476397518206598 0 0.43422525169156329 -0.1384887601096659 0 0.44302164740239852 -0.1355481593017423 0 0.43422525169156329 -0.1384887601096659 0 0.43060134334286781 -0.1315981597681749 0 0.44302164740239852 -0.1355481593017423 0 0.42772074153405332 -0.142013867085789 0 0.43422525169156329 -0.1384887601096659 0 0.43060134334286781 -0.1315981597681749 0 0.42761914860622469 -0.1192410269490102 0 0.43060134334286781 -0.1315981597681749 0 0.41771782829441523 -0.12930509682923591 0 0.40389929182747558 -0.12540575427266309 0 0.4071018943324885 -0.14166773801088969 0 0.41771782829441523 -0.12930509682923591 0 0.4071018943324885 -0.14166773801088969 0 0.41771782829441523 -0.12930509682923591 0 0.42097745872229991 -0.13996357854775321 0 0.4758219481667017 -0.1219505294762471 0 0.45526089873994252 -0.1382331044739267 0 0.4758219481667017 -0.1219505294762471 0 0.46262887198345409 -0.1249304573877927 0 0.45526089873994252 -0.1382331044739267 0 0.4758219481667017 -0.1219505294762471 0 0.45526089873994252 -0.1382331044739267 0 0.47504996976334418 -0.14672168562969801 0 0.45526089873994252 -0.1382331044739267 0 0.452797208650767 -0.13421892473433311 0 0.46262887198345409 -0.1249304573877927 0 0.45526089873994252 -0.1382331044739267 0 0.452797208650767 -0.13421892473433311 0 0.44863286444306971 -0.12743380747437449 0 0.44302164740239852 -0.1355481593017423 0 0.452797208650767 -0.13421892473433311 0 0.44863286444306971 -0.12743380747437449 0 0.452797208650767 -0.13421892473433311 0 0.43898338372036272 -0.1226185853414587 0 0.43060134334286781 -0.1315981597681749 0 0.44302164740239852 -0.1355481593017423 0 0.43898338372036272 -0.1226185853414587 0 0.44863286444306971 -0.12743380747437449 0 0.44302164740239852 -0.1355481593017423 0 0.45526089873994252 -0.1382331044739267 0 0.452797208650767 -0.13421892473433311 0 0.45044256574291802 -0.1420488079800776 0 0.452797208650767 -0.13421892473433311 0 0.45044256574291802 -0.1420488079800776 0 0.44302164740239852 -0.1355481593017423 0 0.452797208650767 -0.13421892473433311 0 0.45044256574291802 -0.1420488079800776 0 0.45526089873994252 -0.1382331044739267 0 0.45044256574291802 -0.1420488079800776 0 0.43484721477254362 -0.15439897875782541 0 0.45044256574291802 -0.1420488079800776 0 0.44568672749527583 -0.15786337505968609 0 0.43484721477254362 -0.15439897875782541 0 0.43271427144070967 -0.1476397518206598 0 0.45044256574291802 -0.1420488079800776 0 0.43271427144070967 -0.1476397518206598 0 0.44302164740239852 -0.1355481593017423 0 0.45044256574291802 -0.1420488079800776 0 0.45044256574291802 -0.1420488079800776 0 0.44568672749527583 -0.15786337505968609 0 0.45044256574291802 -0.1420488079800776 0 0.45405878778576308 -0.15160883881828449 0 0.44568672749527583 -0.15786337505968609 0 0.43484721477254362 -0.15439897875782541 0 0.45044256574291802 -0.1420488079800776 0 0.45526089873994252 -0.1382331044739267 0 0.45405878778576308 -0.15160883881828449 0 0.46546139956463622 -0.15485315093355459 0 0.45526089873994252 -0.1382331044739267 0 0.46546139956463622 -0.15485315093355459 0 0.47504996976334418 -0.14672168562969801 0 0.45526089873994252 -0.1382331044739267 0 0.46546139956463622 -0.15485315093355459 0 0.45526089873994252 -0.1382331044739267 0 0.45044256574291802 -0.1420488079800776 0 0.45405878778576308 -0.15160883881828449 0 0.46546139956463622 -0.15485315093355459 0 0.46420865896762747 -0.16891886019422439 0 0.45344234738604272 -0.16504575564417681 0 0.46420865896762747 -0.16891886019422439 0 0.45344234738604272 -0.16504575564417681 0 0.45810802352961633 -0.18015357914202049 0 0.46546139956463622 -0.15485315093355459 0 0.45344234738604272 -0.16504575564417681 0 0.45405878778576308 -0.15160883881828449 0 0.46546139956463622 -0.15485315093355459 0 0.45344234738604272 -0.16504575564417681 0 0.43484721477254362 -0.15439897875782541 0 0.44568672749527583 -0.15786337505968609 0 0.44093088924763357 -0.17367794213929449 0 0.45344234738604272 -0.16504575564417681 0 0.44568672749527583 -0.15786337505968609 0 0.44093088924763357 -0.17367794213929449 0 0.45405878778576308 -0.15160883881828449 0 0.45344234738604272 -0.16504575564417681 0 0.44568672749527583 -0.15786337505968609 0 0.44568672749527583 -0.15786337505968609 0 0.44093088924763357 -0.17367794213929449 0 0.43484721477254362 -0.15439897875782541 0 0.44093088924763357 -0.17367794213929449 0 0.45344234738604272 -0.16504575564417681 0 0.44013242709011607 -0.17633306468406151 0 0.44093088924763357 -0.17367794213929449 0 0.45344234738604272 -0.16504575564417681 0 0.44013242709011607 -0.17633306468406151 0 0.45344234738604272 -0.16504575564417681 0 0.44013242709011607 -0.17633306468406151 0 0.45810802352961633 -0.18015357914202049 0 0.44013242709011607 -0.17633306468406151 0 0.45810802352961633 -0.18015357914202049 0 0.44628878371077502 -0.1906569326457061 0 0.44013242709011607 -0.17633306468406151 0 0.44093088924763357 -0.17367794213929449 0 0.43608493134165222 -0.18979218370483689 0 0.44013242709011607 -0.17633306468406151 0 0.43608493134165222 -0.18979218370483689 0 0.44013242709011607 -0.17633306468406151 0 0.44628878371077502 -0.1906569326457061 0 0.44013242709011607 -0.17633306468406151 0 0.44628878371077502 -0.1906569326457061 0 0.45810802352961633 -0.18015357914202049 0 0.47757744101849009 -0.17459425730966599 0 0.4679911330915601 -0.19249614816574159 0 0.46420865896762747 -0.16891886019422439 0 0.45810802352961633 -0.18015357914202049 0 0.47757744101849009 -0.17459425730966599 0 0.47757744101849009 -0.17459425730966599 0 0.4679911330915601 -0.19249614816574159 0 0.48969348247234529 -0.19433536368577631 0 0.47757744101849009 -0.17459425730966599 0 0.48969348247234529 -0.19433536368577631 0 0.4901061528608861 -0.17849100266148221 0 0.49999999999999911 -0.16761843666822529 0 0.49999999999999939 -0.19520881322166569 0 0.47757744101849009 -0.17459425730966599 0 0.4901061528608861 -0.17849100266148221 0 0.48969348247234529 -0.19433536368577631 0 0.4901061528608861 -0.17849100266148221 0 0.49999999999999911 -0.16761843666822529 0 0.48325984081359757 -0.16069814242207689 0 0.49999999999999911 -0.16761843666822529 0 0.48325984081359757 -0.16069814242207689 0 0.48791097408334899 -0.14478448307223679 0 0.47757744101849009 -0.17459425730966599 0 0.4901061528608861 -0.17849100266148221 0 0.48325984081359757 -0.16069814242207689 0 0.46546139956463622 -0.15485315093355459 0 0.47757744101849009 -0.17459425730966599 0 0.48325984081359757 -0.16069814242207689 0 0.46546139956463622 -0.15485315093355459 0 0.47757744101849009 -0.17459425730966599 0 0.46546139956463622 -0.15485315093355459 0 0.46420865896762747 -0.16891886019422439 0 0.47757744101849009 -0.17459425730966599 0 0.48325984081359757 -0.16069814242207689 0 0.47504996976334418 -0.14672168562969801 0 0.48791097408334899 -0.14478448307223679 0 0.46546139956463622 -0.15485315093355459 0 0.48325984081359757 -0.16069814242207689 0 0.47504996976334418 -0.14672168562969801 0 0.46546139956463622 -0.15485315093355459 0 0.47504996976334418 -0.14672168562969801 0 0.49999999999999911 -0.16761843666822529 0 0.48791097408334899 -0.14478448307223679 0 0.49999999999999911 -0.16761843666822529 0 0.5 -0.1408630225402803 0 0.48791097408334899 -0.14478448307223679 0 0.5 -0.1141076084123353 0 0.5 -0.1408630225402803 0 0.4897785820492494 -0.12994724613398159 0 0.4758219481667017 -0.1219505294762471 0 0.48791097408334899 -0.14478448307223679 0 0.4897785820492494 -0.12994724613398159 0 0.5 -0.1408630225402803 0 0.48791097408334899 -0.14478448307223679 0 0.4897785820492494 -0.12994724613398159 0 0.4758219481667017 -0.1219505294762471 0 0.48426157126586411 -0.1233864683102833 0 0.4897785820492494 -0.12994724613398159 0 0.4758219481667017 -0.1219505294762471 0 0.47504996976334418 -0.14672168562969801 0 0.48791097408334899 -0.14478448307223679 0 0.4758219481667017 -0.1219505294762471 0 0.48791097408334899 -0.14478448307223679 0 0.46261594513823429 -0.2423971676914414 0 0.45445236442450632 -0.21652705016857321 0 0.46877902108580488 -0.22246647274181669 0 0.46261594513823429 -0.2423971676914414 0 0.45445236442450632 -0.21652705016857321 0 0.46261594513823429 -0.2423971676914414 0 0.44407273572625833 -0.24010486117210669 0 0.45445236442450632 -0.21652705016857321 0 0.46261594513823429 -0.2423971676914414 0 0.44407273572625833 -0.24010486117210669 0 0.46261594513823429 -0.2423971676914414 0 0.45239556983069201 -0.24910676326841799 0 0.44407273572625833 -0.24010486117210669 0 0.45239556983069201 -0.24910676326841799 0 0.44407273572625833 -0.24010486117210669 0 0.44022963826377859 -0.25062133185078228 0 0.43117647146287807 -0.23854732710916821 0 0.44407273572625833 -0.24010486117210669 0 0.44022963826377859 -0.25062133185078228 0 0.44407273572625833 -0.24010486117210669 0 0.44022963826377859 -0.25062133185078228 0 0.43117647146287807 -0.23854732710916821 0 0.44407273572625833 -0.24010486117210669 0 0.43117647146287807 -0.23854732710916821 0 0.44407273572625833 -0.24010486117210669 0 0.43776005864925888 -0.23260975141312901 0 0.44407273572625833 -0.24010486117210669 0 0.43776005864925888 -0.23260975141312901 0 0.44242281265500699 -0.22808231573275489 0 0.44407273572625833 -0.24010486117210669 0 0.4538264920438515 -0.21454368127572671 0 0.44407273572625833 -0.24010486117210669 0 0.44242281265500699 -0.22808231573275489 0 0.44660880770151828 -0.22162181407045251 0 0.44407273572625833 -0.24010486117210669 0 0.44660880770151828 -0.22162181407045251 0 0.4538264920438515 -0.21454368127572671 0 0.44407273572625833 -0.24010486117210669 0 0.45445236442450632 -0.21652705016857321 0 0.4538264920438515 -0.21454368127572671 0 0.43743171450158019 -0.22556724494655581 0 0.43776005864925888 -0.23260975141312901 0 0.44242281265500699 -0.22808231573275489 0 0.44660880770151828 -0.22162181407045251 0 0.4417145917575489 -0.22061244548655151 0 0.44497724235001412 -0.21785030346058809 0 0.44242281265500699 -0.22808231573275489 0 0.44660880770151828 -0.22162181407045251 0 0.4417145917575489 -0.22061244548655151 0 0.43743171450158019 -0.22556724494655581 0 0.44242281265500699 -0.22808231573275489 0 0.4417145917575489 -0.22061244548655151 0 0.43532392113015311 -0.21815946981353959 0 0.43743171450158019 -0.22556724494655581 0 0.4417145917575489 -0.22061244548655151 0 0.44812023015309921 -0.2085989049075605 0 0.44628878371077502 -0.1906569326457061 0 0.4538264920438515 -0.21454368127572671 0 0.43532392113015311 -0.21815946981353959 0 0.4417145917575489 -0.22061244548655151 0 0.44359907873499138 -0.2132823341861147 0 0.43705005390370028 -0.2081830893419151 0 0.43532392113015311 -0.21815946981353959 0 0.44359907873499138 -0.2132823341861147 0 0.4417145917575489 -0.22061244548655151 0 0.44497724235001412 -0.21785030346058809 0 0.44359907873499138 -0.2132823341861147 0 0.44497724235001412 -0.21785030346058809 0 0.44359907873499138 -0.2132823341861147 0 0.44735645980830491 -0.21584095778769349 0 0.43705005390370028 -0.2081830893419151 0 0.44359907873499138 -0.2132823341861147 0 0.44230476708382688 -0.2027968961376562 0 0.44359907873499138 -0.2132823341861147 0 0.44812023015309921 -0.2085989049075605 0 0.44230476708382688 -0.2027968961376562 0 0.44812023015309921 -0.2085989049075605 0 0.44949225336136528 -0.21268514185295681 0 0.4538264920438515 -0.21454368127572671 0 0.44949225336136528 -0.21268514185295681 0 0.44920435697031991 -0.21620970766900499 0 0.4538264920438515 -0.21454368127572671 0 0.44660880770151828 -0.22162181407045251 0 0.44920435697031991 -0.21620970766900499 0 0.4538264920438515 -0.21454368127572671 0 0.44660880770151828 -0.22162181407045251 0 0.44497724235001412 -0.21785030346058809 0 0.44735645980830491 -0.21584095778769349 0 0.44949225336136528 -0.21268514185295681 0 0.44735645980830491 -0.21584095778769349 0 0.44920435697031991 -0.21620970766900499 0 0.44660880770151828 -0.22162181407045251 0 0.44735645980830491 -0.21584095778769349 0 0.44920435697031991 -0.21620970766900499 0 0.44359907873499138 -0.2132823341861147 0 0.44812023015309921 -0.2085989049075605 0 0.44949225336136528 -0.21268514185295681 0 0.44359907873499138 -0.2132823341861147 0 0.44949225336136528 -0.21268514185295681 0 0.44735645980830491 -0.21584095778769349 0 0.44628878371077502 -0.1906569326457061 0 0.4538264920438515 -0.21454368127572671 0 0.44812023015309921 -0.2085989049075605 0 0.44230476708382688 -0.2027968961376562 0 0.44628878371077502 -0.1906569326457061 0 0.43608493134165222 -0.18979218370483689 0 0.43705005390370028 -0.2081830893419151 0 0.44230476708382688 -0.2027968961376562 0 0.43608493134165222 -0.18979218370483689 0 0.44628878371077502 -0.1906569326457061 0 0.43608493134165222 -0.18979218370483689 0 0.44230476708382688 -0.2027968961376562 0 0.44628878371077502 -0.1906569326457061 0 0.44628878371077502 -0.1906569326457061 0 0.4679911330915601 -0.19249614816574159 0 0.45810802352961633 -0.18015357914202049 0 0.44628878371077502 -0.1906569326457061 0 0.4679911330915601 -0.19249614816574159 0 0.44628878371077502 -0.1906569326457061 0 0.4679911330915601 -0.19249614816574159 0 0.4538264920438515 -0.21454368127572671 0 0.4679911330915601 -0.19249614816574159 0 0.45445236442450632 -0.21652705016857321 0 0.4538264920438515 -0.21454368127572671 0 0.45445236442450632 -0.21652705016857321 0 0.47611998775766312 -0.21107008751771791 0 0.46877902108580488 -0.22246647274181669 0 0.4679911330915601 -0.19249614816574159 0 0.45445236442450632 -0.21652705016857321 0 0.47611998775766312 -0.21107008751771791 0 0.45445236442450632 -0.21652705016857321 0 0.4538264920438515 -0.21454368127572671 0 0.47611998775766312 -0.21107008751771791 0 0.4837368842051693 -0.20351614798292 0 0.48848982513407763 -0.2144329097505622 0 0.47611998775766312 -0.21107008751771791 0 0.48848982513407763 -0.2144329097505622 0 0.48281238568043988 -0.2265987943301217 0 0.4679911330915601 -0.19249614816574159 0 0.48969348247234529 -0.19433536368577631 0 0.4679911330915601 -0.19249614816574159 0 0.47611998775766312 -0.21107008751771791 0 0.4837368842051693 -0.20351614798292 0 0.4679911330915601 -0.19249614816574159 0 0.4837368842051693 -0.20351614798292 0 0.48969348247234529 -0.19433536368577631 0 0.4901061528608861 -0.17849100266148221 0 0.48969348247234529 -0.19433536368577631 0 0.49999999999999939 -0.19520881322166569 0 0.4837368842051693 -0.20351614798292 0 0.48969348247234529 -0.19433536368577631 0 0.49638999257020072 -0.20524623079480231 0 0.48969348247234529 -0.19433536368577631 0 0.49999999999999939 -0.19520881322166569 0 0.49638999257020072 -0.20524623079480231 0 0.48969348247234529 -0.19433536368577631 0 0.49638999257020072 -0.20524623079480231 0 0.48969348247234529 -0.19433536368577631 0 0.49999999999999939 -0.19520881322166569 0 0.48848982513407763 -0.2144329097505622 0 0.49638999257020072 -0.20524623079480231 0 0.5 -0.22103411829838701 0 0.49999999999999939 -0.19520881322166569 0 0.49638999257020072 -0.20524623079480231 0 0.5 -0.22103411829838701 0 0.4837368842051693 -0.20351614798292 0 0.48848982513407763 -0.2144329097505622 0 0.49638999257020072 -0.20524623079480231 0 0.5 -0.22103411829838701 0 0.48281238568043988 -0.2265987943301217 0 0.49103087473552032 -0.2347736567100675 0 0.48848982513407763 -0.2144329097505622 0 0.5 -0.22103411829838701 0 0.48281238568043988 -0.2265987943301217 0 0.5 -0.22103411829838701 0 0.49999999999999872 -0.24685942337510841 0 0.49103087473552032 -0.2347736567100675 0 0.46261594513823429 -0.2423971676914414 0 0.48281238568043988 -0.2265987943301217 0 0.46877902108580488 -0.22246647274181669 0 0.47611998775766312 -0.21107008751771791 0 0.48281238568043988 -0.2265987943301217 0 0.46877902108580488 -0.22246647274181669 0 0.46261594513823429 -0.2423971676914414 0 0.48281238568043988 -0.2265987943301217 0 0.48131111326164261 -0.2446022908366528 0 0.46261594513823429 -0.2423971676914414 0 0.48131111326164261 -0.2446022908366528 0 0.48281238568043988 -0.2265987943301217 0 0.48131111326164261 -0.2446022908366528 0 0.49103087473552032 -0.2347736567100675 0 0.48131111326164261 -0.2446022908366528 0 0.49999999999999872 -0.24685942337510841 0 0.49103087473552032 -0.2347736567100675 0 0.48131111326164261 -0.2446022908366528 0 0.49999999999999872 -0.24685942337510841 0 0.49999999999999872 -0.24685942337510841 0 0.5 -0.26800963093486241 0 0.47980620269499619 -0.26496830124738208 0 0.48131111326164261 -0.2446022908366528 0 0.49999999999999872 -0.24685942337510841 0 0.47980620269499619 -0.26496830124738208 0 0.48997068719573028 -0.27813789466584221 0 0.5 -0.26800963093486241 0 0.47980620269499619 -0.26496830124738208 0 0.48997068719573028 -0.27813789466584221 0 0.5 -0.26800963093486241 0 0.5 -0.28915983849461652 0 0.48997068719573028 -0.27813789466584221 0 0.47980620269499619 -0.26496830124738208 0 0.48007654608792483 -0.29041380798650801 0 0.47980620269499619 -0.26496830124738208 0 0.46015309217585237 -0.27051756991864462 0 0.48007654608792483 -0.29041380798650801 0 0.46015309217585237 -0.27051756991864462 0 0.48007654608792483 -0.29041380798650801 0 0.46261594513823429 -0.2423971676914414 0 0.48131111326164261 -0.2446022908366528 0 0.47980620269499619 -0.26496830124738208 0 0.46261594513823429 -0.2423971676914414 0 0.47980620269499619 -0.26496830124738208 0 0.46015309217585237 -0.27051756991864462 0 0.46261594513823429 -0.2423971676914414 0 0.45239556983069201 -0.24910676326841799 0 0.46015309217585237 -0.27051756991864462 0 0.46015309217585237 -0.27051756991864462 0 0.445010727445043 -0.28321934485363381 0 0.43275339115077188 -0.27107976006345491 0 0.46015309217585237 -0.27051756991864462 0 0.44022963826377859 -0.25062133185078228 0 0.43275339115077188 -0.27107976006345491 0 0.45239556983069201 -0.24910676326841799 0 0.46015309217585237 -0.27051756991864462 0 0.44022963826377859 -0.25062133185078228 0 0.46015309217585237 -0.27051756991864462 0 0.44022963826377859 -0.25062133185078228 0 0.44525872018890461 -0.29795395069709413 0 0.46116869749587303 -0.31409254854909829 0 0.44174793063425011 -0.31446860561548762 0 0.44525872018890461 -0.29795395069709413 0 0.445010727445043 -0.28321934485363381 0 0.42527714403776679 -0.2915381882761281 0 0.44525872018890461 -0.29795395069709413 0 0.445010727445043 -0.28321934485363381 0 0.45835070833543362 -0.2915451330707825 0 0.46015309217585237 -0.27051756991864462 0 0.45835070833543362 -0.2915451330707825 0 0.48007654608792483 -0.29041380798650801 0 0.46015309217585237 -0.27051756991864462 0 0.445010727445043 -0.28321934485363381 0 0.45835070833543362 -0.2915451330707825 0 0.45835070833543362 -0.2915451330707825 0 0.46116869749587303 -0.31409254854909829 0 0.45835070833543362 -0.2915451330707825 0 0.47010455776191801 -0.30267384712271478 0 0.46116869749587303 -0.31409254854909829 0 0.44525872018890461 -0.29795395069709413 0 0.45835070833543362 -0.2915451330707825 0 0.46116869749587303 -0.31409254854909829 0 0.47010455776191801 -0.30267384712271478 0 0.48082227912844028 -0.31464389888447047 0 0.46116869749587303 -0.31409254854909829 0 0.47010455776191801 -0.30267384712271478 0 0.48007654608792483 -0.29041380798650801 0 0.48082227912844028 -0.31464389888447047 0 0.45835070833543362 -0.2915451330707825 0 0.47010455776191801 -0.30267384712271478 0 0.48007654608792483 -0.29041380798650801 0 0.48007654608792483 -0.29041380798650801 0 0.5 -0.28915983849461652 0 0.49999999999999822 -0.31031004605437063 0 0.48997068719573028 -0.27813789466584221 0 0.48007654608792483 -0.29041380798650801 0 0.5 -0.28915983849461652 0 0.48007654608792483 -0.29041380798650801 0 0.49999999999999822 -0.31031004605437063 0 0.48082227912844028 -0.31464389888447047 0 0.48007654608792483 -0.29041380798650801 0 0.49999999999999822 -0.31031004605437063 0 0.50000000000000422 -0.33190064851042811 0 0.48199334332815852 -0.33427030626892201 0 0.48082227912844028 -0.31464389888447047 0 0.49999999999999822 -0.31031004605437063 0 0.50000000000000422 -0.33190064851042811 0 0.48082227912844028 -0.31464389888447047 0 0.50000000000000422 -0.33190064851042811 0 0.48199334332815852 -0.33427030626892201 0 0.50000000000000422 -0.33190064851042811 0 0.49999999999999989 -0.35073085698344991 0 0.48707094655729127 -0.34649498261349748 0 0.50000000000000422 -0.33190064851042811 0 0.48199334332815852 -0.33427030626892201 0 0.48707094655729127 -0.34649498261349748 0 0.48199334332815852 -0.33427030626892201 0 0.47199275165219612 -0.32491167943247662 0 0.46398668665631249 -0.33663996402741431 0 0.48199334332815852 -0.33427030626892201 0 0.47073212258788061 -0.34257800730263088 0 0.46398668665631249 -0.33663996402741431 0 0.48199334332815852 -0.33427030626892201 0 0.46398668665631249 -0.33663996402741431 0 0.48199334332815852 -0.33427030626892201 0 0.48707094655729127 -0.34649498261349748 0 0.47726805804483807 -0.34518602949175009 0 0.48199334332815852 -0.33427030626892201 0 0.47073212258788061 -0.34257800730263088 0 0.47726805804483807 -0.34518602949175009 0 0.48199334332815852 -0.33427030626892201 0 0.47199275165219612 -0.32491167943247662 0 0.48082227912844028 -0.31464389888447047 0 0.47199275165219612 -0.32491167943247662 0 0.48082227912844028 -0.31464389888447047 0 0.46116869749587303 -0.31409254854909829 0 0.48886415449271919 -0.37258632744337578 0 0.49999999999999989 -0.35073085698344991 0 0.48435991458164201 -0.36273408930850559 0 0.48886415449271919 -0.37258632744337578 0 0.49999999999999989 -0.35073085698344991 0 0.49612968025468762 -0.38003339036383438 0 0.49999999999999989 -0.35073085698344991 0 0.49612968025468762 -0.38003339036383438 0 0.49999999999999989 -0.35073085698344991 0 0.5 -0.37564150826930492 0 0.49612968025468762 -0.38003339036383438 0 0.48886415449271919 -0.37258632744337578 0 0.48435991458164201 -0.36273408930850559 0 0.48207896533635908 -0.37674229452822489 0 0.49999999999999989 -0.35073085698344991 0 0.48707094655729127 -0.34649498261349748 0 0.48435991458164201 -0.36273408930850559 0 0.48707094655729127 -0.34649498261349748 0 0.47880436338910459 -0.35414796511792901 0 0.48435991458164201 -0.36273408930850559 0 0.48707094655729127 -0.34649498261349748 0 0.47726805804483807 -0.34518602949175009 0 0.47880436338910459 -0.35414796511792901 0 0.47073212258788061 -0.34257800730263088 0 0.47726805804483807 -0.34518602949175009 0 0.46858612994640952 -0.35183240164671059 0 0.47726805804483807 -0.34518602949175009 0 0.47880436338910459 -0.35414796511792901 0 0.46858612994640952 -0.35183240164671059 0 0.47880436338910459 -0.35414796511792901 0 0.46871150144057661 -0.37444435429777118 0 0.46858612994640952 -0.35183240164671059 0 0.47880436338910459 -0.35414796511792901 0 0.48435991458164201 -0.36273408930850559 0 0.46871150144057661 -0.37444435429777118 0 0.48435991458164201 -0.36273408930850559 0 0.46871150144057661 -0.37444435429777118 0 0.48207896533635908 -0.37674229452822489 0 0.46871150144057661 -0.37444435429777118 0 0.46531655165701552 -0.34728053678826187 0 0.46871150144057661 -0.37444435429777118 0 0.45709903684225928 -0.3624610659247271 0 0.46531655165701552 -0.34728053678826187 0 0.46871150144057661 -0.37444435429777118 0 0.45709903684225928 -0.3624610659247271 0 0.44978426467590371 -0.38168388013781479 0 0.46871150144057661 -0.37444435429777118 0 0.46858612994640952 -0.35183240164671059 0 0.46531655165701552 -0.34728053678826187 0 0.45709903684225928 -0.3624610659247271 0 0.46531655165701552 -0.34728053678826187 0 0.45230600792021608 -0.34913601166360569 0 0.47073212258788061 -0.34257800730263088 0 0.46858612994640952 -0.35183240164671059 0 0.46531655165701552 -0.34728053678826187 0 0.46858612994640952 -0.35183240164671059 0 0.46531655165701552 -0.34728053678826187 0 0.46531655165701552 -0.34728053678826187 0 0.45230600792021608 -0.34913601166360569 0 0.45821871723073032 -0.3373990229548493 0 0.45230600792021608 -0.34913601166360569 0 0.44459736585632609 -0.3597799711181987 0 0.4371410188020477 -0.34017282669437893 0 0.45709903684225928 -0.3624610659247271 0 0.45230600792021608 -0.34913601166360569 0 0.44459736585632609 -0.3597799711181987 0 0.44459736585632609 -0.3597799711181987 0 0.44978426467590371 -0.38168388013781479 0 0.43319567952698967 -0.37905306266600131 0 0.45709903684225928 -0.3624610659247271 0 0.44459736585632609 -0.3597799711181987 0 0.44978426467590371 -0.38168388013781479 0 0.47199275165219612 -0.32491167943247662 0 0.46116869749587303 -0.31409254854909829 0 0.46398668665631249 -0.33663996402741431 0 0.46116869749587303 -0.31409254854909829 0 0.45821871723073032 -0.3373990229548493 0 0.44174793063425011 -0.31446860561548762 0 0.46116869749587303 -0.31409254854909829 0 0.46398668665631249 -0.33663996402741431 0 0.46116869749587303 -0.31409254854909829 0 0.46398668665631249 -0.33663996402741431 0 0.45821871723073032 -0.3373990229548493 0 0.46531655165701552 -0.34728053678826187 0 0.46398668665631249 -0.33663996402741431 0 0.46531655165701552 -0.34728053678826187 0 0.45821871723073032 -0.3373990229548493 0 0.46531655165701552 -0.34728053678826187 0 0.46398668665631249 -0.33663996402741431 0 0.45821871723073032 -0.3373990229548493 0 0.47073212258788061 -0.34257800730263088 0 0.46531655165701552 -0.34728053678826187 0 0.46398668665631249 -0.33663996402741431 0 0.46398668665631249 -0.33663996402741431 0 0.45821871723073032 -0.3373990229548493 0 0.45821871723073032 -0.3373990229548493 0 0.44174793063425011 -0.31446860561548762 0 0.4371410188020477 -0.34017282669437893 0 0.45821871723073032 -0.3373990229548493 0 0.4371410188020477 -0.34017282669437893 0 0.45230600792021608 -0.34913601166360569 0 0.45821871723073032 -0.3373990229548493 0 0.4371410188020477 -0.34017282669437893 0 0.45821871723073032 -0.3373990229548493 0 0.44174793063425011 -0.31446860561548762 0 0.44174793063425011 -0.31446860561548762 0 0.42431583039100179 -0.32751840918240288 0 0.4371410188020477 -0.34017282669437893 0 0.44174793063425011 -0.31446860561548762 0 0.42569063396933399 -0.31711366463694668 0 0.42725642628136068 -0.30818248459841552 0 0.44174793063425011 -0.31446860561548762 0 0.42569063396933399 -0.31711366463694668 0 0.42431583039100179 -0.32751840918240288 0 0.42569063396933399 -0.31711366463694668 0 0.4210277784363271 -0.31342290644797749 0 0.42725642628136068 -0.30818248459841552 0 0.42569063396933399 -0.31711366463694668 0 0.42431583039100179 -0.32751840918240288 0 0.41773584869576341 -0.31936170595255808 0 0.4371410188020477 -0.34017282669437893 0 0.41606332037336452 -0.34294663043390411 0 0.42431583039100179 -0.32751840918240288 0 0.4371410188020477 -0.34017282669437893 0 0.41606332037336452 -0.34294663043390411 0 0.41606332037336452 -0.34294663043390411 0 0.41117678475269831 -0.32938202271286249 0 0.39929458867113943 -0.33639486892831832 0 0.42431583039100179 -0.32751840918240288 0 0.41606332037336452 -0.34294663043390411 0 0.41117678475269831 -0.32938202271286249 0 0.41117678475269831 -0.32938202271286249 0 0.40916056654662553 -0.31573279343397098 0 0.41773584869576341 -0.31936170595255808 0 0.40916056654662553 -0.31573279343397098 0 0.40481674175912358 -0.32273544770379697 0 0.40708933034895151 -0.30613868861153448 0 0.41117678475269831 -0.32938202271286249 0 0.40916056654662553 -0.31573279343397098 0 0.39929458867113943 -0.33639486892831832 0 0.40916056654662553 -0.31573279343397098 0 0.41773584869576341 -0.31936170595255808 0 0.41504349807859359 -0.31300043930118798 0 0.40916056654662553 -0.31573279343397098 0 0.41504349807859359 -0.31300043930118798 0 0.41166288756758213 -0.31058326124382141 0 0.42569063396933399 -0.31711366463694668 0 0.41773584869576341 -0.31936170595255808 0 0.4210277784363271 -0.31342290644797749 0 0.41773584869576341 -0.31936170595255808 0 0.41504349807859359 -0.31300043930118798 0 0.4210277784363271 -0.31342290644797749 0 0.42431583039100179 -0.32751840918240288 0 0.41117678475269831 -0.32938202271286249 0 0.41773584869576341 -0.31936170595255808 0 0.44459736585632609 -0.3597799711181987 0 0.42291912154427319 -0.36575965405113681 0 0.44459736585632609 -0.3597799711181987 0 0.42291912154427319 -0.36575965405113681 0 0.43319567952698967 -0.37905306266600131 0 0.44459736585632609 -0.3597799711181987 0 0.42291912154427319 -0.36575965405113681 0 0.42795119230320577 -0.35181074004183688 0 0.44459736585632609 -0.3597799711181987 0 0.4371410188020477 -0.34017282669437893 0 0.42795119230320577 -0.35181074004183688 0 0.4371410188020477 -0.34017282669437893 0 0.41606332037336452 -0.34294663043390411 0 0.42795119230320577 -0.35181074004183688 0 0.41606332037336452 -0.34294663043390411 0 0.40771763510092152 -0.35508334672862912 0 0.39929458867113943 -0.33639486892831832 0 0.42291912154427319 -0.36575965405113681 0 0.42795119230320577 -0.35181074004183688 0 0.40771763510092152 -0.35508334672862912 0 0.41606332037336452 -0.34294663043390411 0 0.42795119230320577 -0.35181074004183688 0 0.40771763510092152 -0.35508334672862912 0 0.42291912154427319 -0.36575965405113681 0 0.40124087723222029 -0.37173933698407502 0 0.41643647296731162 -0.38454309187465668 0 0.42291912154427319 -0.36575965405113681 0 0.40124087723222029 -0.37173933698407502 0 0.42291912154427319 -0.36575965405113681 0 0.40771763510092152 -0.35508334672862912 0 0.40124087723222029 -0.37173933698407502 0 0.39082072173902233 -0.37461361153621631 0 0.40124087723222029 -0.37173933698407502 0 0.38942861079565327 -0.35705694442266561 0 0.40771763510092152 -0.35508334672862912 0 0.40124087723222029 -0.37173933698407502 0 0.38942861079565327 -0.35705694442266561 0 0.39082072173902233 -0.37461361153621631 0 0.40124087723222029 -0.37173933698407502 0 0.38942861079565327 -0.35705694442266561 0 0.39929458867113943 -0.33639486892831832 0 0.38475514014426909 -0.34098660843606371 0 0.40771763510092152 -0.35508334672862912 0 0.38942861079565327 -0.35705694442266561 0 0.39929458867113943 -0.33639486892831832 0 0.38942861079565327 -0.35705694442266561 0 0.39929458867113943 -0.33639486892831832 0 0.38942861079565327 -0.35705694442266561 0 0.36906684866501949 -0.3600208648147325 0 0.3708318904496552 -0.34506499497984527 0 0.38942861079565327 -0.35705694442266561 0 0.38475514014426909 -0.34098660843606371 0 0.3708318904496552 -0.34506499497984527 0 0.38942861079565327 -0.35705694442266561 0 0.37956263292016729 -0.37771901991701301 0 0.39082072173902233 -0.37461361153621631 0 0.38942861079565327 -0.35705694442266561 0 0.37956263292016729 -0.37771901991701301 0 0.38942861079565327 -0.35705694442266561 0 0.37956263292016729 -0.37771901991701301 0 0.36906684866501949 -0.3600208648147325 0 0.39116459411863258 -0.32782195151210242 0 0.40056382581112032 -0.32028956346161669 0 0.3821221886567745 -0.31591297150177389 0 0.40056382581112032 -0.32028956346161669 0 0.40481674175912358 -0.32273544770379697 0 0.40708933034895151 -0.30613868861153448 0 0.40916056654662553 -0.31573279343397098 0 0.39929458867113943 -0.33639486892831832 0 0.40056382581112032 -0.32028956346161669 0 0.3821221886567745 -0.31591297150177389 0 0.39469902521364358 -0.30415710434925158 0 0.40481674175912358 -0.32273544770379697 0 0.40708933034895151 -0.30613868861153448 0 0.40916056654662553 -0.31573279343397098 0 0.40481674175912358 -0.32273544770379697 0 0.39929458867113943 -0.33639486892831832 0 0.39116459411863258 -0.32782195151210242 0 0.40056382581112032 -0.32028956346161669 0 0.40481674175912358 -0.32273544770379697 0 0.39116459411863258 -0.32782195151210242 0 0.40481674175912358 -0.32273544770379697 0 0.39929458867113943 -0.33639486892831832 0 0.39116459411863258 -0.32782195151210242 0 0.39929458867113943 -0.33639486892831832 0 0.38475514014426909 -0.34098660843606371 0 0.39116459411863258 -0.32782195151210242 0 0.38475514014426909 -0.34098660843606371 0 0.37556212333074718 -0.3295206217360655 0 0.38475514014426909 -0.34098660843606371 0 0.37556212333074718 -0.3295206217360655 0 0.3708318904496552 -0.34506499497984527 0 0.39116459411863258 -0.32782195151210242 0 0.37556212333074718 -0.3295206217360655 0 0.3821221886567745 -0.31591297150177389 0 0.39469902521364358 -0.30415710434925158 0 0.36852974748117029 -0.29997184592795401 0 0.3821221886567745 -0.31591297150177389 0 0.39469902521364358 -0.30415710434925158 0 0.36852974748117029 -0.29997184592795401 0 0.40056382581112032 -0.32028956346161669 0 0.39469902521364358 -0.30415710434925158 0 0.40708933034895151 -0.30613868861153448 0 0.40129237756359221 -0.2966204666805119 0 0.40708933034895151 -0.30613868861153448 0 0.40938492502187962 -0.28937391564267961 0 0.40056382581112032 -0.32028956346161669 0 0.39469902521364358 -0.30415710434925158 0 0.39469902521364358 -0.30415710434925158 0 0.40129237756359221 -0.2966204666805119 0 0.40708933034895151 -0.30613868861153448 0 0.39469902521364358 -0.30415710434925158 0 0.40708933034895151 -0.30613868861153448 0 0.40129237756359221 -0.2966204666805119 0 0.38760645736508093 -0.28464739401608019 0 0.40938492502187962 -0.28937391564267961 0 0.39469902521364358 -0.30415710434925158 0 0.38760645736508093 -0.28464739401608019 0 0.38760645736508093 -0.28464739401608019 0 0.3982101810438049 -0.27414247930938179 0 0.40938492502187962 -0.28937391564267961 0 0.39469902521364358 -0.30415710434925158 0 0.40129237756359221 -0.2966204666805119 0 0.38760645736508093 -0.28464739401608019 0 0.38760645736508093 -0.28464739401608019 0 0.36971519556899701 -0.28218752624456339 0 0.36852974748117029 -0.29997184592795401 0 0.39469902521364358 -0.30415710434925158 0 0.38760645736508093 -0.28464739401608019 0 0.36852974748117029 -0.29997184592795401 0 0.38760645736508093 -0.28464739401608019 0 0.38051388951651688 -0.26513768368290941 0 0.38760645736508093 -0.28464739401608019 0 0.38051388951651688 -0.26513768368290941 0 0.36971519556899701 -0.28218752624456339 0 0.38760645736508093 -0.28464739401608019 0 0.38051388951651688 -0.26513768368290941 0 0.3982101810438049 -0.27414247930938179 0 0.37095725753778508 -0.23885000823915059 0 0.38051388951651688 -0.26513768368290941 0 0.38233627906098222 -0.24243545013876699 0 0.391988822457361 -0.24519461495045389 0 0.38051388951651688 -0.26513768368290941 0 0.391988822457361 -0.24519461495045389 0 0.38051388951651688 -0.26513768368290941 0 0.40186511362074012 -0.25894426053141528 0 0.38051388951651688 -0.26513768368290941 0 0.40186511362074012 -0.25894426053141528 0 0.391988822457361 -0.24519461495045389 0 0.40186511362074012 -0.25894426053141528 0 0.38051388951651688 -0.26513768368290941 0 0.40186511362074012 -0.25894426053141528 0 0.3982101810438049 -0.27414247930938179 0 0.40186511362074012 -0.25894426053141528 0 0.3982101810438049 -0.27414247930938179 0 0.41168051969480768 -0.27260914267382469 0 0.41168051969480768 -0.27260914267382469 0 0.40938492502187962 -0.28937391564267961 0 0.3982101810438049 -0.27414247930938179 0 0.41168051969480768 -0.27260914267382469 0 0.40938492502187962 -0.28937391564267961 0 0.40186511362074012 -0.25894426053141528 0 0.41168051969480768 -0.27260914267382469 0 0.40186511362074012 -0.25894426053141528 0 0.41168051969480768 -0.27260914267382469 0 0.41403503238638528 -0.25541409025794409 0 0.41168051969480768 -0.27260914267382469 0 0.41403503238638528 -0.25541409025794409 0 0.41168051969480768 -0.27260914267382469 0 0.41403503238638528 -0.25541409025794409 0 0.42700147784430442 -0.25893672959278979 0 0.40656155532676092 -0.24536674100641531 0 0.40186511362074012 -0.25894426053141528 0 0.41403503238638528 -0.25541409025794409 0 0.40186511362074012 -0.25894426053141528 0 0.41403503238638528 -0.25541409025794409 0 0.41547662598497981 -0.24488610390270271 0 0.41403503238638528 -0.25541409025794409 0 0.43607018031341599 -0.24902227896638879 0 0.41403503238638528 -0.25541409025794409 0 0.44022963826377859 -0.25062133185078228 0 0.42700147784430442 -0.25893672959278979 0 0.43275339115077188 -0.27107976006345491 0 0.44022963826377859 -0.25062133185078228 0 0.43275339115077188 -0.27107976006345491 0 0.43607018031341599 -0.24902227896638879 0 0.41403503238638528 -0.25541409025794409 0 0.42700147784430442 -0.25893672959278979 0 0.43607018031341599 -0.24902227896638879 0 0.44022963826377859 -0.25062133185078228 0 0.42700147784430442 -0.25893672959278979 0 0.41168051969480768 -0.27260914267382469 0 0.43275339115077188 -0.27107976006345491 0 0.42527714403776679 -0.2915381882761281 0 0.41168051969480768 -0.27260914267382469 0 0.42700147784430442 -0.25893672959278979 0 0.43275339115077188 -0.27107976006345491 0 0.43275339115077188 -0.27107976006345491 0 0.42527714403776679 -0.2915381882761281 0 0.445010727445043 -0.28321934485363381 0 0.43275339115077188 -0.27107976006345491 0 0.42527714403776679 -0.2915381882761281 0 0.44174793063425011 -0.31446860561548762 0 0.42527714403776679 -0.2915381882761281 0 0.42725642628136068 -0.30818248459841552 0 0.42527714403776679 -0.2915381882761281 0 0.42725642628136068 -0.30818248459841552 0 0.41911914723572902 -0.30838928129165633 0 0.44525872018890461 -0.29795395069709413 0 0.44174793063425011 -0.31446860561548762 0 0.42527714403776679 -0.2915381882761281 0 0.44174793063425011 -0.31446860561548762 0 0.42527714403776679 -0.2915381882761281 0 0.42527714403776679 -0.2915381882761281 0 0.41911914723572902 -0.30838928129165633 0 0.4210277784363271 -0.31342290644797749 0 0.42725642628136068 -0.30818248459841552 0 0.41911914723572902 -0.30838928129165633 0 0.41524574038809731 -0.30058023949011792 0 0.40708933034895151 -0.30613868861153448 0 0.40938492502187962 -0.28937391564267961 0 0.40708933034895151 -0.30613868861153448 0 0.40938492502187962 -0.28937391564267961 0 0.42527714403776679 -0.2915381882761281 0 0.41524574038809731 -0.30058023949011792 0 0.41911914723572902 -0.30838928129165633 0 0.41504349807859359 -0.31300043930118798 0 0.4210277784363271 -0.31342290644797749 0 0.41911914723572902 -0.30838928129165633 0 0.41524574038809731 -0.30058023949011792 0 0.41911914723572902 -0.30838928129165633 0 0.41535815529615788 -0.30746112362859213 0 0.41504349807859359 -0.31300043930118798 0 0.41911914723572902 -0.30838928129165633 0 0.41535815529615788 -0.30746112362859213 0 0.41535815529615788 -0.30746112362859213 0 0.40708933034895151 -0.30613868861153448 0 0.41166288756758213 -0.31058326124382141 0 0.41524574038809731 -0.30058023949011792 0 0.41535815529615788 -0.30746112362859213 0 0.40708933034895151 -0.30613868861153448 0 0.40916056654662553 -0.31573279343397098 0 0.40708933034895151 -0.30613868861153448 0 0.41166288756758213 -0.31058326124382141 0 0.41535815529615788 -0.30746112362859213 0 0.40708933034895151 -0.30613868861153448 0 0.41504349807859359 -0.31300043930118798 0 0.41535815529615788 -0.30746112362859213 0 0.41166288756758213 -0.31058326124382141 0 0.41168051969480768 -0.27260914267382469 0 0.42527714403776679 -0.2915381882761281 0 0.42527714403776679 -0.2915381882761281 0 0.41524574038809731 -0.30058023949011792 0 0.40938492502187962 -0.28937391564267961 0 0.41168051969480768 -0.27260914267382469 0 0.42527714403776679 -0.2915381882761281 0 0.40938492502187962 -0.28937391564267961 0 0.45198353516011369 -0.48524111432780842 0 0.46288121275891408 -0.5 0 0.43407000352738367 -0.5 0 0.45198353516011369 -0.48524111432780842 0 0.43680457450049942 -0.48860600858952802 0 0.43407000352738367 -0.5 0 0.44490598552170368 -0.4740942538595313 0 0.44035297468943613 -0.461870038701712 0 0.43212909174494812 -0.47786167149171321 0 0.45198353516011369 -0.48524111432780842 0 0.44490598552170368 -0.4740942538595313 0 0.43212909174494812 -0.47786167149171321 0 0.45198353516011369 -0.48524111432780842 0 0.43212909174494812 -0.47786167149171321 0 0.45198353516011369 -0.48524111432780842 0 0.43212909174494812 -0.47786167149171321 0 0.43680457450049942 -0.48860600858952802 0 0.44490598552170368 -0.4740942538595313 0 0.45515834049231702 -0.47140419091689162 0 0.44035297468943613 -0.461870038701712 0 0.45198353516011369 -0.48524111432780842 0 0.44490598552170368 -0.4740942538595313 0 0.45515834049231702 -0.47140419091689162 0 0.45198353516011369 -0.48524111432780842 0 0.45515834049231702 -0.47140419091689162 0 0.46621073792026219 -0.47942152896873191 0 0.45515834049231702 -0.47140419091689162 0 0.46621073792026219 -0.47942152896873191 0 0.47001639846854648 -0.46815767150742299 0 0.45198353516011369 -0.48524111432780842 0 0.47183797857527932 -0.49262055716390352 0 0.45198353516011369 -0.48524111432780842 0 0.46288121275891408 -0.5 0 0.47183797857527932 -0.49262055716390352 0 0.45198353516011369 -0.48524111432780842 0 0.46621073792026219 -0.47942152896873191 0 0.47183797857527932 -0.49262055716390352 0 0.47183797857527932 -0.49262055716390352 0 0.49169242199044461 -0.49999999999999928 0 0.48205743690505443 -0.47968411092763319 0 0.47183797857527932 -0.49262055716390352 0 0.49169242199044461 -0.49999999999999928 0 0.46288121275891408 -0.5 0 0.47183797857527932 -0.49262055716390352 0 0.49169242199044461 -0.49999999999999928 0 0.49169242199044461 -0.49999999999999928 0 0.5 -0.5 0 0.49999999999999872 -0.47528411341272481 0 0.49169242199044461 -0.49999999999999928 0 0.49999999999999872 -0.47528411341272481 0 0.48205743690505443 -0.47968411092763319 0 0.49999999999999872 -0.47528411341272481 0 0.48205743690505443 -0.47968411092763319 0 0.48264069963683492 -0.46589568627209199 0 0.46621073792026219 -0.47942152896873191 0 0.47183797857527932 -0.49262055716390352 0 0.48205743690505443 -0.47968411092763319 0 0.46621073792026219 -0.47942152896873191 0 0.48205743690505443 -0.47968411092763319 0 0.47001639846854648 -0.46815767150742299 0 0.48205743690505443 -0.47968411092763319 0 0.47001639846854648 -0.46815767150742299 0 0.48264069963683492 -0.46589568627209199 0 0.47001639846854648 -0.46815767150742299 0 0.48264069963683492 -0.46589568627209199 0 0.47239650243141529 -0.45290250317393899 0 0.48264069963683492 -0.46589568627209199 0 0.48726846939099361 -0.45133233072590101 0 0.47239650243141529 -0.45290250317393899 0 0.49999999999999872 -0.47528411341272481 0 0.48264069963683492 -0.46589568627209199 0 0.48726846939099361 -0.45133233072590101 0 0.49999999999999872 -0.47528411341272481 0 0.48726846939099361 -0.45133233072590101 0 0.49999999999999872 -0.47528411341272481 0 0.5 -0.45037346212686968 0 0.48726846939099361 -0.45133233072590101 0 0.5 -0.45037346212686968 0 0.48726846939099361 -0.45133233072590101 0 0.4898353747503662 -0.43529964763965728 0 0.48726846939099361 -0.45133233072590101 0 0.47239650243141529 -0.45290250317393899 0 0.47453693878198949 -0.42738054803907682 0 0.48726846939099361 -0.45133233072590101 0 0.47453693878198949 -0.42738054803907682 0 0.4898353747503662 -0.43529964763965728 0 0.48726846939099361 -0.45133233072590101 0 0.47453693878198949 -0.42738054803907682 0 0.47239650243141529 -0.45290250317393899 0 0.45904839185671092 -0.44573917502912219 0 0.47453693878198949 -0.42738054803907682 0 0.47239650243141529 -0.45290250317393899 0 0.45904839185671092 -0.44573917502912219 0 0.45939452158768512 -0.46001471586581749 0 0.47001639846854648 -0.46815767150742299 0 0.47239650243141529 -0.45290250317393899 0 0.45939452158768512 -0.46001471586581749 0 0.45515834049231702 -0.47140419091689162 0 0.47001639846854648 -0.46815767150742299 0 0.45939452158768512 -0.46001471586581749 0 0.45515834049231702 -0.47140419091689162 0 0.45939452158768512 -0.46001471586581749 0 0.44035297468943613 -0.461870038701712 0 0.45904839185671092 -0.44573917502912219 0 0.45939452158768512 -0.46001471586581749 0 0.44035297468943613 -0.461870038701712 0 0.4446877611929938 -0.44134177982296591 0 0.43882073201306709 -0.42763438643788781 0 0.43119416068032151 -0.44529613420289238 0 0.45904839185671092 -0.44573917502912219 0 0.4446877611929938 -0.44134177982296591 0 0.45402254672543302 -0.42616916474321492 0 0.45904839185671092 -0.44573917502912219 0 0.44035297468943613 -0.461870038701712 0 0.4446877611929938 -0.44134177982296591 0 0.44035297468943613 -0.461870038701712 0 0.4446877611929938 -0.44134177982296591 0 0.43119416068032151 -0.44529613420289238 0 0.4446877611929938 -0.44134177982296591 0 0.43882073201306709 -0.42763438643788781 0 0.45402254672543302 -0.42616916474321492 0 0.43882073201306709 -0.42763438643788781 0 0.44466400363911329 -0.41062219338242539 0 0.45402254672543302 -0.42616916474321492 0 0.45402254672543302 -0.42616916474321492 0 0.47453693878198949 -0.42738054803907682 0 0.46180540817298538 -0.40342876535225253 0 0.47453693878198949 -0.42738054803907682 0 0.46180540817298538 -0.40342876535225253 0 0.44466400363911329 -0.41062219338242539 0 0.45402254672543302 -0.42616916474321492 0 0.46180540817298538 -0.40342876535225253 0 0.45904839185671092 -0.44573917502912219 0 0.45402254672543302 -0.42616916474321492 0 0.47453693878198949 -0.42738054803907682 0 0.47453693878198949 -0.42738054803907682 0 0.4898353747503662 -0.43529964763965728 0 0.48185239243003258 -0.41563303038178268 0 0.5 -0.45037346212686968 0 0.4898353747503662 -0.43529964763965728 0 0.5 -0.42546281084101478 0 0.4898353747503662 -0.43529964763965728 0 0.5 -0.42546281084101478 0 0.48185239243003258 -0.41563303038178268 0 0.5 -0.42546281084101478 0 0.49225936050937519 -0.40933592374421901 0 0.48185239243003258 -0.41563303038178268 0 0.5 -0.42546281084101478 0 0.49225936050937519 -0.40933592374421901 0 0.5 -0.40055215955515983 0 0.49225936050937519 -0.40933592374421901 0 0.48185239243003258 -0.41563303038178268 0 0.48278804606881948 -0.40389392574277722 0 0.47453693878198949 -0.42738054803907682 0 0.48185239243003258 -0.41563303038178268 0 0.46180540817298538 -0.40342876535225253 0 0.48185239243003258 -0.41563303038178268 0 0.47210645122413702 -0.40160817180728092 0 0.46180540817298538 -0.40342876535225253 0 0.48185239243003258 -0.41563303038178268 0 0.47210645122413702 -0.40160817180728092 0 0.48278804606881948 -0.40389392574277722 0 0.47210645122413702 -0.40160817180728092 0 0.4804864132872454 -0.39689460208241778 0 0.47969824590888371 -0.38815818261976659 0 0.4804864132872454 -0.39689460208241778 0 0.48669902192707598 -0.39369464109552299 0 0.47969824590888371 -0.38815818261976659 0 0.4804864132872454 -0.39689460208241778 0 0.48278804606881948 -0.40389392574277722 0 0.48669902192707598 -0.39369464109552299 0 0.47210645122413702 -0.40160817180728092 0 0.4804864132872454 -0.39689460208241778 0 0.48278804606881948 -0.40389392574277722 0 0.49225936050937519 -0.40933592374421901 0 0.48669902192707598 -0.39369464109552299 0 0.49612968025468762 -0.38003339036383438 0 0.49225936050937519 -0.40933592374421901 0 0.48278804606881948 -0.40389392574277722 0 0.48669902192707598 -0.39369464109552299 0 0.49225936050937519 -0.40933592374421901 0 0.49612968025468762 -0.38003339036383438 0 0.49225936050937519 -0.40933592374421901 0 0.5 -0.40055215955515983 0 0.49612968025468762 -0.38003339036383438 0 0.5 -0.40055215955515983 0 0.5 -0.37564150826930492 0 0.49612968025468762 -0.38003339036383438 0 0.48669902192707598 -0.39369464109552299 0 0.49612968025468762 -0.38003339036383438 0 0.48669401358394521 -0.38224296721014489 0 0.48886415449271919 -0.37258632744337578 0 0.49612968025468762 -0.38003339036383438 0 0.48669401358394521 -0.38224296721014489 0 0.48886415449271919 -0.37258632744337578 0 0.48669401358394521 -0.38224296721014489 0 0.48207896533635908 -0.37674229452822489 0 0.48669401358394521 -0.38224296721014489 0 0.48207896533635908 -0.37674229452822489 0 0.47969824590888371 -0.38815818261976659 0 0.46871150144057661 -0.37444435429777118 0 0.47210645122413702 -0.40160817180728092 0 0.47969824590888371 -0.38815818261976659 0 0.46871150144057661 -0.37444435429777118 0 0.48207896533635908 -0.37674229452822489 0 0.47969824590888371 -0.38815818261976659 0 0.46871150144057661 -0.37444435429777118 0 0.47210645122413702 -0.40160817180728092 0 0.48669902192707598 -0.39369464109552299 0 0.48669401358394521 -0.38224296721014489 0 0.47969824590888371 -0.38815818261976659 0 0.46871150144057661 -0.37444435429777118 0 0.47210645122413702 -0.40160817180728092 0 0.460391920008491 -0.39188299514251729 0 0.460391920008491 -0.39188299514251729 0 0.44955197452885248 -0.39824980411746752 0 0.44978426467590371 -0.38168388013781479 0 0.46871150144057661 -0.37444435429777118 0 0.460391920008491 -0.39188299514251729 0 0.44978426467590371 -0.38168388013781479 0 0.47210645122413702 -0.40160817180728092 0 0.46180540817298538 -0.40342876535225253 0 0.460391920008491 -0.39188299514251729 0 0.46180540817298538 -0.40342876535225253 0 0.460391920008491 -0.39188299514251729 0 0.44955197452885248 -0.39824980411746752 0 0.44955197452885248 -0.39824980411746752 0 0.44978426467590371 -0.38168388013781479 0 0.43348900368687782 -0.39674570892985389 0 0.44466400363911329 -0.41062219338242539 0 0.44955197452885248 -0.39824980411746752 0 0.43348900368687782 -0.39674570892985389 0 0.44466400363911329 -0.41062219338242539 0 0.46180540817298538 -0.40342876535225253 0 0.44955197452885248 -0.39824980411746752 0 0.44978426467590371 -0.38168388013781479 0 0.43319567952698967 -0.37905306266600131 0 0.43348900368687782 -0.39674570892985389 0 0.42291912154427319 -0.36575965405113681 0 0.43319567952698967 -0.37905306266600131 0 0.41643647296731162 -0.38454309187465668 0 0.43319567952698967 -0.37905306266600131 0 0.43348900368687782 -0.39674570892985389 0 0.41643647296731162 -0.38454309187465668 0 0.43348900368687782 -0.39674570892985389 0 0.41613015568002409 -0.40399991228775939 0 0.41643647296731162 -0.38454309187465668 0 0.43348900368687782 -0.39674570892985389 0 0.41613015568002409 -0.40399991228775939 0 0.42734074223110358 -0.41584874929438131 0 0.41613015568002409 -0.40399991228775939 0 0.41643647296731162 -0.38454309187465668 0 0.39899201636264758 -0.40168438617389179 0 0.40124087723222029 -0.37173933698407502 0 0.41643647296731162 -0.38454309187465668 0 0.39899201636264758 -0.40168438617389179 0 0.39082072173902233 -0.37461361153621631 0 0.38493915504119192 -0.39321877679669959 0 0.39899201636264758 -0.40168438617389179 0 0.39082072173902233 -0.37461361153621631 0 0.39899201636264758 -0.40168438617389179 0 0.39082072173902233 -0.37461361153621631 0 0.40124087723222029 -0.37173933698407502 0 0.39899201636264758 -0.40168438617389179 0 0.39082072173902233 -0.37461361153621631 0 0.37956263292016729 -0.37771901991701301 0 0.38493915504119192 -0.39321877679669959 0 0.37956263292016729 -0.37771901991701301 0 0.38493915504119192 -0.39321877679669959 0 0.36950533991910101 -0.39878176198671988 0 0.39082072173902233 -0.37461361153621631 0 0.37956263292016729 -0.37771901991701301 0 0.38493915504119192 -0.39321877679669959 0 0.37700510844425761 -0.41529535225662229 0 0.36950533991910101 -0.39878176198671988 0 0.38493915504119192 -0.39321877679669959 0 0.39899201636264758 -0.40168438617389179 0 0.39343668177257768 -0.41727450868106802 0 0.39899201636264758 -0.40168438617389179 0 0.40711923716449938 -0.428595379250089 0 0.39899201636264758 -0.40168438617389179 0 0.39343668177257768 -0.41727450868106802 0 0.40711923716449938 -0.428595379250089 0 0.38493915504119192 -0.39321877679669959 0 0.39343668177257768 -0.41727450868106802 0 0.37700510844425761 -0.41529535225662229 0 0.39343668177257768 -0.41727450868106802 0 0.37700510844425761 -0.41529535225662229 0 0.38505719602840088 -0.43154678533406049 0 0.38505719602840088 -0.43154678533406049 0 0.37740854872818019 -0.4378693618593148 0 0.36938640242954918 -0.43184690884881671 0 0.38505719602840088 -0.43154678533406049 0 0.40711923716449938 -0.428595379250089 0 0.39246689152050179 -0.43915069314832228 0 0.39343668177257768 -0.41727450868106802 0 0.38505719602840088 -0.43154678533406049 0 0.40711923716449938 -0.428595379250089 0 0.40711923716449938 -0.428595379250089 0 0.42734074223110358 -0.41584874929438131 0 0.42518466820919909 -0.43120379252030999 0 0.41613015568002409 -0.40399991228775939 0 0.39899201636264758 -0.40168438617389179 0 0.40711923716449938 -0.428595379250089 0 0.41613015568002409 -0.40399991228775939 0 0.40711923716449938 -0.428595379250089 0 0.42734074223110358 -0.41584874929438131 0 0.44466400363911329 -0.41062219338242539 0 0.43348900368687782 -0.39674570892985389 0 0.42734074223110358 -0.41584874929438131 0 0.43882073201306709 -0.42763438643788781 0 0.44466400363911329 -0.41062219338242539 0 0.42734074223110358 -0.41584874929438131 0 0.43882073201306709 -0.42763438643788781 0 0.42734074223110358 -0.41584874929438131 0 0.42518466820919909 -0.43120379252030999 0 0.43882073201306709 -0.42763438643788781 0 0.42518466820919909 -0.43120379252030999 0 0.43119416068032151 -0.44529613420289238 0 0.42518466820919909 -0.43120379252030999 0 0.43119416068032151 -0.44529613420289238 0 0.41524645796635201 -0.45550637232628588 0 0.44035297468943613 -0.461870038701712 0 0.41524645796635201 -0.45550637232628588 0 0.42128379730018489 -0.47549731399904538 0 0.44035297468943613 -0.461870038701712 0 0.41524645796635201 -0.45550637232628588 0 0.44035297468943613 -0.461870038701712 0 0.43119416068032151 -0.44529613420289238 0 0.41524645796635201 -0.45550637232628588 0 0.41524645796635201 -0.45550637232628588 0 0.42128379730018489 -0.47549731399904538 0 0.41524645796635201 -0.45550637232628588 0 0.40736752734903298 -0.47391191088679352 0 0.42128379730018489 -0.47549731399904538 0 0.41524645796635201 -0.45550637232628588 0 0.4015505538936891 -0.46293562608342997 0 0.40736752734903298 -0.47391191088679352 0 0.40711923716449938 -0.428595379250089 0 0.41524645796635201 -0.45550637232628588 0 0.40711923716449938 -0.428595379250089 0 0.42518466820919909 -0.43120379252030999 0 0.41524645796635201 -0.45550637232628588 0 0.41524645796635201 -0.45550637232628588 0 0.39402113619745038 -0.45012645969490722 0 0.40711923716449938 -0.428595379250089 0 0.41524645796635201 -0.45550637232628588 0 0.39402113619745038 -0.45012645969490722 0 0.40711923716449938 -0.428595379250089 0 0.39402113619745038 -0.45012645969490722 0 0.39246689152050179 -0.43915069314832228 0 0.38505719602840088 -0.43154678533406049 0 0.39246689152050179 -0.43915069314832228 0 0.38366999669165641 -0.44633414831423279 0 0.39402113619745038 -0.45012645969490722 0 0.37279581442854842 -0.44474654706353012 0 0.39402113619745038 -0.45012645969490722 0 0.38366999669165641 -0.44633414831423279 0 0.37279581442854842 -0.44474654706353012 0 0.39402113619745038 -0.45012645969490722 0 0.38125506559546968 -0.45560257802387638 0 0.37279581442854842 -0.44474654706353012 0 0.39402113619745038 -0.45012645969490722 0 0.39246689152050179 -0.43915069314832228 0 0.38366999669165641 -0.44633414831423279 0 0.38366999669165641 -0.44633414831423279 0 0.37279581442854842 -0.44474654706353012 0 0.38125506559546968 -0.45560257802387638 0 0.37121204404745128 -0.4559295243898514 0 0.37279581442854842 -0.44474654706353012 0 0.38366999669165641 -0.44633414831423279 0 0.37740854872818019 -0.4378693618593148 0 0.37279581442854842 -0.44474654706353012 0 0.38505719602840088 -0.43154678533406049 0 0.38366999669165641 -0.44633414831423279 0 0.37740854872818019 -0.4378693618593148 0 0.37797372296932258 -0.46629700570293697 0 0.38125506559546968 -0.45560257802387638 0 0.37121204404745128 -0.4559295243898514 0 0.39402113619745038 -0.45012645969490722 0 0.38125506559546968 -0.45560257802387638 0 0.39001635053864891 -0.46117289725366289 0 0.37797372296932258 -0.46629700570293697 0 0.39001635053864891 -0.46117289725366289 0 0.39164033485678179 -0.4745904177092431 0 0.37797372296932258 -0.46629700570293697 0 0.38125506559546968 -0.45560257802387638 0 0.39001635053864891 -0.46117289725366289 0 0.41524645796635201 -0.45550637232628588 0 0.39402113619745038 -0.45012645969490722 0 0.4015505538936891 -0.46293562608342997 0 0.39001635053864891 -0.46117289725366289 0 0.4015505538936891 -0.46293562608342997 0 0.39164033485678179 -0.4745904177092431 0 0.39402113619745038 -0.45012645969490722 0 0.39001635053864891 -0.46117289725366289 0 0.4015505538936891 -0.46293562608342997 0 0.4015505538936891 -0.46293562608342997 0 0.39164033485678179 -0.4745904177092431 0 0.40736752734903298 -0.47391191088679352 0 0.39164033485678179 -0.4745904177092431 0 0.40101257531999329 -0.48565279759460511 0 0.40736752734903298 -0.47391191088679352 0 0.39164033485678179 -0.4745904177092431 0 0.38951413072320901 -0.48864906576183742 0 0.40101257531999329 -0.48565279759460511 0 0.37797372296932258 -0.46629700570293697 0 0.39164033485678179 -0.4745904177092431 0 0.37321136407909339 -0.48300211350533889 0 0.39164033485678179 -0.4745904177092431 0 0.38951413072320901 -0.48864906576183742 0 0.37321136407909339 -0.48300211350533889 0 0.37644758506432291 -0.5 0 0.38951413072320901 -0.48864906576183742 0 0.37321136407909339 -0.48300211350533889 0 0.37644758506432291 -0.5 0 0.38951413072320901 -0.48864906576183742 0 0.40525879429585332 -0.5 0 0.38951413072320901 -0.48864906576183742 0 0.40101257531999329 -0.48565279759460511 0 0.40525879429585332 -0.5 0 0.41278169368567902 -0.48714688804982931 0 0.42128379730018489 -0.47549731399904538 0 0.42732113663401883 -0.49548825567180471 0 0.40525879429585332 -0.5 0 0.41278169368567902 -0.48714688804982931 0 0.42732113663401883 -0.49548825567180471 0 0.40101257531999329 -0.48565279759460511 0 0.40525879429585332 -0.5 0 0.41278169368567902 -0.48714688804982931 0 0.41278169368567902 -0.48714688804982931 0 0.40736752734903298 -0.47391191088679352 0 0.42128379730018489 -0.47549731399904538 0 0.40101257531999329 -0.48565279759460511 0 0.41278169368567902 -0.48714688804982931 0 0.40736752734903298 -0.47391191088679352 0 0.44035297468943613 -0.461870038701712 0 0.42128379730018489 -0.47549731399904538 0 0.43212909174494812 -0.47786167149171321 0 0.42128379730018489 -0.47549731399904538 0 0.43212909174494812 -0.47786167149171321 0 0.42732113663401883 -0.49548825567180471 0 0.40525879429585332 -0.5 0 0.43407000352738367 -0.5 0 0.42732113663401883 -0.49548825567180471 0 0.43212909174494812 -0.47786167149171321 0 0.43680457450049942 -0.48860600858952802 0 0.42732113663401883 -0.49548825567180471 0 0.42128379730018489 -0.47549731399904538 0 0.42732113663401883 -0.49548825567180471 0 0.43680457450049942 -0.48860600858952802 0 0.43407000352738367 -0.5 0 0.42732113663401883 -0.49548825567180471 0 0.31882516660126192 -0.5 0 0.3203807533520856 -0.48246123119898798 0 0.33761828892361861 -0.4825559467223548 0 0.31882516660126192 -0.5 0 0.3203807533520856 -0.48246123119898798 0 0.30420261305538371 -0.48823375941480651 0 0.31266034240882667 -0.47063748824170593 0 0.3203807533520856 -0.48246123119898798 0 0.32884567271609039 -0.46838265710488741 0 0.3203807533520856 -0.48246123119898798 0 0.33761828892361861 -0.4825559467223548 0 0.32884567271609039 -0.46838265710488741 0 0.33761828892361861 -0.4825559467223548 0 0.34469505590189681 -0.46444792870951468 0 0.32884567271609039 -0.46838265710488741 0 0.31882516660126192 -0.5 0 0.33761828892361861 -0.4825559467223548 0 0.34763637583279239 -0.5 0 0.33761828892361861 -0.4825559467223548 0 0.34763637583279239 -0.5 0 0.35906458745485648 -0.47222427558235269 0 0.34763637583279239 -0.5 0 0.37321136407909339 -0.48300211350533889 0 0.35906458745485648 -0.47222427558235269 0 0.37644758506432291 -0.5 0 0.34763637583279239 -0.5 0 0.37321136407909339 -0.48300211350533889 0 0.37797372296932258 -0.46629700570293697 0 0.37321136407909339 -0.48300211350533889 0 0.35906458745485648 -0.47222427558235269 0 0.33761828892361861 -0.4825559467223548 0 0.35906458745485648 -0.47222427558235269 0 0.34469505590189681 -0.46444792870951468 0 0.34469505590189681 -0.46444792870951468 0 0.35860573146244701 -0.45665549319079513 0 0.34810554162370633 -0.45227960511233589 0 0.35906458745485648 -0.47222427558235269 0 0.34469505590189681 -0.46444792870951468 0 0.35860573146244701 -0.45665549319079513 0 0.35906458745485648 -0.47222427558235269 0 0.35860573146244701 -0.45665549319079513 0 0.37121204404745128 -0.4559295243898514 0 0.37797372296932258 -0.46629700570293697 0 0.35906458745485648 -0.47222427558235269 0 0.37121204404745128 -0.4559295243898514 0 0.37279581442854842 -0.44474654706353012 0 0.3575211164004245 -0.44879609017822902 0 0.35057737808699652 -0.44150271534625479 0 0.37279581442854842 -0.44474654706353012 0 0.35057737808699652 -0.44150271534625479 0 0.37279581442854842 -0.44474654706353012 0 0.35809222711753019 -0.44101967705598089 0 0.35057737808699652 -0.44150271534625479 0 0.37740854872818019 -0.4378693618593148 0 0.37279581442854842 -0.44474654706353012 0 0.36938640242954918 -0.43184690884881671 0 0.35860573146244701 -0.45665549319079513 0 0.37121204404745128 -0.4559295243898514 0 0.37279581442854842 -0.44474654706353012 0 0.35860573146244701 -0.45665549319079513 0 0.37279581442854842 -0.44474654706353012 0 0.3575211164004245 -0.44879609017822902 0 0.37279581442854842 -0.44474654706353012 0 0.35809222711753019 -0.44101967705598089 0 0.36181022781921379 -0.43386928435051841 0 0.37279581442854842 -0.44474654706353012 0 0.35809222711753019 -0.44101967705598089 0 0.3575211164004245 -0.44879609017822902 0 0.34810554162370633 -0.45227960511233589 0 0.35057737808699652 -0.44150271534625479 0 0.35860573146244701 -0.45665549319079513 0 0.3575211164004245 -0.44879609017822902 0 0.34810554162370633 -0.45227960511233589 0 0.34810554162370633 -0.45227960511233589 0 0.35057737808699652 -0.44150271534625479 0 0.34065127155149522 -0.44654304025632008 0 0.35809222711753019 -0.44101967705598089 0 0.35057737808699652 -0.44150271534625479 0 0.34338863980651207 -0.43729280704843171 0 0.35809222711753019 -0.44101967705598089 0 0.34338863980651207 -0.43729280704843171 0 0.35057737808699652 -0.44150271534625479 0 0.32835894174544461 -0.43825888362897952 0 0.35057737808699652 -0.44150271534625479 0 0.32835894174544461 -0.43825888362897952 0 0.34338863980651207 -0.43729280704843171 0 0.32835894174544461 -0.43825888362897952 0 0.34065127155149522 -0.44654304025632008 0 0.3355632247498338 -0.45413095693771038 0 0.35057737808699652 -0.44150271534625479 0 0.32835894174544461 -0.43825888362897952 0 0.34065127155149522 -0.44654304025632008 0 0.34810554162370633 -0.45227960511233589 0 0.34065127155149522 -0.44654304025632008 0 0.3355632247498338 -0.45413095693771038 0 0.34469505590189681 -0.46444792870951468 0 0.32884567271609039 -0.46838265710488741 0 0.3355632247498338 -0.45413095693771038 0 0.34469505590189681 -0.46444792870951468 0 0.34810554162370633 -0.45227960511233589 0 0.3355632247498338 -0.45413095693771038 0 0.31266034240882667 -0.47063748824170593 0 0.32884567271609039 -0.46838265710488741 0 0.31903687384073481 -0.45704595090184391 0 0.32884567271609039 -0.46838265710488741 0 0.3355632247498338 -0.45413095693771038 0 0.31903687384073481 -0.45704595090184391 0 0.32835894174544461 -0.43825888362897952 0 0.31903687384073481 -0.45704595090184391 0 0.30730267288271979 -0.44896820658192699 0 0.32835894174544461 -0.43825888362897952 0 0.3355632247498338 -0.45413095693771038 0 0.31903687384073481 -0.45704595090184391 0 0.32835894174544461 -0.43825888362897952 0 0.30614050540389282 -0.43501505191170409 0 0.30730267288271979 -0.44896820658192699 0 0.32588301585873092 -0.42878789038986498 0 0.3209104284001546 -0.42022079751514441 0 0.30614050540389282 -0.43501505191170409 0 0.32835894174544461 -0.43825888362897952 0 0.30614050540389282 -0.43501505191170409 0 0.32835894174544461 -0.43825888362897952 0 0.32588301585873092 -0.42878789038986498 0 0.30614050540389282 -0.43501505191170409 0 0.32588301585873092 -0.42878789038986498 0 0.3209104284001546 -0.42022079751514441 0 0.33436000331405719 -0.42626374616642998 0 0.32265764927503021 -0.41077407157207668 0 0.3209104284001546 -0.42022079751514441 0 0.33864664743694378 -0.41033915787537761 0 0.31322827330717212 -0.4117025192034578 0 0.32265764927503021 -0.41077407157207668 0 0.3209104284001546 -0.42022079751514441 0 0.32265764927503021 -0.41077407157207668 0 0.33864664743694378 -0.41033915787537761 0 0.31784524795585017 -0.40083381169432702 0 0.31322827330717212 -0.4117025192034578 0 0.3209104284001546 -0.42022079751514441 0 0.30616853445738951 -0.42033457485458148 0 0.31322827330717212 -0.4117025192034578 0 0.32265764927503021 -0.41077407157207668 0 0.31784524795585017 -0.40083381169432702 0 0.33864664743694378 -0.41033915787537761 0 0.33436000331405719 -0.42626374616642998 0 0.34565209670631269 -0.42567572049657848 0 0.3209104284001546 -0.42022079751514441 0 0.33864664743694378 -0.41033915787537761 0 0.33436000331405719 -0.42626374616642998 0 0.32835894174544461 -0.43825888362897952 0 0.32588301585873092 -0.42878789038986498 0 0.33436000331405719 -0.42626374616642998 0 0.32835894174544461 -0.43825888362897952 0 0.33436000331405719 -0.42626374616642998 0 0.34338863980651207 -0.43729280704843171 0 0.33436000331405719 -0.42626374616642998 0 0.34338863980651207 -0.43729280704843171 0 0.34565209670631269 -0.42567572049657848 0 0.34338863980651207 -0.43729280704843171 0 0.34565209670631269 -0.42567572049657848 0 0.35407819711728161 -0.43109044879467262 0 0.35407819711728161 -0.43109044879467262 0 0.35944804691803739 -0.4198445040564282 0 0.35407819711728161 -0.43109044879467262 0 0.36181022781921379 -0.43386928435051841 0 0.35944804691803739 -0.4198445040564282 0 0.34565209670631269 -0.42567572049657848 0 0.35407819711728161 -0.43109044879467262 0 0.35944804691803739 -0.4198445040564282 0 0.35809222711753019 -0.44101967705598089 0 0.34338863980651207 -0.43729280704843171 0 0.35407819711728161 -0.43109044879467262 0 0.35809222711753019 -0.44101967705598089 0 0.35407819711728161 -0.43109044879467262 0 0.36181022781921379 -0.43386928435051841 0 0.38505719602840088 -0.43154678533406049 0 0.35944804691803739 -0.4198445040564282 0 0.38505719602840088 -0.43154678533406049 0 0.36938640242954918 -0.43184690884881671 0 0.35944804691803739 -0.4198445040564282 0 0.37700510844425761 -0.41529535225662229 0 0.38505719602840088 -0.43154678533406049 0 0.35944804691803739 -0.4198445040564282 0 0.36181022781921379 -0.43386928435051841 0 0.36938640242954918 -0.43184690884881671 0 0.35944804691803739 -0.4198445040564282 0 0.37279581442854842 -0.44474654706353012 0 0.36181022781921379 -0.43386928435051841 0 0.36938640242954918 -0.43184690884881671 0 0.37700510844425761 -0.41529535225662229 0 0.35944804691803739 -0.4198445040564282 0 0.36950533991910101 -0.39878176198671988 0 0.35944804691803739 -0.4198445040564282 0 0.36950533991910101 -0.39878176198671988 0 0.35944804691803739 -0.4198445040564282 0 0.35397858233248619 -0.40430036788391871 0 0.36950533991910101 -0.39878176198671988 0 0.33864664743694378 -0.41033915787537761 0 0.35944804691803739 -0.4198445040564282 0 0.33864664743694378 -0.41033915787537761 0 0.34565209670631269 -0.42567572049657848 0 0.35944804691803739 -0.4198445040564282 0 0.33864664743694378 -0.41033915787537761 0 0.35944804691803739 -0.4198445040564282 0 0.35397858233248619 -0.40430036788391871 0 0.35397858233248619 -0.40430036788391871 0 0.35907447769494288 -0.3833704310905437 0 0.33858632246971848 -0.38902184226407432 0 0.35397858233248619 -0.40430036788391871 0 0.36950533991910101 -0.39878176198671988 0 0.35907447769494288 -0.3833704310905437 0 0.37956263292016729 -0.37771901991701301 0 0.35907447769494288 -0.3833704310905437 0 0.36694504677176348 -0.37265463829156742 0 0.37956263292016729 -0.37771901991701301 0 0.36950533991910101 -0.39878176198671988 0 0.37956263292016729 -0.37771901991701301 0 0.35907447769494288 -0.3833704310905437 0 0.37956263292016729 -0.37771901991701301 0 0.36950533991910101 -0.39878176198671988 0 0.35907447769494288 -0.3833704310905437 0 0.35907447769494288 -0.3833704310905437 0 0.33858632246971848 -0.38902184226407432 0 0.35907447769494288 -0.3833704310905437 0 0.33858632246971848 -0.38902184226407432 0 0.34428407625265123 -0.37017816248164481 0 0.33858632246971848 -0.38902184226407432 0 0.32203268266894558 -0.38491556654885972 0 0.32888422683427337 -0.37331648399768808 0 0.33858632246971848 -0.38902184226407432 0 0.34428407625265123 -0.37017816248164481 0 0.32888422683427337 -0.37331648399768808 0 0.33858632246971848 -0.38902184226407432 0 0.33010878505111341 -0.3982518154921546 0 0.31809816724449419 -0.39467325343760479 0 0.33858632246971848 -0.38902184226407432 0 0.31809816724449419 -0.39467325343760479 0 0.33864664743694378 -0.41033915787537761 0 0.33858632246971848 -0.38902184226407432 0 0.33010878505111341 -0.3982518154921546 0 0.33864664743694378 -0.41033915787537761 0 0.31784524795585017 -0.40083381169432702 0 0.33864664743694378 -0.41033915787537761 0 0.35397858233248619 -0.40430036788391871 0 0.33858632246971848 -0.38902184226407432 0 0.33864664743694378 -0.41033915787537761 0 0.33010878505111341 -0.3982518154921546 0 0.31784524795585017 -0.40083381169432702 0 0.33010878505111341 -0.3982518154921546 0 0.31784524795585017 -0.40083381169432702 0 0.31809816724449419 -0.39467325343760479 0 0.31322827330717212 -0.4117025192034578 0 0.31784524795585017 -0.40083381169432702 0 0.30852326317557111 -0.40548829122114288 0 0.31784524795585017 -0.40083381169432702 0 0.31809816724449419 -0.39467325343760479 0 0.31050012454292308 -0.38828523510085222 0 0.33858632246971848 -0.38902184226407432 0 0.31809816724449419 -0.39467325343760479 0 0.32203268266894558 -0.38491556654885972 0 0.31516710541378362 -0.37684150056690802 0 0.32203268266894558 -0.38491556654885972 0 0.31050012454292308 -0.38828523510085222 0 0.31809816724449419 -0.39467325343760479 0 0.32203268266894558 -0.38491556654885972 0 0.31050012454292308 -0.38828523510085222 0 0.31516710541378362 -0.37684150056690802 0 0.32203268266894558 -0.38491556654885972 0 0.32888422683427337 -0.37331648399768808 0 0.30049272630639617 -0.38727577161058652 0 0.29715141473585582 -0.37871948679530459 0 0.29704384847475579 -0.39132846551327788 0 0.30049272630639617 -0.38727577161058652 0 0.31050012454292308 -0.38828523510085222 0 0.29704384847475579 -0.39132846551327788 0 0.30049272630639617 -0.38727577161058652 0 0.29704384847475579 -0.39132846551327788 0 0.29715141473585582 -0.37871948679530459 0 0.306084781736923 -0.38085708518505879 0 0.30754832689879052 -0.36854523994544641 0 0.30049272630639617 -0.38727577161058652 0 0.29715141473585582 -0.37871948679530459 0 0.306084781736923 -0.38085708518505879 0 0.31516710541378362 -0.37684150056690802 0 0.306084781736923 -0.38085708518505879 0 0.30754832689879052 -0.36854523994544641 0 0.31516710541378362 -0.37684150056690802 0 0.306084781736923 -0.38085708518505879 0 0.31050012454292308 -0.38828523510085222 0 0.30049272630639617 -0.38727577161058652 0 0.306084781736923 -0.38085708518505879 0 0.31050012454292308 -0.38828523510085222 0 0.31784524795585017 -0.40083381169432702 0 0.30852326317557111 -0.40548829122114288 0 0.30199427337235968 -0.40082410974037058 0 0.31784524795585017 -0.40083381169432702 0 0.31050012454292308 -0.38828523510085222 0 0.29704384847475579 -0.39132846551327788 0 0.31784524795585017 -0.40083381169432702 0 0.30199427337235968 -0.40082410974037058 0 0.29704384847475579 -0.39132846551327788 0 0.31784524795585017 -0.40083381169432702 0 0.29704384847475579 -0.39132846551327788 0 0.30852326317557111 -0.40548829122114288 0 0.30199427337235968 -0.40082410974037058 0 0.30086960819563863 -0.41061153312021081 0 0.30199427337235968 -0.40082410974037058 0 0.28494227967791441 -0.40554872974710843 0 0.30086960819563863 -0.41061153312021081 0 0.30199427337235968 -0.40082410974037058 0 0.29704384847475579 -0.39132846551327788 0 0.28494227967791441 -0.40554872974710843 0 0.29704384847475579 -0.39132846551327788 0 0.2738228002007268 -0.3807174437533144 0 0.27333175554089728 -0.40024321886712461 0 0.29704384847475579 -0.39132846551327788 0 0.28494227967791441 -0.40554872974710843 0 0.27333175554089728 -0.40024321886712461 0 0.29704384847475579 -0.39132846551327788 0 0.28494227967791441 -0.40554872974710843 0 0.29704384847475579 -0.39132846551327788 0 0.2738228002007268 -0.3807174437533144 0 0.29704384847475579 -0.39132846551327788 0 0.28788773011919172 -0.37696093319823049 0 0.2738228002007268 -0.3807174437533144 0 0.29715141473585582 -0.37871948679530459 0 0.29704384847475579 -0.39132846551327788 0 0.28788773011919172 -0.37696093319823049 0 0.2738228002007268 -0.3807174437533144 0 0.27333175554089728 -0.40024321886712461 0 0.2738228002007268 -0.3807174437533144 0 0.25536254199925562 -0.38828311390207942 0 0.27333175554089728 -0.40024321886712461 0 0.2738228002007268 -0.3807174437533144 0 0.25536254199925562 -0.38828311390207942 0 0.24839273634637241 -0.36909699674629631 0 0.25536254199925562 -0.38828311390207942 0 0.2586763687868342 -0.40511024344582869 0 0.27333175554089728 -0.40024321886712461 0 0.25536254199925562 -0.38828311390207942 0 0.2586763687868342 -0.40511024344582869 0 0.24265077102347199 -0.39618883661154253 0 0.2586763687868342 -0.40511024344582869 0 0.27333175554089728 -0.40024321886712461 0 0.27284071088106782 -0.4197689939809347 0 0.28494227967791441 -0.40554872974710843 0 0.27284071088106782 -0.4197689939809347 0 0.28494227967791441 -0.40554872974710843 0 0.27284071088106782 -0.4197689939809347 0 0.28200631357474909 -0.42701466614305822 0 0.27333175554089728 -0.40024321886712461 0 0.27284071088106782 -0.4197689939809347 0 0.28494227967791441 -0.40554872974710843 0 0.27333175554089728 -0.40024321886712461 0 0.27284071088106782 -0.4197689939809347 0 0.25739094884927521 -0.41960271577859998 0 0.24822224051745509 -0.42837369882272208 0 0.2450928433946517 -0.4095203610046772 0 0.2586763687868342 -0.40511024344582869 0 0.27284071088106782 -0.4197689939809347 0 0.25739094884927521 -0.41960271577859998 0 0.2586763687868342 -0.40511024344582869 0 0.25739094884927521 -0.41960271577859998 0 0.2450928433946517 -0.4095203610046772 0 0.25739094884927521 -0.41960271577859998 0 0.25979924709787022 -0.43509370634725719 0 0.24822224051745509 -0.42837369882272208 0 0.27284071088106782 -0.4197689939809347 0 0.25739094884927521 -0.41960271577859998 0 0.25979924709787022 -0.43509370634725719 0 0.25979924709787022 -0.43509370634725719 0 0.27255696919531153 -0.43105162629469601 0 0.26994558240912292 -0.44496367021640798 0 0.27284071088106782 -0.4197689939809347 0 0.27255696919531153 -0.43105162629469601 0 0.27284071088106782 -0.4197689939809347 0 0.25979924709787022 -0.43509370634725719 0 0.27255696919531153 -0.43105162629469601 0 0.27284071088106782 -0.4197689939809347 0 0.25979924709787022 -0.43509370634725719 0 0.27284071088106782 -0.4197689939809347 0 0.27255696919531153 -0.43105162629469601 0 0.28200631357474909 -0.42701466614305822 0 0.27255696919531153 -0.43105162629469601 0 0.28200631357474909 -0.42701466614305822 0 0.2779750818560846 -0.4401056912702368 0 0.28200631357474909 -0.42701466614305822 0 0.28878972286404803 -0.44276421730747312 0 0.2779750818560846 -0.4401056912702368 0 0.29420408229632422 -0.42354783156284981 0 0.30614050540389282 -0.43501505191170409 0 0.28878972286404803 -0.44276421730747312 0 0.29420408229632422 -0.42354783156284981 0 0.28200631357474909 -0.42701466614305822 0 0.28878972286404803 -0.44276421730747312 0 0.28494227967791441 -0.40554872974710843 0 0.29420408229632422 -0.42354783156284981 0 0.30086960819563863 -0.41061153312021081 0 0.28494227967791441 -0.40554872974710843 0 0.29420408229632422 -0.42354783156284981 0 0.28200631357474909 -0.42701466614305822 0 0.29420408229632422 -0.42354783156284981 0 0.30086960819563863 -0.41061153312021081 0 0.30616853445738951 -0.42033457485458148 0 0.31322827330717212 -0.4117025192034578 0 0.30852326317557111 -0.40548829122114288 0 0.30086960819563863 -0.41061153312021081 0 0.31322827330717212 -0.4117025192034578 0 0.30086960819563863 -0.41061153312021081 0 0.30616853445738951 -0.42033457485458148 0 0.3209104284001546 -0.42022079751514441 0 0.30616853445738951 -0.42033457485458148 0 0.30614050540389282 -0.43501505191170409 0 0.29420408229632422 -0.42354783156284981 0 0.30616853445738951 -0.42033457485458148 0 0.30614050540389282 -0.43501505191170409 0 0.30614050540389282 -0.43501505191170409 0 0.30730267288271979 -0.44896820658192699 0 0.28878972286404803 -0.44276421730747312 0 0.31903687384073481 -0.45704595090184391 0 0.30730267288271979 -0.44896820658192699 0 0.30149038854149318 -0.46189751291585363 0 0.30730267288271979 -0.44896820658192699 0 0.30149038854149318 -0.46189751291585363 0 0.29049171585107247 -0.45615609798712897 0 0.31266034240882667 -0.47063748824170593 0 0.31903687384073481 -0.45704595090184391 0 0.30149038854149318 -0.46189751291585363 0 0.30149038854149318 -0.46189751291585363 0 0.29642558773161343 -0.47505203044931837 0 0.28564331392456183 -0.46885725886193808 0 0.30149038854149318 -0.46189751291585363 0 0.29049171585107247 -0.45615609798712897 0 0.28564331392456183 -0.46885725886193808 0 0.29049171585107247 -0.45615609798712897 0 0.27511875188170271 -0.45613246299944721 0 0.28564331392456183 -0.46885725886193808 0 0.30730267288271979 -0.44896820658192699 0 0.29049171585107247 -0.45615609798712897 0 0.28878972286404803 -0.44276421730747312 0 0.29049171585107247 -0.45615609798712897 0 0.28878972286404803 -0.44276421730747312 0 0.27511875188170271 -0.45613246299944721 0 0.28878972286404803 -0.44276421730747312 0 0.2779750818560846 -0.4401056912702368 0 0.27511875188170271 -0.45613246299944721 0 0.2779750818560846 -0.4401056912702368 0 0.26994558240912292 -0.44496367021640798 0 0.27511875188170271 -0.45613246299944721 0 0.27255696919531153 -0.43105162629469601 0 0.2779750818560846 -0.4401056912702368 0 0.26994558240912292 -0.44496367021640798 0 0.26994558240912292 -0.44496367021640798 0 0.26207423713373701 -0.45027839416556498 0 0.27511875188170271 -0.45613246299944721 0 0.25979924709787022 -0.43509370634725719 0 0.24675778331467271 -0.45041841871357979 0 0.24822224051745509 -0.42837369882272208 0 0.25979924709787022 -0.43509370634725719 0 0.26994558240912292 -0.44496367021640798 0 0.26207423713373701 -0.45027839416556498 0 0.25979924709787022 -0.43509370634725719 0 0.24675778331467271 -0.45041841871357979 0 0.25979924709787022 -0.43509370634725719 0 0.26207423713373701 -0.45027839416556498 0 0.24675778331467271 -0.45041841871357979 0 0.26207423713373701 -0.45027839416556498 0 0.25874982096531629 -0.46478371255113282 0 0.27511875188170271 -0.45613246299944721 0 0.25874982096531629 -0.46478371255113282 0 0.24479618975008791 -0.47057709135579467 0 0.24675778331467271 -0.45041841871357979 0 0.26207423713373701 -0.45027839416556498 0 0.25874982096531629 -0.46478371255113282 0 0.24675778331467271 -0.45041841871357979 0 0.25874982096531629 -0.46478371255113282 0 0.27511875188170271 -0.45613246299944721 0 0.26994062317992051 -0.4716884146869153 0 0.27511875188170271 -0.45613246299944721 0 0.26994062317992051 -0.4716884146869153 0 0.28564331392456183 -0.46885725886193808 0 0.26994062317992051 -0.4716884146869153 0 0.25205994840021978 -0.48303450620977012 0 0.27813128072780169 -0.48563413281228829 0 0.26994062317992051 -0.4716884146869153 0 0.27813128072780169 -0.48563413281228829 0 0.28564331392456183 -0.46885725886193808 0 0.25205994840021978 -0.48303450620977012 0 0.27813128072780169 -0.48563413281228829 0 0.25874982096531629 -0.46478371255113282 0 0.25205994840021978 -0.48303450620977012 0 0.24479618975008791 -0.47057709135579467 0 0.25874982096531629 -0.46478371255113282 0 0.26994062317992051 -0.4716884146869153 0 0.25205994840021978 -0.48303450620977012 0 0.25205994840021978 -0.48303450620977012 0 0.26120274813820099 -0.5 0 0.27813128072780169 -0.48563413281228829 0 0.26120274813820099 -0.5 0 0.27813128072780169 -0.48563413281228829 0 0.29001395736973151 -0.5 0 0.27813128072780169 -0.48563413281228829 0 0.29001395736973151 -0.5 0 0.30420261305538371 -0.48823375941480651 0 0.27813128072780169 -0.48563413281228829 0 0.30420261305538371 -0.48823375941480651 0 0.27813128072780169 -0.48563413281228829 0 0.29642558773161343 -0.47505203044931837 0 0.30420261305538371 -0.48823375941480651 0 0.27813128072780169 -0.48563413281228829 0 0.29642558773161343 -0.47505203044931837 0 0.28564331392456183 -0.46885725886193808 0 0.31266034240882667 -0.47063748824170593 0 0.3203807533520856 -0.48246123119898798 0 0.30420261305538371 -0.48823375941480651 0 0.31266034240882667 -0.47063748824170593 0 0.29642558773161343 -0.47505203044931837 0 0.30420261305538371 -0.48823375941480651 0 0.31266034240882667 -0.47063748824170593 0 0.30149038854149318 -0.46189751291585363 0 0.29642558773161343 -0.47505203044931837 0 0.31882516660126192 -0.5 0 0.29001395736973151 -0.5 0 0.30420261305538371 -0.48823375941480651 0 0.3406135030577247 -0.29277825231448362 0 0.33262857663757522 -0.27902794140084242 0 0.35500365376339971 -0.27253752567521111 0 0.33181650763587561 -0.29410028929553861 0 0.33290286954051929 -0.28849181743264951 0 0.33605107948439311 -0.29264973621914331 0 0.33181650763587561 -0.29410028929553861 0 0.33887143770345202 -0.2952285858339011 0 0.33181650763587561 -0.29410028929553861 0 0.33605107948439311 -0.29264973621914331 0 0.33887143770345202 -0.2952285858339011 0 0.33181650763587561 -0.29410028929553861 0 0.33290286954051929 -0.28849181743264951 0 0.32735153068988948 -0.28891415169606632 0 0.32923597023628681 -0.2841367240938662 0 0.33290286954051929 -0.28849181743264951 0 0.33262857663757522 -0.27902794140084242 0 0.32923597023628681 -0.2841367240938662 0 0.33290286954051929 -0.28849181743264951 0 0.32735153068988948 -0.28891415169606632 0 0.33290286954051929 -0.28849181743264951 0 0.3406135030577247 -0.29277825231448362 0 0.33262857663757522 -0.27902794140084242 0 0.3406135030577247 -0.29277825231448362 0 0.33262857663757522 -0.27902794140084242 0 0.33290286954051929 -0.28849181743264951 0 0.3406135030577247 -0.29277825231448362 0 0.33605107948439311 -0.29264973621914331 0 0.3406135030577247 -0.29277825231448362 0 0.33605107948439311 -0.29264973621914331 0 0.33887143770345202 -0.2952285858339011 0 0.3406135030577247 -0.29277825231448362 0 0.33887143770345202 -0.2952285858339011 0 0.33887143770345202 -0.2952285858339011 0 0.34236046974869683 -0.29578658750665798 0 0.3406135030577247 -0.29277825231448362 0 0.33887143770345202 -0.2952285858339011 0 0.34236046974869683 -0.29578658750665798 0 0.3406135030577247 -0.29277825231448362 0 0.34236046974869683 -0.29578658750665798 0 0.33887143770345202 -0.2952285858339011 0 0.3356316541419776 -0.31053400065435499 0 0.32223995050597443 -0.3186219048375688 0 0.33887143770345202 -0.2952285858339011 0 0.34236046974869683 -0.29578658750665798 0 0.33996798235183751 -0.30034266553648648 0 0.33887143770345202 -0.2952285858339011 0 0.32223995050597443 -0.3186219048375688 0 0.33887143770345202 -0.2952285858339011 0 0.33996798235183751 -0.30034266553648648 0 0.3356316541419776 -0.31053400065435499 0 0.33181650763587561 -0.29410028929553861 0 0.33887143770345202 -0.2952285858339011 0 0.32223995050597443 -0.3186219048375688 0 0.34236046974869683 -0.29578658750665798 0 0.33996798235183751 -0.30034266553648648 0 0.34388662818276161 -0.30133821298291791 0 0.33996798235183751 -0.30034266553648648 0 0.3428022592347425 -0.30581906178943569 0 0.34388662818276161 -0.30133821298291791 0 0.3428022592347425 -0.30581906178943569 0 0.3356316541419776 -0.31053400065435499 0 0.34299806459980781 -0.31524978798322623 0 0.33996798235183751 -0.30034266553648648 0 0.3428022592347425 -0.30581906178943569 0 0.3356316541419776 -0.31053400065435499 0 0.33181650763587561 -0.29410028929553861 0 0.32162460453298619 -0.29797094666031781 0 0.32223995050597443 -0.3186219048375688 0 0.32162460453298619 -0.29797094666031781 0 0.32223995050597443 -0.3186219048375688 0 0.30909661991694543 -0.30476814418620829 0 0.32162460453298619 -0.29797094666031781 0 0.31587245210005699 -0.29091099076556998 0 0.30909661991694543 -0.30476814418620829 0 0.32162460453298619 -0.29797094666031781 0 0.31587245210005699 -0.29091099076556998 0 0.32163913700612778 -0.28969405612576138 0 0.33181650763587561 -0.29410028929553861 0 0.32162460453298619 -0.29797094666031781 0 0.32735153068988948 -0.28891415169606632 0 0.32162460453298619 -0.29797094666031781 0 0.32163913700612778 -0.28969405612576138 0 0.32735153068988948 -0.28891415169606632 0 0.32923597023628681 -0.2841367240938662 0 0.32497623961112082 -0.28380077900943967 0 0.328509975548816 -0.28022263821121651 0 0.32923597023628681 -0.2841367240938662 0 0.32497623961112082 -0.28380077900943967 0 0.32735153068988948 -0.28891415169606632 0 0.32163913700612778 -0.28969405612576138 0 0.32497623961112082 -0.28380077900943967 0 0.32735153068988948 -0.28891415169606632 0 0.32163913700612778 -0.28969405612576138 0 0.32497623961112082 -0.28380077900943967 0 0.31976239333644979 -0.28382082718978119 0 0.32497623961112082 -0.28380077900943967 0 0.31976239333644979 -0.28382082718978119 0 0.32203644412434712 -0.27626025114759828 0 0.31587245210005699 -0.29091099076556998 0 0.32163913700612778 -0.28969405612576138 0 0.31976239333644979 -0.28382082718978119 0 0.31587245210005699 -0.29091099076556998 0 0.31976239333644979 -0.28382082718978119 0 0.31289051739835239 -0.28526274252426731 0 0.31976239333644979 -0.28382082718978119 0 0.31289051739835239 -0.28526274252426731 0 0.31356814355690221 -0.27803121523705998 0 0.32203644412434712 -0.27626025114759828 0 0.32244644845941178 -0.26149397541975677 0 0.33262857663757522 -0.27902794140084242 0 0.32244644845941178 -0.26149397541975677 0 0.33262857663757522 -0.27902794140084242 0 0.31356814355690221 -0.27803121523705998 0 0.31267368432005749 -0.26867756669740811 0 0.32203644412434712 -0.27626025114759828 0 0.31976239333644979 -0.28382082718978119 0 0.31356814355690221 -0.27803121523705998 0 0.32203644412434712 -0.27626025114759828 0 0.31267368432005749 -0.26867756669740811 0 0.32203644412434712 -0.27626025114759828 0 0.32244644845941178 -0.26149397541975677 0 0.32203644412434712 -0.27626025114759828 0 0.33262857663757522 -0.27902794140084242 0 0.328509975548816 -0.28022263821121651 0 0.32497623961112082 -0.28380077900943967 0 0.32203644412434712 -0.27626025114759828 0 0.328509975548816 -0.28022263821121651 0 0.31267368432005749 -0.26867756669740811 0 0.32244644845941178 -0.26149397541975677 0 0.30653843409543519 -0.25898718427093731 0 0.31226432028124712 -0.24396000943867199 0 0.32244644845941178 -0.26149397541975677 0 0.30653843409543519 -0.25898718427093731 0 0.31226432028124712 -0.24396000943867199 0 0.32244644845941178 -0.26149397541975677 0 0.31226432028124712 -0.24396000943867199 0 0.31588284367281178 -0.24860848403542071 0 0.32244644845941178 -0.26149397541975677 0 0.31588284367281178 -0.24860848403542071 0 0.32244644845941178 -0.26149397541975677 0 0.32430218291005558 -0.25061057777062279 0 0.32244644845941178 -0.26149397541975677 0 0.32430218291005558 -0.25061057777062279 0 0.33492522435758898 -0.25012319656376852 0 0.32244644845941178 -0.26149397541975677 0 0.33492522435758898 -0.25012319656376852 0 0.34082531602692578 -0.26139933463807707 0 0.34463979734214922 -0.24799431301806471 0 0.33492522435758898 -0.25012319656376852 0 0.34082531602692578 -0.26139933463807707 0 0.34082531602692578 -0.26139933463807707 0 0.33262857663757522 -0.27902794140084242 0 0.35500365376339971 -0.27253752567521111 0 0.32244644845941178 -0.26149397541975677 0 0.34082531602692578 -0.26139933463807707 0 0.33262857663757522 -0.27902794140084242 0 0.32923597023628681 -0.2841367240938662 0 0.33262857663757522 -0.27902794140084242 0 0.328509975548816 -0.28022263821121651 0 0.33262857663757522 -0.27902794140084242 0 0.328509975548816 -0.28022263821121651 0 0.33262857663757522 -0.27902794140084242 0 0.35500365376339971 -0.27253752567521111 0 0.34082531602692578 -0.26139933463807707 0 0.35500365376339971 -0.27253752567521111 0 0.35494987809103229 -0.25462931183528009 0 0.34463979734214922 -0.24799431301806471 0 0.34082531602692578 -0.26139933463807707 0 0.35494987809103229 -0.25462931183528009 0 0.35500365376339971 -0.27253752567521111 0 0.37081177953647548 -0.25030232056885798 0 0.38051388951651688 -0.26513768368290941 0 0.35500365376339971 -0.27253752567521111 0 0.37081177953647548 -0.25030232056885798 0 0.37095725753778508 -0.23885000823915059 0 0.38051388951651688 -0.26513768368290941 0 0.37081177953647548 -0.25030232056885798 0 0.35500365376339971 -0.27253752567521111 0 0.35494987809103229 -0.25462931183528009 0 0.37081177953647548 -0.25030232056885798 0 0.35500365376339971 -0.27253752567521111 0 0.36971519556899701 -0.28218752624456339 0 0.35524451392399781 -0.28865234753377372 0 0.38051388951651688 -0.26513768368290941 0 0.35500365376339971 -0.27253752567521111 0 0.38051388951651688 -0.26513768368290941 0 0.35500365376339971 -0.27253752567521111 0 0.36971519556899701 -0.28218752624456339 0 0.36971519556899701 -0.28218752624456339 0 0.35524451392399781 -0.28865234753377372 0 0.36852974748117029 -0.29997184592795401 0 0.3406135030577247 -0.29277825231448362 0 0.35500365376339971 -0.27253752567521111 0 0.35524451392399781 -0.28865234753377372 0 0.3406135030577247 -0.29277825231448362 0 0.35500365376339971 -0.27253752567521111 0 0.34236046974869683 -0.29578658750665798 0 0.35524451392399781 -0.28865234753377372 0 0.36852974748117029 -0.29997184592795401 0 0.3406135030577247 -0.29277825231448362 0 0.34236046974869683 -0.29578658750665798 0 0.35524451392399781 -0.28865234753377372 0 0.34990572402725872 -0.30252616677505528 0 0.35193691612944877 -0.30949399593291371 0 0.36852974748117029 -0.29997184592795401 0 0.34236046974869683 -0.29578658750665798 0 0.34990572402725872 -0.30252616677505528 0 0.36852974748117029 -0.29997184592795401 0 0.34236046974869683 -0.29578658750665798 0 0.36852974748117029 -0.29997184592795401 0 0.3428022592347425 -0.30581906178943569 0 0.34990572402725872 -0.30252616677505528 0 0.35193691612944877 -0.30949399593291371 0 0.3428022592347425 -0.30581906178943569 0 0.35193691612944877 -0.30949399593291371 0 0.34299806459980781 -0.31524978798322623 0 0.3428022592347425 -0.30581906178943569 0 0.34388662818276161 -0.30133821298291791 0 0.34990572402725872 -0.30252616677505528 0 0.34236046974869683 -0.29578658750665798 0 0.34388662818276161 -0.30133821298291791 0 0.34990572402725872 -0.30252616677505528 0 0.3821221886567745 -0.31591297150177389 0 0.36852974748117029 -0.29997184592795401 0 0.36454448808132922 -0.31812509957415291 0 0.35193691612944877 -0.30949399593291371 0 0.36852974748117029 -0.29997184592795401 0 0.36454448808132922 -0.31812509957415291 0 0.37556212333074718 -0.3295206217360655 0 0.36454448808132922 -0.31812509957415291 0 0.35880526128149409 -0.33326328220242368 0 0.37556212333074718 -0.3295206217360655 0 0.3821221886567745 -0.31591297150177389 0 0.36454448808132922 -0.31812509957415291 0 0.37556212333074718 -0.3295206217360655 0 0.35880526128149409 -0.33326328220242368 0 0.3708318904496552 -0.34506499497984527 0 0.35880526128149409 -0.33326328220242368 0 0.3708318904496552 -0.34506499497984527 0 0.35072924468216871 -0.35061043906255401 0 0.35880526128149409 -0.33326328220242368 0 0.34509394422478779 -0.3346285411466014 0 0.35072924468216871 -0.35061043906255401 0 0.35880526128149409 -0.33326328220242368 0 0.34509394422478779 -0.3346285411466014 0 0.34904354619452882 -0.32146666853532202 0 0.35193691612944877 -0.30949399593291371 0 0.34904354619452882 -0.32146666853532202 0 0.34299806459980781 -0.31524978798322623 0 0.35193691612944877 -0.30949399593291371 0 0.36454448808132922 -0.31812509957415291 0 0.34904354619452882 -0.32146666853532202 0 0.36454448808132922 -0.31812509957415291 0 0.35880526128149409 -0.33326328220242368 0 0.34904354619452882 -0.32146666853532202 0 0.37956263292016729 -0.37771901991701301 0 0.36694504677176348 -0.37265463829156742 0 0.36906684866501949 -0.3600208648147325 0 0.35907447769494288 -0.3833704310905437 0 0.36694504677176348 -0.37265463829156742 0 0.35657205019835853 -0.36492728702852811 0 0.36694504677176348 -0.37265463829156742 0 0.36906684866501949 -0.3600208648147325 0 0.35657205019835853 -0.36492728702852811 0 0.36906684866501949 -0.3600208648147325 0 0.3708318904496552 -0.34506499497984527 0 0.35072924468216871 -0.35061043906255401 0 0.36906684866501949 -0.3600208648147325 0 0.35072924468216871 -0.35061043906255401 0 0.35657205019835853 -0.36492728702852811 0 0.35907447769494288 -0.3833704310905437 0 0.35657205019835853 -0.36492728702852811 0 0.34428407625265123 -0.37017816248164481 0 0.35072924468216871 -0.35061043906255401 0 0.35657205019835853 -0.36492728702852811 0 0.34428407625265123 -0.37017816248164481 0 0.35072924468216871 -0.35061043906255401 0 0.34428407625265123 -0.37017816248164481 0 0.33440795695015341 -0.3591767025851812 0 0.34428407625265123 -0.37017816248164481 0 0.32888422683427337 -0.37331648399768808 0 0.33440795695015341 -0.3591767025851812 0 0.35072924468216871 -0.35061043906255401 0 0.33079230788452879 -0.34380702636042898 0 0.33440795695015341 -0.3591767025851812 0 0.33079230788452879 -0.34380702636042898 0 0.33440795695015341 -0.3591767025851812 0 0.32030450540363159 -0.36155885805533222 0 0.33079230788452879 -0.34380702636042898 0 0.32030450540363159 -0.36155885805533222 0 0.30955887000569038 -0.34833327759579302 0 0.32888422683427337 -0.37331648399768808 0 0.33440795695015341 -0.3591767025851812 0 0.32030450540363159 -0.36155885805533222 0 0.31516710541378362 -0.37684150056690802 0 0.32030450540363159 -0.36155885805533222 0 0.30754832689879052 -0.36854523994544641 0 0.31516710541378362 -0.37684150056690802 0 0.32888422683427337 -0.37331648399768808 0 0.32030450540363159 -0.36155885805533222 0 0.3356316541419776 -0.31053400065435499 0 0.33609936108121807 -0.32399528957227819 0 0.32223995050597443 -0.3186219048375688 0 0.3356316541419776 -0.31053400065435499 0 0.34299806459980781 -0.31524978798322623 0 0.33609936108121807 -0.32399528957227819 0 0.34904354619452882 -0.32146666853532202 0 0.34299806459980781 -0.31524978798322623 0 0.33609936108121807 -0.32399528957227819 0 0.34509394422478779 -0.3346285411466014 0 0.34904354619452882 -0.32146666853532202 0 0.33609936108121807 -0.32399528957227819 0 0.33079230788452879 -0.34380702636042898 0 0.33609936108121807 -0.32399528957227819 0 0.31884710877605699 -0.33381960572239783 0 0.34509394422478779 -0.3346285411466014 0 0.33079230788452879 -0.34380702636042898 0 0.33609936108121807 -0.32399528957227819 0 0.34509394422478779 -0.3346285411466014 0 0.35072924468216871 -0.35061043906255401 0 0.33079230788452879 -0.34380702636042898 0 0.33079230788452879 -0.34380702636042898 0 0.31884710877605699 -0.33381960572239783 0 0.30955887000569038 -0.34833327759579302 0 0.31884710877605699 -0.33381960572239783 0 0.32223995050597443 -0.3186219048375688 0 0.30411773564167838 -0.32532762991483261 0 0.33609936108121807 -0.32399528957227819 0 0.31884710877605699 -0.33381960572239783 0 0.32223995050597443 -0.3186219048375688 0 0.30411773564167838 -0.32532762991483261 0 0.2953867739694751 -0.31255172445939611 0 0.30909661991694543 -0.30476814418620829 0 0.32223995050597443 -0.3186219048375688 0 0.30411773564167838 -0.32532762991483261 0 0.30909661991694543 -0.30476814418620829 0 0.31884710877605699 -0.33381960572239783 0 0.30411773564167838 -0.32532762991483261 0 0.30955887000569038 -0.34833327759579302 0 0.30411773564167838 -0.32532762991483261 0 0.28915114074979581 -0.34138503647408092 0 0.30955887000569038 -0.34833327759579302 0 0.30411773564167838 -0.32532762991483261 0 0.28915114074979581 -0.34138503647408092 0 0.28713151182667052 -0.32198519409753928 0 0.28915114074979581 -0.34138503647408092 0 0.28713151182667052 -0.32198519409753928 0 0.27515035343180372 -0.32792895430996682 0 0.30411773564167838 -0.32532762991483261 0 0.28713151182667052 -0.32198519409753928 0 0.2953867739694751 -0.31255172445939611 0 0.28713151182667052 -0.32198519409753928 0 0.27635027877106327 -0.31646571635485993 0 0.28380278005765641 -0.30907119450941412 0 0.28713151182667052 -0.32198519409753928 0 0.2953867739694751 -0.31255172445939611 0 0.28380278005765641 -0.30907119450941412 0 0.32030450540363159 -0.36155885805533222 0 0.30754832689879052 -0.36854523994544641 0 0.30955887000569038 -0.34833327759579302 0 0.30754832689879052 -0.36854523994544641 0 0.30955887000569038 -0.34833327759579302 0 0.29597209988190848 -0.36410514245793441 0 0.29715141473585582 -0.37871948679530459 0 0.30754832689879052 -0.36854523994544641 0 0.29597209988190848 -0.36410514245793441 0 0.28915114074979581 -0.34138503647408092 0 0.30955887000569038 -0.34833327759579302 0 0.29597209988190848 -0.36410514245793441 0 0.28915114074979581 -0.34138503647408092 0 0.29597209988190848 -0.36410514245793441 0 0.2744865768162652 -0.35432319903164061 0 0.28788773011919172 -0.37696093319823049 0 0.29597209988190848 -0.36410514245793441 0 0.2744865768162652 -0.35432319903164061 0 0.29715141473585582 -0.37871948679530459 0 0.28788773011919172 -0.37696093319823049 0 0.29597209988190848 -0.36410514245793441 0 0.2738228002007268 -0.3807174437533144 0 0.2744865768162652 -0.35432319903164061 0 0.28788773011919172 -0.37696093319823049 0 0.2738228002007268 -0.3807174437533144 0 0.2744865768162652 -0.35432319903164061 0 0.2744865768162652 -0.35432319903164061 0 0.2509559815582264 -0.34543129406694217 0 0.24839273634637241 -0.36909699674629631 0 0.2744865768162652 -0.35432319903164061 0 0.2509559815582264 -0.34543129406694217 0 0.26210151476398219 -0.33536425233026079 0 0.2738228002007268 -0.3807174437533144 0 0.2744865768162652 -0.35432319903164061 0 0.24839273634637241 -0.36909699674629631 0 0.2738228002007268 -0.3807174437533144 0 0.24839273634637241 -0.36909699674629631 0 0.27635027877106327 -0.31646571635485993 0 0.25410440035002491 -0.32265197447460092 0 0.27202299630137239 -0.30664630117613317 0 0.27635027877106327 -0.31646571635485993 0 0.27515035343180372 -0.32792895430996682 0 0.25410440035002491 -0.32265197447460092 0 0.28713151182667052 -0.32198519409753928 0 0.27635027877106327 -0.31646571635485993 0 0.27515035343180372 -0.32792895430996682 0 0.2744865768162652 -0.35432319903164061 0 0.27515035343180372 -0.32792895430996682 0 0.26210151476398219 -0.33536425233026079 0 0.28915114074979581 -0.34138503647408092 0 0.2744865768162652 -0.35432319903164061 0 0.27515035343180372 -0.32792895430996682 0 0.2744865768162652 -0.35432319903164061 0 0.27515035343180372 -0.32792895430996682 0 0.2509559815582264 -0.34543129406694217 0 0.26210151476398219 -0.33536425233026079 0 0.25410440035002491 -0.32265197447460092 0 0.27515035343180372 -0.32792895430996682 0 0.26210151476398219 -0.33536425233026079 0 0.25410440035002491 -0.32265197447460092 0 0.27635027877106327 -0.31646571635485993 0 0.25410440035002491 -0.32265197447460092 0 0.25410440035002491 -0.32265197447460092 0 0.25951850595345471 -0.30003848694315199 0 0.23796919530119939 -0.29979818858173712 0 0.25410440035002491 -0.32265197447460092 0 0.25951850595345471 -0.30003848694315199 0 0.27202299630137239 -0.30664630117613317 0 0.25951850595345471 -0.30003848694315199 0 0.25106833915975418 -0.28612482376641157 0 0.26824666574651562 -0.28440951230915201 0 0.26824666574651562 -0.28440951230915201 0 0.27921848993281773 -0.29652175948201631 0 0.2857970090571314 -0.28072333747015221 0 0.25951850595345471 -0.30003848694315199 0 0.26824666574651562 -0.28440951230915201 0 0.27921848993281773 -0.29652175948201631 0 0.25951850595345471 -0.30003848694315199 0 0.27921848993281773 -0.29652175948201631 0 0.27202299630137239 -0.30664630117613317 0 0.27921848993281773 -0.29652175948201631 0 0.27202299630137239 -0.30664630117613317 0 0.28380278005765641 -0.30907119450941412 0 0.27635027877106327 -0.31646571635485993 0 0.27202299630137239 -0.30664630117613317 0 0.28380278005765641 -0.30907119450941412 0 0.2953867739694751 -0.31255172445939611 0 0.28380278005765641 -0.30907119450941412 0 0.29281801301465871 -0.30145922826213051 0 0.27921848993281773 -0.29652175948201631 0 0.28380278005765641 -0.30907119450941412 0 0.29281801301465871 -0.30145922826213051 0 0.27921848993281773 -0.29652175948201631 0 0.28949691147552847 -0.29172892849710591 0 0.2857970090571314 -0.28072333747015221 0 0.27921848993281773 -0.29652175948201631 0 0.29281801301465871 -0.30145922826213051 0 0.28949691147552847 -0.29172892849710591 0 0.29654985527181649 -0.28567603520745682 0 0.28949691147552847 -0.29172892849710591 0 0.2857970090571314 -0.28072333747015221 0 0.29281801301465871 -0.30145922826213051 0 0.28949691147552847 -0.29172892849710591 0 0.29990650273552899 -0.29411361843864231 0 0.29654985527181649 -0.28567603520745682 0 0.28949691147552847 -0.29172892849710591 0 0.29990650273552899 -0.29411361843864231 0 0.29990650273552899 -0.29411361843864231 0 0.30571015715417282 -0.28410428370242491 0 0.30762093295071502 -0.29212388826291141 0 0.29654985527181649 -0.28567603520745682 0 0.29990650273552899 -0.29411361843864231 0 0.30571015715417282 -0.28410428370242491 0 0.31289051739835239 -0.28526274252426731 0 0.30571015715417282 -0.28410428370242491 0 0.30762093295071502 -0.29212388826291141 0 0.31289051739835239 -0.28526274252426731 0 0.31356814355690221 -0.27803121523705998 0 0.30571015715417282 -0.28410428370242491 0 0.31587245210005699 -0.29091099076556998 0 0.31289051739835239 -0.28526274252426731 0 0.30762093295071502 -0.29212388826291141 0 0.31587245210005699 -0.29091099076556998 0 0.30762093295071502 -0.29212388826291141 0 0.30909661991694543 -0.30476814418620829 0 0.2953867739694751 -0.31255172445939611 0 0.29281801301465871 -0.30145922826213051 0 0.30909661991694543 -0.30476814418620829 0 0.29281801301465871 -0.30145922826213051 0 0.29990650273552899 -0.29411361843864231 0 0.30909661991694543 -0.30476814418620829 0 0.29990650273552899 -0.29411361843864231 0 0.30762093295071502 -0.29212388826291141 0 0.30909661991694543 -0.30476814418620829 0 0.31226432028124712 -0.24396000943867199 0 0.28676671322231928 -0.24776255559662569 0 0.30653843409543519 -0.25898718427093731 0 0.31267368432005749 -0.26867756669740811 0 0.30653843409543519 -0.25898718427093731 0 0.30230832610918279 -0.273854289693304 0 0.31356814355690221 -0.27803121523705998 0 0.30571015715417282 -0.28410428370242491 0 0.30230832610918279 -0.273854289693304 0 0.31356814355690221 -0.27803121523705998 0 0.31267368432005749 -0.26867756669740811 0 0.30230832610918279 -0.273854289693304 0 0.29654985527181649 -0.28567603520745682 0 0.30571015715417282 -0.28410428370242491 0 0.30230832610918279 -0.273854289693304 0 0.30653843409543519 -0.25898718427093731 0 0.30230832610918279 -0.273854289693304 0 0.29116201279876019 -0.26564999014995028 0 0.29654985527181649 -0.28567603520745682 0 0.30230832610918279 -0.273854289693304 0 0.2857970090571314 -0.28072333747015221 0 0.29116201279876019 -0.26564999014995028 0 0.2857970090571314 -0.28072333747015221 0 0.27439958150973248 -0.26692258371873268 0 0.30230832610918279 -0.273854289693304 0 0.29116201279876019 -0.26564999014995028 0 0.2857970090571314 -0.28072333747015221 0 0.28676671322231928 -0.24776255559662569 0 0.30653843409543519 -0.25898718427093731 0 0.29116201279876019 -0.26564999014995028 0 0.28676671322231928 -0.24776255559662569 0 0.29116201279876019 -0.26564999014995028 0 0.27439958150973248 -0.26692258371873268 0 0.28676671322231928 -0.24776255559662569 0 0.27439958150973248 -0.26692258371873268 0 0.2612691061633915 -0.25156510175457908 0 0.26824666574651562 -0.28440951230915201 0 0.27439958150973248 -0.26692258371873268 0 0.25480589963680411 -0.26990514475803978 0 0.26824666574651562 -0.28440951230915201 0 0.2857970090571314 -0.28072333747015221 0 0.27439958150973248 -0.26692258371873268 0 0.25106833915975418 -0.28612482376641157 0 0.26824666574651562 -0.28440951230915201 0 0.25480589963680411 -0.26990514475803978 0 0.25480589963680411 -0.26990514475803978 0 0.2612691061633915 -0.25156510175457908 0 0.23978149326664969 -0.25632296488196948 0 0.27439958150973248 -0.26692258371873268 0 0.25480589963680411 -0.26990514475803978 0 0.2612691061633915 -0.25156510175457908 0 0.25106833915975418 -0.28612482376641157 0 0.25480589963680411 -0.26990514475803978 0 0.23480142916079691 -0.27647278623997679 0 0.25480589963680411 -0.26990514475803978 0 0.23978149326664969 -0.25632296488196948 0 0.23480142916079691 -0.27647278623997679 0 0.23480142916079691 -0.27647278623997679 0 0.21457602053644689 -0.26046752046997718 0 0.2172431835411596 -0.28243384635115942 0 0.23978149326664969 -0.25632296488196948 0 0.21457602053644689 -0.26046752046997718 0 0.2280783150807042 -0.24068071911682251 0 0.23978149326664969 -0.25632296488196948 0 0.23480142916079691 -0.27647278623997679 0 0.21457602053644689 -0.26046752046997718 0 0.21457602053644689 -0.26046752046997718 0 0.19326247381943809 -0.27232753692261341 0 0.2172431835411596 -0.28243384635115942 0 0.21457602053644689 -0.26046752046997718 0 0.19326247381943809 -0.27232753692261341 0 0.19364024959054679 -0.2463381411259771 0 0.19326247381943809 -0.27232753692261341 0 0.17892727837364311 -0.25674286646103078 0 0.19364024959054679 -0.2463381411259771 0 0.19675763047272249 -0.31171251975671099 0 0.20400337042340039 -0.29514735596068697 0 0.18711814480560429 -0.30370786212870549 0 0.19675763047272249 -0.31171251975671099 0 0.1871396550910196 -0.31608008710295821 0 0.18711814480560429 -0.30370786212870549 0 0.19326247381943809 -0.27232753692261341 0 0.20400337042340039 -0.29514735596068697 0 0.18285571508027509 -0.28809587260455127 0 0.20400337042340039 -0.29514735596068697 0 0.18285571508027509 -0.28809587260455127 0 0.18711814480560429 -0.30370786212870549 0 0.20400337042340039 -0.29514735596068697 0 0.2172431835411596 -0.28243384635115942 0 0.2193810922250316 -0.30165310320830918 0 0.19326247381943809 -0.27232753692261341 0 0.20400337042340039 -0.29514735596068697 0 0.2172431835411596 -0.28243384635115942 0 0.20400337042340039 -0.29514735596068697 0 0.2193810922250316 -0.30165310320830918 0 0.20996424818240861 -0.31603510408646779 0 0.19675763047272249 -0.31171251975671099 0 0.20400337042340039 -0.29514735596068697 0 0.20996424818240861 -0.31603510408646779 0 0.2193810922250316 -0.30165310320830918 0 0.23796919530119939 -0.29979818858173712 0 0.2318585219289864 -0.32883823259434197 0 0.2172431835411596 -0.28243384635115942 0 0.2193810922250316 -0.30165310320830918 0 0.23796919530119939 -0.29979818858173712 0 0.23480142916079691 -0.27647278623997679 0 0.2172431835411596 -0.28243384635115942 0 0.23796919530119939 -0.29979818858173712 0 0.25106833915975418 -0.28612482376641157 0 0.23480142916079691 -0.27647278623997679 0 0.23796919530119939 -0.29979818858173712 0 0.25951850595345471 -0.30003848694315199 0 0.25106833915975418 -0.28612482376641157 0 0.23796919530119939 -0.29979818858173712 0 0.25410440035002491 -0.32265197447460092 0 0.23796919530119939 -0.29979818858173712 0 0.2318585219289864 -0.32883823259434197 0 0.25410440035002491 -0.32265197447460092 0 0.2318585219289864 -0.32883823259434197 0 0.2509559815582264 -0.34543129406694217 0 0.2318585219289864 -0.32883823259434197 0 0.23519533837000431 -0.34487653538000751 0 0.2509559815582264 -0.34543129406694217 0 0.25410440035002491 -0.32265197447460092 0 0.2318585219289864 -0.32883823259434197 0 0.2318585219289864 -0.32883823259434197 0 0.23519533837000431 -0.34487653538000751 0 0.222762551306464 -0.34478154603641142 0 0.2318585219289864 -0.32883823259434197 0 0.222762551306464 -0.34478154603641142 0 0.209612643507948 -0.33502449071408302 0 0.2318585219289864 -0.32883823259434197 0 0.209612643507948 -0.33502449071408302 0 0.2193810922250316 -0.30165310320830918 0 0.2318585219289864 -0.32883823259434197 0 0.20996424818240861 -0.31603510408646779 0 0.24839273634637241 -0.36909699674629631 0 0.2229626724920177 -0.35747654973927878 0 0.23573593613072041 -0.38144274492585961 0 0.24839273634637241 -0.36909699674629631 0 0.24306238993779691 -0.35661219384723852 0 0.22964728784398661 -0.35453423040281618 0 0.24839273634637241 -0.36909699674629631 0 0.2229626724920177 -0.35747654973927878 0 0.2509559815582264 -0.34543129406694217 0 0.24839273634637241 -0.36909699674629631 0 0.24306238993779691 -0.35661219384723852 0 0.2509559815582264 -0.34543129406694217 0 0.24306238993779691 -0.35661219384723852 0 0.23519533837000431 -0.34487653538000751 0 0.24306238993779691 -0.35661219384723852 0 0.23519533837000431 -0.34487653538000751 0 0.22964728784398661 -0.35453423040281618 0 0.23519533837000431 -0.34487653538000751 0 0.222762551306464 -0.34478154603641142 0 0.22964728784398661 -0.35453423040281618 0 0.222762551306464 -0.34478154603641142 0 0.2229626724920177 -0.35747654973927878 0 0.22964728784398661 -0.35453423040281618 0 0.2229626724920177 -0.35747654973927878 0 0.22964728784398661 -0.35453423040281618 0 0.2229626724920177 -0.35747654973927878 0 0.23573593613072041 -0.38144274492585961 0 0.21883827045828361 -0.37863406170716618 0 0.24839273634637241 -0.36909699674629631 0 0.2229626724920177 -0.35747654973927878 0 0.22964728784398661 -0.35453423040281618 0 0.2229626724920177 -0.35747654973927878 0 0.2094673075882614 -0.37021487514295409 0 0.21883827045828361 -0.37863406170716618 0 0.2229626724920177 -0.35747654973927878 0 0.19528871965296751 -0.3696575956585072 0 0.2229626724920177 -0.35747654973927878 0 0.2094673075882614 -0.37021487514295409 0 0.19528871965296751 -0.3696575956585072 0 0.2094673075882614 -0.37021487514295409 0 0.199701579800319 -0.37317045903097562 0 0.20665974706001419 -0.37986272954077682 0 0.2229626724920177 -0.35747654973927878 0 0.2084538640585604 -0.35084664741179727 0 0.19528871965296751 -0.3696575956585072 0 0.2229626724920177 -0.35747654973927878 0 0.2084538640585604 -0.35084664741179727 0 0.222762551306464 -0.34478154603641142 0 0.2229626724920177 -0.35747654973927878 0 0.2084538640585604 -0.35084664741179727 0 0.19394505562510209 -0.34421674508431782 0 0.1952353733652995 -0.35619955315090529 0 0.18325385412456771 -0.36007722444900181 0 0.19394505562510209 -0.34421674508431782 0 0.18325385412456771 -0.36007722444900181 0 0.2084538640585604 -0.35084664741179727 0 0.1952353733652995 -0.35619955315090529 0 0.19528871965296751 -0.3696575956585072 0 0.2084538640585604 -0.35084664741179727 0 0.19394505562510209 -0.34421674508431782 0 0.1952353733652995 -0.35619955315090529 0 0.2084538640585604 -0.35084664741179727 0 0.19394505562510209 -0.34421674508431782 0 0.19394505562510209 -0.34421674508431782 0 0.18736676508691039 -0.34121074883382679 0 0.1827175034099838 -0.34848621203201541 0 0.1952353733652995 -0.35619955315090529 0 0.19528871965296751 -0.3696575956585072 0 0.18325385412456771 -0.36007722444900181 0 0.19528871965296751 -0.3696575956585072 0 0.18325385412456771 -0.36007722444900181 0 0.19528871965296751 -0.3696575956585072 0 0.199701579800319 -0.37317045903097562 0 0.18932701661156151 -0.37959823558223649 0 0.19528871965296751 -0.3696575956585072 0 0.199701579800319 -0.37317045903097562 0 0.2094673075882614 -0.37021487514295409 0 0.19528871965296751 -0.3696575956585072 0 0.199701579800319 -0.37317045903097562 0 0.2318585219289864 -0.32883823259434197 0 0.20996424818240861 -0.31603510408646779 0 0.209612643507948 -0.33502449071408302 0 0.20996424818240861 -0.31603510408646779 0 0.209612643507948 -0.33502449071408302 0 0.19556273386117939 -0.32759218950473651 0 0.2084538640585604 -0.35084664741179727 0 0.19394505562510209 -0.34421674508431782 0 0.209612643507948 -0.33502449071408302 0 0.222762551306464 -0.34478154603641142 0 0.2084538640585604 -0.35084664741179727 0 0.209612643507948 -0.33502449071408302 0 0.19394505562510209 -0.34421674508431782 0 0.209612643507948 -0.33502449071408302 0 0.18736676508691039 -0.34121074883382679 0 0.209612643507948 -0.33502449071408302 0 0.19556273386117939 -0.32759218950473651 0 0.18736676508691039 -0.34121074883382679 0 0.209612643507948 -0.33502449071408302 0 0.18736676508691039 -0.34121074883382679 0 0.19394505562510209 -0.34421674508431782 0 0.18736676508691039 -0.34121074883382679 0 0.19556273386117939 -0.32759218950473651 0 0.185160702108285 -0.3326677085250398 0 0.18736676508691039 -0.34121074883382679 0 0.19675763047272249 -0.31171251975671099 0 0.19556273386117939 -0.32759218950473651 0 0.1871396550910196 -0.31608008710295821 0 0.19675763047272249 -0.31171251975671099 0 0.20996424818240861 -0.31603510408646779 0 0.19556273386117939 -0.32759218950473651 0 0.1871396550910196 -0.31608008710295821 0 0.17386567923094581 -0.31547368429169209 0 0.17978459040946279 -0.32567144705300749 0 0.19556273386117939 -0.32759218950473651 0 0.1871396550910196 -0.31608008710295821 0 0.17978459040946279 -0.32567144705300749 0 0.17386567923094581 -0.31547368429169209 0 0.17978459040946279 -0.32567144705300749 0 0.16981200573551961 -0.32606433118549649 0 0.19556273386117939 -0.32759218950473651 0 0.17978459040946279 -0.32567144705300749 0 0.185160702108285 -0.3326677085250398 0 0.17978459040946279 -0.32567144705300749 0 0.185160702108285 -0.3326677085250398 0 0.17725786994289969 -0.33659141791145142 0 0.185160702108285 -0.3326677085250398 0 0.18736676508691039 -0.34121074883382679 0 0.17725786994289969 -0.33659141791145142 0 0.18736676508691039 -0.34121074883382679 0 0.17542033266821039 -0.3445328794844274 0 0.18736676508691039 -0.34121074883382679 0 0.17725786994289969 -0.33659141791145142 0 0.18736676508691039 -0.34121074883382679 0 0.17725786994289969 -0.33659141791145142 0 0.17542033266821039 -0.3445328794844274 0 0.17725786994289969 -0.33659141791145142 0 0.163984263474069 -0.33722155095557171 0 0.17542033266821039 -0.3445328794844274 0 0.17725786994289969 -0.33659141791145142 0 0.17542033266821039 -0.3445328794844274 0 0.17978459040946279 -0.32567144705300749 0 0.17725786994289969 -0.33659141791145142 0 0.17978459040946279 -0.32567144705300749 0 0.17725786994289969 -0.33659141791145142 0 0.16981200573551961 -0.32606433118549649 0 0.16675434328251301 -0.34694276621437059 0 0.15022457853549451 -0.33378422431719712 0 0.17725786994289969 -0.33659141791145142 0 0.163984263474069 -0.33722155095557171 0 0.1502641929412262 -0.32425646685041382 0 0.163984263474069 -0.33722155095557171 0 0.16675434328251301 -0.34694276621437059 0 0.15022457853549451 -0.33378422431719712 0 0.17725786994289969 -0.33659141791145142 0 0.16981200573551961 -0.32606433118549649 0 0.1502641929412262 -0.32425646685041382 0 0.17725786994289969 -0.33659141791145142 0 0.1502641929412262 -0.32425646685041382 0 0.163984263474069 -0.33722155095557171 0 0.17542033266821039 -0.3445328794844274 0 0.16675434328251301 -0.34694276621437059 0 0.16981200573551961 -0.32606433118549649 0 0.16420740756953811 -0.32137324523411709 0 0.1502641929412262 -0.32425646685041382 0 0.16420740756953811 -0.32137324523411709 0 0.15516685439168559 -0.31644734705918981 0 0.1502641929412262 -0.32425646685041382 0 0.16420740756953811 -0.32137324523411709 0 0.15516685439168559 -0.31644734705918981 0 0.16362000617284991 -0.30984433167910808 0 0.17386567923094581 -0.31547368429169209 0 0.16420740756953811 -0.32137324523411709 0 0.16362000617284991 -0.30984433167910808 0 0.17386567923094581 -0.31547368429169209 0 0.16981200573551961 -0.32606433118549649 0 0.16420740756953811 -0.32137324523411709 0 0.19528871965296751 -0.3696575956585072 0 0.18325385412456771 -0.36007722444900181 0 0.16899426162261089 -0.38123143921283231 0 0.18325385412456771 -0.36007722444900181 0 0.17014806156959511 -0.36731856057441142 0 0.16899426162261089 -0.38123143921283231 0 0.18325385412456771 -0.36007722444900181 0 0.16899426162261089 -0.38123143921283231 0 0.18325385412456771 -0.36007722444900181 0 0.1736015095451284 -0.35239346230850288 0 0.17014806156959511 -0.36731856057441142 0 0.19394505562510209 -0.34421674508431782 0 0.18325385412456771 -0.36007722444900181 0 0.1827175034099838 -0.34848621203201541 0 0.18325385412456771 -0.36007722444900181 0 0.1736015095451284 -0.35239346230850288 0 0.18325385412456771 -0.36007722444900181 0 0.1736015095451284 -0.35239346230850288 0 0.1827175034099838 -0.34848621203201541 0 0.18736676508691039 -0.34121074883382679 0 0.1827175034099838 -0.34848621203201541 0 0.17542033266821039 -0.3445328794844274 0 0.1736015095451284 -0.35239346230850288 0 0.17542033266821039 -0.3445328794844274 0 0.16675434328251301 -0.34694276621437059 0 0.1736015095451284 -0.35239346230850288 0 0.17542033266821039 -0.3445328794844274 0 0.1736015095451284 -0.35239346230850288 0 0.1827175034099838 -0.34848621203201541 0 0.17542033266821039 -0.3445328794844274 0 0.16675434328251301 -0.34694276621437059 0 0.1646330360338 -0.35473954436844868 0 0.14865720028651691 -0.35197532081546529 0 0.16637890067996469 -0.36431813418699849 0 0.14865720028651691 -0.35197532081546529 0 0.1646330360338 -0.35473954436844868 0 0.16637890067996469 -0.36431813418699849 0 0.14865720028651691 -0.35197532081546529 0 0.16637890067996469 -0.36431813418699849 0 0.15413582035642981 -0.36099647923198508 0 0.14865720028651691 -0.35197532081546529 0 0.16675434328251301 -0.34694276621437059 0 0.14865720028651691 -0.35197532081546529 0 0.17542033266821039 -0.3445328794844274 0 0.16675434328251301 -0.34694276621437059 0 0.1736015095451284 -0.35239346230850288 0 0.16675434328251301 -0.34694276621437059 0 0.1646330360338 -0.35473954436844868 0 0.1736015095451284 -0.35239346230850288 0 0.16675434328251301 -0.34694276621437059 0 0.1736015095451284 -0.35239346230850288 0 0.1646330360338 -0.35473954436844868 0 0.16637890067996469 -0.36431813418699849 0 0.1736015095451284 -0.35239346230850288 0 0.17014806156959511 -0.36731856057441142 0 0.1736015095451284 -0.35239346230850288 0 0.16637890067996469 -0.36431813418699849 0 0.17014806156959511 -0.36731856057441142 0 0.16637890067996469 -0.36431813418699849 0 0.15735078452238721 -0.36530951557782471 0 0.1609627573892391 -0.36908720393921352 0 0.16637890067996469 -0.36431813418699849 0 0.15735078452238721 -0.36530951557782471 0 0.15413582035642981 -0.36099647923198508 0 0.16637890067996469 -0.36431813418699849 0 0.1609627573892391 -0.36908720393921352 0 0.16450726530089471 -0.37238714191684053 0 0.15735078452238721 -0.36530951557782471 0 0.1609627573892391 -0.36908720393921352 0 0.15490270346799009 -0.3704798179476616 0 0.1609627573892391 -0.36908720393921352 0 0.1599210793238022 -0.37433558328742339 0 0.15490270346799009 -0.3704798179476616 0 0.1609627573892391 -0.36908720393921352 0 0.1599210793238022 -0.37433558328742339 0 0.16450726530089471 -0.37238714191684053 0 0.1599210793238022 -0.37433558328742339 0 0.16450726530089471 -0.37238714191684053 0 0.16293817924870471 -0.37701971067267659 0 0.17014806156959511 -0.36731856057441142 0 0.1666946135940611 -0.38224365884031958 0 0.17014806156959511 -0.36731856057441142 0 0.16450726530089471 -0.37238714191684053 0 0.1666946135940611 -0.38224365884031958 0 0.16637890067996469 -0.36431813418699849 0 0.17014806156959511 -0.36731856057441142 0 0.16450726530089471 -0.37238714191684053 0 0.14077090466295619 -0.37069053568353411 0 0.14525599222791721 -0.36692867551861702 0 0.1411000974996785 -0.36517377722378241 0 0.14077090466295619 -0.37069053568353411 0 0.14822480334401611 -0.37126853507001462 0 0.14525599222791721 -0.36692867551861702 0 0.14822480334401611 -0.37126853507001462 0 0.15049053321784711 -0.36497684239531092 0 0.14525599222791721 -0.36692867551861702 0 0.14077090466295619 -0.37069053568353411 0 0.14822480334401611 -0.37126853507001462 0 0.14532978330788959 -0.37645478732892018 0 0.14822480334401611 -0.37126853507001462 0 0.15490270346799009 -0.3704798179476616 0 0.15246626301064889 -0.37790122741618259 0 0.1599210793238022 -0.37433558328742339 0 0.15490270346799009 -0.3704798179476616 0 0.15246626301064889 -0.37790122741618259 0 0.14822480334401611 -0.37126853507001462 0 0.15490270346799009 -0.3704798179476616 0 0.15049053321784711 -0.36497684239531092 0 0.15735078452238721 -0.36530951557782471 0 0.15049053321784711 -0.36497684239531092 0 0.15413582035642981 -0.36099647923198508 0 0.15735078452238721 -0.36530951557782471 0 0.15490270346799009 -0.3704798179476616 0 0.15049053321784711 -0.36497684239531092 0 0.15049053321784711 -0.36497684239531092 0 0.15413582035642981 -0.36099647923198508 0 0.14780168307543401 -0.35840258318432522 0 0.15049053321784711 -0.36497684239531092 0 0.14461018032265829 -0.36227683651006221 0 0.14780168307543401 -0.35840258318432522 0 0.14461018032265829 -0.36227683651006221 0 0.1434147415389114 -0.35820560480480512 0 0.14780168307543401 -0.35840258318432522 0 0.15049053321784711 -0.36497684239531092 0 0.14461018032265829 -0.36227683651006221 0 0.14525599222791721 -0.36692867551861702 0 0.14461018032265829 -0.36227683651006221 0 0.14525599222791721 -0.36692867551861702 0 0.1411000974996785 -0.36517377722378241 0 0.14461018032265829 -0.36227683651006221 0 0.1434147415389114 -0.35820560480480512 0 0.13913305697456321 -0.36103217610813249 0 0.14461018032265829 -0.36227683651006221 0 0.1411000974996785 -0.36517377722378241 0 0.13913305697456321 -0.36103217610813249 0 0.16675434328251301 -0.34694276621437059 0 0.14865720028651691 -0.35197532081546529 0 0.15022457853549451 -0.33378422431719712 0 0.14617127849182879 -0.35266661983258341 0 0.14865720028651691 -0.35197532081546529 0 0.1293645356227007 -0.33853836194028569 0 0.1434147415389114 -0.35820560480480512 0 0.14617127849182879 -0.35266661983258341 0 0.13875498823722279 -0.35613384786024121 0 0.14617127849182879 -0.35266661983258341 0 0.14780168307543401 -0.35840258318432522 0 0.14865720028651691 -0.35197532081546529 0 0.14617127849182879 -0.35266661983258341 0 0.14865720028651691 -0.35197532081546529 0 0.1434147415389114 -0.35820560480480512 0 0.14617127849182879 -0.35266661983258341 0 0.14780168307543401 -0.35840258318432522 0 0.15413582035642981 -0.36099647923198508 0 0.14780168307543401 -0.35840258318432522 0 0.14865720028651691 -0.35197532081546529 0 0.14617127849182879 -0.35266661983258341 0 0.13271048275906111 -0.35140981557560619 0 0.1293645356227007 -0.33853836194028569 0 0.14865720028651691 -0.35197532081546529 0 0.1293645356227007 -0.33853836194028569 0 0.13271048275906111 -0.35140981557560619 0 0.1224722881593585 -0.35385019084987879 0 0.122367810077348 -0.34744381615024578 0 0.13271048275906111 -0.35140981557560619 0 0.1293645356227007 -0.33853836194028569 0 0.122367810077348 -0.34744381615024578 0 0.13271048275906111 -0.35140981557560619 0 0.12771203272239709 -0.35704157616130722 0 0.1224722881593585 -0.35385019084987879 0 0.13271048275906111 -0.35140981557560619 0 0.12771203272239709 -0.35704157616130722 0 0.133288017551845 -0.35863248133619918 0 0.14617127849182879 -0.35266661983258341 0 0.13271048275906111 -0.35140981557560619 0 0.13875498823722279 -0.35613384786024121 0 0.13271048275906111 -0.35140981557560619 0 0.133288017551845 -0.35863248133619918 0 0.13875498823722279 -0.35613384786024121 0 0.133288017551845 -0.35863248133619918 0 0.13875498823722279 -0.35613384786024121 0 0.13913305697456321 -0.36103217610813249 0 0.1434147415389114 -0.35820560480480512 0 0.13875498823722279 -0.35613384786024121 0 0.13913305697456321 -0.36103217610813249 0 0.1411000974996785 -0.36517377722378241 0 0.13913305697456321 -0.36103217610813249 0 0.1357303533102979 -0.36494066229856642 0 0.14077090466295619 -0.37069053568353411 0 0.1411000974996785 -0.36517377722378241 0 0.1357303533102979 -0.36494066229856642 0 0.133288017551845 -0.35863248133619918 0 0.13913305697456321 -0.36103217610813249 0 0.1357303533102979 -0.36494066229856642 0 0.133288017551845 -0.35863248133619918 0 0.1357303533102979 -0.36494066229856642 0 0.12888557012718321 -0.36287898887534381 0 0.1357303533102979 -0.36494066229856642 0 0.12888557012718321 -0.36287898887534381 0 0.13096299320643701 -0.37173502731023572 0 0.12888557012718321 -0.36287898887534381 0 0.13096299320643701 -0.37173502731023572 0 0.12302251751009 -0.36563309907317598 0 0.12771203272239709 -0.35704157616130722 0 0.133288017551845 -0.35863248133619918 0 0.12888557012718321 -0.36287898887534381 0 0.12771203272239709 -0.35704157616130722 0 0.12888557012718321 -0.36287898887534381 0 0.12399939136234051 -0.3596691841632218 0 0.12888557012718321 -0.36287898887534381 0 0.12302251751009 -0.36563309907317598 0 0.12399939136234051 -0.3596691841632218 0 0.13096299320643701 -0.37173502731023572 0 0.121764114200534 -0.37531795310729449 0 0.12302251751009 -0.36563309907317598 0 0.14077090466295619 -0.37069053568353411 0 0.13096299320643701 -0.37173502731023572 0 0.13803394324760351 -0.378753477070922 0 0.14077090466295619 -0.37069053568353411 0 0.1357303533102979 -0.36494066229856642 0 0.13096299320643701 -0.37173502731023572 0 0.1502641929412262 -0.32425646685041382 0 0.15022457853549451 -0.33378422431719712 0 0.13369481378847509 -0.32062568242002459 0 0.15022457853549451 -0.33378422431719712 0 0.13369481378847509 -0.32062568242002459 0 0.14772377045682261 -0.31441808532826537 0 0.1502641929412262 -0.32425646685041382 0 0.13843462189302599 -0.31444036078466459 0 0.14772377045682261 -0.31441808532826537 0 0.15516685439168559 -0.31644734705918981 0 0.1502641929412262 -0.32425646685041382 0 0.14772377045682261 -0.31441808532826537 0 0.15516685439168559 -0.31644734705918981 0 0.15206645290531581 -0.30901323491287558 0 0.163984263474069 -0.33722155095557171 0 0.1502641929412262 -0.32425646685041382 0 0.15022457853549451 -0.33378422431719712 0 0.14865720028651691 -0.35197532081546529 0 0.15022457853549451 -0.33378422431719712 0 0.1293645356227007 -0.33853836194028569 0 0.15022457853549451 -0.33378422431719712 0 0.1293645356227007 -0.33853836194028569 0 0.13369481378847509 -0.32062568242002459 0 0.1502641929412262 -0.32425646685041382 0 0.1230727380403514 -0.31216996445272388 0 0.1502641929412262 -0.32425646685041382 0 0.13369481378847509 -0.32062568242002459 0 0.1230727380403514 -0.31216996445272388 0 0.1502641929412262 -0.32425646685041382 0 0.13843462189302599 -0.31444036078466459 0 0.1230727380403514 -0.31216996445272388 0 0.13369481378847509 -0.32062568242002459 0 0.1230727380403514 -0.31216996445272388 0 0.13843462189302599 -0.31444036078466459 0 0.13305488816842029 -0.30690440112083972 0 0.1230727380403514 -0.31216996445272388 0 0.12694236628256891 -0.30060742423099229 0 0.13305488816842029 -0.30690440112083972 0 0.1230727380403514 -0.31216996445272388 0 0.12694236628256891 -0.30060742423099229 0 0.13177415156056449 -0.30023148079739093 0 0.13027736170052129 -0.29242827356224671 0 0.12694236628256891 -0.30060742423099229 0 0.13177415156056449 -0.30023148079739093 0 0.13305488816842029 -0.30690440112083972 0 0.13177415156056449 -0.30023148079739093 0 0.1384959942532788 -0.30090142030150818 0 0.13583539741931591 -0.29548097563477921 0 0.13177415156056449 -0.30023148079739093 0 0.1384959942532788 -0.30090142030150818 0 0.13305488816842029 -0.30690440112083972 0 0.1384959942532788 -0.30090142030150818 0 0.14114745603272849 -0.29510719610513469 0 0.13583539741931591 -0.29548097563477921 0 0.13843462189302599 -0.31444036078466459 0 0.13305488816842029 -0.30690440112083972 0 0.14268673015285929 -0.30793301703418302 0 0.1384959942532788 -0.30090142030150818 0 0.13305488816842029 -0.30690440112083972 0 0.14268673015285929 -0.30793301703418302 0 0.14772377045682261 -0.31441808532826537 0 0.13843462189302599 -0.31444036078466459 0 0.14268673015285929 -0.30793301703418302 0 0.14772377045682261 -0.31441808532826537 0 0.14268673015285929 -0.30793301703418302 0 0.15206645290531581 -0.30901323491287558 0 0.14268673015285929 -0.30793301703418302 0 0.14635853188735551 -0.30101260532762592 0 0.15206645290531581 -0.30901323491287558 0 0.1384959942532788 -0.30090142030150818 0 0.14268673015285929 -0.30793301703418302 0 0.14635853188735551 -0.30101260532762592 0 0.1384959942532788 -0.30090142030150818 0 0.14635853188735551 -0.30101260532762592 0 0.14114745603272849 -0.29510719610513469 0 0.14635853188735551 -0.30101260532762592 0 0.15206645290531581 -0.30901323491287558 0 0.1576451703745877 -0.29756841653391108 0 0.15566467287241989 -0.28309308608688688 0 0.14683162788389351 -0.29004053966737081 0 0.1453915019109332 -0.27935312900384762 0 0.15566467287241989 -0.28309308608688688 0 0.14683162788389351 -0.29004053966737081 0 0.1576451703745877 -0.29756841653391108 0 0.14635853188735551 -0.30101260532762592 0 0.14683162788389351 -0.29004053966737081 0 0.1576451703745877 -0.29756841653391108 0 0.14635853188735551 -0.30101260532762592 0 0.14683162788389351 -0.29004053966737081 0 0.14114745603272849 -0.29510719610513469 0 0.14683162788389351 -0.29004053966737081 0 0.14114745603272849 -0.29510719610513469 0 0.1367483183791729 -0.28937257522084142 0 0.14683162788389351 -0.29004053966737081 0 0.13884138882092459 -0.28301768479874068 0 0.1453915019109332 -0.27935312900384762 0 0.14683162788389351 -0.29004053966737081 0 0.13884138882092459 -0.28301768479874068 0 0.1367483183791729 -0.28937257522084142 0 0.12694236628256891 -0.30060742423099229 0 0.13027736170052129 -0.29242827356224671 0 0.12616832465844399 -0.28471408973223322 0 0.13884138882092459 -0.28301768479874068 0 0.1336357782539534 -0.28429831485273299 0 0.1367483183791729 -0.28937257522084142 0 0.1336357782539534 -0.28429831485273299 0 0.1367483183791729 -0.28937257522084142 0 0.13111840194766311 -0.28753749666735712 0 0.13884138882092459 -0.28301768479874068 0 0.1336357782539534 -0.28429831485273299 0 0.13677506696446179 -0.27726426953113381 0 0.14114745603272849 -0.29510719610513469 0 0.1367483183791729 -0.28937257522084142 0 0.13583539741931591 -0.29548097563477921 0 0.1367483183791729 -0.28937257522084142 0 0.13583539741931591 -0.29548097563477921 0 0.13027736170052129 -0.29242827356224671 0 0.13177415156056449 -0.30023148079739093 0 0.13583539741931591 -0.29548097563477921 0 0.13027736170052129 -0.29242827356224671 0 0.1367483183791729 -0.28937257522084142 0 0.13027736170052129 -0.29242827356224671 0 0.13111840194766311 -0.28753749666735712 0 0.1336357782539534 -0.28429831485273299 0 0.12616832465844399 -0.28471408973223322 0 0.13677506696446179 -0.27726426953113381 0 0.13027736170052129 -0.29242827356224671 0 0.13111840194766311 -0.28753749666735712 0 0.12616832465844399 -0.28471408973223322 0 0.1336357782539534 -0.28429831485273299 0 0.13111840194766311 -0.28753749666735712 0 0.12616832465844399 -0.28471408973223322 0 0.12616832465844399 -0.28471408973223322 0 0.13677506696446179 -0.27726426953113381 0 0.1352276936489776 -0.26198339508059981 0 0.12616832465844399 -0.28471408973223322 0 0.13005821988477079 -0.26680629949739387 0 0.1222941648888326 -0.28547052221321328 0 0.12616832465844399 -0.28471408973223322 0 0.13005821988477079 -0.26680629949739387 0 0.1352276936489776 -0.26198339508059981 0 0.12616832465844399 -0.28471408973223322 0 0.1352276936489776 -0.26198339508059981 0 0.13005821988477079 -0.26680629949739387 0 0.1222941648888326 -0.28547052221321328 0 0.13677506696446179 -0.27726426953113381 0 0.1352276936489776 -0.26198339508059981 0 0.14286364138275229 -0.26984427321950682 0 0.13884138882092459 -0.28301768479874068 0 0.13677506696446179 -0.27726426953113381 0 0.1453915019109332 -0.27935312900384762 0 0.1352276936489776 -0.26198339508059981 0 0.1442870626395111 -0.23925270042896651 0 0.12678009899814771 -0.2602275250044836 0 0.1352276936489776 -0.26198339508059981 0 0.1274254079633414 -0.24851100436517171 0 0.13005821988477079 -0.26680629949739387 0 0.12678009899814771 -0.2602275250044836 0 0.1352276936489776 -0.26198339508059981 0 0.13005821988477079 -0.26680629949739387 0 0.12678009899814771 -0.2602275250044836 0 0.1214641554297384 -0.26522026774649188 0 0.1352276936489776 -0.26198339508059981 0 0.14735115543306981 -0.25860203258681541 0 0.1442870626395111 -0.23925270042896651 0 0.14735115543306981 -0.25860203258681541 0 0.16103589229184301 -0.25852875219704718 0 0.1442870626395111 -0.23925270042896651 0 0.1352276936489776 -0.26198339508059981 0 0.14735115543306981 -0.25860203258681541 0 0.14286364138275229 -0.26984427321950682 0 0.14735115543306981 -0.25860203258681541 0 0.15117868103912871 -0.27166244586455929 0 0.16103589229184301 -0.25852875219704718 0 0.1453915019109332 -0.27935312900384762 0 0.14286364138275229 -0.26984427321950682 0 0.15117868103912871 -0.27166244586455929 0 0.13677506696446179 -0.27726426953113381 0 0.1453915019109332 -0.27935312900384762 0 0.14286364138275229 -0.26984427321950682 0 0.14735115543306981 -0.25860203258681541 0 0.14286364138275229 -0.26984427321950682 0 0.15117868103912871 -0.27166244586455929 0 0.15566467287241989 -0.28309308608688688 0 0.1453915019109332 -0.27935312900384762 0 0.15117868103912871 -0.27166244586455929 0 0.15566467287241989 -0.28309308608688688 0 0.15117868103912871 -0.27166244586455929 0 0.16119099501071199 -0.27436543769675847 0 0.16119099501071199 -0.27436543769675847 0 0.16103589229184301 -0.25852875219704718 0 0.17411523602826279 -0.27274301178350591 0 0.15117868103912871 -0.27166244586455929 0 0.16119099501071199 -0.27436543769675847 0 0.16103589229184301 -0.25852875219704718 0 0.16119099501071199 -0.27436543769675847 0 0.17411523602826279 -0.27274301178350591 0 0.16741906159366551 -0.28639760481903442 0 0.16103589229184301 -0.25852875219704718 0 0.17892727837364311 -0.25674286646103078 0 0.17411523602826279 -0.27274301178350591 0 0.19326247381943809 -0.27232753692261341 0 0.17892727837364311 -0.25674286646103078 0 0.17411523602826279 -0.27274301178350591 0 0.19326247381943809 -0.27232753692261341 0 0.17411523602826279 -0.27274301178350591 0 0.18285571508027509 -0.28809587260455127 0 0.17411523602826279 -0.27274301178350591 0 0.18285571508027509 -0.28809587260455127 0 0.16741906159366551 -0.28639760481903442 0 0.18285571508027509 -0.28809587260455127 0 0.17208729620965471 -0.30018129534283378 0 0.16741906159366551 -0.28639760481903442 0 0.18285571508027509 -0.28809587260455127 0 0.18711814480560429 -0.30370786212870549 0 0.17208729620965471 -0.30018129534283378 0 0.1871396550910196 -0.31608008710295821 0 0.17386567923094581 -0.31547368429169209 0 0.18711814480560429 -0.30370786212870549 0 0.17386567923094581 -0.31547368429169209 0 0.18711814480560429 -0.30370786212870549 0 0.17208729620965471 -0.30018129534283378 0 0.17208729620965471 -0.30018129534283378 0 0.16362000617284991 -0.30984433167910808 0 0.1576451703745877 -0.29756841653391108 0 0.17386567923094581 -0.31547368429169209 0 0.17208729620965471 -0.30018129534283378 0 0.16362000617284991 -0.30984433167910808 0 0.15516685439168559 -0.31644734705918981 0 0.15206645290531581 -0.30901323491287558 0 0.16362000617284991 -0.30984433167910808 0 0.15206645290531581 -0.30901323491287558 0 0.16362000617284991 -0.30984433167910808 0 0.1576451703745877 -0.29756841653391108 0 0.15566467287241989 -0.28309308608688688 0 0.16119099501071199 -0.27436543769675847 0 0.16741906159366551 -0.28639760481903442 0 0.15566467287241989 -0.28309308608688688 0 0.1576451703745877 -0.29756841653391108 0 0.16741906159366551 -0.28639760481903442 0 0.17208729620965471 -0.30018129534283378 0 0.1576451703745877 -0.29756841653391108 0 0.16741906159366551 -0.28639760481903442 0 0.1919679430381121 -0.49053405609093981 0 0.1999172837450556 -0.47783525300473367 0 0.21214889216741459 -0.48719886153225039 0 0.1919679430381121 -0.49053405609093981 0 0.20358032967514009 -0.5 0 0.21214889216741459 -0.48719886153225039 0 0.1919679430381121 -0.49053405609093981 0 0.20358032967514009 -0.5 0 0.1747691204436097 -0.5 0 0.1999172837450556 -0.47783525300473367 0 0.1921516032061022 -0.46618283250180381 0 0.1790309907476427 -0.48297846988393989 0 0.1919679430381121 -0.49053405609093981 0 0.1999172837450556 -0.47783525300473367 0 0.1790309907476427 -0.48297846988393989 0 0.1999172837450556 -0.47783525300473367 0 0.21214889216741459 -0.48719886153225039 0 0.2259886160726377 -0.48043487960725179 0 0.1999172837450556 -0.47783525300473367 0 0.2259886160726377 -0.48043487960725179 0 0.1999172837450556 -0.47783525300473367 0 0.2259886160726377 -0.48043487960725179 0 0.22122011894173241 -0.46854848165971202 0 0.20358032967514009 -0.5 0 0.21214889216741459 -0.48719886153225039 0 0.2323915389066705 -0.5 0 0.21214889216741459 -0.48719886153225039 0 0.2323915389066705 -0.5 0 0.2259886160726377 -0.48043487960725179 0 0.25205994840021978 -0.48303450620977012 0 0.26120274813820099 -0.5 0 0.2323915389066705 -0.5 0 0.25205994840021978 -0.48303450620977012 0 0.2323915389066705 -0.5 0 0.2259886160726377 -0.48043487960725179 0 0.25205994840021978 -0.48303450620977012 0 0.2259886160726377 -0.48043487960725179 0 0.24479618975008791 -0.47057709135579467 0 0.2259886160726377 -0.48043487960725179 0 0.23371631953147529 -0.46574313107990239 0 0.25205994840021978 -0.48303450620977012 0 0.24479618975008791 -0.47057709135579467 0 0.2259886160726377 -0.48043487960725179 0 0.2259886160726377 -0.48043487960725179 0 0.22122011894173241 -0.46854848165971202 0 0.23371631953147529 -0.46574313107990239 0 0.23371631953147529 -0.46574313107990239 0 0.2272205515183027 -0.44614081587098808 0 0.2132903137452673 -0.45825734994728812 0 0.22122011894173241 -0.46854848165971202 0 0.23371631953147529 -0.46574313107990239 0 0.2132903137452673 -0.45825734994728812 0 0.24479618975008791 -0.47057709135579467 0 0.23371631953147529 -0.46574313107990239 0 0.24675778331467271 -0.45041841871357979 0 0.23371631953147529 -0.46574313107990239 0 0.24675778331467271 -0.45041841871357979 0 0.2272205515183027 -0.44614081587098808 0 0.23371631953147529 -0.46574313107990239 0 0.24675778331467271 -0.45041841871357979 0 0.24675778331467271 -0.45041841871357979 0 0.2272205515183027 -0.44614081587098808 0 0.236576540722541 -0.43416060103539778 0 0.24675778331467271 -0.45041841871357979 0 0.236576540722541 -0.43416060103539778 0 0.24822224051745509 -0.42837369882272208 0 0.2272205515183027 -0.44614081587098808 0 0.2096902750658087 -0.43959023410213782 0 0.22187215390640411 -0.4286675080105451 0 0.2272205515183027 -0.44614081587098808 0 0.2096902750658087 -0.43959023410213782 0 0.2132903137452673 -0.45825734994728812 0 0.2096902750658087 -0.43959023410213782 0 0.2132903137452673 -0.45825734994728812 0 0.19367968336863031 -0.45125194709270228 0 0.1999172837450556 -0.47783525300473367 0 0.22122011894173241 -0.46854848165971202 0 0.2132903137452673 -0.45825734994728812 0 0.2132903137452673 -0.45825734994728812 0 0.1921516032061022 -0.46618283250180381 0 0.19367968336863031 -0.45125194709270228 0 0.1921516032061022 -0.46618283250180381 0 0.19367968336863031 -0.45125194709270228 0 0.17800127658444281 -0.4644811244191423 0 0.1999172837450556 -0.47783525300473367 0 0.2132903137452673 -0.45825734994728812 0 0.1921516032061022 -0.46618283250180381 0 0.2096902750658087 -0.43959023410213782 0 0.19367968336863031 -0.45125194709270228 0 0.18869908536779781 -0.43251384240716167 0 0.2096902750658087 -0.43959023410213782 0 0.18869908536779781 -0.43251384240716167 0 0.20420561018098971 -0.42119291651146301 0 0.18869908536779781 -0.43251384240716167 0 0.18967568796707959 -0.40761588029039858 0 0.20420561018098971 -0.42119291651146301 0 0.18967568796707959 -0.40761588029039858 0 0.20420561018098971 -0.42119291651146301 0 0.2095887264920932 -0.40660454015863962 0 0.2095887264920932 -0.40660454015863962 0 0.22001864969920271 -0.4137563477271986 0 0.2262086244649209 -0.39897691084879422 0 0.20420561018098971 -0.42119291651146301 0 0.2095887264920932 -0.40660454015863962 0 0.22001864969920271 -0.4137563477271986 0 0.20420561018098971 -0.42119291651146301 0 0.22187215390640411 -0.4286675080105451 0 0.22001864969920271 -0.4137563477271986 0 0.2096902750658087 -0.43959023410213782 0 0.20420561018098971 -0.42119291651146301 0 0.22187215390640411 -0.4286675080105451 0 0.2272205515183027 -0.44614081587098808 0 0.22187215390640411 -0.4286675080105451 0 0.236576540722541 -0.43416060103539778 0 0.22187215390640411 -0.4286675080105451 0 0.236576540722541 -0.43416060103539778 0 0.23329990279267521 -0.41898058639384123 0 0.236576540722541 -0.43416060103539778 0 0.24822224051745509 -0.42837369882272208 0 0.23329990279267521 -0.41898058639384123 0 0.24822224051745509 -0.42837369882272208 0 0.2450928433946517 -0.4095203610046772 0 0.23329990279267521 -0.41898058639384123 0 0.2450928433946517 -0.4095203610046772 0 0.23329990279267521 -0.41898058639384123 0 0.2262086244649209 -0.39897691084879422 0 0.23329990279267521 -0.41898058639384123 0 0.22001864969920271 -0.4137563477271986 0 0.2262086244649209 -0.39897691084879422 0 0.22187215390640411 -0.4286675080105451 0 0.23329990279267521 -0.41898058639384123 0 0.22001864969920271 -0.4137563477271986 0 0.2586763687868342 -0.40511024344582869 0 0.2450928433946517 -0.4095203610046772 0 0.24265077102347199 -0.39618883661154253 0 0.2262086244649209 -0.39897691084879422 0 0.24265077102347199 -0.39618883661154253 0 0.23573593613072041 -0.38144274492585961 0 0.2450928433946517 -0.4095203610046772 0 0.2262086244649209 -0.39897691084879422 0 0.24265077102347199 -0.39618883661154253 0 0.25536254199925562 -0.38828311390207942 0 0.24265077102347199 -0.39618883661154253 0 0.23573593613072041 -0.38144274492585961 0 0.25536254199925562 -0.38828311390207942 0 0.24839273634637241 -0.36909699674629631 0 0.23573593613072041 -0.38144274492585961 0 0.2262086244649209 -0.39897691084879422 0 0.23573593613072041 -0.38144274492585961 0 0.21883827045828361 -0.37863406170716618 0 0.2262086244649209 -0.39897691084879422 0 0.21883827045828361 -0.37863406170716618 0 0.2078350601482733 -0.39148064541534328 0 0.2094673075882614 -0.37021487514295409 0 0.21883827045828361 -0.37863406170716618 0 0.20665974706001419 -0.37986272954077682 0 0.20665974706001419 -0.37986272954077682 0 0.2078350601482733 -0.39148064541534328 0 0.19718304120149191 -0.38635745634845892 0 0.21883827045828361 -0.37863406170716618 0 0.20665974706001419 -0.37986272954077682 0 0.2078350601482733 -0.39148064541534328 0 0.2095887264920932 -0.40660454015863962 0 0.2262086244649209 -0.39897691084879422 0 0.2078350601482733 -0.39148064541534328 0 0.18967568796707959 -0.40761588029039858 0 0.2095887264920932 -0.40660454015863962 0 0.2078350601482733 -0.39148064541534328 0 0.18967568796707959 -0.40761588029039858 0 0.19718304120149191 -0.38635745634845892 0 0.18546748078041869 -0.38757422766040978 0 0.18967568796707959 -0.40761588029039858 0 0.2078350601482733 -0.39148064541534328 0 0.19718304120149191 -0.38635745634845892 0 0.18967568796707959 -0.40761588029039858 0 0.2078350601482733 -0.39148064541534328 0 0.18932701661156151 -0.37959823558223649 0 0.19718304120149191 -0.38635745634845892 0 0.18546748078041869 -0.38757422766040978 0 0.199701579800319 -0.37317045903097562 0 0.20665974706001419 -0.37986272954077682 0 0.19718304120149191 -0.38635745634845892 0 0.199701579800319 -0.37317045903097562 0 0.18932701661156151 -0.37959823558223649 0 0.19718304120149191 -0.38635745634845892 0 0.18932701661156151 -0.37959823558223649 0 0.18546748078041869 -0.38757422766040978 0 0.16899426162261089 -0.38123143921283231 0 0.18546748078041869 -0.38757422766040978 0 0.17631418521483899 -0.39072419989841378 0 0.16899426162261089 -0.38123143921283231 0 0.19528871965296751 -0.3696575956585072 0 0.16899426162261089 -0.38123143921283231 0 0.19528871965296751 -0.3696575956585072 0 0.18932701661156151 -0.37959823558223649 0 0.16899426162261089 -0.38123143921283231 0 0.17631418521483899 -0.39072419989841378 0 0.17037717295453769 -0.38883347180967309 0 0.16899426162261089 -0.38123143921283231 0 0.18967568796707959 -0.40761588029039858 0 0.18546748078041869 -0.38757422766040978 0 0.17631418521483899 -0.39072419989841378 0 0.18967568796707959 -0.40761588029039858 0 0.1729846193420792 -0.40313275908943602 0 0.17631418521483899 -0.39072419989841378 0 0.1729846193420792 -0.40313275908943602 0 0.17631418521483899 -0.39072419989841378 0 0.16909128024042261 -0.396354519035574 0 0.17631418521483899 -0.39072419989841378 0 0.16909128024042261 -0.396354519035574 0 0.17037717295453769 -0.38883347180967309 0 0.16909128024042261 -0.396354519035574 0 0.16584927111572079 -0.38589705673337799 0 0.1596031073602073 -0.41289170338694409 0 0.15690192897294669 -0.39917050737566051 0 0.16584927111572079 -0.38589705673337799 0 0.1596031073602073 -0.41289170338694409 0 0.1729846193420792 -0.40313275908943602 0 0.16909128024042261 -0.396354519035574 0 0.1596031073602073 -0.41289170338694409 0 0.16584927111572079 -0.38589705673337799 0 0.1596031073602073 -0.41289170338694409 0 0.15690192897294669 -0.39917050737566051 0 0.16584927111572079 -0.38589705673337799 0 0.15235079837352461 -0.38855727341046858 0 0.15690192897294669 -0.39917050737566051 0 0.16584927111572079 -0.38589705673337799 0 0.16584927111572079 -0.38589705673337799 0 0.1666946135940611 -0.38224365884031958 0 0.15235079837352461 -0.38855727341046858 0 0.1666946135940611 -0.38224365884031958 0 0.15914781402575021 -0.38002809702107188 0 0.15235079837352461 -0.38855727341046858 0 0.1666946135940611 -0.38224365884031958 0 0.15235079837352461 -0.38855727341046858 0 0.16909128024042261 -0.396354519035574 0 0.16584927111572079 -0.38589705673337799 0 0.17037717295453769 -0.38883347180967309 0 0.16584927111572079 -0.38589705673337799 0 0.16899426162261089 -0.38123143921283231 0 0.16584927111572079 -0.38589705673337799 0 0.16899426162261089 -0.38123143921283231 0 0.1666946135940611 -0.38224365884031958 0 0.16584927111572079 -0.38589705673337799 0 0.1666946135940611 -0.38224365884031958 0 0.16584927111572079 -0.38589705673337799 0 0.17037717295453769 -0.38883347180967309 0 0.16899426162261089 -0.38123143921283231 0 0.17014806156959511 -0.36731856057441142 0 0.16899426162261089 -0.38123143921283231 0 0.1666946135940611 -0.38224365884031958 0 0.16450726530089471 -0.37238714191684053 0 0.1666946135940611 -0.38224365884031958 0 0.16293817924870471 -0.37701971067267659 0 0.16899426162261089 -0.38123143921283231 0 0.1666946135940611 -0.38224365884031958 0 0.1599210793238022 -0.37433558328742339 0 0.16293817924870471 -0.37701971067267659 0 0.15914781402575021 -0.38002809702107188 0 0.1666946135940611 -0.38224365884031958 0 0.16293817924870471 -0.37701971067267659 0 0.15914781402575021 -0.38002809702107188 0 0.1599210793238022 -0.37433558328742339 0 0.15914781402575021 -0.38002809702107188 0 0.15246626301064889 -0.37790122741618259 0 0.15914781402575021 -0.38002809702107188 0 0.15246626301064889 -0.37790122741618259 0 0.15235079837352461 -0.38855727341046858 0 0.14822480334401611 -0.37126853507001462 0 0.15246626301064889 -0.37790122741618259 0 0.14532978330788959 -0.37645478732892018 0 0.15246626301064889 -0.37790122741618259 0 0.15235079837352461 -0.38855727341046858 0 0.14652555637287609 -0.38280624244380179 0 0.15235079837352461 -0.38855727341046858 0 0.14143525359824641 -0.38826563598381558 0 0.14652555637287609 -0.38280624244380179 0 0.14143525359824641 -0.38826563598381558 0 0.14652555637287609 -0.38280624244380179 0 0.13803394324760351 -0.378753477070922 0 0.14077090466295619 -0.37069053568353411 0 0.14532978330788959 -0.37645478732892018 0 0.13803394324760351 -0.378753477070922 0 0.14532978330788959 -0.37645478732892018 0 0.14652555637287609 -0.38280624244380179 0 0.13803394324760351 -0.378753477070922 0 0.15246626301064889 -0.37790122741618259 0 0.14532978330788959 -0.37645478732892018 0 0.14652555637287609 -0.38280624244380179 0 0.14143525359824641 -0.38826563598381558 0 0.12870625901433599 -0.38417302325267061 0 0.13208748133924339 -0.39390951088706683 0 0.14143525359824641 -0.38826563598381558 0 0.13803394324760351 -0.378753477070922 0 0.12870625901433599 -0.38417302325267061 0 0.13096299320643701 -0.37173502731023572 0 0.12870625901433599 -0.38417302325267061 0 0.121764114200534 -0.37531795310729449 0 0.13096299320643701 -0.37173502731023572 0 0.13803394324760351 -0.378753477070922 0 0.12870625901433599 -0.38417302325267061 0 0.12627195628455029 -0.40329814930064323 0 0.13208748133924339 -0.39390951088706683 0 0.13475404606433139 -0.40316477973349357 0 0.12627195628455029 -0.40329814930064323 0 0.13475404606433139 -0.40316477973349357 0 0.13145172915013659 -0.40963120536670949 0 0.12870625901433599 -0.38417302325267061 0 0.13208748133924339 -0.39390951088706683 0 0.11991375672351989 -0.39551381562615823 0 0.12627195628455029 -0.40329814930064323 0 0.13208748133924339 -0.39390951088706683 0 0.11991375672351989 -0.39551381562615823 0 0.14143525359824641 -0.38826563598381558 0 0.13208748133924339 -0.39390951088706683 0 0.14376764821682569 -0.39996930553658699 0 0.13208748133924339 -0.39390951088706683 0 0.13475404606433139 -0.40316477973349357 0 0.14376764821682569 -0.39996930553658699 0 0.13475404606433139 -0.40316477973349357 0 0.14376764821682569 -0.39996930553658699 0 0.13886266098981601 -0.41073613940960502 0 0.15235079837352461 -0.38855727341046858 0 0.14143525359824641 -0.38826563598381558 0 0.14376764821682569 -0.39996930553658699 0 0.15690192897294669 -0.39917050737566051 0 0.15235079837352461 -0.38855727341046858 0 0.14376764821682569 -0.39996930553658699 0 0.15690192897294669 -0.39917050737566051 0 0.14376764821682569 -0.39996930553658699 0 0.14795458683017221 -0.4124439580179427 0 0.15690192897294669 -0.39917050737566051 0 0.14795458683017221 -0.4124439580179427 0 0.15690192897294669 -0.39917050737566051 0 0.14795458683017221 -0.4124439580179427 0 0.1596031073602073 -0.41289170338694409 0 0.15009907194955829 -0.42007863615690111 0 0.1527822540933769 -0.42736200337558827 0 0.1596031073602073 -0.41289170338694409 0 0.15009907194955829 -0.42007863615690111 0 0.14795458683017221 -0.4124439580179427 0 0.1596031073602073 -0.41289170338694409 0 0.15009907194955829 -0.42007863615690111 0 0.1428813625452372 -0.42124140488249828 0 0.14795458683017221 -0.4124439580179427 0 0.1428813625452372 -0.42124140488249828 0 0.14795458683017221 -0.4124439580179427 0 0.13886266098981601 -0.41073613940960502 0 0.14376764821682569 -0.39996930553658699 0 0.14795458683017221 -0.4124439580179427 0 0.13886266098981601 -0.41073613940960502 0 0.13886266098981601 -0.41073613940960502 0 0.13236659313219321 -0.41796618292039878 0 0.13145172915013659 -0.40963120536670949 0 0.13475404606433139 -0.40316477973349357 0 0.13886266098981601 -0.41073613940960502 0 0.13145172915013659 -0.40963120536670949 0 0.1428813625452372 -0.42124140488249828 0 0.13886266098981601 -0.41073613940960502 0 0.13236659313219321 -0.41796618292039878 0 0.13236659313219321 -0.41796618292039878 0 0.1203431312082769 -0.42266296121165131 0 0.1236469251126313 -0.41249055997674711 0 0.12627195628455029 -0.40329814930064323 0 0.13145172915013659 -0.40963120536670949 0 0.1236469251126313 -0.41249055997674711 0 0.13236659313219321 -0.41796618292039878 0 0.13145172915013659 -0.40963120536670949 0 0.1236469251126313 -0.41249055997674711 0 0.13356334057034211 -0.42858121779521302 0 0.13551602477679159 -0.43881160639737399 0 0.12279166071753909 -0.43511190574770559 0 0.13356334057034211 -0.42858121779521302 0 0.1203431312082769 -0.42266296121165131 0 0.12279166071753909 -0.43511190574770559 0 0.13236659313219321 -0.41796618292039878 0 0.13356334057034211 -0.42858121779521302 0 0.1203431312082769 -0.42266296121165131 0 0.1428813625452372 -0.42124140488249828 0 0.13236659313219321 -0.41796618292039878 0 0.13356334057034211 -0.42858121779521302 0 0.1428813625452372 -0.42124140488249828 0 0.13356334057034211 -0.42858121779521302 0 0.14347529338673851 -0.43217332582103629 0 0.13356334057034211 -0.42858121779521302 0 0.14347529338673851 -0.43217332582103629 0 0.13551602477679159 -0.43881160639737399 0 0.14347529338673851 -0.43217332582103629 0 0.14850375211300071 -0.43662548744523871 0 0.14461213110549859 -0.44064070099069069 0 0.1527822540933769 -0.42736200337558827 0 0.1596031073602073 -0.41289170338694409 0 0.15335694360469301 -0.4398863500405098 0 0.14347529338673851 -0.43217332582103629 0 0.14461213110549859 -0.44064070099069069 0 0.13551602477679159 -0.43881160639737399 0 0.14347529338673851 -0.43217332582103629 0 0.14850375211300071 -0.43662548744523871 0 0.14884853093863629 -0.43164643752892279 0 0.14347529338673851 -0.43217332582103629 0 0.14761730258270939 -0.42650036155298943 0 0.14884853093863629 -0.43164643752892279 0 0.1428813625452372 -0.42124140488249828 0 0.14347529338673851 -0.43217332582103629 0 0.14761730258270939 -0.42650036155298943 0 0.15009907194955829 -0.42007863615690111 0 0.1428813625452372 -0.42124140488249828 0 0.14761730258270939 -0.42650036155298943 0 0.15009907194955829 -0.42007863615690111 0 0.14761730258270939 -0.42650036155298943 0 0.1527822540933769 -0.42736200337558827 0 0.14761730258270939 -0.42650036155298943 0 0.1527822540933769 -0.42736200337558827 0 0.14884853093863629 -0.43164643752892279 0 0.1527822540933769 -0.42736200337558827 0 0.15087287018742671 -0.43388006959756492 0 0.15335694360469301 -0.4398863500405098 0 0.15087287018742671 -0.43388006959756492 0 0.14850375211300071 -0.43662548744523871 0 0.14884853093863629 -0.43164643752892279 0 0.15087287018742671 -0.43388006959756492 0 0.14850375211300071 -0.43662548744523871 0 0.15335694360469301 -0.4398863500405098 0 0.1527822540933769 -0.42736200337558827 0 0.15087287018742671 -0.43388006959756492 0 0.14884853093863629 -0.43164643752892279 0 0.17151631578588589 -0.42375111516545372 0 0.1596031073602073 -0.41289170338694409 0 0.15335694360469301 -0.4398863500405098 0 0.17151631578588589 -0.42375111516545372 0 0.15335694360469301 -0.4398863500405098 0 0.17151631578588589 -0.42375111516545372 0 0.17037450770106061 -0.43776299152336262 0 0.15335694360469301 -0.4398863500405098 0 0.1596031073602073 -0.41289170338694409 0 0.15335694360469301 -0.4398863500405098 0 0.1729846193420792 -0.40313275908943602 0 0.1596031073602073 -0.41289170338694409 0 0.173444932613813 -0.4118478644830581 0 0.17151631578588589 -0.42375111516545372 0 0.1596031073602073 -0.41289170338694409 0 0.173444932613813 -0.4118478644830581 0 0.18967568796707959 -0.40761588029039858 0 0.1729846193420792 -0.40313275908943602 0 0.173444932613813 -0.4118478644830581 0 0.18967568796707959 -0.40761588029039858 0 0.17151631578588589 -0.42375111516545372 0 0.173444932613813 -0.4118478644830581 0 0.18967568796707959 -0.40761588029039858 0 0.17151631578588589 -0.42375111516545372 0 0.18869908536779781 -0.43251384240716167 0 0.18967568796707959 -0.40761588029039858 0 0.17151631578588589 -0.42375111516545372 0 0.18869908536779781 -0.43251384240716167 0 0.17151631578588589 -0.42375111516545372 0 0.17037450770106061 -0.43776299152336262 0 0.19367968336863031 -0.45125194709270228 0 0.18869908536779781 -0.43251384240716167 0 0.17825507457420911 -0.44754194402588909 0 0.18869908536779781 -0.43251384240716167 0 0.17825507457420911 -0.44754194402588909 0 0.17037450770106061 -0.43776299152336262 0 0.17825507457420911 -0.44754194402588909 0 0.16785165383489661 -0.44624197986255959 0 0.17037450770106061 -0.43776299152336262 0 0.17825507457420911 -0.44754194402588909 0 0.17800127658444281 -0.4644811244191423 0 0.16795452716399531 -0.45521691490540078 0 0.19367968336863031 -0.45125194709270228 0 0.17825507457420911 -0.44754194402588909 0 0.17800127658444281 -0.4644811244191423 0 0.17800127658444281 -0.4644811244191423 0 0.16795452716399531 -0.45521691490540078 0 0.16210912015877471 -0.46482322605095883 0 0.17800127658444281 -0.4644811244191423 0 0.16210912015877471 -0.46482322605095883 0 0.16550226790095249 -0.4748436549130084 0 0.16795452716399531 -0.45521691490540078 0 0.16210912015877471 -0.46482322605095883 0 0.15762638386985819 -0.45537345885929298 0 0.16795452716399531 -0.45521691490540078 0 0.15762638386985819 -0.45537345885929298 0 0.16148941124392499 -0.44914932355773007 0 0.16148941124392499 -0.44914932355773007 0 0.16785165383489661 -0.44624197986255959 0 0.1585314464987361 -0.44250544094523958 0 0.15762638386985819 -0.45537345885929298 0 0.16148941124392499 -0.44914932355773007 0 0.15587447615901051 -0.44732957360799158 0 0.17037450770106061 -0.43776299152336262 0 0.1585314464987361 -0.44250544094523958 0 0.15335694360469301 -0.4398863500405098 0 0.16148941124392499 -0.44914932355773007 0 0.1585314464987361 -0.44250544094523958 0 0.15587447615901051 -0.44732957360799158 0 0.16795452716399531 -0.45521691490540078 0 0.16148941124392499 -0.44914932355773007 0 0.16785165383489661 -0.44624197986255959 0 0.17825507457420911 -0.44754194402588909 0 0.16795452716399531 -0.45521691490540078 0 0.16785165383489661 -0.44624197986255959 0 0.16785165383489661 -0.44624197986255959 0 0.17037450770106061 -0.43776299152336262 0 0.1585314464987361 -0.44250544094523958 0 0.1585314464987361 -0.44250544094523958 0 0.15526618578083751 -0.44272114277932978 0 0.15587447615901051 -0.44732957360799158 0 0.14850375211300071 -0.43662548744523871 0 0.15335694360469301 -0.4398863500405098 0 0.14461213110549859 -0.44064070099069069 0 0.15335694360469301 -0.4398863500405098 0 0.1527324189110808 -0.44258541847521832 0 0.1414833027751119 -0.45043649360801252 0 0.15335694360469301 -0.4398863500405098 0 0.1527324189110808 -0.44258541847521832 0 0.15526618578083751 -0.44272114277932978 0 0.1527324189110808 -0.44258541847521832 0 0.15587447615901051 -0.44732957360799158 0 0.1585314464987361 -0.44250544094523958 0 0.15335694360469301 -0.4398863500405098 0 0.15526618578083751 -0.44272114277932978 0 0.15335694360469301 -0.4398863500405098 0 0.15526618578083751 -0.44272114277932978 0 0.1527324189110808 -0.44258541847521832 0 0.15762638386985819 -0.45537345885929298 0 0.15119156077109161 -0.45139846125248118 0 0.15587447615901051 -0.44732957360799158 0 0.1527324189110808 -0.44258541847521832 0 0.15119156077109161 -0.45139846125248118 0 0.15587447615901051 -0.44732957360799158 0 0.1527324189110808 -0.44258541847521832 0 0.15119156077109161 -0.45139846125248118 0 0.1414833027751119 -0.45043649360801252 0 0.15335694360469301 -0.4398863500405098 0 0.1414833027751119 -0.45043649360801252 0 0.15335694360469301 -0.4398863500405098 0 0.1414833027751119 -0.45043649360801252 0 0.14461213110549859 -0.44064070099069069 0 0.1414833027751119 -0.45043649360801252 0 0.14461213110549859 -0.44064070099069069 0 0.13551602477679159 -0.43881160639737399 0 0.1414833027751119 -0.45043649360801252 0 0.13551602477679159 -0.43881160639737399 0 0.12717042010551929 -0.44592599442158659 0 0.1414833027751119 -0.45043649360801252 0 0.12717042010551929 -0.44592599442158659 0 0.12960966194553161 -0.46098663717551608 0 0.13551602477679159 -0.43881160639737399 0 0.12717042010551929 -0.44592599442158659 0 0.12279166071753909 -0.43511190574770559 0 0.1414833027751119 -0.45043649360801252 0 0.12960966194553161 -0.46098663717551608 0 0.14824122214039659 -0.46126736171189059 0 0.12960966194553161 -0.46098663717551608 0 0.14824122214039659 -0.46126736171189059 0 0.14353401496933371 -0.47242113954134962 0 0.1414833027751119 -0.45043649360801252 0 0.12960966194553161 -0.46098663717551608 0 0.15119156077109161 -0.45139846125248118 0 0.1414833027751119 -0.45043649360801252 0 0.14824122214039659 -0.46126736171189059 0 0.15762638386985819 -0.45537345885929298 0 0.15119156077109161 -0.45139846125248118 0 0.14824122214039659 -0.46126736171189059 0 0.16210912015877471 -0.46482322605095883 0 0.15762638386985819 -0.45537345885929298 0 0.14824122214039659 -0.46126736171189059 0 0.16210912015877471 -0.46482322605095883 0 0.14824122214039659 -0.46126736171189059 0 0.15456755090400601 -0.47470905555155291 0 0.14353401496933371 -0.47242113954134962 0 0.12857381147214991 -0.49147432743495589 0 0.15380240110989629 -0.48722639865944789 0 0.14824122214039659 -0.46126736171189059 0 0.15456755090400601 -0.47470905555155291 0 0.14353401496933371 -0.47242113954134962 0 0.15456755090400601 -0.47470905555155291 0 0.14353401496933371 -0.47242113954134962 0 0.15380240110989629 -0.48722639865944789 0 0.14353401496933371 -0.47242113954134962 0 0.1262121582727927 -0.47414402795352251 0 0.12857381147214991 -0.49147432743495589 0 0.12960966194553161 -0.46098663717551608 0 0.14353401496933371 -0.47242113954134962 0 0.1262121582727927 -0.47414402795352251 0 0.12857381147214991 -0.49147432743495589 0 0.14595791121207921 -0.5 0 0.1171467019805488 -0.5 0 0.12857381147214991 -0.49147432743495589 0 0.14595791121207921 -0.5 0 0.15380240110989629 -0.48722639865944789 0 0.12857381147214991 -0.49147432743495589 0 0.15380240110989629 -0.48722639865944789 0 0.15380240110989629 -0.48722639865944789 0 0.1790309907476427 -0.48297846988393989 0 0.1747691204436097 -0.5 0 0.14595791121207921 -0.5 0 0.15380240110989629 -0.48722639865944789 0 0.1747691204436097 -0.5 0 0.15380240110989629 -0.48722639865944789 0 0.1790309907476427 -0.48297846988393989 0 0.15380240110989629 -0.48722639865944789 0 0.16550226790095249 -0.4748436549130084 0 0.1790309907476427 -0.48297846988393989 0 0.15456755090400601 -0.47470905555155291 0 0.15380240110989629 -0.48722639865944789 0 0.16550226790095249 -0.4748436549130084 0 0.16210912015877471 -0.46482322605095883 0 0.15456755090400601 -0.47470905555155291 0 0.16550226790095249 -0.4748436549130084 0 0.17800127658444281 -0.4644811244191423 0 0.16550226790095249 -0.4748436549130084 0 0.1790309907476427 -0.48297846988393989 0 0.1921516032061022 -0.46618283250180381 0 0.17800127658444281 -0.4644811244191423 0 0.1790309907476427 -0.48297846988393989 0 0.1919679430381121 -0.49053405609093981 0 0.1790309907476427 -0.48297846988393989 0 0.1747691204436097 -0.5 0 0.068711958766096329 -0.48188941710158167 0 0.079667613066053022 -0.48789067673491049 0 0.059524283517487842 -0.5 0 0.088335492749018307 -0.5 0 0.079667613066053022 -0.48789067673491049 0 0.059524283517487842 -0.5 0 0.068711958766096329 -0.48188941710158167 0 0.08514835378959687 -0.46996502393160222 0 0.079667613066053022 -0.48789067673491049 0 0.068711958766096329 -0.48188941710158167 0 0.073537749801634911 -0.45652795791875439 0 0.058331747457571248 -0.47044197786933978 0 0.068711958766096329 -0.48188941710158167 0 0.073537749801634911 -0.45652795791875439 0 0.068711958766096329 -0.48188941710158167 0 0.08514835378959687 -0.46996502393160222 0 0.073537749801634911 -0.45652795791875439 0 0.08514835378959687 -0.46996502393160222 0 0.079667613066053022 -0.48789067673491049 0 0.095238824009081083 -0.48297213977837872 0 0.088335492749018307 -0.5 0 0.079667613066053022 -0.48789067673491049 0 0.095238824009081083 -0.48297213977837872 0 0.10334522183440351 -0.4957222562104639 0 0.1137062620745722 -0.48021613827925419 0 0.095238824009081083 -0.48297213977837872 0 0.088335492749018307 -0.5 0 0.10334522183440351 -0.4957222562104639 0 0.1171467019805488 -0.5 0 0.088335492749018307 -0.5 0 0.10334522183440351 -0.4957222562104639 0 0.095238824009081083 -0.48297213977837872 0 0.12857381147214991 -0.49147432743495589 0 0.10334522183440351 -0.4957222562104639 0 0.1171467019805488 -0.5 0 0.12857381147214991 -0.49147432743495589 0 0.10334522183440351 -0.4957222562104639 0 0.12857381147214991 -0.49147432743495589 0 0.10334522183440351 -0.4957222562104639 0 0.1137062620745722 -0.48021613827925419 0 0.1262121582727927 -0.47414402795352251 0 0.12857381147214991 -0.49147432743495589 0 0.1137062620745722 -0.48021613827925419 0 0.1262121582727927 -0.47414402795352251 0 0.1137062620745722 -0.48021613827925419 0 0.11563704090237641 -0.46562189733653681 0 0.1137062620745722 -0.48021613827925419 0 0.1009966156189494 -0.4650658775910036 0 0.11563704090237641 -0.46562189733653681 0 0.1137062620745722 -0.48021613827925419 0 0.095238824009081083 -0.48297213977837872 0 0.1009966156189494 -0.4650658775910036 0 0.08514835378959687 -0.46996502393160222 0 0.095238824009081083 -0.48297213977837872 0 0.1009966156189494 -0.4650658775910036 0 0.1009966156189494 -0.4650658775910036 0 0.1134158841598229 -0.44952475644504658 0 0.092737361475766583 -0.44544407446498441 0 0.12960966194553161 -0.46098663717551608 0 0.11563704090237641 -0.46562189733653681 0 0.1134158841598229 -0.44952475644504658 0 0.1009966156189494 -0.4650658775910036 0 0.11563704090237641 -0.46562189733653681 0 0.1134158841598229 -0.44952475644504658 0 0.12960966194553161 -0.46098663717551608 0 0.1262121582727927 -0.47414402795352251 0 0.11563704090237641 -0.46562189733653681 0 0.1134158841598229 -0.44952475644504658 0 0.1071927897965041 -0.43167467406612209 0 0.12279166071753909 -0.43511190574770559 0 0.12717042010551929 -0.44592599442158659 0 0.12960966194553161 -0.46098663717551608 0 0.1134158841598229 -0.44952475644504658 0 0.12717042010551929 -0.44592599442158659 0 0.1134158841598229 -0.44952475644504658 0 0.12279166071753909 -0.43511190574770559 0 0.1134158841598229 -0.44952475644504658 0 0.092737361475766583 -0.44544407446498441 0 0.1071927897965041 -0.43167467406612209 0 0.092737361475766583 -0.44544407446498441 0 0.073537749801634911 -0.45652795791875439 0 0.078363540837173506 -0.43116649873592711 0 0.08514835378959687 -0.46996502393160222 0 0.092737361475766583 -0.44544407446498441 0 0.073537749801634911 -0.45652795791875439 0 0.08514835378959687 -0.46996502393160222 0 0.1009966156189494 -0.4650658775910036 0 0.092737361475766583 -0.44544407446498441 0 0.073537749801634911 -0.45652795791875439 0 0.078363540837173506 -0.43116649873592711 0 0.073537749801634911 -0.45652795791875439 0 0.062661548355174651 -0.4398493172785749 0 0.052761062874780357 -0.45640851334070059 0 0.073537749801634911 -0.45652795791875439 0 0.062661548355174651 -0.4398493172785749 0 0.078363540837173506 -0.43116649873592711 0 0.062661548355174651 -0.4398493172785749 0 0.068243338653337218 -0.41786543731942349 0 0.078363540837173506 -0.43116649873592711 0 0.068243338653337218 -0.41786543731942349 0 0.078363540837173506 -0.43116649873592711 0 0.083189331872712102 -0.40580503955309982 0 0.068243338653337218 -0.41786543731942349 0 0.073967319252477029 -0.40496016580738559 0 0.066322539157482943 -0.4058179847906922 0 0.068243338653337218 -0.41786543731942349 0 0.066322539157482943 -0.4058179847906922 0 0.056274120269564402 -0.40996482690629432 0 0.068243338653337218 -0.41786543731942349 0 0.083189331872712102 -0.40580503955309982 0 0.073967319252477029 -0.40496016580738559 0 0.078363540837173506 -0.43116649873592711 0 0.083189331872712102 -0.40580503955309982 0 0.078363540837173506 -0.43116649873592711 0 0.094416536710497531 -0.41958075829071401 0 0.083189331872712102 -0.40580503955309982 0 0.093649607527640011 -0.4084150788103269 0 0.094416536710497531 -0.41958075829071401 0 0.083189331872712102 -0.40580503955309982 0 0.092737361475766583 -0.44544407446498441 0 0.078363540837173506 -0.43116649873592711 0 0.094416536710497531 -0.41958075829071401 0 0.092737361475766583 -0.44544407446498441 0 0.1071927897965041 -0.43167467406612209 0 0.094416536710497531 -0.41958075829071401 0 0.1071927897965041 -0.43167467406612209 0 0.107398637934154 -0.41835464924149152 0 0.094416536710497531 -0.41958075829071401 0 0.1071927897965041 -0.43167467406612209 0 0.1203431312082769 -0.42266296121165131 0 0.12279166071753909 -0.43511190574770559 0 0.1071927897965041 -0.43167467406612209 0 0.1203431312082769 -0.42266296121165131 0 0.107398637934154 -0.41835464924149152 0 0.1236469251126313 -0.41249055997674711 0 0.1161403481628272 -0.40633067764725078 0 0.11499541851223841 -0.41366980316252039 0 0.12627195628455029 -0.40329814930064323 0 0.1236469251126313 -0.41249055997674711 0 0.1161403481628272 -0.40633067764725078 0 0.1203431312082769 -0.42266296121165131 0 0.1236469251126313 -0.41249055997674711 0 0.11499541851223841 -0.41366980316252039 0 0.1203431312082769 -0.42266296121165131 0 0.11499541851223841 -0.41366980316252039 0 0.107398637934154 -0.41835464924149152 0 0.11499541851223841 -0.41366980316252039 0 0.1074480501433024 -0.40851016773546162 0 0.107398637934154 -0.41835464924149152 0 0.1161403481628272 -0.40633067764725078 0 0.11499541851223841 -0.41366980316252039 0 0.1074480501433024 -0.40851016773546162 0 0.1074480501433024 -0.40851016773546162 0 0.100350809522274 -0.41264481176440282 0 0.099635733225347176 -0.4025930997426137 0 0.1074480501433024 -0.40851016773546162 0 0.107398637934154 -0.41835464924149152 0 0.100350809522274 -0.41264481176440282 0 0.107398637934154 -0.41835464924149152 0 0.094416536710497531 -0.41958075829071401 0 0.100350809522274 -0.41264481176440282 0 0.093649607527640011 -0.4084150788103269 0 0.094416536710497531 -0.41958075829071401 0 0.100350809522274 -0.41264481176440282 0 0.093649607527640011 -0.4084150788103269 0 0.100350809522274 -0.41264481176440282 0 0.099635733225347176 -0.4025930997426137 0 0.093649607527640011 -0.4084150788103269 0 0.099635733225347176 -0.4025930997426137 0 0.092384642480685925 -0.3975790057576335 0 0.099635733225347176 -0.4025930997426137 0 0.10026914312624489 -0.3916754783250041 0 0.092384642480685925 -0.3975790057576335 0 0.10026914312624489 -0.3916754783250041 0 0.109264821815148 -0.39923147754526978 0 0.1099435621284621 -0.38854067235266171 0 0.099635733225347176 -0.4025930997426137 0 0.10026914312624489 -0.3916754783250041 0 0.109264821815148 -0.39923147754526978 0 0.1074480501433024 -0.40851016773546162 0 0.099635733225347176 -0.4025930997426137 0 0.109264821815148 -0.39923147754526978 0 0.1161403481628272 -0.40633067764725078 0 0.1074480501433024 -0.40851016773546162 0 0.109264821815148 -0.39923147754526978 0 0.1161403481628272 -0.40633067764725078 0 0.109264821815148 -0.39923147754526978 0 0.11991375672351989 -0.39551381562615823 0 0.109264821815148 -0.39923147754526978 0 0.11991375672351989 -0.39551381562615823 0 0.1099435621284621 -0.38854067235266171 0 0.12627195628455029 -0.40329814930064323 0 0.1161403481628272 -0.40633067764725078 0 0.11991375672351989 -0.39551381562615823 0 0.12870625901433599 -0.38417302325267061 0 0.121764114200534 -0.37531795310729449 0 0.1185695268297968 -0.38534856097603859 0 0.121764114200534 -0.37531795310729449 0 0.1185695268297968 -0.38534856097603859 0 0.1118734556042838 -0.37818818089007072 0 0.12870625901433599 -0.38417302325267061 0 0.11991375672351989 -0.39551381562615823 0 0.1185695268297968 -0.38534856097603859 0 0.11991375672351989 -0.39551381562615823 0 0.1185695268297968 -0.38534856097603859 0 0.1099435621284621 -0.38854067235266171 0 0.1185695268297968 -0.38534856097603859 0 0.1099435621284621 -0.38854067235266171 0 0.1118734556042838 -0.37818818089007072 0 0.1099435621284621 -0.38854067235266171 0 0.1118734556042838 -0.37818818089007072 0 0.1023709761995763 -0.38166503418157333 0 0.1118734556042838 -0.37818818089007072 0 0.1023709761995763 -0.38166503418157333 0 0.1033421402024004 -0.37015582844115008 0 0.10026914312624489 -0.3916754783250041 0 0.1099435621284621 -0.38854067235266171 0 0.1023709761995763 -0.38166503418157333 0 0.10026914312624489 -0.3916754783250041 0 0.1023709761995763 -0.38166503418157333 0 0.088015122908250309 -0.38044358037027248 0 0.1023709761995763 -0.38166503418157333 0 0.088015122908250309 -0.38044358037027248 0 0.1033421402024004 -0.37015582844115008 0 0.088015122908250309 -0.38044358037027248 0 0.080883403417931654 -0.39833764542545691 0 0.088015122908250309 -0.38044358037027248 0 0.080883403417931654 -0.39833764542545691 0 0.075967131526166923 -0.38765744248651879 0 0.10026914312624489 -0.3916754783250041 0 0.088015122908250309 -0.38044358037027248 0 0.092384642480685925 -0.3975790057576335 0 0.088015122908250309 -0.38044358037027248 0 0.072440264115982256 -0.37598781787707519 0 0.075967131526166923 -0.38765744248651879 0 0.088015122908250309 -0.38044358037027248 0 0.083189331872712102 -0.40580503955309982 0 0.088015122908250309 -0.38044358037027248 0 0.092384642480685925 -0.3975790057576335 0 0.083189331872712102 -0.40580503955309982 0 0.088015122908250309 -0.38044358037027248 0 0.083189331872712102 -0.40580503955309982 0 0.080883403417931654 -0.39833764542545691 0 0.093649607527640011 -0.4084150788103269 0 0.092384642480685925 -0.3975790057576335 0 0.083189331872712102 -0.40580503955309982 0 0.083189331872712102 -0.40580503955309982 0 0.080883403417931654 -0.39833764542545691 0 0.073967319252477029 -0.40496016580738559 0 0.080883403417931654 -0.39833764542545691 0 0.071197983160921241 -0.39697472194825573 0 0.075967131526166923 -0.38765744248651879 0 0.071197983160921241 -0.39697472194825573 0 0.06408352585993074 -0.38804433585395748 0 0.075967131526166923 -0.38765744248651879 0 0.071197983160921241 -0.39697472194825573 0 0.073967319252477029 -0.40496016580738559 0 0.066322539157482943 -0.4058179847906922 0 0.080883403417931654 -0.39833764542545691 0 0.071197983160921241 -0.39697472194825573 0 0.073967319252477029 -0.40496016580738559 0 0.071197983160921241 -0.39697472194825573 0 0.066322539157482943 -0.4058179847906922 0 0.060897626753703943 -0.3988165242587996 0 0.071197983160921241 -0.39697472194825573 0 0.06408352585993074 -0.38804433585395748 0 0.060897626753703943 -0.3988165242587996 0 0.06408352585993074 -0.38804433585395748 0 0.072440264115982256 -0.37598781787707519 0 0.075967131526166923 -0.38765744248651879 0 0.06408352585993074 -0.38804433585395748 0 0.072440264115982256 -0.37598781787707519 0 0.04922537437584882 -0.3776403196921379 0 0.06408352585993074 -0.38804433585395748 0 0.04922537437584882 -0.3776403196921379 0 0.050314296571959058 -0.39557154175877052 0 0.06408352585993074 -0.38804433585395748 0 0.060897626753703943 -0.3988165242587996 0 0.050314296571959058 -0.39557154175877052 0 0.060897626753703943 -0.3988165242587996 0 0.050314296571959058 -0.39557154175877052 0 0.056274120269564402 -0.40996482690629432 0 0.066322539157482943 -0.4058179847906922 0 0.060897626753703943 -0.3988165242587996 0 0.056274120269564402 -0.40996482690629432 0 0.050314296571959058 -0.39557154175877052 0 0.042789918725145017 -0.40673934498822989 0 0.056274120269564402 -0.40996482690629432 0 0.050314296571959058 -0.39557154175877052 0 0.032961975914373318 -0.39821537745230462 0 0.042789918725145017 -0.40673934498822989 0 0.032961975914373318 -0.39821537745230462 0 0.032665112165562747 -0.41135497645560498 0 0.042789918725145017 -0.40673934498822989 0 0.032961975914373318 -0.39821537745230462 0 0.034409581532530258 -0.38281580648555508 0 0.028135289969854711 -0.3929484207806006 0 0.04922537437584882 -0.3776403196921379 0 0.032961975914373318 -0.39821537745230462 0 0.04922537437584882 -0.3776403196921379 0 0.032961975914373318 -0.39821537745230462 0 0.034409581532530258 -0.38281580648555508 0 0.04922537437584882 -0.3776403196921379 0 0.050314296571959058 -0.39557154175877052 0 0.032961975914373318 -0.39821537745230462 0 0.04922537437584882 -0.3776403196921379 0 0.034409581532530258 -0.38281580648555508 0 0.028252787987410179 -0.36704311182836968 0 0.034409581532530258 -0.38281580648555508 0 0.023176232579425939 -0.38039193623506101 0 0.028252787987410179 -0.36704311182836968 0 0.034409581532530258 -0.38281580648555508 0 0.023176232579425939 -0.38039193623506101 0 0.028135289969854711 -0.3929484207806006 0 0.017948118347757201 -0.387530180080144 0 0.023176232579425939 -0.38039193623506101 0 0.028135289969854711 -0.3929484207806006 0 0.017948118347757201 -0.387530180080144 0 0.023176232579425939 -0.38039193623506101 0 0.010564167356833021 -0.38239105139677082 0 0.023176232579425939 -0.38039193623506101 0 0.010564167356833021 -0.38239105139677082 0 0.01412161511793417 -0.3709123314935327 0 -0.00053198488732736707 -0.36743247430582238 0 -0.00033266791181115168 -0.39127596109595009 0 0.010564167356833021 -0.38239105139677082 0 0.017948118347757201 -0.387530180080144 0 0.010564167356833021 -0.38239105139677082 0 0.011663124985137181 -0.39235567263581173 0 -0.00033266791181115168 -0.39127596109595009 0 0.010564167356833021 -0.38239105139677082 0 0.011663124985137181 -0.39235567263581173 0 0.0054934001634961531 -0.40356547128093029 0 0.011663124985137181 -0.39235567263581173 0 0.028135289969854711 -0.3929484207806006 0 -0.00033266791181115168 -0.39127596109595009 0 0.0054934001634961531 -0.40356547128093029 0 0.011663124985137181 -0.39235567263581173 0 0.0054934001634961531 -0.40356547128093029 0 0.020233203469810911 -0.40513106127374798 0 0.025778860348476321 -0.39995296114928602 0 0.0054934001634961531 -0.40356547128093029 0 0.028135289969854711 -0.3929484207806006 0 0.025778860348476321 -0.39995296114928602 0 0.017948118347757201 -0.387530180080144 0 0.011663124985137181 -0.39235567263581173 0 0.028135289969854711 -0.3929484207806006 0 0.0054934001634961531 -0.40356547128093029 0 0.028135289969854711 -0.3929484207806006 0 0.032961975914373318 -0.39821537745230462 0 0.028135289969854711 -0.3929484207806006 0 0.025778860348476321 -0.39995296114928602 0 0.032961975914373318 -0.39821537745230462 0 0.020233203469810911 -0.40513106127374798 0 0.025778860348476321 -0.39995296114928602 0 0.01669857745289785 -0.41879043521247122 0 0.038209976569834818 -0.42167474816941453 0 0.032665112165562747 -0.41135497645560498 0 0.032961975914373318 -0.39821537745230462 0 0.020233203469810911 -0.40513106127374798 0 0.01669857745289785 -0.41879043521247122 0 0.032961975914373318 -0.39821537745230462 0 0.01669857745289785 -0.41879043521247122 0 0.032665112165562747 -0.41135497645560498 0 0.032961975914373318 -0.39821537745230462 0 0.01669857745289785 -0.41879043521247122 0 -0.00068239153719094989 -0.4198465346992093 0 0.0054934001634961531 -0.40356547128093029 0 0.01669857745289785 -0.41879043521247122 0 0.0054934001634961531 -0.40356547128093029 0 0.020233203469810911 -0.40513106127374798 0 0.01669857745289785 -0.41879043521247122 0 -0.00068239153719094989 -0.4198465346992093 0 0.01669857745289785 -0.41879043521247122 0 0.00043517899142246982 -0.43936549297263772 0 0.01669857745289785 -0.41879043521247122 0 0.024895816788032321 -0.43915526652050491 0 0.00043517899142246982 -0.43936549297263772 0 0.01669857745289785 -0.41879043521247122 0 0.00043517899142246982 -0.43936549297263772 0 0.01669857745289785 -0.41879043521247122 0 0.038209976569834818 -0.42167474816941453 0 0.024895816788032321 -0.43915526652050491 0 0.038209976569834818 -0.42167474816941453 0 0.053289989593696421 -0.42706177408012103 0 0.043171682864742711 -0.44086064880675813 0 0.038209976569834818 -0.42167474816941453 0 0.043171682864742711 -0.44086064880675813 0 0.024895816788032321 -0.43915526652050491 0 0.038209976569834818 -0.42167474816941453 0 0.042789918725145017 -0.40673934498822989 0 0.056274120269564402 -0.40996482690629432 0 0.038209976569834818 -0.42167474816941453 0 0.032665112165562747 -0.41135497645560498 0 0.042789918725145017 -0.40673934498822989 0 0.038209976569834818 -0.42167474816941453 0 0.056274120269564402 -0.40996482690629432 0 0.053289989593696421 -0.42706177408012103 0 0.068243338653337218 -0.41786543731942349 0 0.056274120269564402 -0.40996482690629432 0 0.053289989593696421 -0.42706177408012103 0 0.062661548355174651 -0.4398493172785749 0 0.068243338653337218 -0.41786543731942349 0 0.053289989593696421 -0.42706177408012103 0 0.062661548355174651 -0.4398493172785749 0 0.053289989593696421 -0.42706177408012103 0 0.043171682864742711 -0.44086064880675813 0 0.062661548355174651 -0.4398493172785749 0 0.052761062874780357 -0.45640851334070059 0 0.043171682864742711 -0.44086064880675813 0 0.073537749801634911 -0.45652795791875439 0 0.052761062874780357 -0.45640851334070059 0 0.058331747457571248 -0.47044197786933978 0 0.052761062874780357 -0.45640851334070059 0 0.043417553524738903 -0.47191711027350308 0 0.058331747457571248 -0.47044197786933978 0 0.052761062874780357 -0.45640851334070059 0 0.034835342489052547 -0.45653644997965043 0 0.043417553524738903 -0.47191711027350308 0 0.034835342489052547 -0.45653644997965043 0 0.027642754407537901 -0.47267464970775541 0 0.043417553524738903 -0.47191711027350308 0 0.052761062874780357 -0.45640851334070059 0 0.034835342489052547 -0.45653644997965043 0 0.043171682864742711 -0.44086064880675813 0 0.034835342489052547 -0.45653644997965043 0 0.043171682864742711 -0.44086064880675813 0 0.024895816788032321 -0.43915526652050491 0 0.034835342489052547 -0.45653644997965043 0 0.024895816788032321 -0.43915526652050491 0 0.016024142360243531 -0.45770382398209769 0 0.00043517899142246982 -0.43936549297263772 0 0.00085444750090718133 -0.46129944656225891 0 0.016024142360243531 -0.45770382398209769 0 0.024895816788032321 -0.43915526652050491 0 0.00043517899142246982 -0.43936549297263772 0 0.016024142360243531 -0.45770382398209769 0 0.00085444750090718133 -0.46129944656225891 0 0.016024142360243531 -0.45770382398209769 0 0.011709694704579899 -0.47159248343802601 0 0.034835342489052547 -0.45653644997965043 0 0.016024142360243531 -0.45770382398209769 0 0.027642754407537901 -0.47267464970775541 0 0.016024142360243531 -0.45770382398209769 0 0.027642754407537901 -0.47267464970775541 0 0.011709694704579899 -0.47159248343802601 0 0.027642754407537901 -0.47267464970775541 0 0.019893875583662912 -0.48765369253176349 0 0.038254689968991083 -0.4839872923857767 0 0.027642754407537901 -0.47267464970775541 0 0.011709694704579899 -0.47159248343802601 0 0.019893875583662912 -0.48765369253176349 0 -0.006583924585268134 -0.47585703538303958 0 0.00085444750090718133 -0.46129944656225891 0 0.011709694704579899 -0.47159248343802601 0 -0.006583924585268134 -0.47585703538303958 0 0.019893875583662912 -0.48765369253176349 0 -0.006583924585268134 -0.47585703538303958 0 0.011709694704579899 -0.47159248343802601 0 0.019893875583662912 -0.48765369253176349 0 -0.006583924585268134 -0.47585703538303958 0 0.001901865054427021 -0.5 0 0.019893875583662912 -0.48765369253176349 0 0.001901865054427021 -0.5 0 0.030713074285957379 -0.5 0 0.019893875583662912 -0.48765369253176349 0 0.046371675752593849 -0.5 0 0.038254689968991083 -0.4839872923857767 0 0.053230412320605741 -0.48546689071215948 0 0.030713074285957379 -0.5 0 0.019893875583662912 -0.48765369253176349 0 0.046371675752593849 -0.5 0 0.019893875583662912 -0.48765369253176349 0 0.046371675752593849 -0.5 0 0.038254689968991083 -0.4839872923857767 0 0.019893875583662912 -0.48765369253176349 0 0.046371675752593849 -0.5 0 0.027642754407537901 -0.47267464970775541 0 0.038254689968991083 -0.4839872923857767 0 0.043417553524738903 -0.47191711027350308 0 0.038254689968991083 -0.4839872923857767 0 0.043417553524738903 -0.47191711027350308 0 0.053230412320605741 -0.48546689071215948 0 0.043417553524738903 -0.47191711027350308 0 0.058331747457571248 -0.47044197786933978 0 0.053230412320605741 -0.48546689071215948 0 0.068711958766096329 -0.48188941710158167 0 0.058331747457571248 -0.47044197786933978 0 0.053230412320605741 -0.48546689071215948 0 0.068711958766096329 -0.48188941710158167 0 0.059524283517487842 -0.5 0 0.053230412320605741 -0.48546689071215948 0 0.046371675752593849 -0.5 0 0.059524283517487842 -0.5 0 0.053230412320605741 -0.48546689071215948 0 0.082780060130463184 -0.29265353216518369 0 0.082940339561024076 -0.27669369861586351 0 0.097489554635386985 -0.28693659782763248 0 0.082780060130463184 -0.29265353216518369 0 0.097489554635386985 -0.28693659782763248 0 0.094040210542192498 -0.30011055811264481 0 0.082780060130463184 -0.29265353216518369 0 0.085944677307048079 -0.30829729049058407 0 0.094040210542192498 -0.30011055811264481 0 0.085944677307048079 -0.30829729049058407 0 0.1006900362363245 -0.30932444868687042 0 0.094040210542192498 -0.30011055811264481 0 0.082780060130463184 -0.29265353216518369 0 0.085944677307048079 -0.30829729049058407 0 0.065123299717138122 -0.29379561333631538 0 0.085944677307048079 -0.30829729049058407 0 0.065123299717138122 -0.29379561333631538 0 0.085944677307048079 -0.30829729049058407 0 0.065123299717138122 -0.29379561333631538 0 0.064083387256124058 -0.31415305110555908 0 0.082780060130463184 -0.29265353216518369 0 0.065123299717138122 -0.29379561333631538 0 0.082940339561024076 -0.27669369861586351 0 0.065123299717138122 -0.29379561333631538 0 0.065373134012091633 -0.26745920931570732 0 0.082940339561024076 -0.27669369861586351 0 0.065373134012091633 -0.26745920931570732 0 0.085239455663753627 -0.25973426476352129 0 0.082940339561024076 -0.27669369861586351 0 0.065373134012091633 -0.26745920931570732 0 0.085239455663753627 -0.25973426476352129 0 0.068430023274385188 -0.24587490713270199 0 0.085239455663753627 -0.25973426476352129 0 0.10235902731692589 -0.25601715118976193 0 0.090017273971336881 -0.23787465263478441 0 0.085239455663753627 -0.25973426476352129 0 0.082940339561024076 -0.27669369861586351 0 0.098776725495540868 -0.27152760753644017 0 0.082940339561024076 -0.27669369861586351 0 0.098776725495540868 -0.27152760753644017 0 0.097489554635386985 -0.28693659782763248 0 0.098776725495540868 -0.27152760753644017 0 0.1126552196582187 -0.28100421438348833 0 0.097489554635386985 -0.28693659782763248 0 0.098776725495540868 -0.27152760753644017 0 0.1126552196582187 -0.28100421438348833 0 0.11197675613793601 -0.26877971843837428 0 0.085239455663753627 -0.25973426476352129 0 0.098776725495540868 -0.27152760753644017 0 0.10235902731692589 -0.25601715118976193 0 0.098776725495540868 -0.27152760753644017 0 0.10235902731692589 -0.25601715118976193 0 0.11197675613793601 -0.26877971843837428 0 0.10235902731692589 -0.25601715118976193 0 0.1181011790521542 -0.25655031845726511 0 0.11197675613793601 -0.26877971843837428 0 0.10235902731692589 -0.25601715118976193 0 0.1181011790521542 -0.25655031845726511 0 0.1124670231330064 -0.24061915363331321 0 0.1214641554297384 -0.26522026774649188 0 0.1181011790521542 -0.25655031845726511 0 0.11197675613793601 -0.26877971843837428 0 0.12678009899814771 -0.2602275250044836 0 0.1214641554297384 -0.26522026774649188 0 0.1181011790521542 -0.25655031845726511 0 0.12678009899814771 -0.2602275250044836 0 0.1181011790521542 -0.25655031845726511 0 0.1274254079633414 -0.24851100436517171 0 0.13005821988477079 -0.26680629949739387 0 0.1204045230756832 -0.27373747733494258 0 0.1222941648888326 -0.28547052221321328 0 0.1126552196582187 -0.28100421438348833 0 0.1204045230756832 -0.27373747733494258 0 0.1177625919147625 -0.2817756898634558 0 0.1126552196582187 -0.28100421438348833 0 0.11197675613793601 -0.26877971843837428 0 0.1204045230756832 -0.27373747733494258 0 0.13005821988477079 -0.26680629949739387 0 0.1214641554297384 -0.26522026774649188 0 0.1204045230756832 -0.27373747733494258 0 0.1214641554297384 -0.26522026774649188 0 0.11197675613793601 -0.26877971843837428 0 0.1204045230756832 -0.27373747733494258 0 0.1204045230756832 -0.27373747733494258 0 0.1222941648888326 -0.28547052221321328 0 0.1177625919147625 -0.2817756898634558 0 0.1222941648888326 -0.28547052221321328 0 0.1146597941029618 -0.29319624525541588 0 0.11453010989289419 -0.30413474492903292 0 0.1222941648888326 -0.28547052221321328 0 0.11453010989289419 -0.30413474492903292 0 0.12616832465844399 -0.28471408973223322 0 0.11716504904145569 -0.30746714052285218 0 0.12616832465844399 -0.28471408973223322 0 0.1222941648888326 -0.28547052221321328 0 0.11716504904145569 -0.30746714052285218 0 0.1222941648888326 -0.28547052221321328 0 0.1146597941029618 -0.29319624525541588 0 0.11569646003631549 -0.28689054552217891 0 0.1222941648888326 -0.28547052221321328 0 0.1177625919147625 -0.2817756898634558 0 0.11569646003631549 -0.28689054552217891 0 0.1146597941029618 -0.29319624525541588 0 0.109802124418623 -0.29119222372823089 0 0.11569646003631549 -0.28689054552217891 0 0.1146597941029618 -0.29319624525541588 0 0.109802124418623 -0.29119222372823089 0 0.1109761112781439 -0.29829318988442349 0 0.1126552196582187 -0.28100421438348833 0 0.109802124418623 -0.29119222372823089 0 0.11569646003631549 -0.28689054552217891 0 0.1126552196582187 -0.28100421438348833 0 0.1177625919147625 -0.2817756898634558 0 0.11569646003631549 -0.28689054552217891 0 0.1126552196582187 -0.28100421438348833 0 0.109802124418623 -0.29119222372823089 0 0.097489554635386985 -0.28693659782763248 0 0.109802124418623 -0.29119222372823089 0 0.097489554635386985 -0.28693659782763248 0 0.105172823096175 -0.30022985796801022 0 0.109802124418623 -0.29119222372823089 0 0.105172823096175 -0.30022985796801022 0 0.1109761112781439 -0.29829318988442349 0 0.097489554635386985 -0.28693659782763248 0 0.094040210542192498 -0.30011055811264481 0 0.105172823096175 -0.30022985796801022 0 0.1006900362363245 -0.30932444868687042 0 0.094040210542192498 -0.30011055811264481 0 0.105172823096175 -0.30022985796801022 0 0.105172823096175 -0.30022985796801022 0 0.1109761112781439 -0.29829318988442349 0 0.10949125651844339 -0.30222304930336907 0 0.105172823096175 -0.30022985796801022 0 0.10728598180656029 -0.30623440443200989 0 0.10949125651844339 -0.30222304930336907 0 0.1006900362363245 -0.30932444868687042 0 0.105172823096175 -0.30022985796801022 0 0.10728598180656029 -0.30623440443200989 0 0.1006900362363245 -0.30932444868687042 0 0.10728598180656029 -0.30623440443200989 0 0.1070178258607371 -0.31184987289614868 0 0.11716504904145569 -0.30746714052285218 0 0.11453010989289419 -0.30413474492903292 0 0.1067660548969578 -0.32279896764485322 0 0.12694236628256891 -0.30060742423099229 0 0.12616832465844399 -0.28471408973223322 0 0.11716504904145569 -0.30746714052285218 0 0.1222941648888326 -0.28547052221321328 0 0.11716504904145569 -0.30746714052285218 0 0.11453010989289419 -0.30413474492903292 0 0.10728598180656029 -0.30623440443200989 0 0.1070178258607371 -0.31184987289614868 0 0.11453010989289419 -0.30413474492903292 0 0.1146597941029618 -0.29319624525541588 0 0.1109761112781439 -0.29829318988442349 0 0.11453010989289419 -0.30413474492903292 0 0.10728598180656029 -0.30623440443200989 0 0.10949125651844339 -0.30222304930336907 0 0.11453010989289419 -0.30413474492903292 0 0.1109761112781439 -0.29829318988442349 0 0.10949125651844339 -0.30222304930336907 0 0.11453010989289419 -0.30413474492903292 0 0.12694236628256891 -0.30060742423099229 0 0.11716504904145569 -0.30746714052285218 0 0.1230727380403514 -0.31216996445272388 0 0.11716504904145569 -0.30746714052285218 0 0.1230727380403514 -0.31216996445272388 0 0.11716504904145569 -0.30746714052285218 0 0.1100718709588852 -0.32510140306510499 0 0.11453010989289419 -0.30413474492903292 0 0.1067660548969578 -0.32279896764485322 0 0.1070178258607371 -0.31184987289614868 0 0.11453010989289419 -0.30413474492903292 0 0.1067660548969578 -0.32279896764485322 0 0.11716504904145569 -0.30746714052285218 0 0.1100718709588852 -0.32510140306510499 0 0.1067660548969578 -0.32279896764485322 0 0.13369481378847509 -0.32062568242002459 0 0.1230727380403514 -0.31216996445272388 0 0.1100718709588852 -0.32510140306510499 0 0.11716504904145569 -0.30746714052285218 0 0.1230727380403514 -0.31216996445272388 0 0.1100718709588852 -0.32510140306510499 0 0.1293645356227007 -0.33853836194028569 0 0.13369481378847509 -0.32062568242002459 0 0.1100718709588852 -0.32510140306510499 0 0.1293645356227007 -0.33853836194028569 0 0.1100718709588852 -0.32510140306510499 0 0.1293645356227007 -0.33853836194028569 0 0.1124388535433935 -0.3426908061034416 0 0.122367810077348 -0.34744381615024578 0 0.1293645356227007 -0.33853836194028569 0 0.1100718709588852 -0.32510140306510499 0 0.1124388535433935 -0.3426908061034416 0 0.098860166332392044 -0.34180414792920949 0 0.098258350481666687 -0.32661132860253572 0 0.1067660548969578 -0.32279896764485322 0 0.098860166332392044 -0.34180414792920949 0 0.098258350481666687 -0.32661132860253572 0 0.093136736694958686 -0.3535274544864041 0 0.098258350481666687 -0.32661132860253572 0 0.093136736694958686 -0.3535274544864041 0 0.1100718709588852 -0.32510140306510499 0 0.098860166332392044 -0.34180414792920949 0 0.1067660548969578 -0.32279896764485322 0 0.1100718709588852 -0.32510140306510499 0 0.098860166332392044 -0.34180414792920949 0 0.099043496933568453 -0.35277249171768899 0 0.1100718709588852 -0.32510140306510499 0 0.1124388535433935 -0.3426908061034416 0 0.099043496933568453 -0.35277249171768899 0 0.098860166332392044 -0.34180414792920949 0 0.1067660548969578 -0.32279896764485322 0 0.1100718709588852 -0.32510140306510499 0 0.099043496933568453 -0.35277249171768899 0 0.085944677307048079 -0.30829729049058407 0 0.098258350481666687 -0.32661132860253572 0 0.1067660548969578 -0.32279896764485322 0 0.085944677307048079 -0.30829729049058407 0 0.1067660548969578 -0.32279896764485322 0 0.085944677307048079 -0.30829729049058407 0 0.1006900362363245 -0.30932444868687042 0 0.1067660548969578 -0.32279896764485322 0 0.1006900362363245 -0.30932444868687042 0 0.1070178258607371 -0.31184987289614868 0 0.1067660548969578 -0.32279896764485322 0 0.1100718709588852 -0.32510140306510499 0 0.1067660548969578 -0.32279896764485322 0 0.121764114200534 -0.37531795310729449 0 0.1118734556042838 -0.37818818089007072 0 0.1134886379008825 -0.36664458425167162 0 0.1118734556042838 -0.37818818089007072 0 0.1134886379008825 -0.36664458425167162 0 0.1033421402024004 -0.37015582844115008 0 0.121764114200534 -0.37531795310729449 0 0.12302251751009 -0.36563309907317598 0 0.1134886379008825 -0.36664458425167162 0 0.12302251751009 -0.36563309907317598 0 0.1134886379008825 -0.36664458425167162 0 0.11790454829267361 -0.35894206585640298 0 0.12302251751009 -0.36563309907317598 0 0.12399939136234051 -0.3596691841632218 0 0.11790454829267361 -0.35894206585640298 0 0.1134886379008825 -0.36664458425167162 0 0.1109810076414053 -0.35730877370110292 0 0.105687265477793 -0.36062793774675928 0 0.1134886379008825 -0.36664458425167162 0 0.1109810076414053 -0.35730877370110292 0 0.11790454829267361 -0.35894206585640298 0 0.1109810076414053 -0.35730877370110292 0 0.11790454829267361 -0.35894206585640298 0 0.1155485923315511 -0.35109904955909299 0 0.1109810076414053 -0.35730877370110292 0 0.1155485923315511 -0.35109904955909299 0 0.1088480495161273 -0.35153883496867311 0 0.11790454829267361 -0.35894206585640298 0 0.1224722881593585 -0.35385019084987879 0 0.1155485923315511 -0.35109904955909299 0 0.12399939136234051 -0.3596691841632218 0 0.11790454829267361 -0.35894206585640298 0 0.1224722881593585 -0.35385019084987879 0 0.12771203272239709 -0.35704157616130722 0 0.12399939136234051 -0.3596691841632218 0 0.1224722881593585 -0.35385019084987879 0 0.1224722881593585 -0.35385019084987879 0 0.122367810077348 -0.34744381615024578 0 0.1155485923315511 -0.35109904955909299 0 0.1124388535433935 -0.3426908061034416 0 0.122367810077348 -0.34744381615024578 0 0.1155485923315511 -0.35109904955909299 0 0.1124388535433935 -0.3426908061034416 0 0.1155485923315511 -0.35109904955909299 0 0.1088480495161273 -0.35153883496867311 0 0.1124388535433935 -0.3426908061034416 0 0.1088480495161273 -0.35153883496867311 0 0.099043496933568453 -0.35277249171768899 0 0.098860166332392044 -0.34180414792920949 0 0.099043496933568453 -0.35277249171768899 0 0.093136736694958686 -0.3535274544864041 0 0.1088480495161273 -0.35153883496867311 0 0.099043496933568453 -0.35277249171768899 0 0.1061399548922235 -0.35556200953355599 0 0.099043496933568453 -0.35277249171768899 0 0.1061399548922235 -0.35556200953355599 0 0.105687265477793 -0.36062793774675928 0 0.1109810076414053 -0.35730877370110292 0 0.1088480495161273 -0.35153883496867311 0 0.1061399548922235 -0.35556200953355599 0 0.1109810076414053 -0.35730877370110292 0 0.1061399548922235 -0.35556200953355599 0 0.105687265477793 -0.36062793774675928 0 0.099043496933568453 -0.35277249171768899 0 0.105687265477793 -0.36062793774675928 0 0.1033421402024004 -0.37015582844115008 0 0.088015122908250309 -0.38044358037027248 0 0.099043496933568453 -0.35277249171768899 0 0.1033421402024004 -0.37015582844115008 0 0.1134886379008825 -0.36664458425167162 0 0.105687265477793 -0.36062793774675928 0 0.1033421402024004 -0.37015582844115008 0 0.088015122908250309 -0.38044358037027248 0 0.083333842729338303 -0.36429002106334779 0 0.093136736694958686 -0.3535274544864041 0 0.088015122908250309 -0.38044358037027248 0 0.099043496933568453 -0.35277249171768899 0 0.093136736694958686 -0.3535274544864041 0 0.088015122908250309 -0.38044358037027248 0 0.093136736694958686 -0.3535274544864041 0 0.088015122908250309 -0.38044358037027248 0 0.099043496933568453 -0.35277249171768899 0 0.088015122908250309 -0.38044358037027248 0 0.072440264115982256 -0.37598781787707519 0 0.083333842729338303 -0.36429002106334779 0 0.083333842729338303 -0.36429002106334779 0 0.085724634692260382 -0.3535294655358891 0 0.078659954727619455 -0.35140021380450859 0 0.083333842729338303 -0.36429002106334779 0 0.085724634692260382 -0.3535294655358891 0 0.093136736694958686 -0.3535274544864041 0 0.085724634692260382 -0.3535294655358891 0 0.093136736694958686 -0.3535274544864041 0 0.08776800461712507 -0.34490017278929602 0 0.085724634692260382 -0.3535294655358891 0 0.08776800461712507 -0.34490017278929602 0 0.078659954727619455 -0.35140021380450859 0 0.08776800461712507 -0.34490017278929602 0 0.078659954727619455 -0.35140021380450859 0 0.083476616222446356 -0.33648296174545611 0 0.078659954727619455 -0.35140021380450859 0 0.069927697900685232 -0.33453193511201912 0 0.061644480537806412 -0.34727062316601159 0 0.078659954727619455 -0.35140021380450859 0 0.066299727693594282 -0.36145334149803482 0 0.061644480537806412 -0.34727062316601159 0 0.083333842729338303 -0.36429002106334779 0 0.078659954727619455 -0.35140021380450859 0 0.066299727693594282 -0.36145334149803482 0 0.072440264115982256 -0.37598781787707519 0 0.04922537437584882 -0.3776403196921379 0 0.066299727693594282 -0.36145334149803482 0 0.072440264115982256 -0.37598781787707519 0 0.083333842729338303 -0.36429002106334779 0 0.066299727693594282 -0.36145334149803482 0 0.085944677307048079 -0.30829729049058407 0 0.098258350481666687 -0.32661132860253572 0 0.082177584272503379 -0.32353507843272211 0 0.098258350481666687 -0.32661132860253572 0 0.08776800461712507 -0.34490017278929602 0 0.083476616222446356 -0.33648296174545611 0 0.098258350481666687 -0.32661132860253572 0 0.082177584272503379 -0.32353507843272211 0 0.083476616222446356 -0.33648296174545611 0 0.098258350481666687 -0.32661132860253572 0 0.093136736694958686 -0.3535274544864041 0 0.08776800461712507 -0.34490017278929602 0 0.082177584272503379 -0.32353507843272211 0 0.083476616222446356 -0.33648296174545611 0 0.069927697900685232 -0.33453193511201912 0 0.078659954727619455 -0.35140021380450859 0 0.083476616222446356 -0.33648296174545611 0 0.069927697900685232 -0.33453193511201912 0 0.082177584272503379 -0.32353507843272211 0 0.069927697900685232 -0.33453193511201912 0 0.064083387256124058 -0.31415305110555908 0 0.085944677307048079 -0.30829729049058407 0 0.082177584272503379 -0.32353507843272211 0 0.064083387256124058 -0.31415305110555908 0 0.064083387256124058 -0.31415305110555908 0 0.047719350784627981 -0.33430773534183161 0 0.041907327654232773 -0.31116635241814328 0 0.069927697900685232 -0.33453193511201912 0 0.064083387256124058 -0.31415305110555908 0 0.047719350784627981 -0.33430773534183161 0 0.069927697900685232 -0.33453193511201912 0 0.047719350784627981 -0.33430773534183161 0 0.061644480537806412 -0.34727062316601159 0 0.047719350784627981 -0.33430773534183161 0 0.02445756848451262 -0.34755647394188549 0 0.022879946858262761 -0.32878206012090111 0 0.047719350784627981 -0.33430773534183161 0 0.022879946858262761 -0.32878206012090111 0 0.041907327654232773 -0.31116635241814328 0 0.04922537437584882 -0.3776403196921379 0 0.066299727693594282 -0.36145334149803482 0 0.045615671582505117 -0.35465989007366422 0 0.066299727693594282 -0.36145334149803482 0 0.061644480537806412 -0.34727062316601159 0 0.045615671582505117 -0.35465989007366422 0 0.047719350784627981 -0.33430773534183161 0 0.061644480537806412 -0.34727062316601159 0 0.045615671582505117 -0.35465989007366422 0 0.047719350784627981 -0.33430773534183161 0 0.045615671582505117 -0.35465989007366422 0 0.02445756848451262 -0.34755647394188549 0 0.045615671582505117 -0.35465989007366422 0 0.028252787987410179 -0.36704311182836968 0 0.02445756848451262 -0.34755647394188549 0 0.04922537437584882 -0.3776403196921379 0 0.045615671582505117 -0.35465989007366422 0 0.028252787987410179 -0.36704311182836968 0 0.028252787987410179 -0.36704311182836968 0 0.01089622296841293 -0.35731522424877082 0 0.01412161511793417 -0.3709123314935327 0 0.023176232579425939 -0.38039193623506101 0 0.028252787987410179 -0.36704311182836968 0 0.01412161511793417 -0.3709123314935327 0 0.028252787987410179 -0.36704311182836968 0 0.02445756848451262 -0.34755647394188549 0 0.01089622296841293 -0.35731522424877082 0 -0.0070070330593946526 -0.34953659234509182 0 0.01089622296841293 -0.35731522424877082 0 0.006084384167342651 -0.34141036157792293 0 -0.0070070330593946526 -0.34953659234509182 0 -0.00053198488732736707 -0.36743247430582238 0 0.01089622296841293 -0.35731522424877082 0 0.02445756848451262 -0.34755647394188549 0 0.01089622296841293 -0.35731522424877082 0 0.006084384167342651 -0.34141036157792293 0 -0.00053198488732736707 -0.36743247430582238 0 0.01089622296841293 -0.35731522424877082 0 0.01412161511793417 -0.3709123314935327 0 -0.00053198488732736707 -0.36743247430582238 0 0.010564167356833021 -0.38239105139677082 0 0.01412161511793417 -0.3709123314935327 0 0.022879946858262761 -0.32878206012090111 0 0.0054964724966803189 -0.32189142404520621 0 0.01857418420126546 -0.30587763267259938 0 0.022879946858262761 -0.32878206012090111 0 0.01857418420126546 -0.30587763267259938 0 0.041907327654232773 -0.31116635241814328 0 0.02445756848451262 -0.34755647394188549 0 0.022879946858262761 -0.32878206012090111 0 0.006084384167342651 -0.34141036157792293 0 0.022879946858262761 -0.32878206012090111 0 0.006084384167342651 -0.34141036157792293 0 0.0054964724966803189 -0.32189142404520621 0 -0.0037061884844986999 -0.33299113331812491 0 0.006084384167342651 -0.34141036157792293 0 0.0054964724966803189 -0.32189142404520621 0 -0.0046092996018311516 -0.29882920551984088 0 0.0054964724966803189 -0.32189142404520621 0 0.01857418420126546 -0.30587763267259938 0 -0.0046092996018311516 -0.29882920551984088 0 0.0079062469165253179 -0.28474643039931202 0 0.01857418420126546 -0.30587763267259938 0 0.0079062469165253179 -0.28474643039931202 0 0.029423457115755142 -0.28693026196474231 0 0.01857418420126546 -0.30587763267259938 0 0.029423457115755142 -0.28693026196474231 0 0.01857418420126546 -0.30587763267259938 0 0.041907327654232773 -0.31116635241814328 0 0.029423457115755142 -0.28693026196474231 0 0.041907327654232773 -0.31116635241814328 0 0.046729361698847241 -0.29319182580784009 0 0.029423457115755142 -0.28693026196474231 0 0.046729361698847241 -0.29319182580784009 0 0.046703378438379177 -0.27478799902995382 0 0.065123299717138122 -0.29379561333631538 0 0.046729361698847241 -0.29319182580784009 0 0.046703378438379177 -0.27478799902995382 0 0.064083387256124058 -0.31415305110555908 0 0.041907327654232773 -0.31116635241814328 0 0.046729361698847241 -0.29319182580784009 0 0.065123299717138122 -0.29379561333631538 0 0.064083387256124058 -0.31415305110555908 0 0.046729361698847241 -0.29319182580784009 0 0.065373134012091633 -0.26745920931570732 0 0.043802307417869633 -0.25386877301588789 0 0.068430023274385188 -0.24587490713270199 0 0.065373134012091633 -0.26745920931570732 0 0.046703378438379177 -0.27478799902995382 0 0.043802307417869633 -0.25386877301588789 0 0.065123299717138122 -0.29379561333631538 0 0.065373134012091633 -0.26745920931570732 0 0.046703378438379177 -0.27478799902995382 0 0.029423457115755142 -0.28693026196474231 0 0.046703378438379177 -0.27478799902995382 0 0.0312456655663985 -0.26777045658793253 0 0.043802307417869633 -0.25386877301588789 0 0.022311266661742039 -0.25446467940386802 0 0.0312456655663985 -0.26777045658793253 0 0.046703378438379177 -0.27478799902995382 0 0.043802307417869633 -0.25386877301588789 0 0.0312456655663985 -0.26777045658793253 0 0.022311266661742039 -0.25446467940386802 0 0.0312456655663985 -0.26777045658793253 0 0.014545020629298321 -0.26882406302927953 0 0.0079062469165253179 -0.28474643039931202 0 0.029423457115755142 -0.28693026196474231 0 0.014545020629298321 -0.26882406302927953 0 0.029423457115755142 -0.28693026196474231 0 0.0312456655663985 -0.26777045658793253 0 0.014545020629298321 -0.26882406302927953 0 -0.001975110980140441 -0.26735231920009622 0 0.0079062469165253179 -0.28474643039931202 0 0.014545020629298321 -0.26882406302927953 0 -0.001975110980140441 -0.26735231920009622 0 0.014545020629298321 -0.26882406302927953 0 0.0079303787399561763 -0.25379670841653718 0 0.022311266661742039 -0.25446467940386802 0 0.014545020629298321 -0.26882406302927953 0 0.0079303787399561763 -0.25379670841653718 0 -0.001975110980140441 -0.26735231920009622 0 -0.0044629633579056169 -0.25454707667659571 0 0.0079303787399561763 -0.25379670841653718 0 -0.0044629633579056169 -0.25454707667659571 0 0.0079303787399561763 -0.25379670841653718 0 6.2197829892665819e-05 -0.2422266038095009 0 0.0079303787399561763 -0.25379670841653718 0 6.2197829892665819e-05 -0.2422266038095009 0 0.017101861656850081 -0.23536550837988321 0 0.017101861656850081 -0.23536550837988321 0 0.0026762030637954449 -0.21701154381081639 0 0.018654476496595001 -0.2129516116346708 0 6.2197829892665819e-05 -0.2422266038095009 0 0.017101861656850081 -0.23536550837988321 0 0.0026762030637954449 -0.21701154381081639 0 6.2197829892665819e-05 -0.2422266038095009 0 0.0026762030637954449 -0.21701154381081639 0 0.017101861656850081 -0.23536550837988321 0 0.018654476496595001 -0.2129516116346708 0 0.035308049663251663 -0.22161208295741511 0 0.017101861656850081 -0.23536550837988321 0 0.033947841760953203 -0.2400170942415506 0 0.035308049663251663 -0.22161208295741511 0 0.022311266661742039 -0.25446467940386802 0 0.0079303787399561763 -0.25379670841653718 0 0.017101861656850081 -0.23536550837988321 0 0.022311266661742039 -0.25446467940386802 0 0.017101861656850081 -0.23536550837988321 0 0.033947841760953203 -0.2400170942415506 0 0.0052902082976982352 -0.1917964838121318 0 0.0026762030637954449 -0.21701154381081639 0 0.018654476496595001 -0.2129516116346708 0 0.0052902082976982352 -0.1917964838121318 0 0.0026762030637954449 -0.21701154381081639 0 0.018654476496595001 -0.2129516116346708 0 0.032896059801379572 -0.1989724392131075 0 0.035308049663251663 -0.22161208295741511 0 0.0052902082976982352 -0.1917964838121318 0 0.018654476496595001 -0.2129516116346708 0 0.032896059801379572 -0.1989724392131075 0 0.0052902082976982352 -0.1917964838121318 0 0.032896059801379572 -0.1989724392131075 0 0.030453275709120192 -0.17176167679252541 0 0.032896059801379572 -0.1989724392131075 0 0.051233126249270428 -0.20904286983272749 0 0.049783100831984117 -0.1852502311251544 0 0.032896059801379572 -0.1989724392131075 0 0.051233126249270428 -0.20904286983272749 0 0.035308049663251663 -0.22161208295741511 0 0.051233126249270428 -0.20904286983272749 0 0.068156793264113238 -0.19353713060949981 0 0.049783100831984117 -0.1852502311251544 0 0.043802307417869633 -0.25386877301588789 0 0.022311266661742039 -0.25446467940386802 0 0.033947841760953203 -0.2400170942415506 0 0.043802307417869633 -0.25386877301588789 0 0.033947841760953203 -0.2400170942415506 0 0.0512157234050526 -0.23477442745069901 0 0.051233126249270428 -0.20904286983272749 0 0.035308049663251663 -0.22161208295741511 0 0.0512157234050526 -0.23477442745069901 0 0.033947841760953203 -0.2400170942415506 0 0.035308049663251663 -0.22161208295741511 0 0.0512157234050526 -0.23477442745069901 0 0.051233126249270428 -0.20904286983272749 0 0.0512157234050526 -0.23477442745069901 0 0.070166645181043208 -0.22081729575135231 0 0.043802307417869633 -0.25386877301588789 0 0.0512157234050526 -0.23477442745069901 0 0.068430023274385188 -0.24587490713270199 0 0.068430023274385188 -0.24587490713270199 0 0.090017273971336881 -0.23787465263478441 0 0.070166645181043208 -0.22081729575135231 0 0.085239455663753627 -0.25973426476352129 0 0.068430023274385188 -0.24587490713270199 0 0.090017273971336881 -0.23787465263478441 0 0.090017273971336881 -0.23787465263478441 0 0.070166645181043208 -0.22081729575135231 0 0.087491319794774869 -0.2068629917412691 0 0.0512157234050526 -0.23477442745069901 0 0.068430023274385188 -0.24587490713270199 0 0.070166645181043208 -0.22081729575135231 0 0.070166645181043208 -0.22081729575135231 0 0.068156793264113238 -0.19353713060949981 0 0.087491319794774869 -0.2068629917412691 0 0.051233126249270428 -0.20904286983272749 0 0.070166645181043208 -0.22081729575135231 0 0.068156793264113238 -0.19353713060949981 0 0.087491319794774869 -0.2068629917412691 0 0.1048351655912359 -0.19371929633495649 0 0.085446644888112155 -0.17730441156812771 0 0.068156793264113238 -0.19353713060949981 0 0.087491319794774869 -0.2068629917412691 0 0.085446644888112155 -0.17730441156812771 0 0.087491319794774869 -0.2068629917412691 0 0.1048351655912359 -0.19371929633495649 0 0.1073674148293597 -0.21893056199493391 0 0.1048351655912359 -0.19371929633495649 0 0.12465355115098339 -0.20394429213124121 0 0.1210925469152232 -0.18580577048143371 0 0.1048351655912359 -0.19371929633495649 0 0.12465355115098339 -0.20394429213124121 0 0.1073674148293597 -0.21893056199493391 0 0.12465355115098339 -0.20394429213124121 0 0.1073674148293597 -0.21893056199493391 0 0.1305706183928548 -0.22698419896907299 0 0.1124670231330064 -0.24061915363331321 0 0.1073674148293597 -0.21893056199493391 0 0.1305706183928548 -0.22698419896907299 0 0.1124670231330064 -0.24061915363331321 0 0.1305706183928548 -0.22698419896907299 0 0.1274254079633414 -0.24851100436517171 0 0.1181011790521542 -0.25655031845726511 0 0.1124670231330064 -0.24061915363331321 0 0.1274254079633414 -0.24851100436517171 0 0.10235902731692589 -0.25601715118976193 0 0.090017273971336881 -0.23787465263478441 0 0.1124670231330064 -0.24061915363331321 0 0.090017273971336881 -0.23787465263478441 0 0.087491319794774869 -0.2068629917412691 0 0.1073674148293597 -0.21893056199493391 0 0.090017273971336881 -0.23787465263478441 0 0.1124670231330064 -0.24061915363331321 0 0.1073674148293597 -0.21893056199493391 0 0.1119158563160504 -0.14863604938498301 0 0.093967395173102417 -0.15649974229147631 0 0.092993698626431698 -0.13357021100619421 0 0.1119158563160504 -0.14863604938498301 0 0.092993698626431698 -0.13357021100619421 0 0.11440211702492629 -0.12475039288924331 0 0.1119158563160504 -0.14863604938498301 0 0.11440211702492629 -0.12475039288924331 0 0.13573998057005429 -0.14556307136055549 0 0.1119158563160504 -0.14863604938498301 0 0.1051540863018023 -0.1701853748971571 0 0.12865091801120579 -0.16855641899896151 0 0.1210925469152232 -0.18580577048143371 0 0.1051540863018023 -0.1701853748971571 0 0.12865091801120579 -0.16855641899896151 0 0.1048351655912359 -0.19371929633495649 0 0.1210925469152232 -0.18580577048143371 0 0.1051540863018023 -0.1701853748971571 0 0.1048351655912359 -0.19371929633495649 0 0.1051540863018023 -0.1701853748971571 0 0.085446644888112155 -0.17730441156812771 0 0.1051540863018023 -0.1701853748971571 0 0.093967395173102417 -0.15649974229147631 0 0.085446644888112155 -0.17730441156812771 0 0.1119158563160504 -0.14863604938498301 0 0.1051540863018023 -0.1701853748971571 0 0.093967395173102417 -0.15649974229147631 0 0.093967395173102417 -0.15649974229147631 0 0.085446644888112155 -0.17730441156812771 0 0.0743266897331155 -0.15280266460091929 0 0.068156793264113238 -0.19353713060949981 0 0.085446644888112155 -0.17730441156812771 0 0.066995701396623419 -0.17398861837333929 0 0.066995701396623419 -0.17398861837333929 0 0.0743266897331155 -0.15280266460091929 0 0.052015599520706203 -0.162529283568313 0 0.085446644888112155 -0.17730441156812771 0 0.066995701396623419 -0.17398861837333929 0 0.0743266897331155 -0.15280266460091929 0 0.0743266897331155 -0.15280266460091929 0 0.092993698626431698 -0.13357021100619421 0 0.073756762303460094 -0.1213348285033664 0 0.0743266897331155 -0.15280266460091929 0 0.054275569201127791 -0.1398596093187979 0 0.073756762303460094 -0.1213348285033664 0 0.093967395173102417 -0.15649974229147631 0 0.0743266897331155 -0.15280266460091929 0 0.092993698626431698 -0.13357021100619421 0 0.054275569201127791 -0.1398596093187979 0 0.054778552248553727 -0.1186024412504451 0 0.073756762303460094 -0.1213348285033664 0 0.0743266897331155 -0.15280266460091929 0 0.054275569201127791 -0.1398596093187979 0 0.052015599520706203 -0.162529283568313 0 0.054275569201127791 -0.1398596093187979 0 0.036259260252266147 -0.15151290119914149 0 0.052015599520706203 -0.162529283568313 0 0.054275569201127791 -0.1398596093187979 0 0.036259260252266147 -0.15151290119914149 0 0.028277844665145279 -0.13004975209637989 0 0.054275569201127791 -0.1398596093187979 0 0.028277844665145279 -0.13004975209637989 0 0.054778552248553727 -0.1186024412504451 0 0.066995701396623419 -0.17398861837333929 0 0.049783100831984117 -0.1852502311251544 0 0.052015599520706203 -0.162529283568313 0 0.068156793264113238 -0.19353713060949981 0 0.066995701396623419 -0.17398861837333929 0 0.049783100831984117 -0.1852502311251544 0 0.036259260252266147 -0.15151290119914149 0 0.052015599520706203 -0.162529283568313 0 0.030453275709120192 -0.17176167679252541 0 0.032896059801379572 -0.1989724392131075 0 0.049783100831984117 -0.1852502311251544 0 0.030453275709120192 -0.17176167679252541 0 0.049783100831984117 -0.1852502311251544 0 0.052015599520706203 -0.162529283568313 0 0.030453275709120192 -0.17176167679252541 0 0.036259260252266147 -0.15151290119914149 0 0.030453275709120192 -0.17176167679252541 0 0.020832570427212059 -0.1507608894014012 0 0.030453275709120192 -0.17176167679252541 0 0.00790421353160101 -0.16658142381344729 0 0.020832570427212059 -0.1507608894014012 0 0.0052902082976982352 -0.1917964838121318 0 0.030453275709120192 -0.17176167679252541 0 0.00790421353160101 -0.16658142381344729 0 0.0052902082976982352 -0.1917964838121318 0 0.00790421353160101 -0.16658142381344729 0 0.00790421353160101 -0.16658142381344729 0 0.020832570427212059 -0.1507608894014012 0 0.001268257977927676 -0.13389869310551211 0 0.028277844665145279 -0.13004975209637989 0 0.020832570427212059 -0.1507608894014012 0 0.001268257977927676 -0.13389869310551211 0 0.036259260252266147 -0.15151290119914149 0 0.028277844665145279 -0.13004975209637989 0 0.020832570427212059 -0.1507608894014012 0 0.028277844665145279 -0.13004975209637989 0 0.001268257977927676 -0.13389869310551211 0 0.0140204212057463 -0.1058515207086964 0 -0.008925905503112487 -0.1122397962034857 0 0.001268257977927676 -0.13389869310551211 0 0.0140204212057463 -0.1058515207086964 0 0.028277844665145279 -0.13004975209637989 0 0.0140204212057463 -0.1058515207086964 0 0.035872778583828577 -0.10952422832706719 0 0.0140204212057463 -0.1058515207086964 0 0.033292310284454681 -0.088097860245438545 0 0.035872778583828577 -0.10952422832706719 0 -0.0092379116821658322 -0.091803344529635594 0 0.0140204212057463 -0.1058515207086964 0 0.011616949138340721 -0.077696251041571865 0 -0.00072492440534363545 -0.059318808416363632 0 0.011616949138340721 -0.077696251041571865 0 0.019225371405487902 -0.060063281034159921 0 0.011616949138340721 -0.077696251041571865 0 0.033292310284454681 -0.088097860245438545 0 0.036733328200673022 -0.066396107287348169 0 0.011616949138340721 -0.077696251041571865 0 0.036733328200673022 -0.066396107287348169 0 0.019225371405487902 -0.060063281034159921 0 0.0140204212057463 -0.1058515207086964 0 0.011616949138340721 -0.077696251041571865 0 0.033292310284454681 -0.088097860245438545 0 0.033292310284454681 -0.088097860245438545 0 0.055319908294058293 -0.079253874255837825 0 0.048862201421726439 -0.09824201120134482 0 0.033292310284454681 -0.088097860245438545 0 0.036733328200673022 -0.066396107287348169 0 0.055319908294058293 -0.079253874255837825 0 0.036733328200673022 -0.066396107287348169 0 0.055319908294058293 -0.079253874255837825 0 0.060804261656054223 -0.05912177805826923 0 0.055319908294058293 -0.079253874255837825 0 0.048862201421726439 -0.09824201120134482 0 0.067634837784094556 -0.097055750595735318 0 0.048862201421726439 -0.09824201120134482 0 0.054778552248553727 -0.1186024412504451 0 0.067634837784094556 -0.097055750595735318 0 0.028277844665145279 -0.13004975209637989 0 0.054778552248553727 -0.1186024412504451 0 0.035872778583828577 -0.10952422832706719 0 0.033292310284454681 -0.088097860245438545 0 0.048862201421726439 -0.09824201120134482 0 0.035872778583828577 -0.10952422832706719 0 0.048862201421726439 -0.09824201120134482 0 0.054778552248553727 -0.1186024412504451 0 0.035872778583828577 -0.10952422832706719 0 0.029440534663894281 0.003355695563749192 0 0.017097560157952951 0.0020439016824410359 0 0.01927095567255831 -0.02172387160641066 0 0.033320654793328387 0.0046914473786248646 0 0.01927095567255831 -0.02172387160641066 0 0.025478669294971289 -0.0200298426756759 0 0.033320654793328387 0.0046914473786248646 0 0.01927095567255831 -0.02172387160641066 0 0.029440534663894281 0.003355695563749192 0 0.033320654793328387 0.0046914473786248646 0 0.01927095567255831 -0.02172387160641066 0 -0.0001507084278736439 -0.013177645526827811 0 0.0072202839323864511 -0.003482535584523713 0 0.01927095567255831 -0.02172387160641066 0 0.017097560157952951 0.0020439016824410359 0 0.0072202839323864511 -0.003482535584523713 0 0.01927095567255831 -0.02172387160641066 0 -0.0001507084278736439 -0.013177645526827811 0 -0.0062998144708789772 -0.0011194360634266729 0 0.0072202839323864511 -0.003482535584523713 0 -0.0001507084278736439 -0.013177645526827811 0 0.0012563597388827331 -0.026639891987410302 0 0.01927095567255831 -0.02172387160641066 0 0.0012563597388827331 -0.026639891987410302 0 0.01927095567255831 -0.02172387160641066 0 0.0012563597388827331 -0.026639891987410302 0 0.01927095567255831 -0.02172387160641066 0 0.01196245957636697 -0.035464824634816421 0 0.0012563597388827331 -0.026639891987410302 0 0.01196245957636697 -0.035464824634816421 0 0.01927095567255831 -0.02172387160641066 0 0.01196245957636697 -0.035464824634816421 0 0.01927095567255831 -0.02172387160641066 0 0.0200681953721604 -0.035386013094411153 0 0.01196245957636697 -0.035464824634816421 0 0.01927095567255831 -0.02172387160641066 0 0.025145602647562978 -0.028181244428488749 0 0.0200681953721604 -0.035386013094411153 0 0.01927095567255831 -0.02172387160641066 0 0.025478669294971289 -0.0200298426756759 0 0.025145602647562978 -0.028181244428488749 0 0.01927095567255831 -0.02172387160641066 0 0.025478669294971289 -0.0200298426756759 0 0.025478669294971289 -0.0200298426756759 0 0.025145602647562978 -0.028181244428488749 0 0.033533684282577643 -0.02733924021995689 0 0.025145602647562978 -0.028181244428488749 0 0.027743197300268901 -0.038360848939894603 0 0.033533684282577643 -0.02733924021995689 0 0.025145602647562978 -0.028181244428488749 0 0.027743197300268901 -0.038360848939894603 0 0.0200681953721604 -0.035386013094411153 0 0.027743197300268901 -0.038360848939894603 0 0.01932360903294783 -0.046815910093651263 0 0.030999631754325161 -0.05001272169903119 0 0.027743197300268901 -0.038360848939894603 0 0.01932360903294783 -0.046815910093651263 0 0.0200681953721604 -0.035386013094411153 0 0.01932360903294783 -0.046815910093651263 0 0.0200681953721604 -0.035386013094411153 0 0.0092730156336068657 -0.040521340011386922 0 0.01196245957636697 -0.035464824634816421 0 0.002821630474760614 -0.03678418574817708 0 0.0092730156336068657 -0.040521340011386922 0 0.0200681953721604 -0.035386013094411153 0 0.01196245957636697 -0.035464824634816421 0 0.0092730156336068657 -0.040521340011386922 0 0.01196245957636697 -0.035464824634816421 0 0.0092730156336068657 -0.040521340011386922 0 0.0012563597388827331 -0.026639891987410302 0 0.01196245957636697 -0.035464824634816421 0 0.002821630474760614 -0.03678418574817708 0 -0.000126683113691724 -0.043594032714851912 0 0.002821630474760614 -0.03678418574817708 0 0.0092730156336068657 -0.040521340011386922 0 -0.00072492440534363545 -0.059318808416363632 0 0.0092730156336068657 -0.040521340011386922 0 -0.000126683113691724 -0.043594032714851912 0 -0.00072492440534363545 -0.059318808416363632 0 0.0092730156336068657 -0.040521340011386922 0 -0.00072492440534363545 -0.059318808416363632 0 0.01932360903294783 -0.046815910093651263 0 0.019225371405487902 -0.060063281034159921 0 -0.00072492440534363545 -0.059318808416363632 0 0.01932360903294783 -0.046815910093651263 0 0.0092730156336068657 -0.040521340011386922 0 0.036733328200673022 -0.066396107287348169 0 0.019225371405487902 -0.060063281034159921 0 0.030999631754325161 -0.05001272169903119 0 0.01932360903294783 -0.046815910093651263 0 0.019225371405487902 -0.060063281034159921 0 0.030999631754325161 -0.05001272169903119 0 0.036733328200673022 -0.066396107287348169 0 0.030999631754325161 -0.05001272169903119 0 0.045874864871990238 -0.050526984677128621 0 0.036733328200673022 -0.066396107287348169 0 0.045874864871990238 -0.050526984677128621 0 0.060804261656054223 -0.05912177805826923 0 0.045874864871990238 -0.050526984677128621 0 0.060804261656054223 -0.05912177805826923 0 0.0582053460971809 -0.036151101825617593 0 0.0582053460971809 -0.036151101825617593 0 0.039818110949311591 -0.038199104070896578 0 0.044639633408670713 -0.025911400198807551 0 0.045874864871990238 -0.050526984677128621 0 0.0582053460971809 -0.036151101825617593 0 0.039818110949311591 -0.038199104070896578 0 0.027743197300268901 -0.038360848939894603 0 0.030999631754325161 -0.05001272169903119 0 0.039818110949311591 -0.038199104070896578 0 0.030999631754325161 -0.05001272169903119 0 0.045874864871990238 -0.050526984677128621 0 0.039818110949311591 -0.038199104070896578 0 0.027743197300268901 -0.038360848939894603 0 0.039818110949311591 -0.038199104070896578 0 0.033533684282577643 -0.02733924021995689 0 0.044639633408670713 -0.025911400198807551 0 0.054430704808202522 -0.01345382821855777 0 0.038376892094680377 -0.01335300100597799 0 0.033533684282577643 -0.02733924021995689 0 0.044639633408670713 -0.025911400198807551 0 0.038376892094680377 -0.01335300100597799 0 0.025478669294971289 -0.0200298426756759 0 0.033533684282577643 -0.02733924021995689 0 0.038376892094680377 -0.01335300100597799 0 0.039818110949311591 -0.038199104070896578 0 0.033533684282577643 -0.02733924021995689 0 0.044639633408670713 -0.025911400198807551 0 0.0582053460971809 -0.036151101825617593 0 0.044639633408670713 -0.025911400198807551 0 0.054430704808202522 -0.01345382821855777 0 0.033320654793328387 0.0046914473786248646 0 0.051456053587625457 0.004733855252944898 0 0.054430704808202522 -0.01345382821855777 0 0.033320654793328387 0.0046914473786248646 0 0.054430704808202522 -0.01345382821855777 0 0.038376892094680377 -0.01335300100597799 0 0.033320654793328387 0.0046914473786248646 0 0.025478669294971289 -0.0200298426756759 0 0.038376892094680377 -0.01335300100597799 0 0.033320654793328387 0.0046914473786248646 0 0.054430704808202522 -0.01345382821855777 0 0.08980101791556161 0.01097276176193961 0 0.079827496457483021 -0.016710136154686701 0 0.10248843921198959 -0.0078987851869627076 0 0.068387578145501352 0.011231390478092001 0 0.054430704808202522 -0.01345382821855777 0 0.079827496457483021 -0.016710136154686701 0 0.0582053460971809 -0.036151101825617593 0 0.054430704808202522 -0.01345382821855777 0 0.079827496457483021 -0.016710136154686701 0 0.079827496457483021 -0.016710136154686701 0 0.082452814503590308 -0.045467151481023128 0 0.1042826291010871 -0.030811306176557831 0 0.0582053460971809 -0.036151101825617593 0 0.079827496457483021 -0.016710136154686701 0 0.082452814503590308 -0.045467151481023128 0 0.060804261656054223 -0.05912177805826923 0 0.0582053460971809 -0.036151101825617593 0 0.082452814503590308 -0.045467151481023128 0 0.060804261656054223 -0.05912177805826923 0 0.082452814503590308 -0.045467151481023128 0 0.084628964239820192 -0.073003293912413808 0 0.082452814503590308 -0.045467151481023128 0 0.1020110139364532 -0.05105893389464379 0 0.084628964239820192 -0.073003293912413808 0 0.1020110139364532 -0.05105893389464379 0 0.12656029384091741 -0.035905767918879422 0 0.13022995075040741 -0.056372817451533469 0 0.1020110139364532 -0.05105893389464379 0 0.1103409422371275 -0.069470793300464004 0 0.13022995075040741 -0.056372817451533469 0 0.1020110139364532 -0.05105893389464379 0 0.1042826291010871 -0.030811306176557831 0 0.12656029384091741 -0.035905767918879422 0 0.082452814503590308 -0.045467151481023128 0 0.1020110139364532 -0.05105893389464379 0 0.1042826291010871 -0.030811306176557831 0 0.079827496457483021 -0.016710136154686701 0 0.1042826291010871 -0.030811306176557831 0 0.10248843921198959 -0.0078987851869627076 0 0.1042826291010871 -0.030811306176557831 0 0.1308800845427629 -0.013455206809876949 0 0.12656029384091741 -0.035905767918879422 0 0.1042826291010871 -0.030811306176557831 0 0.10248843921198959 -0.0078987851869627076 0 0.1308800845427629 -0.013455206809876949 0 0.12686517573668521 0.0089551704877156024 0 0.10248843921198959 -0.0078987851869627076 0 0.1308800845427629 -0.013455206809876949 0 0.092993698626431698 -0.13357021100619421 0 0.08858878120249486 -0.10360165338960529 0 0.073756762303460094 -0.1213348285033664 0 0.054778552248553727 -0.1186024412504451 0 0.073756762303460094 -0.1213348285033664 0 0.067634837784094556 -0.097055750595735318 0 0.08858878120249486 -0.10360165338960529 0 0.073756762303460094 -0.1213348285033664 0 0.067634837784094556 -0.097055750595735318 0 0.055319908294058293 -0.079253874255837825 0 0.067634837784094556 -0.097055750595735318 0 0.084628964239820192 -0.073003293912413808 0 0.055319908294058293 -0.079253874255837825 0 0.060804261656054223 -0.05912177805826923 0 0.084628964239820192 -0.073003293912413808 0 0.08858878120249486 -0.10360165338960529 0 0.084628964239820192 -0.073003293912413808 0 0.103181310157826 -0.086918990261008078 0 0.08858878120249486 -0.10360165338960529 0 0.067634837784094556 -0.097055750595735318 0 0.084628964239820192 -0.073003293912413808 0 0.084628964239820192 -0.073003293912413808 0 0.103181310157826 -0.086918990261008078 0 0.1103409422371275 -0.069470793300464004 0 0.1020110139364532 -0.05105893389464379 0 0.084628964239820192 -0.073003293912413808 0 0.1103409422371275 -0.069470793300464004 0 0.1103409422371275 -0.069470793300464004 0 0.12804404171127159 -0.078388497307976909 0 0.13022995075040741 -0.056372817451533469 0 0.103181310157826 -0.086918990261008078 0 0.1202584082020689 -0.1019671239544547 0 0.12804404171127159 -0.078388497307976909 0 0.103181310157826 -0.086918990261008078 0 0.1103409422371275 -0.069470793300464004 0 0.12804404171127159 -0.078388497307976909 0 0.08858878120249486 -0.10360165338960529 0 0.103181310157826 -0.086918990261008078 0 0.1202584082020689 -0.1019671239544547 0 0.08858878120249486 -0.10360165338960529 0 0.1202584082020689 -0.1019671239544547 0 0.11440211702492629 -0.12475039288924331 0 0.092993698626431698 -0.13357021100619421 0 0.08858878120249486 -0.10360165338960529 0 0.11440211702492629 -0.12475039288924331 0 0.1202584082020689 -0.1019671239544547 0 0.1427879190356427 -0.1214226710195818 0 0.15170302065589869 -0.092014839871687418 0 0.1202584082020689 -0.1019671239544547 0 0.1427879190356427 -0.1214226710195818 0 0.1202584082020689 -0.1019671239544547 0 0.11440211702492629 -0.12475039288924331 0 0.1427879190356427 -0.1214226710195818 0 0.1427879190356427 -0.1214226710195818 0 0.15170302065589869 -0.092014839871687418 0 0.1697600396589127 -0.115524854049215 0 0.1202584082020689 -0.1019671239544547 0 0.12804404171127159 -0.078388497307976909 0 0.15170302065589869 -0.092014839871687418 0 0.12804404171127159 -0.078388497307976909 0 0.1525506182643013 -0.06358641900871391 0 0.13022995075040741 -0.056372817451533469 0 0.12804404171127159 -0.078388497307976909 0 0.1525506182643013 -0.06358641900871391 0 0.15170302065589869 -0.092014839871687418 0 0.15170302065589869 -0.092014839871687418 0 0.1709234121111243 -0.070678553323034202 0 0.17773803436875979 -0.092690852906121349 0 0.1525506182643013 -0.06358641900871391 0 0.15170302065589869 -0.092014839871687418 0 0.1709234121111243 -0.070678553323034202 0 0.1709234121111243 -0.070678553323034202 0 0.1866899174931968 -0.075417783268383137 0 0.1878514975761181 -0.05780637297552782 0 0.1709234121111243 -0.070678553323034202 0 0.1866899174931968 -0.075417783268383137 0 0.17773803436875979 -0.092690852906121349 0 0.17773803436875979 -0.092690852906121349 0 0.1697600396589127 -0.115524854049215 0 0.19071243494462109 -0.109604160818289 0 0.1697600396589127 -0.115524854049215 0 0.19071243494462109 -0.109604160818289 0 0.19053684722079511 -0.1338024038843863 0 0.15170302065589869 -0.092014839871687418 0 0.17773803436875979 -0.092690852906121349 0 0.1697600396589127 -0.115524854049215 0 0.15021269728153511 0.0057338921009076217 0 0.1308800845427629 -0.013455206809876949 0 0.15987371179171711 -0.01404964302002708 0 0.15021269728153511 0.0057338921009076217 0 0.15987371179171711 -0.01404964302002708 0 0.1308800845427629 -0.013455206809876949 0 0.1464716118817993 -0.034205001867355742 0 0.12656029384091741 -0.035905767918879422 0 0.1308800845427629 -0.013455206809876949 0 0.1464716118817993 -0.034205001867355742 0 0.15987371179171711 -0.01404964302002708 0 0.1525506182643013 -0.06358641900871391 0 0.1464716118817993 -0.034205001867355742 0 0.1690073843084712 -0.042555051907771563 0 0.1464716118817993 -0.034205001867355742 0 0.12656029384091741 -0.035905767918879422 0 0.13022995075040741 -0.056372817451533469 0 0.1525506182643013 -0.06358641900871391 0 0.1464716118817993 -0.034205001867355742 0 0.13022995075040741 -0.056372817451533469 0 0.1525506182643013 -0.06358641900871391 0 0.1709234121111243 -0.070678553323034202 0 0.1690073843084712 -0.042555051907771563 0 0.1709234121111243 -0.070678553323034202 0 0.1690073843084712 -0.042555051907771563 0 0.1878514975761181 -0.05780637297552782 0 0.1690073843084712 -0.042555051907771563 0 0.19250947816674671 -0.035580150705769767 0 0.1878514975761181 -0.05780637297552782 0 0.1690073843084712 -0.042555051907771563 0 0.17803985341297729 -0.023218735566391629 0 0.19250947816674671 -0.035580150705769767 0 0.1464716118817993 -0.034205001867355742 0 0.1690073843084712 -0.042555051907771563 0 0.15987371179171711 -0.01404964302002708 0 0.1690073843084712 -0.042555051907771563 0 0.17803985341297729 -0.023218735566391629 0 0.15987371179171711 -0.01404964302002708 0 0.18570202397036051 0.0033003287221531879 0 0.17720698060737419 -0.008347477980622426 0 0.1939096063337189 -0.01085504395749633 0 0.17803985341297729 -0.023218735566391629 0 0.17720698060737419 -0.008347477980622426 0 0.1939096063337189 -0.01085504395749633 0 0.18570202397036051 0.0033003287221531879 0 0.1685097075280971 0.0030857039186497101 0 0.17720698060737419 -0.008347477980622426 0 0.17803985341297729 -0.023218735566391629 0 0.17720698060737419 -0.008347477980622426 0 0.15987371179171711 -0.01404964302002708 0 0.1685097075280971 0.0030857039186497101 0 0.17720698060737419 -0.008347477980622426 0 0.15987371179171711 -0.01404964302002708 0 0.1685097075280971 0.0030857039186497101 0 0.15021269728153511 0.0057338921009076217 0 0.15987371179171711 -0.01404964302002708 0 0.20822512844212371 0.0002203289629913695 0 0.1939096063337189 -0.01085504395749633 0 0.21482746886949919 -0.018272780192836589 0 0.20822512844212371 0.0002203289629913695 0 0.21482746886949919 -0.018272780192836589 0 0.2216047672690743 -0.00038218306159509922 0 0.20822512844212371 0.0002203289629913695 0 0.19921916991950231 0.0066032338418749864 0 0.1939096063337189 -0.01085504395749633 0 0.19921916991950231 0.0066032338418749864 0 0.18570202397036051 0.0033003287221531879 0 0.1939096063337189 -0.01085504395749633 0 0.1939096063337189 -0.01085504395749633 0 0.21482746886949919 -0.018272780192836589 0 0.19250947816674671 -0.035580150705769767 0 0.17803985341297729 -0.023218735566391629 0 0.1939096063337189 -0.01085504395749633 0 0.19250947816674671 -0.035580150705769767 0 0.21482746886949919 -0.018272780192836589 0 0.19250947816674671 -0.035580150705769767 0 0.22006121065972689 -0.038494922804477569 0 0.19250947816674671 -0.035580150705769767 0 0.20466264678206619 -0.052376002177797788 0 0.22006121065972689 -0.038494922804477569 0 0.19250947816674671 -0.035580150705769767 0 0.1878514975761181 -0.05780637297552782 0 0.20466264678206619 -0.052376002177797788 0 0.1878514975761181 -0.05780637297552782 0 0.20466264678206619 -0.052376002177797788 0 0.20405587994949839 -0.069754379108490833 0 0.20466264678206619 -0.052376002177797788 0 0.22002083219319599 -0.058011235718805537 0 0.22006121065972689 -0.038494922804477569 0 0.20466264678206619 -0.052376002177797788 0 0.22002083219319599 -0.058011235718805537 0 0.20405587994949839 -0.069754379108490833 0 0.22002083219319599 -0.058011235718805537 0 0.24163829920233831 -0.052397508783544072 0 0.22006121065972689 -0.038494922804477569 0 0.22002083219319599 -0.058011235718805537 0 0.24163829920233831 -0.052397508783544072 0 0.2296861243723502 -0.077033365719717403 0 0.25647444479392889 -0.029207765780008031 0 0.24163829920233831 -0.052397508783544072 0 0.23616755117591939 -0.029722547136877751 0 0.24163829920233831 -0.052397508783544072 0 0.22006121065972689 -0.038494922804477569 0 0.23616755117591939 -0.029722547136877751 0 0.21482746886949919 -0.018272780192836589 0 0.23616755117591939 -0.029722547136877751 0 0.2309970281509596 -0.011969624911633951 0 0.21482746886949919 -0.018272780192836589 0 0.22006121065972689 -0.038494922804477569 0 0.23616755117591939 -0.029722547136877751 0 0.25647444479392889 -0.029207765780008031 0 0.23616755117591939 -0.029722547136877751 0 0.24759340468958241 -0.008806463094161018 0 0.23616755117591939 -0.029722547136877751 0 0.24759340468958241 -0.008806463094161018 0 0.2309970281509596 -0.011969624911633951 0 0.23605465630549249 0.0014166204133651461 0 0.24759340468958241 -0.008806463094161018 0 0.2309970281509596 -0.011969624911633951 0 0.21482746886949919 -0.018272780192836589 0 0.2309970281509596 -0.011969624911633951 0 0.2216047672690743 -0.00038218306159509922 0 0.23605465630549249 0.0014166204133651461 0 0.2309970281509596 -0.011969624911633951 0 0.2216047672690743 -0.00038218306159509922 0 0.20961154554028941 -0.1169392631752276 0 0.20350645944273091 -0.093221134445021059 0 0.22393648412078551 -0.0994194882027125 0 0.20961154554028941 -0.1169392631752276 0 0.19071243494462109 -0.109604160818289 0 0.19053684722079511 -0.1338024038843863 0 0.20961154554028941 -0.1169392631752276 0 0.19071243494462109 -0.109604160818289 0 0.20350645944273091 -0.093221134445021059 0 0.17773803436875979 -0.092690852906121349 0 0.19071243494462109 -0.109604160818289 0 0.20350645944273091 -0.093221134445021059 0 0.1866899174931968 -0.075417783268383137 0 0.20405587994949839 -0.069754379108490833 0 0.20350645944273091 -0.093221134445021059 0 0.1866899174931968 -0.075417783268383137 0 0.17773803436875979 -0.092690852906121349 0 0.20350645944273091 -0.093221134445021059 0 0.1866899174931968 -0.075417783268383137 0 0.1878514975761181 -0.05780637297552782 0 0.20405587994949839 -0.069754379108490833 0 0.22002083219319599 -0.058011235718805537 0 0.20405587994949839 -0.069754379108490833 0 0.2296861243723502 -0.077033365719717403 0 0.20405587994949839 -0.069754379108490833 0 0.20350645944273091 -0.093221134445021059 0 0.2296861243723502 -0.077033365719717403 0 0.20350645944273091 -0.093221134445021059 0 0.2296861243723502 -0.077033365719717403 0 0.22393648412078551 -0.0994194882027125 0 0.2296861243723502 -0.077033365719717403 0 0.24087005257016719 -0.095822805459919502 0 0.22393648412078551 -0.0994194882027125 0 0.24163829920233831 -0.052397508783544072 0 0.2296861243723502 -0.077033365719717403 0 0.24948334623598961 -0.068992067819948766 0 0.25123937454177309 -0.081869322144254728 0 0.2296861243723502 -0.077033365719717403 0 0.24948334623598961 -0.068992067819948766 0 0.25123937454177309 -0.081869322144254728 0 0.2296861243723502 -0.077033365719717403 0 0.24087005257016719 -0.095822805459919502 0 0.250728825519209 -0.10952628152772161 0 0.24087005257016719 -0.095822805459919502 0 0.23417397963458661 -0.120092012101676 0 0.24087005257016719 -0.095822805459919502 0 0.22393648412078551 -0.0994194882027125 0 0.23417397963458661 -0.120092012101676 0 0.20961154554028941 -0.1169392631752276 0 0.22393648412078551 -0.0994194882027125 0 0.23417397963458661 -0.120092012101676 0 0.250728825519209 -0.10952628152772161 0 0.25121007103462362 -0.1249300637175189 0 0.23417397963458661 -0.120092012101676 0 0.25121007103462362 -0.1249300637175189 0 0.23417397963458661 -0.120092012101676 0 0.2411426959026125 -0.14476679086252331 0 0.25598110841636712 -0.15185599457751739 0 0.2411426959026125 -0.14476679086252331 0 0.24789827463338179 -0.16179654705755231 0 0.2411426959026125 -0.14476679086252331 0 0.21480306787821729 -0.14549637959928091 0 0.22736643691511799 -0.17210385478099549 0 0.20961154554028941 -0.1169392631752276 0 0.23417397963458661 -0.120092012101676 0 0.21480306787821729 -0.14549637959928091 0 0.23417397963458661 -0.120092012101676 0 0.2411426959026125 -0.14476679086252331 0 0.21480306787821729 -0.14549637959928091 0 0.20961154554028941 -0.1169392631752276 0 0.21480306787821729 -0.14549637959928091 0 0.19053684722079511 -0.1338024038843863 0 0.21480306787821729 -0.14549637959928091 0 0.19053684722079511 -0.1338024038843863 0 0.1878469407027902 -0.16033376514983619 0 0.2066526713472672 -0.16942203871261369 0 0.20697169988165379 -0.19225065903833569 0 0.17970588229811171 -0.1808477599830107 0 0.21480306787821729 -0.14549637959928091 0 0.1878469407027902 -0.16033376514983619 0 0.2066526713472672 -0.16942203871261369 0 0.1878469407027902 -0.16033376514983619 0 0.2066526713472672 -0.16942203871261369 0 0.17970588229811171 -0.1808477599830107 0 0.21480306787821729 -0.14549637959928091 0 0.2066526713472672 -0.16942203871261369 0 0.22736643691511799 -0.17210385478099549 0 0.2066526713472672 -0.16942203871261369 0 0.22736643691511799 -0.17210385478099549 0 0.20697169988165379 -0.19225065903833569 0 0.22736643691511799 -0.17210385478099549 0 0.23548680161503679 -0.1934522506791605 0 0.20697169988165379 -0.19225065903833569 0 0.2411426959026125 -0.14476679086252331 0 0.22736643691511799 -0.17210385478099549 0 0.24789827463338179 -0.16179654705755231 0 0.2552377180248096 -0.17446587061074559 0 0.22736643691511799 -0.17210385478099549 0 0.24789827463338179 -0.16179654705755231 0 0.22736643691511799 -0.17210385478099549 0 0.24504845166777409 -0.1838975875625567 0 0.23548680161503679 -0.1934522506791605 0 0.2552377180248096 -0.17446587061074559 0 0.22736643691511799 -0.17210385478099549 0 0.24504845166777409 -0.1838975875625567 0 0.2552377180248096 -0.17446587061074559 0 0.22736643691511799 -0.17210385478099549 0 0.25211458657206992 -0.21248314628376849 0 0.25073010050419769 -0.19351177456775781 0 0.23548680161503679 -0.1934522506791605 0 0.25073010050419769 -0.19351177456775781 0 0.24504845166777409 -0.1838975875625567 0 0.23548680161503679 -0.1934522506791605 0 0.25211458657206992 -0.21248314628376849 0 0.23548680161503679 -0.1934522506791605 0 0.22780203412987729 -0.20666761325084401 0 0.25211458657206992 -0.21248314628376849 0 0.22780203412987729 -0.20666761325084401 0 0.23660272874062749 -0.2236038021687817 0 0.25211458657206992 -0.21248314628376849 0 0.22780203412987729 -0.20666761325084401 0 0.23548680161503679 -0.1934522506791605 0 0.22780203412987729 -0.20666761325084401 0 0.20697169988165379 -0.19225065903833569 0 0.24584166464846011 -0.24079157979837809 0 0.23660272874062749 -0.2236038021687817 0 0.2280783150807042 -0.24068071911682251 0 0.23978149326664969 -0.25632296488196948 0 0.24584166464846011 -0.24079157979837809 0 0.2280783150807042 -0.24068071911682251 0 0.2612691061633915 -0.25156510175457908 0 0.23978149326664969 -0.25632296488196948 0 0.24584166464846011 -0.24079157979837809 0 0.2634766799909275 -0.23178531106973749 0 0.24584166464846011 -0.24079157979837809 0 0.23660272874062749 -0.2236038021687817 0 0.23660272874062749 -0.2236038021687817 0 0.2280783150807042 -0.24068071911682251 0 0.2120034966792271 -0.23264175795154701 0 0.22780203412987729 -0.20666761325084401 0 0.23660272874062749 -0.2236038021687817 0 0.2120034966792271 -0.23264175795154701 0 0.21457602053644689 -0.26046752046997718 0 0.2280783150807042 -0.24068071911682251 0 0.2120034966792271 -0.23264175795154701 0 0.21457602053644689 -0.26046752046997718 0 0.2120034966792271 -0.23264175795154701 0 0.19364024959054679 -0.2463381411259771 0 0.2120034966792271 -0.23264175795154701 0 0.18816349726682419 -0.2283935083676959 0 0.20117548551091119 -0.2148695461800792 0 0.2120034966792271 -0.23264175795154701 0 0.18816349726682419 -0.2283935083676959 0 0.19364024959054679 -0.2463381411259771 0 0.20697169988165379 -0.19225065903833569 0 0.20117548551091119 -0.2148695461800792 0 0.1722434589142767 -0.2047713577878392 0 0.22780203412987729 -0.20666761325084401 0 0.20697169988165379 -0.19225065903833569 0 0.20117548551091119 -0.2148695461800792 0 0.22780203412987729 -0.20666761325084401 0 0.2120034966792271 -0.23264175795154701 0 0.20117548551091119 -0.2148695461800792 0 0.1722434589142767 -0.2047713577878392 0 0.14126566075913549 -0.18865348563726561 0 0.156737377204969 -0.17249476223237381 0 0.20697169988165379 -0.19225065903833569 0 0.1722434589142767 -0.2047713577878392 0 0.17970588229811171 -0.1808477599830107 0 0.18816349726682419 -0.2283935083676959 0 0.20117548551091119 -0.2148695461800792 0 0.1722434589142767 -0.2047713577878392 0 0.1722434589142767 -0.2047713577878392 0 0.15477426936836769 -0.22343682064388021 0 0.14370430472344159 -0.2098714497049613 0 0.18816349726682419 -0.2283935083676959 0 0.19364024959054679 -0.2463381411259771 0 0.1703928723678553 -0.2342156331338755 0 0.17892727837364311 -0.25674286646103078 0 0.19364024959054679 -0.2463381411259771 0 0.1703928723678553 -0.2342156331338755 0 0.18816349726682419 -0.2283935083676959 0 0.1722434589142767 -0.2047713577878392 0 0.1703928723678553 -0.2342156331338755 0 0.1722434589142767 -0.2047713577878392 0 0.1703928723678553 -0.2342156331338755 0 0.15477426936836769 -0.22343682064388021 0 0.1703928723678553 -0.2342156331338755 0 0.1442870626395111 -0.23925270042896651 0 0.15477426936836769 -0.22343682064388021 0 0.16103589229184301 -0.25852875219704718 0 0.1703928723678553 -0.2342156331338755 0 0.1442870626395111 -0.23925270042896651 0 0.16103589229184301 -0.25852875219704718 0 0.17892727837364311 -0.25674286646103078 0 0.1703928723678553 -0.2342156331338755 0 0.15477426936836769 -0.22343682064388021 0 0.1305706183928548 -0.22698419896907299 0 0.14370430472344159 -0.2098714497049613 0 0.1442870626395111 -0.23925270042896651 0 0.15477426936836769 -0.22343682064388021 0 0.1305706183928548 -0.22698419896907299 0 0.1442870626395111 -0.23925270042896651 0 0.1305706183928548 -0.22698419896907299 0 0.1274254079633414 -0.24851100436517171 0 0.1352276936489776 -0.26198339508059981 0 0.1442870626395111 -0.23925270042896651 0 0.1274254079633414 -0.24851100436517171 0 0.1722434589142767 -0.2047713577878392 0 0.14126566075913549 -0.18865348563726561 0 0.14370430472344159 -0.2098714497049613 0 0.12465355115098339 -0.20394429213124121 0 0.1305706183928548 -0.22698419896907299 0 0.14370430472344159 -0.2098714497049613 0 0.12465355115098339 -0.20394429213124121 0 0.1210925469152232 -0.18580577048143371 0 0.14126566075913549 -0.18865348563726561 0 0.12465355115098339 -0.20394429213124121 0 0.14126566075913549 -0.18865348563726561 0 0.14370430472344159 -0.2098714497049613 0 0.1210925469152232 -0.18580577048143371 0 0.14126566075913549 -0.18865348563726561 0 0.12865091801120579 -0.16855641899896151 0 0.14126566075913549 -0.18865348563726561 0 0.12865091801120579 -0.16855641899896151 0 0.156737377204969 -0.17249476223237381 0 0.12865091801120579 -0.16855641899896151 0 0.13573998057005429 -0.14556307136055549 0 0.156737377204969 -0.17249476223237381 0 0.1119158563160504 -0.14863604938498301 0 0.12865091801120579 -0.16855641899896151 0 0.13573998057005429 -0.14556307136055549 0 0.13573998057005429 -0.14556307136055549 0 0.16531742986921649 -0.14087821808470899 0 0.156737377204969 -0.17249476223237381 0 0.11440211702492629 -0.12475039288924331 0 0.1427879190356427 -0.1214226710195818 0 0.13573998057005429 -0.14556307136055549 0 0.1427879190356427 -0.1214226710195818 0 0.13573998057005429 -0.14556307136055549 0 0.16531742986921649 -0.14087821808470899 0 0.1427879190356427 -0.1214226710195818 0 0.16531742986921649 -0.14087821808470899 0 0.1427879190356427 -0.1214226710195818 0 0.1697600396589127 -0.115524854049215 0 0.16531742986921649 -0.14087821808470899 0 0.1697600396589127 -0.115524854049215 0 0.19053684722079511 -0.1338024038843863 0 0.16531742986921649 -0.14087821808470899 0 0.1878469407027902 -0.16033376514983619 0 0.16531742986921649 -0.14087821808470899 0 0.19053684722079511 -0.1338024038843863 0 0.1878469407027902 -0.16033376514983619 0 0.16531742986921649 -0.14087821808470899 0 0.1878469407027902 -0.16033376514983619 0 0.16531742986921649 -0.14087821808470899 0 0.156737377204969 -0.17249476223237381 0 0.1722434589142767 -0.2047713577878392 0 0.17970588229811171 -0.1808477599830107 0 0.156737377204969 -0.17249476223237381 0 0.1878469407027902 -0.16033376514983619 0 0.17970588229811171 -0.1808477599830107 0 0.156737377204969 -0.17249476223237381 0 
</DataArray>
</Points>
<Cells>
<DataArray type="UInt32" Name="connectivity" format="ascii">
0 1 2 3 4 5 6 7 8 9 10 11 12 13 14 15 16 17 18 19 20 21 22 23 24 25 26 27 28 29 30 31 32 33 34 35 36 37 38 39 40 41 42 43 44 45 46 47 48 49 50 51 52 53 54 55 56 57 58 59 60 61 62 63 64 65 66 67 68 69 70 71 72 73 74 75 76 77 78 79 80 81 82 83 84 85 86 87 88 89 90 91 92 93 94 95 96 97 98 99 100 101 102 103 104 105 106 107 108 109 110 111 112 113 114 115 116 117 118 119 120 121 122 123 124 125 126 127 128 129 130 131 132 133 134 135 136 137 138 139 140 141 142 143 144 145 146 147 148 149 150 151 152 153 154 155 156 157 158 159 160 161 162 163 164 165 166 167 168 169 170 171 172 173 174 175 176 177 178 179 180 181 182 183 184 185 186 187 188 189 190 191 192 193 194 195 196 197 198 199 200 201 202 203 204 205 206 207 208 209 210 211 212 213 214 215 216 217 218 219 220 221 222 223 224 225 226 227 228 229 230 231 232 233 234 235 236 237 238 239 240 241 242 243 244 245 246 247 248 249 250 251 252 253 254 255 256 257 258 259 260 261 262 263 264 265 266 267 268 269 270 271 272 273 274 275 276 277 278 279 280 281 282 283 284 285 286 287 288 289 290 291 292 293 294 295 296 297 298 299 300 301 302 303 304 305 306 307 308 309 310 311 312 313 314 315 316 317 318 319 320 321 322 323 324 325 326 327 328 329 330 331 332 333 334 335 336 337 338 339 340 341 342 343 344 345 346 347 348 349 350 351 352 353 354 355 356 357 358 359 360 361 362 363 364 365 366 367 368 369 370 371 372 373 374 375 376 377 378 379 380 381 382 383 384 385 386 387 388 389 390 391 392 393 394 395 396 397 398 399 400 401 402 403 404 405 406 407 408 409 410 411 412 413 414 415 416 417 418 419 420 421 422 423 424 425 426 427 428 429 430 431 432 433 434 435 436 437 438 439 440 441 442 443 444 445 446 447 448 449 450 451 452 453 454 455 456 457 458 459 460 461 462 463 464 465 466 467 468 469 470 471 472 473 474 475 476 477 478 479 480 481 482 483 484 485 486 487 488 489 490 491 492 493 494 495 496 497 498 499 500 501 502 503 504 505 506 507 508 509 510 511 512 513 514 515 516 517 518 519 520 521 522 523 524 525 526 527 528 529 530 531 532 533 534 535 536 537 538 539 540 541 542 543 544 545 546 547 548 549 550 551 552 553 554 555 556 557 558 559 560 561 562 563 564 565 566 567 568 569 570 571 572 573 574 575 576 577 578 579 580 581 582 583 584 585 586 587 588 589 590 591 592 593 594 595 596 597 598 599 600 601 602 603 604 605 606 607 608 609 610 611 612 613 614 615 616 617 618 619 620 621 622 623 624 625 626 627 628 629 630 631 632 633 634 635 636 637 638 639 640 641 642 643 644 645 646 647 648 649 650 651 652 653 654 655 656 657 658 659 660 661 662 663 664 665 666 667 668 669 670 671 672 673 674 675 676 677 678 679 680 681 682 683 684 685 686 687 688 689 690 691 692 693 694 695 696 697 698 699 700 701 702 703 704 705 706 707 708 709 710 711 712 713 714 715 716 717 718 719 720 721 722 723 724 725 726 727 728 729 730 731 732 733 734 735 736 737 738 739 740 741 742 743 744 745 746 747 748 749 750 751 752 753 754 755 756 757 758 759 760 761 762 763 764 765 766 767 768 769 770 771 772 773 774 775 776 777 778 779 780 781 782 783 784 785 786 787 788 789 790 791 792 793 794 795 796 797 798 799 800 801 802 803 804 805 806 807 808 809 810 811 812 813 814 815 816 817 818 819 820 821 822 823 824 825 826 827 828 829 830 831 832 833 834 835 836 837 838 839 840 841 842 843 844 845 846 847 848 849 850 851 852 853 854 855 856 857 858 859 860 861 862 863 864 865 866 867 868 869 870 871 872 873 874 875 876 877 878 879 880 881 882 883 884 885 886 887 888 889 890 891 892 893 894 895 896 897 898 899 900 901 902 903 904 905 906 907 908 909 910 911 912 913 914 915 916 917 918 919 920 921 922 923 924 925 926 927 928 929 930 931 932 933 934 935 936 937 938 939 940 941 942 943 944 945 946 947 948 949 950 951 952 953 954 955 956 957 958 959 960 961 962 963 964 965 966 967 968 969 970 971 972 973 974 975 976 977 978 979 980 981 982 983 984 985 986 987 988 989 990 991 992 993 994 995 996 997 998 999 1000 1001 1002 1003 1004 1005 1006 1007 1008 1009 1010 1011 1012 1013 1014 1015 1016 1017 1018 1019 1020 1021 1022 1023 1024 1025 1026 1027 1028 1029 1030 1031 1032 1033 1034 1035 1036 1037 1038 1039 1040 1041 1042 1043 1044 1045 1046 1047 1048 1049 1050 1051 1052 1053 1054 1055 1056 1057 1058 1059 1060 1061 1062 1063 1064 1065 1066 1067 1068 1069 1070 1071 1072 1073 1074 1075 1076 1077 1078 1079 1080 1081 1082 1083 1084 1085 1086 1087 1088 1089 1090 1091 1092 1093 1094 1095 1096 1097 1098 1099 1100 1101 1102 1103 1104 1105 1106 1107 1108 1109 1110 1111 1112 1113 1114 1115 1116 1117 1118 1119 1120 1121 1122 1123 1124 1125 1126 1127 1128 1129 1130 1131 1132 1133 1134 1135 1136 1137 1138 1139 1140 1141 1142 1143 1144 1145 1146 1147 1148 1149 1150 1151 1152 1153 1154 1155 1156 1157 1158 1159 1160 1161 1162 1163 1164 1165 1166 1167 1168 1169 1170 1171 1172 1173 1174 1175 1176 1177 1178 1179 1180 1181 1182 1183 1184 1185 1186 1187 1188 1189 1190 1191 1192 1193 1194 1195 1196 1197 1198 1199 1200 1201 1202 1203 1204 1205 1206 1207 1208 1209 1210 1211 1212 1213 1214 1215 1216 1217 1218 1219 1220 1221 1222 1223 1224 1225 1226 1227 1228 1229 1230 1231 1232 1233 1234 1235 1236 1237 1238 1239 1240 1241 1242 1243 1244 1245 1246 1247 1248 1249 1250 1251 1252 1253 1254 1255 1256 1257 1258 1259 1260 1261 1262 1263 1264 1265 1266 1267 1268 1269 1270 1271 1272 1273 1274 1275 1276 1277 1278 1279 1280 1281 1282 1283 1284 1285 1286 1287 1288 1289 1290 1291 1292 1293 1294 1295 1296 1297 1298 1299 1300 1301 1302 1303 1304 1305 1306 1307 1308 1309 1310 1311 1312 1313 1314 1315 1316 1317 1318 1319 1320 1321 1322 1323 1324 1325 1326 1327 1328 1329 1330 1331 1332 1333 1334 1335 1336 1337 1338 1339 1340 1341 1342 1343 1344 1345 1346 1347 1348 1349 1350 1351 1352 1353 1354 1355 1356 1357 1358 1359 1360 1361 1362 1363 1364 1365 1366 1367 1368 1369 1370 1371 1372 1373 1374 1375 1376 1377 1378 1379 1380 1381 1382 1383 1384 1385 1386 1387 1388 1389 1390 1391 1392 1393 1394 1395 1396 1397 1398 1399 1400 1401 1402 1403 1404 1405 1406 1407 1408 1409 1410 1411 1412 1413 1414 1415 1416 1417 1418 1419 1420 1421 1422 1423 1424 1425 1426 1427 1428 1429 1430 1431 1432 1433 1434 1435 1436 1437 1438 1439 1440 1441 1442 1443 1444 1445 1446 1447 1448 1449 1450 1451 1452 1453 1454 1455 1456 1457 1458 1459 1460 1461 1462 1463 1464 1465 1466 1467 1468 1469 1470 1471 1472 1473 1474 1475 1476 1477 1478 1479 1480 1481 1482 1483 1484 1485 1486 1487 1488 1489 1490 1491 1492 1493 1494 1495 1496 1497 1498 1499 1500 1501 1502 1503 1504 1505 1506 1507 1508 1509 1510 1511 1512 1513 1514 1515 1516 1517 1518 1519 1520 1521 1522 1523 1524 1525 1526 1527 1528 1529 1530 1531 1532 1533 1534 1535 1536 1537 1538 1539 1540 1541 1542 1543 1544 1545 1546 1547 1548 1549 1550 1551 1552 1553 1554 1555 1556 1557 1558 1559 1560 1561 1562 1563 1564 1565 1566 1567 1568 1569 1570 1571 1572 1573 1574 1575 1576 1577 1578 1579 1580 1581 1582 1583 1584 1585 1586 1587 1588 1589 1590 1591 1592 1593 1594 1595 1596 1597 1598 1599 1600 1601 1602 1603 1604 1605 1606 1607 1608 1609 1610 1611 1612 1613 1614 1615 1616 1617 1618 1619 1620 1621 1622 1623 1624 1625 1626 1627 1628 1629 1630 1631 1632 1633 1634 1635 1636 1637 1638 1639 1640 1641 1642 1643 1644 1645 1646 1647 1648 1649 1650 1651 1652 1653 1654 1655 1656 1657 1658 1659 1660 1661 1662 1663 1664 1665 1666 1667 1668 1669 1670 1671 1672 1673 1674 1675 1676 1677 1678 1679 1680 1681 1682 1683 1684 1685 1686 1687 1688 1689 1690 1691 1692 1693 1694 1695 1696 1697 1698 1699 1700 1701 1702 1703 1704 1705 1706 1707 1708 1709 1710 1711 1712 1713 1714 1715 1716 1717 1718 1719 1720 1721 1722 1723 1724 1725 1726 1727 1728 1729 1730 1731 1732 1733 1734 1735 1736 1737 1738 1739 1740 1741 1742 1743 1744 1745 1746 1747 1748 1749 1750 1751 1752 1753 1754 1755 1756 1757 1758 1759 1760 1761 1762 1763 1764 1765 1766 1767 1768 1769 1770 1771 1772 1773 1774 1775 1776 1777 1778 1779 1780 1781 1782 1783 1784 1785 1786 1787 1788 1789 1790 1791 1792 1793 1794 1795 1796 1797 1798 1799 1800 1801 1802 1803 1804 1805 1806 1807 1808 1809 1810 1811 1812 1813 1814 1815 1816 1817 1818 1819 1820 1821 1822 1823 1824 1825 1826 1827 1828 1829 1830 1831 1832 1833 1834 1835 1836 1837 1838 1839 1840 1841 1842 1843 1844 1845 1846 1847 1848 1849 1850 1851 1852 1853 1854 1855 1856 1857 1858 1859 1860 1861 1862 1863 1864 1865 1866 1867 1868 1869 1870 1871 1872 1873 1874 1875 1876 1877 1878 1879 1880 1881 1882 1883 1884 1885 1886 1887 1888 1889 1890 1891 1892 1893 1894 1895 1896 1897 1898 1899 1900 1901 1902 1903 1904 1905 1906 1907 1908 1909 1910 1911 1912 1913 1914 1915 1916 1917 1918 1919 1920 1921 1922 1923 1924 1925 1926 1927 1928 1929 1930 1931 1932 1933 1934 1935 1936 1937 1938 1939 1940 1941 1942 1943 1944 1945 1946 1947 1948 1949 1950 1951 1952 1953 1954 1955 1956 1957 1958 1959 1960 1961 1962 1963 1964 1965 1966 1967 1968 1969 1970 1971 1972 1973 1974 1975 1976 1977 1978 1979 1980 1981 1982 1983 1984 1985 1986 1987 1988 1989 1990 1991 1992 1993 1994 1995 1996 1997 1998 1999 2000 2001 2002 2003 2004 2005 2006 2007 2008 2009 2010 2011 2012 2013 2014 2015 2016 2017 2018 2019 2020 2021 2022 2023 2024 2025 2026 2027 2028 2029 2030 2031 2032 2033 2034 2035 2036 2037 2038 2039 2040 2041 2042 2043 2044 2045 2046 2047 2048 2049 2050 2051 2052 2053 2054 2055 2056 2057 2058 2059 2060 2061 2062 2063 2064 2065 2066 2067 2068 2069 2070 2071 2072 2073 2074 2075 2076 2077 2078 2079 2080 2081 2082 2083 2084 2085 2086 2087 2088 2089 2090 2091 2092 2093 2094 2095 2096 2097 2098 2099 2100 2101 2102 2103 2104 2105 2106 2107 2108 2109 2110 2111 2112 2113 2114 2115 2116 2117 2118 2119 2120 2121 2122 2123 2124 2125 2126 2127 2128 2129 2130 2131 2132 2133 2134 2135 2136 2137 2138 2139 2140 2141 2142 2143 2144 2145 2146 2147 2148 2149 2150 2151 2152 2153 2154 2155 2156 2157 2158 2159 2160 2161 2162 2163 2164 2165 2166 2167 2168 2169 2170 2171 2172 2173 2174 2175 2176 2177 2178 2179 2180 2181 2182 2183 2184 2185 2186 2187 2188 2189 2190 2191 2192 2193 2194 2195 2196 2197 2198 2199 2200 2201 2202 2203 2204 2205 2206 2207 2208 2209 2210 2211 2212 2213 2214 2215 2216 2217 2218 2219 2220 2221 2222 2223 2224 2225 2226 2227 2228 2229 2230 2231 2232 2233 2234 2235 2236 2237 2238 2239 2240 2241 2242 2243 2244 2245 2246 2247 2248 2249 2250 2251 2252 2253 2254 2255 2256 2257 2258 2259 2260 2261 2262 2263 2264 2265 2266 2267 2268 2269 2270 2271 2272 2273 2274 2275 2276 2277 2278 2279 2280 2281 2282 2283 2284 2285 2286 2287 2288 2289 2290 2291 2292 2293 2294 2295 2296 2297 2298 2299 2300 2301 2302 2303 2304 2305 2306 2307 2308 2309 2310 2311 2312 2313 2314 2315 2316 2317 2318 2319 2320 2321 2322 2323 2324 2325 2326 2327 2328 2329 2330 2331 2332 2333 2334 2335 2336 2337 2338 2339 2340 2341 2342 2343 2344 2345 2346 2347 2348 2349 2350 2351 2352 2353 2354 2355 2356 2357 2358 2359 2360 2361 2362 2363 2364 2365 2366 2367 2368 2369 2370 2371 2372 2373 2374 2375 2376 2377 2378 2379 2380 2381 2382 2383 2384 2385 2386 2387 2388 2389 2390 2391 2392 2393 2394 2395 2396 2397 2398 2399 2400 2401 2402 2403 2404 2405 2406 2407 2408 2409 2410 2411 2412 2413 2414 2415 2416 2417 2418 2419 2420 2421 2422 2423 2424 2425 2426 2427 2428 2429 2430 2431 2432 2433 2434 2435 2436 2437 2438 2439 2440 2441 2442 2443 2444 2445 2446 2447 2448 2449 2450 2451 2452 2453 2454 2455 2456 2457 2458 2459 2460 2461 2462 2463 2464 2465 2466 2467 2468 2469 2470 2471 2472 2473 2474 2475 2476 2477 2478 2479 2480 2481 2482 2483 2484 2485 2486 2487 2488 2489 2490 2491 2492 2493 2494 2495 2496 2497 2498 2499 2500 2501 2502 2503 2504 2505 2506 2507 2508 2509 2510 2511 2512 2513 2514 2515 2516 2517 2518 2519 2520 2521 2522 2523 2524 2525 2526 2527 2528 2529 2530 2531 2532 2533 2534 2535 2536 2537 2538 2539 2540 2541 2542 2543 2544 2545 2546 2547 2548 2549 2550 2551 2552 2553 2554 2555 2556 2557 2558 2559 2560 2561 2562 2563 2564 2565 2566 2567 2568 2569 2570 2571 2572 2573 2574 2575 2576 2577 2578 2579 2580 2581 2582 2583 2584 2585 2586 2587 2588 2589 2590 2591 2592 2593 2594 2595 2596 2597 2598 2599 2600 2601 2602 2603 2604 2605 2606 2607 2608 2609 2610 2611 2612 2613 2614 2615 2616 2617 2618 2619 2620 2621 2622 2623 2624 2625 2626 2627 2628 2629 2630 2631 2632 2633 2634 2635 2636 2637 2638 2639 2640 2641 2642 2643 2644 2645 2646 2647 2648 2649 2650 2651 2652 2653 2654 2655 2656 2657 2658 2659 2660 2661 2662 2663 2664 2665 2666 2667 2668 2669 2670 2671 2672 2673 2674 2675 2676 2677 2678 2679 2680 2681 2682 2683 2684 2685 2686 2687 2688 2689 2690 2691 2692 2693 2694 2695 2696 2697 2698 2699 2700 2701 2702 2703 2704 2705 2706 2707 2708 2709 2710 2711 2712 2713 2714 2715 2716 2717 2718 2719 2720 2721 2722 2723 2724 2725 2726 2727 2728 2729 2730 2731 2732 2733 2734 2735 2736 2737 2738 2739 2740 2741 2742 2743 2744 2745 2746 2747 2748 2749 2750 2751 2752 2753 2754 2755 2756 2757 2758 2759 2760 2761 2762 2763 2764 2765 2766 2767 2768 2769 2770 2771 2772 2773 2774 2775 2776 2777 2778 2779 2780 2781 2782 2783 2784 2785 2786 2787 2788 2789 2790 2791 2792 2793 2794 2795 2796 2797 2798 2799 2800 2801 2802 2803 2804 2805 2806 2807 2808 2809 2810 2811 2812 2813 2814 2815 2816 2817 2818 2819 2820 2821 2822 2823 2824 2825 2826 2827 2828 2829 2830 2831 2832 2833 2834 2835 2836 2837 2838 2839 2840 2841 2842 2843 2844 2845 2846 2847 2848 2849 2850 2851 2852 2853 2854 2855 2856 2857 2858 2859 2860 2861 2862 2863 2864 2865 2866 2867 2868 2869 2870 2871 2872 2873 2874 2875 2876 2877 2878 2879 2880 2881 2882 2883 2884 2885 2886 2887 2888 2889 2890 2891 2892 2893 2894 2895 2896 2897 2898 2899 2900 2901 2902 2903 2904 2905 2906 2907 2908 2909 2910 2911 2912 2913 2914 2915 2916 2917 2918 2919 2920 2921 2922 2923 2924 2925 2926 2927 2928 2929 2930 2931 2932 2933 2934 2935 2936 2937 2938 2939 2940 2941 2942 2943 2944 2945 2946 2947 2948 2949 2950 2951 2952 2953 2954 2955 2956 2957 2958 2959 2960 2961 2962 2963 2964 2965 2966 2967 2968 2969 2970 2971 2972 2973 2974 2975 2976 2977 2978 2979 2980 2981 2982 2983 2984 2985 2986 2987 2988 2989 2990 2991 2992 2993 2994 2995 2996 2997 2998 2999 3000 3001 3002 3003 3004 3005 3006 3007 3008 3009 3010 3011 3012 3013 3014 3015 3016 3017 3018 3019 3020 3021 3022 3023 3024 3025 3026 3027 3028 3029 3030 3031 3032 3033 3034 3035 3036 3037 3038 3039 3040 3041 3042 3043 3044 3045 3046 3047 3048 3049 3050 3051 3052 3053 3054 3055 3056 3057 3058 3059 3060 3061 3062 3063 3064 3065 3066 3067 3068 3069 3070 3071 3072 3073 3074 3075 3076 3077 3078 3079 3080 3081 3082 3083 3084 3085 3086 3087 3088 3089 3090 3091 3092 3093 3094 3095 3096 3097 3098 3099 3100 3101 3102 3103 3104 3105 3106 3107 3108 3109 3110 3111 3112 3113 3114 3115 3116 3117 3118 3119 3120 3121 3122 3123 3124 3125 3126 3127 3128 3129 3130 3131 3132 3133 3134 3135 3136 3137 3138 3139 3140 3141 3142 3143 3144 3145 3146 3147 3148 3149 3150 3151 3152 3153 3154 3155 3156 3157 3158 3159 3160 3161 3162 3163 3164 3165 3166 3167 3168 3169 3170 3171 3172 3173 3174 3175 3176 3177 3178 3179 3180 3181 3182 3183 3184 3185 3186 3187 3188 3189 3190 3191 3192 3193 3194 3195 3196 3197 3198 3199 3200 3201 3202 3203 3204 3205 3206 3207 3208 3209 3210 3211 3212 3213 3214 3215 3216 3217 3218 3219 3220 3221 3222 3223 3224 3225 3226 3227 3228 3229 3230 3231 3232 3233 3234 3235 3236 3237 3238 3239 3240 3241 3242 3243 3244 3245 3246 3247 3248 3249 3250 3251 3252 3253 3254 3255 3256 3257 3258 3259 3260 3261 3262 3263 3264 3265 3266 3267 3268 3269 3270 3271 3272 3273 3274 3275 3276 3277 3278 3279 3280 3281 3282 3283 3284 3285 3286 3287 3288 3289 3290 3291 3292 3293 3294 3295 3296 3297 3298 3299 3300 3301 3302 3303 3304 3305 3306 3307 3308 3309 3310 3311 3312 3313 3314 3315 3316 3317 3318 3319 3320 3321 3322 3323 3324 3325 3326 3327 3328 3329 3330 3331 3332 3333 3334 3335 3336 3337 3338 3339 3340 3341 3342 3343 3344 3345 3346 3347 3348 3349 3350 3351 3352 3353 3354 3355 3356 3357 3358 3359 3360 3361 3362 3363 3364 3365 3366 3367 3368 3369 3370 3371 3372 3373 3374 3375 3376 3377 3378 3379 3380 3381 3382 3383 3384 3385 3386 3387 3388 3389 3390 3391 3392 3393 3394 3395 3396 3397 3398 3399 3400 3401 3402 3403 3404 3405 3406 3407 3408 3409 3410 3411 3412 3413 3414 3415 3416 3417 3418 3419 3420 3421 3422 3423 3424 3425 3426 3427 3428 3429 3430 3431 3432 3433 3434 3435 3436 3437 3438 3439 3440 3441 3442 3443 3444 3445 3446 3447 3448 3449 3450 3451 3452 3453 3454 3455 3456 3457 3458 3459 3460 3461 3462 3463 3464 3465 3466 3467 3468 3469 3470 3471 3472 3473 3474 3475 3476 3477 3478 3479 3480 3481 3482 3483 3484 3485 3486 3487 3488 3489 3490 3491 3492 3493 3494 3495 3496 3497 3498 3499 3500 3501 3502 3503 3504 3505 3506 3507 3508 3509 3510 3511 3512 3513 3514 3515 3516 3517 3518 3519 3520 3521 3522 3523 3524 3525 3526 3527 3528 3529 3530 3531 3532 3533 3534 3535 3536 3537 3538 3539 3540 3541 3542 3543 3544 3545 3546 3547 3548 3549 3550 3551 3552 3553 3554 3555 3556 3557 3558 3559 3560 3561 3562 3563 3564 3565 3566 3567 3568 3569 3570 3571 3572 3573 3574 3575 3576 3577 3578 3579 3580 3581 3582 3583 3584 3585 3586 3587 3588 3589 3590 3591 3592 3593 3594 3595 3596 3597 3598 3599 3600 3601 3602 3603 3604 3605 3606 3607 3608 3609 3610 3611 3612 3613 3614 3615 3616 3617 3618 3619 3620 3621 3622 3623 3624 3625 3626 3627 3628 3629 3630 3631 3632 3633 3634 3635 3636 3637 3638 3639 3640 3641 3642 3643 3644 3645 3646 3647 3648 3649 3650 3651 3652 3653 3654 3655 3656 3657 3658 3659 3660 3661 3662 3663 3664 3665 3666 3667 3668 3669 3670 3671 3672 3673 3674 3675 3676 3677 3678 3679 3680 3681 3682 3683 3684 3685 3686 3687 3688 3689 3690 3691 3692 3693 3694 3695 3696 3697 3698 3699 3700 3701 3702 3703 3704 3705 3706 3707 3708 3709 3710 3711 3712 3713 3714 3715 3716 3717 3718 3719 3720 3721 3722 3723 3724 3725 3726 3727 3728 3729 3730 3731 3732 3733 3734 3735 3736 3737 3738 3739 3740 3741 3742 3743 3744 3745 3746 3747 3748 3749 3750 3751 3752 3753 3754 3755 3756 3757 3758 3759 3760 3761 3762 3763 3764 3765 3766 3767 3768 3769 3770 3771 3772 3773 3774 3775 3776 3777 3778 3779 3780 3781 3782 3783 3784 3785 3786 3787 3788 3789 3790 3791 3792 3793 3794 3795 3796 3797 3798 3799 3800 3801 3802 3803 3804 3805 3806 3807 3808 3809 3810 3811 3812 3813 3814 3815 3816 3817 3818 3819 3820 3821 3822 3823 3824 3825 3826 3827 3828 3829 3830 3831 3832 3833 3834 3835 3836 3837 3838 3839 3840 3841 3842 3843 3844 3845 3846 3847 3848 3849 3850 3851 3852 3853 3854 3855 3856 3857 3858 3859 3860 3861 3862 3863 3864 3865 3866 3867 3868 3869 3870 3871 3872 3873 3874 3875 3876 3877 3878 3879 3880 3881 3882 3883 3884 3885 3886 3887 3888 3889 3890 3891 3892 3893 3894 3895 3896 3897 3898 3899 3900 3901 3902 3903 3904 3905 3906 3907 3908 3909 3910 3911 3912 3913 3914 3915 3916 3917 3918 3919 3920 3921 3922 3923 3924 3925 3926 3927 3928 3929 3930 3931 3932 3933 3934 3935 3936 3937 3938 3939 3940 3941 3942 3943 3944 3945 3946 3947 3948 3949 3950 3951 3952 3953 3954 3955 3956 3957 3958 3959 3960 3961 3962 3963 3964 3965 3966 3967 3968 3969 3970 3971 3972 3973 3974 3975 3976 3977 3978 3979 3980 3981 3982 3983 3984 3985 3986 3987 3988 3989 3990 3991 3992 3993 3994 3995 3996 3997 3998 3999 4000 4001 4002 4003 4004 4005 4006 4007 4008 4009 4010 4011 4012 4013 4014 4015 4016 4017 4018 4019 4020 4021 4022 4023 4024 4025 4026 4027 4028 4029 4030 4031 4032 4033 4034 4035 4036 4037 4038 4039 4040 4041 4042 4043 4044 4045 4046 4047 4048 4049 4050 4051 4052 4053 4054 4055 4056 4057 4058 4059 4060 4061 4062 4063 4064 4065 4066 4067 4068 4069 4070 4071 4072 4073 4074 4075 4076 4077 4078 4079 4080 4081 4082 4083 4084 4085 4086 4087 4088 4089 4090 4091 4092 4093 4094 4095 4096 4097 4098 4099 4100 4101 4102 4103 4104 4105 4106 4107 4108 4109 4110 4111 4112 4113 4114 4115 4116 4117 4118 4119 4120 4121 4122 4123 4124 4125 4126 4127 4128 4129 4130 4131 4132 4133 4134 4135 4136 4137 4138 4139 4140 4141 4142 4143 4144 4145 4146 4147 4148 4149 4150 4151 4152 4153 4154 4155 4156 4157 4158 4159 4160 4161 4162 4163 4164 4165 4166 4167 4168 4169 4170 4171 4172 4173 4174 4175 4176 4177 4178 4179 4180 4181 4182 4183 4184 4185 4186 4187 4188 4189 4190 4191 4192 4193 4194 4195 4196 4197 4198 4199 4200 4201 4202 4203 4204 4205 4206 4207 4208 4209 4210 4211 4212 4213 4214 4215 4216 4217 4218 4219 4220 4221 4222 4223 4224 4225 4226 4227 4228 4229 4230 4231 4232 4233 4234 4235 4236 4237 4238 4239 4240 4241 4242 4243 4244 4245 4246 4247 4248 4249 4250 4251 4252 4253 4254 4255 4256 4257 4258 4259 4260 4261 4262 4263 4264 4265 4266 4267 4268 4269 4270 4271 4272 4273 4274 4275 4276 4277 4278 4279 4280 4281 4282 4283 4284 4285 4286 4287 4288 4289 4290 4291 4292 4293 4294 4295 4296 4297 4298 4299 4300 4301 4302 4303 4304 4305 4306 4307 4308 4309 4310 4311 4312 4313 4314 4315 4316 4317 4318 4319 4320 4321 4322 4323 4324 4325 4326 4327 4328 4329 4330 4331 4332 4333 4334 4335 4336 4337 4338 4339 4340 4341 4342 4343 4344 4345 4346 4347 4348 4349 4350 4351 4352 4353 4354 4355 4356 4357 4358 4359 4360 4361 4362 4363 4364 4365 4366 4367 4368 4369 4370 4371 4372 4373 4374 4375 4376 4377 4378 4379 4380 4381 4382 4383 4384 4385 4386 4387 4388 4389 4390 4391 4392 4393 4394 4395 4396 4397 4398 4399 4400 4401 4402 4403 4404 4405 4406 4407 4408 4409 4410 4411 4412 4413 4414 4415 4416 4417 4418 4419 4420 4421 4422 4423 4424 4425 4426 4427 4428 4429 4430 4431 4432 4433 4434 4435 4436 4437 4438 4439 4440 4441 4442 4443 4444 4445 4446 4447 4448 4449 4450 4451 4452 4453 4454 4455 4456 4457 4458 4459 4460 4461 4462 4463 4464 4465 4466 4467 4468 4469 4470 4471 4472 4473 4474 4475 4476 4477 4478 4479 4480 4481 4482 4483 4484 4485 4486 4487 4488 4489 4490 4491 4492 4493 4494 4495 4496 4497 4498 4499 4500 4501 4502 4503 4504 4505 4506 4507 4508 4509 4510 4511 4512 4513 4514 4515 4516 4517 4518 4519 4520 4521 4522 4523 4524 4525 4526 4527 4528 4529 4530 4531 4532 4533 4534 4535 4536 4537 4538 4539 4540 4541 4542 4543 4544 4545 4546 4547 4548 4549 4550 4551 4552 4553 4554 4555 4556 4557 4558 4559 4560 4561 4562 4563 4564 4565 4566 4567 4568 4569 4570 4571 4572 4573 4574 4575 4576 4577 4578 4579 4580 4581 4582 4583 4584 4585 4586 4587 4588 4589 4590 4591 4592 4593 4594 4595 4596 4597 4598 4599 4600 4601 4602 4603 4604 4605 4606 4607 4608 4609 4610 4611 4612 4613 4614 4615 4616 4617 4618 4619 4620 4621 4622 4623 4624 4625 4626 4627 4628 4629 4630 4631 4632 4633 4634 4635 4636 4637 4638 4639 4640 4641 4642 4643 4644 4645 4646 4647 4648 4649 4650 4651 4652 4653 4654 4655 4656 4657 4658 4659 4660 4661 4662 4663 4664 4665 4666 4667 4668 4669 4670 4671 4672 4673 4674 4675 4676 4677 4678 4679 4680 4681 4682 4683 4684 4685 4686 4687 4688 4689 4690 4691 4692 4693 4694 4695 4696 4697 4698 4699 4700 4701 4702 4703 4704 4705 4706 4707 4708 4709 4710 4711 4712 4713 4714 4715 4716 4717 4718 4719 4720 4721 4722 4723 4724 4725 4726 4727 4728 4729 4730 4731 4732 4733 4734 4735 4736 4737 4738 4739 4740 4741 4742 4743 4744 4745 4746 4747 4748 4749 4750 4751 4752 4753 4754 4755 4756 4757 4758 4759 4760 4761 4762 4763 4764 4765 4766 4767 4768 4769 4770 4771 4772 4773 4774 4775 4776 4777 4778 4779 4780 4781 4782 4783 4784 4785 4786 4787 4788 4789 4790 4791 4792 4793 4794 4795 4796 4797 4798 4799 4800 4801 4802 4803 4804 4805 4806 4807 4808 4809 4810 4811 4812 4813 4814 4815 4816 4817 4818 4819 4820 4821 4822 4823 4824 4825 4826 4827 4828 4829 4830 4831 4832 4833 4834 4835 4836 4837 4838 4839 4840 4841 4842 4843 4844 4845 4846 4847 4848 4849 4850 4851 4852 4853 4854 4855 4856 4857 4858 4859 4860 4861 4862 4863 4864 4865 4866 4867 4868 4869 4870 4871 4872 4873 4874 4875 4876 4877 4878 4879 4880 4881 4882 4883 4884 4885 4886 4887 4888 4889 4890 4891 4892 4893 4894 4895 4896 4897 4898 4899 4900 4901 4902 4903 4904 4905 4906 4907 4908 4909 4910 4911 4912 4913 4914 4915 4916 4917 4918 4919 4920 4921 4922 4923 4924 4925 4926 4927 4928 4929 4930 4931 4932 4933 4934 4935 4936 4937 4938 4939 4940 4941 4942 4943 4944 4945 4946 4947 4948 4949 4950 4951 4952 4953 4954 4955 4956 4957 4958 4959 4960 4961 4962 4963 4964 4965 4966 4967 4968 4969 4970 4971 4972 4973 4974 4975 4976 4977 4978 4979 4980 4981 4982 4983 4984 4985 4986 4987 4988 4989 4990 4991 4992 4993 4994 4995 4996 4997 4998 4999 5000 5001 5002 5003 5004 5005 5006 5007 5008 5009 5010 5011 5012 5013 5014 5015 5016 5017 5018 5019 5020 5021 5022 5023 5024 5025 5026 5027 5028 5029 5030 5031 5032 5033 5034 5035 5036 5037 5038 5039 5040 5041 5042 5043 5044 5045 5046 5047 5048 5049 5050 5051 5052 5053 5054 5055 5056 5057 5058 5059 5060 5061 5062 5063 5064 5065 5066 5067 5068 5069 5070 5071 5072 5073 5074 5075 5076 5077 5078 5079 5080 5081 5082 5083 5084 5085 5086 5087 5088 5089 5090 5091 5092 5093 5094 5095 5096 5097 5098 5099 5100 5101 5102 5103 5104 5105 5106 5107 5108 5109 5110 5111 5112 5113 5114 5115 5116 5117 5118 5119 5120 5121 5122 5123 5124 5125 5126 5127 5128 5129 5130 5131 5132 5133 5134 5135 5136 5137 5138 5139 5140 5141 5142 5143 5144 5145 5146 5147 5148 5149 5150 5151 5152 5153 5154 5155 5156 5157 5158 5159 5160 5161 5162 5163 5164 5165 5166 5167 5168 5169 5170 5171 5172 5173 5174 5175 5176 5177 5178 5179 5180 5181 5182 5183 5184 5185 5186 5187 5188 5189 5190 5191 5192 5193 5194 5195 5196 5197 5198 5199 5200 5201 5202 5203 5204 5205 5206 5207 5208 5209 5210 5211 5212 5213 5214 5215 5216 5217 5218 5219 5220 5221 5222 5223 5224 5225 5226 5227 5228 5229 5230 5231 5232 5233 5234 5235 5236 5237 5238 5239 5240 5241 5242 5243 5244 5245 5246 5247 5248 5249 5250 5251 5252 5253 5254 5255 5256 5257 5258 5259 5260 5261 5262 5263 5264 5265 5266 5267 5268 5269 5270 5271 5272 5273 5274 5275 5276 5277 5278 5279 5280 5281 5282 5283 5284 5285 5286 5287 5288 5289 5290 5291 5292 5293 5294 5295 5296 5297 5298 5299 5300 5301 5302 5303 5304 5305 5306 5307 5308 5309 5310 5311 5312 5313 5314 5315 5316 5317 5318 5319 5320 5321 5322 5323 5324 5325 5326 5327 5328 5329 5330 5331 5332 5333 5334 5335 5336 5337 5338 5339 5340 5341 5342 5343 5344 5345 5346 5347 5348 5349 5350 5351 5352 5353 5354 5355 5356 5357 5358 5359 5360 5361 5362 5363 5364 5365 5366 5367 5368 5369 5370 5371 5372 5373 5374 5375 5376 5377 5378 5379 5380 5381 5382 5383 5384 5385 5386 5387 5388 5389 5390 5391 5392 5393 5394 5395 5396 5397 5398 5399 5400 5401 5402 5403 5404 5405 5406 5407 5408 5409 5410 5411 5412 5413 5414 5415 5416 5417 5418 5419 5420 5421 5422 5423 5424 5425 5426 5427 5428 5429 5430 5431 5432 5433 5434 5435 5436 5437 5438 5439 5440 5441 5442 5443 5444 5445 5446 5447 5448 5449 5450 5451 5452 5453 5454 5455 5456 5457 5458 5459 5460 5461 5462 5463 5464 5465 5466 5467 5468 5469 5470 5471 5472 5473 5474 5475 5476 5477 5478 5479 5480 5481 5482 5483 5484 5485 5486 5487 5488 5489 5490 5491 5492 5493 5494 5495 5496 5497 5498 5499 5500 5501 5502 5503 5504 5505 5506 5507 5508 5509 5510 5511 5512 5513 5514 5515 5516 5517 5518 5519 5520 5521 5522 5523 5524 5525 5526 5527 5528 5529 5530 5531 5532 5533 5534 5535 5536 5537 5538 5539 5540 5541 5542 5543 5544 5545 5546 5547 5548 5549 5550 5551 5552 5553 5554 5555 5556 5557 5558 5559 5560 5561 5562 5563 5564 5565 5566 5567 5568 5569 5570 5571 5572 5573 5574 5575 5576 5577 5578 5579 5580 5581 5582 5583 5584 5585 5586 5587 5588 5589 5590 5591 5592 5593 5594 5595 5596 5597 5598 5599 5600 5601 5602 5603 5604 5605 5606 5607 5608 5609 5610 5611 5612 5613 5614 5615 5616 5617 5618 5619 5620 5621 5622 5623 5624 5625 5626 5627 5628 5629 5630 5631 5632 5633 5634 5635 5636 5637 5638 5639 5640 5641 5642 5643 5644 5645 5646 5647 5648 5649 5650 5651 5652 5653 5654 5655 5656 5657 5658 5659 5660 5661 5662 5663 5664 5665 5666 5667 5668 5669 5670 5671 5672 5673 5674 5675 5676 5677 5678 5679 5680 5681 5682 5683 5684 5685 5686 5687 5688 5689 5690 5691 5692 5693 5694 5695 5696 5697 5698 5699 5700 5701 5702 5703 5704 5705 5706 5707 5708 5709 5710 5711 5712 5713 5714 5715 5716 5717 5718 5719 5720 5721 5722 5723 5724 5725 5726 5727 5728 5729 5730 5731 5732 5733 5734 5735 5736 5737 5738 5739 5740 5741 5742 5743 5744 5745 5746 5747 5748 5749 5750 5751 5752 5753 5754 5755 5756 5757 5758 5759 5760 5761 5762 5763 5764 5765 5766 5767 5768 5769 5770 5771 5772 5773 5774 5775 5776 5777 5778 5779 5780 5781 5782 5783 5784 5785 5786 5787 5788 5789 5790 5791 5792 5793 5794 5795 5796 5797 5798 5799 5800 5801 5802 5803 5804 5805 5806 5807 5808 5809 5810 5811 5812 5813 5814 5815 5816 5817 5818 5819 5820 5821 5822 5823 5824 5825 5826 5827 5828 5829 5830 5831 5832 5833 5834 5835 5836 5837 5838 5839 5840 5841 5842 5843 5844 5845 5846 5847 5848 5849 5850 5851 5852 5853 5854 5855 5856 5857 5858 5859 5860 5861 5862 5863 5864 5865 5866 5867 5868 5869 5870 5871 5872 5873 5874 5875 5876 5877 5878 5879 5880 5881 5882 5883 5884 5885 5886 5887 5888 5889 5890 5891 5892 5893 5894 5895 5896 5897 5898 5899 5900 5901 5902 5903 5904 5905 5906 5907 5908 5909 5910 5911 5912 5913 5914 5915 5916 5917 5918 5919 5920 5921 5922 5923 5924 5925 5926 5927 5928 5929 5930 5931 5932 5933 5934 5935 5936 5937 5938 5939 5940 5941 5942 5943 5944 5945 5946 5947 5948 5949 5950 5951 5952 5953 5954 5955 5956 5957 5958 5959 5960 5961 5962 5963 5964 5965 5966 5967 5968 5969 5970 5971 5972 5973 5974 5975 5976 5977 5978 5979 5980 5981 5982 5983 5984 5985 5986 5987 5988 5989 5990 5991 5992 5993 5994 5995 5996 5997 5998 5999 6000 6001 6002 6003 6004 6005 6006 6007 6008 6009 6010 6011 6012 6013 6014 6015 6016 6017 6018 6019 6020 6021 6022 6023 6024 6025 6026 6027 6028 6029 6030 6031 6032 6033 6034 6035 6036 6037 6038 6039 6040 6041 6042 6043 6044 6045 6046 6047 6048 6049 6050 6051 6052 6053 6054 6055 6056 6057 6058 6059 6060 6061 6062 6063 6064 6065 6066 6067 6068 6069 6070 6071 6072 6073 6074 6075 6076 6077 6078 6079 6080 6081 6082 6083 6084 6085 6086 6087 6088 6089 6090 6091 6092 6093 6094 6095 6096 6097 6098 6099 6100 6101 6102 6103 6104 6105 6106 6107 6108 6109 6110 6111 6112 6113 6114 6115 6116 6117 6118 6119 6120 6121 6122 6123 6124 6125 6126 6127 6128 6129 6130 6131 6132 6133 6134 6135 6136 6137 6138 6139 6140 6141 6142 6143 6144 6145 6146 6147 6148 6149 6150 6151 6152 6153 6154 6155 6156 6157 6158 6159 6160 6161 6162 6163 6164 6165 6166 6167 6168 6169 6170 6171 6172 6173 6174 6175 6176 6177 6178 6179 6180 6181 6182 6183 6184 6185 6186 6187 6188 6189 6190 6191 6192 6193 6194 6195 6196 6197 6198 6199 6200 6201 6202 6203 6204 6205 6206 6207 6208 6209 6210 6211 6212 6213 6214 6215 6216 6217 6218 6219 6220 6221 6222 6223 6224 6225 6226 6227 6228 6229 6230 6231 6232 6233 6234 6235 6236 6237 6238 6239 6240 6241 6242 6243 6244 6245 6246 6247 6248 6249 6250 6251 6252 6253 6254 6255 6256 6257 6258 6259 6260 6261 6262 6263 6264 6265 6266 6267 6268 6269 6270 6271 6272 6273 6274 6275 6276 6277 6278 6279 6280 6281 6282 6283 6284 6285 6286 6287 6288 6289 6290 6291 6292 6293 6294 6295 6296 6297 6298 6299 6300 6301 6302 6303 6304 6305 6306 6307 6308 6309 6310 6311 6312 6313 6314 6315 6316 6317 6318 6319 6320 6321 6322 6323 6324 6325 6326 6327 6328 6329 6330 6331 6332 6333 6334 6335 6336 6337 6338 6339 6340 6341 6342 6343 6344 6345 6346 6347 6348 6349 6350 6351 6352 6353 6354 6355 6356 6357 6358 6359 6360 6361 6362 6363 6364 6365 6366 6367 6368 6369 6370 6371 6372 6373 6374 6375 6376 6377 6378 6379 6380 6381 6382 6383 6384 6385 6386 6387 6388 6389 6390 6391 6392 6393 6394 6395 6396 6397 6398 6399 6400 6401 6402 6403 6404 6405 6406 6407 6408 6409 6410 6411 6412 6413 6414 6415 6416 6417 6418 6419 6420 6421 6422 6423 6424 6425 6426 6427 6428 6429 6430 6431 6432 6433 6434 6435 6436 6437 6438 6439 6440 6441 6442 6443 6444 6445 6446 6447 6448 6449 6450 6451 6452 6453 6454 6455 6456 6457 6458 6459 6460 6461 6462 6463 6464 6465 6466 6467 6468 6469 6470 6471 6472 6473 6474 6475 6476 6477 6478 6479 6480 6481 6482 6483 6484 6485 6486 6487 6488 6489 6490 6491 6492 6493 6494 6495 6496 6497 6498 6499 6500 6501 6502 6503 6504 6505 6506 6507 6508 6509 6510 6511 6512 6513 6514 6515 6516 6517 6518 6519 6520 6521 6522 6523 6524 6525 6526 6527 6528 6529 6530 6531 6532 6533 6534 6535 6536 6537 6538 6539 6540 6541 6542 6543 6544 6545 6546 6547 6548 6549 6550 6551 6552 6553 6554 6555 6556 6557 6558 6559 6560 6561 6562 6563 6564 6565 6566 6567 6568 6569 6570 6571 6572 6573 6574 6575 6576 6577 6578 6579 6580 6581 6582 6583 6584 6585 6586 6587 6588 6589 6590 6591 6592 6593 6594 6595 6596 6597 6598 6599 6600 6601 6602 6603 6604 6605 6606 6607 6608 6609 6610 6611 6612 6613 6614 6615 6616 6617 6618 6619 6620 6621 6622 6623 6624 6625 6626 6627 6628 6629 6630 6631 6632 6633 6634 6635 6636 6637 6638 6639 6640 6641 6642 6643 6644 6645 6646 6647 6648 6649 6650 6651 6652 6653 6654 6655 6656 6657 6658 6659 6660 6661 6662 6663 6664 6665 6666 6667 6668 6669 6670 6671 6672 6673 6674 6675 6676 6677 6678 6679 6680 6681 6682 6683 6684 6685 6686 6687 6688 6689 6690 6691 6692 6693 6694 6695 6696 6697 6698 6699 6700 6701 6702 6703 6704 6705 6706 6707 6708 6709 6710 6711 6712 6713 6714 6715 6716 6717 6718 6719 6720 6721 6722 6723 6724 6725 6726 6727 6728 6729 6730 6731 6732 6733 6734 6735 6736 6737 6738 6739 6740 6741 6742 6743 6744 6745 6746 6747 6748 6749 6750 6751 6752 6753 6754 6755 6756 6757 6758 6759 6760 6761 6762 6763 6764 6765 6766 6767 6768 6769 6770 6771 6772 6773 6774 6775 6776 6777 6778 6779 6780 6781 6782 6783 6784 6785 6786 6787 6788 6789 6790 6791 6792 6793 6794 6795 6796 6797 6798 6799 6800 6801 6802 6803 6804 6805 6806 6807 6808 6809 6810 6811 6812 6813 6814 6815 6816 6817 6818 6819 6820 6821 6822 6823 6824 6825 6826 6827 6828 6829 6830 6831 6832 6833 6834 6835 6836 6837 6838 6839 6840 6841 6842 6843 6844 6845 6846 6847 6848 6849 6850 6851 6852 6853 6854 6855 6856 6857 6858 6859 6860 6861 6862 6863 6864 6865 6866 6867 6868 6869 6870 6871 6872 6873 6874 6875 6876 6877 6878 6879 6880 6881 6882 6883 6884 6885 6886 6887 6888 6889 6890 6891 6892 6893 6894 6895 6896 6897 6898 6899 6900 6901 6902 6903 6904 6905 6906 6907 6908 6909 6910 6911 6912 6913 6914 6915 6916 6917 6918 6919 6920 6921 6922 6923 6924 6925 6926 6927 6928 6929 6930 6931 6932 6933 6934 6935 6936 6937 6938 6939 6940 6941 6942 6943 6944 6945 6946 6947 6948 6949 6950 6951 6952 6953 6954 6955 6956 6957 6958 6959 6960 6961 6962 6963 6964 6965 6966 6967 6968 6969 6970 6971 6972 6973 6974 6975 6976 6977 6978 6979 6980 6981 6982 6983 6984 6985 6986 6987 6988 6989 6990 6991 6992 6993 6994 6995 6996 6997 6998 6999 7000 7001 7002 7003 7004 7005 7006 7007 7008 7009 7010 7011 7012 7013 7014 7015 7016 7017 7018 7019 7020 7021 7022 7023 7024 7025 7026 7027 7028 7029 7030 7031 7032 7033 7034 7035 7036 7037 7038 7039 7040 7041 7042 7043 7044 7045 7046 7047 7048 7049 7050 7051 7052 7053 7054 7055 7056 7057 7058 7059 7060 7061 7062 7063 7064 7065 7066 7067 7068 7069 7070 7071 7072 7073 7074 7075 7076 7077 7078 7079 7080 7081 7082 7083 7084 7085 7086 7087 7088 7089 7090 7091 7092 7093 7094 7095 7096 7097 7098 7099 7100 7101 7102 7103 7104 7105 7106 7107 7108 7109 7110 7111 7112 7113 7114 7115 7116 7117 7118 7119 7120 7121 7122 7123 7124 7125 7126 7127 7128 7129 7130 7131 7132 7133 7134 7135 7136 7137 7138 7139 7140 7141 7142 7143 7144 7145 7146 7147 7148 7149 7150 7151 7152 7153 7154 7155 7156 7157 7158 7159 7160 7161 7162 7163 7164 7165 7166 7167 7168 7169 7170 7171 7172 7173 7174 7175 7176 7177 7178 7179 7180 7181 7182 7183 7184 7185 7186 7187 7188 7189 7190 7191 7192 7193 7194 7195 7196 7197 7198 7199 7200 7201 7202 7203 7204 7205 7206 7207 7208 7209 7210 7211 7212 7213 7214 7215 7216 7217 7218 7219 7220 7221 7222 7223 7224 7225 7226 7227 7228 7229 7230 7231 7232 7233 7234 7235 7236 7237 7238 7239 7240 7241 7242 7243 7244 7245 7246 7247 7248 7249 7250 7251 7252 7253 7254 7255 7256 7257 7258 7259 7260 7261 7262 7263 7264 7265 7266 7267 7268 7269 7270 7271 7272 7273 7274 7275 7276 7277 7278 7279 7280 7281 7282 7283 7284 7285 7286 7287 7288 7289 7290 7291 7292 7293 7294 7295 7296 7297 7298 7299 7300 7301 7302 7303 7304 7305 7306 7307 7308 7309 7310 7311 7312 7313 7314 7315 7316 7317 7318 7319 7320 7321 7322 7323 7324 7325 7326 7327 7328 7329 7330 7331 7332 7333 7334 7335 7336 7337 7338 7339 7340 7341 7342 7343 7344 7345 7346 7347 7348 7349 7350 7351 7352 7353 7354 7355 7356 7357 7358 7359 7360 7361 7362 7363 7364 7365 7366 7367 7368 7369 7370 7371 7372 7373 7374 7375 7376 7377 7378 7379 7380 7381 7382 7383 7384 7385 7386 7387 7388 7389 7390 7391 7392 7393 7394 7395 7396 7397 7398 7399 7400 7401 7402 7403 7404 7405 7406 7407 7408 7409 7410 7411 7412 7413 7414 7415 7416 7417 7418 7419 7420 7421 7422 7423 7424 7425 7426 7427 7428 7429 7430 7431 7432 7433 7434 7435 7436 7437 7438 7439 7440 7441 7442 7443 7444 7445 7446 7447 7448 7449 7450 7451 7452 7453 7454 7455 7456 7457 7458 7459 7460 7461 7462 7463 7464 7465 7466 7467 7468 7469 7470 7471 7472 7473 7474 7475 7476 7477 7478 7479 7480 7481 7482 7483 7484 7485 7486 7487 7488 7489 7490 7491 7492 7493 7494 7495 7496 7497 7498 7499 7500 7501 7502 7503 7504 7505 7506 7507 7508 7509 7510 7511 7512 7513 7514 7515 7516 7517 7518 7519 7520 7521 7522 7523 7524 7525 7526 7527 7528 7529 7530 7531 7532 7533 7534 7535 7536 7537 7538 7539 7540 7541 7542 7543 7544 7545 7546 7547 7548 7549 7550 7551 7552 7553 7554 7555 7556 7557 7558 7559 7560 7561 7562 7563 7564 7565 7566 7567 7568 7569 7570 7571 7572 7573 7574 7575 7576 7577 7578 7579 7580 7581 7582 7583 7584 7585 7586 7587 7588 7589 7590 7591 7592 7593 7594 7595 7596 7597 7598 7599 7600 7601 7602 7603 7604 7605 7606 7607 7608 7609 7610 7611 7612 7613 7614 7615 7616 7617 7618 7619 7620 7621 7622 7623 7624 7625 7626 7627 7628 7629 7630 7631 7632 7633 7634 7635 7636 7637 7638 7639 7640 7641 7642 7643 7644 7645 7646 7647 7648 7649 7650 7651 7652 7653 7654 7655 7656 7657 7658 7659 7660 7661 7662 7663 7664 7665 7666 7667 7668 7669 7670 7671 7672 7673 7674 7675 7676 7677 7678 7679 7680 7681 7682 7683 7684 7685 7686 7687 7688 7689 7690 7691 7692 7693 7694 7695 7696 7697 7698 7699 7700 7701 7702 7703 7704 7705 7706 7707 7708 7709 7710 7711 7712 7713 7714 7715 7716 7717 7718 7719 7720 7721 7722 7723 7724 7725 7726 7727 7728 7729 7730 7731 7732 7733 7734 7735 7736 7737 7738 7739 7740 7741 7742 7743 7744 7745 7746 7747 7748 7749 7750 7751 7752 7753 7754 7755 7756 7757 7758 7759 7760 7761 7762 7763 7764 7765 7766 7767 7768 7769 7770 7771 7772 7773 7774 7775 7776 7777 7778 7779 7780 7781 7782 7783 7784 7785 7786 7787 7788 7789 7790 7791 7792 7793 7794 7795 7796 7797 7798 7799 7800 7801 7802 7803 7804 7805 7806 7807 7808 7809 7810 7811 7812 7813 7814 7815 7816 7817 7818 7819 7820 7821 7822 7823 7824 7825 7826 7827 7828 7829 7830 7831 7832 7833 7834 7835 7836 7837 7838 7839 7840 7841 7842 7843 7844 7845 7846 7847 7848 7849 7850 7851 7852 7853 7854 7855 7856 7857 7858 7859 7860 7861 7862 7863 7864 7865 7866 7867 7868 7869 7870 7871 7872 7873 7874 7875 7876 7877 7878 7879 7880 7881 7882 7883 7884 7885 7886 7887 7888 7889 7890 7891 7892 7893 7894 7895 7896 7897 7898 7899 7900 7901 7902 7903 7904 7905 7906 7907 7908 7909 7910 7911 7912 7913 7914 7915 7916 7917 7918 7919 7920 7921 7922 7923 7924 7925 7926 7927 7928 7929 7930 7931 7932 7933 7934 7935 7936 7937 7938 7939 7940 7941 7942 7943 7944 7945 7946 7947 7948 7949 7950 7951 7952 7953 7954 7955 7956 7957 7958 7959 7960 7961 7962 7963 7964 7965 7966 7967 7968 7969 7970 7971 7972 7973 7974 7975 7976 7977 7978 7979 7980 7981 7982 7983 7984 7985 7986 7987 7988 7989 7990 7991 7992 7993 7994 7995 7996 7997 7998 7999 8000 8001 8002 8003 8004 8005 8006 8007 8008 8009 8010 8011 8012 8013 8014 8015 8016 8017 8018 8019 8020 8021 8022 8023 8024 8025 8026 8027 8028 8029 8030 8031 8032 8033 8034 8035 8036 8037 8038 8039 8040 8041 8042 8043 8044 8045 8046 8047 8048 8049 8050 8051 8052 8053 8054 8055 8056 8057 8058 8059 8060 8061 8062 8063 8064 8065 8066 8067 8068 8069 8070 8071 8072 8073 8074 8075 8076 8077 8078 8079 8080 8081 8082 8083 8084 8085 8086 8087 8088 8089 8090 8091 8092 8093 8094 8095 8096 8097 8098 8099 8100 8101 8102 8103 8104 8105 8106 8107 8108 8109 8110 8111 8112 8113 8114 8115 8116 8117 8118 8119 8120 8121 8122 8123 8124 8125 8126 8127 8128 8129 8130 8131 8132 8133 8134 8135 8136 8137 8138 8139 8140 8141 8142 8143 8144 8145 8146 8147 8148 8149 8150 8151 8152 8153 8154 8155 8156 8157 8158 8159 8160 8161 8162 8163 8164 8165 8166 8167 8168 8169 8170 8171 8172 8173 8174 8175 8176 8177 8178 8179 8180 8181 8182 8183 8184 8185 8186 8187 8188 8189 8190 8191 8192 8193 8194 8195 8196 8197 8198 8199 8200 8201 8202 8203 8204 8205 8206 8207 8208 8209 8210 8211 8212 8213 8214 8215 8216 8217 8218 8219 8220 8221 8222 8223 8224 8225 8226 8227 8228 8229 8230 8231 8232 8233 8234 8235 8236 8237 8238 8239 8240 8241 8242 8243 8244 8245 8246 8247 8248 8249 8250 8251 8252 8253 8254 8255 8256 8257 8258 8259 8260 8261 8262 8263 8264 8265 8266 8267 8268 8269 8270 8271 8272 8273 8274 8275 8276 8277 8278 8279 8280 8281 8282 8283 8284 8285 8286 8287 8288 8289 8290 8291 8292 8293 8294 8295 8296 8297 8298 8299 8300 8301 8302 8303 8304 8305 8306 8307 8308 8309 8310 8311 8312 8313 8314 8315 8316 8317 8318 8319 8320 8321 8322 8323 8324 8325 8326 8327 8328 8329 8330 8331 8332 8333 8334 8335 8336 8337 8338 8339 8340 8341 8342 8343 8344 8345 8346 8347 8348 8349 8350 8351 8352 8353 8354 8355 8356 8357 8358 8359 8360 8361 8362 8363 8364 8365 8366 8367 8368 8369 8370 8371 8372 8373 8374 8375 8376 8377 8378 8379 8380 8381 8382 8383 8384 8385 8386 8387 8388 8389 8390 8391 8392 8393 8394 8395 8396 8397 8398 8399 8400 8401 8402 8403 8404 8405 8406 8407 8408 8409 8410 8411 8412 8413 8414 8415 8416 8417 8418 8419 8420 8421 8422 8423 8424 8425 8426 8427 8428 8429 8430 8431 8432 8433 8434 8435 8436 8437 8438 8439 8440 8441 8442 8443 8444 8445 8446 8447 8448 8449 8450 8451 8452 8453 8454 8455 8456 8457 8458 8459 8460 8461 8462 8463 8464 8465 8466 8467 8468 8469 8470 8471 8472 8473 8474 8475 8476 8477 8478 8479 8480 8481 8482 8483 8484 8485 8486 8487 8488 8489 8490 8491 8492 8493 8494 8495 8496 8497 8498 8499 8500 8501 8502 8503 8504 8505 8506 8507 8508 8509 8510 8511 8512 8513 8514 8515 8516 8517 8518 8519 8520 8521 8522 8523 8524 8525 8526 8527 8528 8529 8530 8531 8532 8533 8534 8535 8536 8537 8538 8539 8540 8541 8542 8543 8544 8545 8546 8547 8548 8549 8550 8551 8552 8553 8554 8555 8556 8557 8558 8559 8560 8561 8562 8563 8564 8565 8566 8567 8568 8569 8570 8571 8572 8573 8574 8575 8576 8577 8578 8579 8580 8581 8582 8583 8584 8585 8586 8587 8588 8589 8590 8591 8592 8593 8594 8595 8596 8597 8598 8599 8600 8601 8602 8603 8604 8605 8606 8607 8608 8609 8610 8611 8612 8613 8614 8615 8616 8617 8618 8619 8620 8621 8622 8623 8624 8625 8626 8627 8628 8629 8630 8631 8632 8633 8634 8635 8636 8637 8638 8639 8640 8641 8642 8643 8644 8645 8646 8647 8648 8649 8650 8651 8652 8653 8654 8655 8656 8657 8658 8659 8660 8661 8662 8663 8664 8665 8666 8667 8668 8669 8670 8671 8672 8673 8674 8675 8676 8677 8678 8679 8680 8681 8682 8683 8684 8685 8686 8687 8688 8689 8690 8691 8692 8693 8694 8695 8696 8697 8698 8699 8700 8701 8702 8703 8704 8705 8706 8707 8708 8709 8710 8711 8712 8713 8714 8715 8716 8717 8718 8719 8720 8721 8722 8723 8724 8725 8726 8727 8728 8729 8730 8731 8732 8733 8734 8735 8736 8737 8738 8739 8740 8741 8742 8743 8744 8745 8746 8747 8748 8749 8750 8751 8752 8753 8754 8755 8756 8757 8758 8759 8760 8761 8762 8763 8764 8765 8766 8767 8768 8769 8770 8771 8772 8773 8774 8775 8776 8777 8778 8779 8780 8781 8782 8783 8784 8785 8786 8787 8788 8789 8790 8791 8792 8793 8794 8795 8796 8797 8798 8799 8800 8801 8802 8803 8804 8805 8806 8807 8808 8809 8810 8811 8812 8813 8814 8815 8816 8817 8818 8819 8820 8821 8822 8823 8824 8825 8826 8827 8828 8829 8830 8831 8832 8833 8834 8835 8836 8837 8838 8839 8840 8841 8842 8843 8844 8845 8846 8847 8848 8849 8850 8851 8852 8853 8854 8855 8856 8857 8858 8859 8860 8861 8862 8863 8864 8865 8866 8867 8868 8869 8870 8871 8872 8873 8874 8875 8876 8877 8878 8879 8880 8881 8882 8883 8884 8885 8886 8887 8888 8889 8890 8891 8892 8893 8894 8895 8896 8897 8898 8899 8900 8901 8902 8903 8904 8905 8906 8907 8908 8909 8910 8911 8912 8913 8914 8915 8916 8917 8918 8919 8920 8921 8922 8923 8924 8925 8926 8927 8928 8929 8930 8931 8932 8933 8934 8935 8936 8937 8938 8939 8940 8941 8942 8943 8944 8945 8946 8947 8948 8949 8950 8951 8952 8953 8954 8955 8956 8957 8958 8959 8960 8961 8962 8963 8964 8965 8966 8967 8968 8969 8970 8971 8972 8973 8974 8975 8976 8977 8978 8979 8980 8981 8982 8983 8984 8985 8986 8987 8988 8989 8990 8991 8992 8993 8994 8995 8996 8997 8998 8999 9000 9001 9002 9003 9004 9005 9006 9007 9008 9009 9010 9011 9012 9013 9014 9015 9016 9017 9018 9019 9020 9021 9022 9023 9024 9025 9026 9027 9028 9029 9030 9031 9032 9033 9034 9035 9036 9037 9038 9039 9040 9041 9042 9043 9044 9045 9046 9047 9048 9049 9050 9051 9052 9053 9054 9055 9056 9057 9058 9059 9060 9061 9062 9063 9064 9065 9066 9067 9068 9069 9070 9071 9072 9073 9074 9075 9076 9077 9078 9079 9080 9081 9082 9083 9084 9085 9086 9087 9088 9089 9090 9091 9092 9093 9094 9095 9096 9097 9098 9099 9100 9101 9102 9103 9104 9105 9106 9107 9108 9109 9110 9111 9112 9113 9114 9115 9116 9117 9118 9119 9120 9121 9122 9123 9124 9125 9126 9127 9128 9129 9130 9131 9132 9133 9134 9135 9136 9137 9138 9139 9140 9141 9142 9143 9144 9145 9146 9147 9148 9149 9150 9151 9152 9153 9154 9155 9156 9157 9158 9159 9160 9161 9162 9163 9164 9165 9166 9167 9168 9169 9170 9171 9172 9173 9174 9175 9176 9177 9178 9179 9180 9181 9182 9183 9184 9185 9186 9187 9188 9189 9190 9191 9192 9193 9194 9195 9196 9197 9198 9199 9200 9201 9202 9203 9204 9205 9206 9207 9208 9209 9210 9211 9212 9213 9214 9215 9216 9217 9218 9219 9220 9221 9222 9223 9224 9225 9226 9227 9228 9229 9230 9231 9232 9233 9234 9235 9236 9237 9238 9239 9240 9241 9242 9243 9244 9245 9246 9247 9248 9249 9250 9251 9252 9253 9254 9255 9256 9257 9258 9259 9260 9261 9262 9263 9264 9265 9266 9267 9268 9269 9270 9271 9272 9273 9274 9275 9276 9277 9278 9279 9280 9281 9282 9283 9284 9285 9286 9287 9288 9289 9290 9291 9292 9293 9294 9295 9296 9297 9298 9299 9300 9301 9302 9303 9304 9305 9306 9307 9308 9309 9310 9311 9312 9313 9314 9315 9316 9317 9318 9319 9320 9321 9322 9323 9324 9325 9326 9327 9328 9329 9330 9331 9332 9333 9334 9335 9336 9337 9338 9339 9340 9341 9342 9343 9344 9345 9346 9347 9348 9349 9350 9351 9352 9353 9354 9355 9356 9357 9358 9359 9360 9361 9362 9363 9364 9365 9366 9367 9368 9369 9370 9371 9372 9373 9374 9375 9376 9377 9378 9379 9380 9381 9382 9383 9384 9385 9386 9387 9388 9389 9390 9391 9392 9393 9394 9395 9396 9397 9398 9399 9400 9401 9402 9403 9404 9405 9406 9407 9408 9409 9410 9411 9412 9413 9414 9415 9416 9417 9418 9419 9420 9421 9422 9423 9424 9425 9426 9427 9428 9429 9430 9431 9432 9433 9434 9435 9436 9437 9438 9439 9440 9441 9442 9443 9444 9445 9446 9447 9448 9449 9450 9451 9452 9453 9454 9455 9456 9457 9458 9459 9460 9461 9462 9463 9464 9465 9466 9467 9468 9469 9470 9471 9472 9473 9474 9475 9476 9477 9478 9479 9480 9481 9482 9483 9484 9485 9486 9487 9488 9489 9490 9491 9492 9493 9494 9495 9496 9497 9498 9499 9500 9501 9502 9503 9504 9505 9506 9507 9508 9509 9510 9511 9512 9513 9514 9515 9516 9517 9518 9519 9520 9521 9522 9523 9524 9525 9526 9527 9528 9529 9530 9531 9532 9533 9534 9535 9536 9537 9538 9539 9540 9541 9542 9543 9544 9545 9546 9547 9548 9549 9550 9551 9552 9553 9554 9555 9556 9557 9558 9559 9560 9561 9562 9563 9564 9565 9566 9567 9568 9569 9570 9571 9572 9573 9574 9575 9576 9577 9578 9579 9580 9581 9582 9583 9584 9585 9586 9587 9588 9589 9590 9591 9592 9593 9594 9595 9596 9597 9598 9599 9600 9601 9602 9603 9604 9605 9606 9607 9608 9609 9610 9611 9612 9613 9614 9615 9616 9617 9618 9619 9620 9621 9622 9623 9624 9625 9626 9627 9628 9629 9630 9631 9632 9633 9634 9635 9636 9637 9638 9639 9640 9641 9642 9643 9644 9645 9646 9647 9648 9649 9650 9651 9652 9653 9654 9655 9656 9657 9658 9659 9660 9661 9662 9663 9664 9665 9666 9667 9668 9669 9670 9671 9672 9673 9674 9675 9676 9677 9678 9679 9680 9681 9682 9683 9684 9685 9686 9687 9688 9689 9690 9691 9692 9693 9694 9695 9696 9697 9698 9699 9700 9701 9702 9703 9704 9705 9706 9707 9708 9709 9710 9711 9712 9713 9714 9715 9716 9717 9718 9719 9720 9721 9722 9723 9724 9725 9726 9727 9728 9729 9730 9731 9732 9733 9734 9735 9736 9737 9738 9739 9740 9741 9742 9743 9744 9745 9746 9747 9748 9749 9750 9751 9752 9753 9754 9755 9756 9757 9758 9759 9760 9761 9762 9763 9764 9765 9766 9767 9768 9769 9770 9771 9772 9773 9774 9775 9776 9777 9778 9779 9780 9781 9782 9783 9784 9785 9786 9787 9788 9789 9790 9791 9792 9793 9794 9795 9796 9797 9798 9799 9800 9801 9802 9803 9804 9805 9806 9807 9808 9809 9810 9811 9812 9813 9814 9815 9816 9817 9818 9819 9820 9821 9822 9823 9824 9825 9826 9827 9828 9829 9830 9831 9832 9833 9834 9835 9836 9837 9838 9839 9840 9841 9842 9843 9844 9845 9846 9847 9848 9849 9850 9851 9852 9853 9854 9855 9856 9857 9858 9859 9860 9861 9862 9863 9864 9865 9866 9867 9868 9869 9870 9871 9872 9873 9874 9875 9876 9877 9878 9879 9880 9881 9882 9883 9884 9885 9886 9887 9888 9889 9890 9891 9892 9893 9894 9895 9896 9897 9898 9899 9900 9901 9902 9903 9904 9905 9906 9907 9908 9909 9910 9911 9912 9913 9914 9915 9916 9917 9918 9919 9920 9921 9922 9923 9924 9925 9926 9927 9928 9929 9930 9931 9932 9933 9934 9935 9936 9937 9938 9939 9940 9941 9942 9943 9944 9945 9946 9947 9948 9949 9950 9951 9952 9953 9954 9955 9956 9957 9958 9959 9960 9961 9962 9963 9964 9965 9966 9967 9968 9969 9970 9971 9972 9973 9974 9975 9976 9977 9978 9979 9980 9981 9982 9983 9984 9985 9986 9987 9988 9989 9990 9991 9992 9993 9994 9995 9996 9997 9998 9999 10000 10001 10002 10003 10004 10005 10006 10007 10008 10009 10010 10011 10012 10013 10014 10015 10016 10017 10018 10019 10020 10021 10022 10023 10024 10025 10026 10027 10028 10029 10030 10031 10032 10033 10034 10035 10036 10037 10038 10039 10040 10041 10042 10043 10044 10045 10046 10047 10048 10049 10050 10051 10052 10053 10054 10055 10056 10057 10058 10059 10060 10061 10062 10063 10064 10065 10066 10067 10068 10069 10070 10071 10072 10073 10074 10075 10076 10077 10078 10079 10080 10081 10082 10083 10084 10085 10086 10087 10088 10089 10090 10091 10092 10093 10094 10095 10096 10097 10098 10099 10100 10101 10102 10103 10104 10105 10106 10107 10108 10109 10110 10111 10112 10113 10114 10115 10116 10117 10118 10119 10120 10121 10122 10123 10124 10125 10126 10127 10128 10129 10130 10131 10132 10133 10134 10135 10136 10137 10138 10139 10140 10141 10142 10143 10144 10145 10146 10147 10148 10149 10150 10151 10152 10153 10154 10155 10156 10157 10158 10159 10160 10161 10162 10163 10164 10165 10166 10167 10168 10169 10170 10171 10172 10173 10174 10175 10176 10177 10178 10179 10180 10181 10182 10183 10184 10185 10186 10187 10188 10189 10190 10191 10192 10193 10194 10195 10196 10197 10198 10199 10200 10201 10202 10203 10204 10205 10206 10207 10208 10209 10210 10211 10212 10213 10214 10215 10216 10217 10218 10219 10220 10221 10222 10223 10224 10225 10226 10227 10228 10229 10230 10231 10232 10233 10234 10235 10236 10237 10238 10239 10240 10241 10242 10243 10244 10245 10246 10247 10248 10249 10250 10251 10252 10253 10254 10255 10256 10257 10258 10259 10260 10261 10262 10263 10264 10265 10266 10267 10268 10269 10270 10271 10272 10273 10274 10275 10276 10277 10278 10279 10280 10281 10282 10283 10284 10285 10286 10287 10288 10289 10290 10291 10292 10293 10294 10295 10296 10297 10298 10299 10300 10301 10302 10303 10304 10305 10306 10307 10308 10309 10310 10311 10312 10313 10314 10315 10316 10317 10318 10319 10320 10321 10322 10323 10324 10325 10326 10327 10328 10329 10330 10331 10332 10333 10334 10335 10336 10337 10338 10339 10340 10341 10342 10343 10344 10345 10346 10347 10348 10349 10350 10351 10352 10353 10354 10355 10356 10357 10358 10359 10360 10361 10362 10363 10364 10365 10366 10367 10368 10369 10370 10371 10372 10373 10374 10375 10376 10377 10378 10379 10380 10381 10382 10383 10384 10385 10386 10387 10388 10389 10390 10391 10392 10393 10394 10395 10396 10397 10398 10399 10400 10401 10402 10403 10404 10405 10406 10407 10408 10409 10410 10411 10412 10413 10414 10415 10416 10417 10418 10419 10420 10421 10422 10423 10424 10425 10426 10427 10428 10429 10430 10431 10432 10433 10434 10435 10436 10437 10438 10439 10440 10441 10442 10443 10444 10445 10446 10447 10448 10449 10450 10451 10452 10453 10454 10455 10456 10457 10458 10459 10460 10461 10462 10463 10464 10465 10466 10467 10468 10469 10470 10471 10472 10473 10474 10475 10476 10477 10478 10479 10480 10481 10482 10483 10484 10485 10486 10487 10488 10489 10490 10491 10492 10493 10494 10495 10496 10497 10498 10499 10500 10501 10502 10503 10504 10505 10506 10507 10508 10509 10510 10511 10512 10513 10514 10515 10516 10517 10518 10519 10520 10521 10522 10523 10524 10525 10526 10527 10528 10529 10530 10531 10532 10533 10534 10535 10536 10537 10538 10539 10540 10541 10542 10543 10544 10545 10546 10547 10548 10549 10550 10551 10552 10553 10554 10555 10556 10557 10558 10559 10560 10561 10562 10563 10564 10565 10566 10567 10568 10569 10570 10571 10572 10573 10574 10575 10576 10577 10578 10579 10580 10581 10582 10583 10584 10585 10586 10587 10588 10589 10590 10591 10592 10593 10594 10595 10596 10597 10598 10599 10600 10601 10602 10603 10604 10605 10606 10607 10608 10609 10610 10611 10612 10613 10614 10615 10616 10617 10618 10619 10620 10621 10622 10623 10624 10625 10626 10627 10628 10629 10630 10631 10632 10633 10634 10635 10636 10637 10638 10639 10640 10641 10642 10643 10644 10645 10646 10647 10648 10649 10650 10651 10652 10653 10654 10655 10656 10657 10658 10659 10660 10661 10662 10663 10664 10665 10666 10667 10668 10669 10670 10671 10672 10673 10674 10675 10676 10677 10678 10679 10680 10681 10682 10683 10684 10685 10686 10687 10688 10689 10690 10691 10692 10693 10694 10695 10696 10697 10698 10699 10700 10701 10702 10703 10704 10705 10706 10707 10708 10709 10710 10711 10712 10713 10714 10715 10716 10717 10718 10719 10720 10721 10722 10723 10724 10725 10726 10727 10728 10729 10730 10731 10732 10733 10734 10735 10736 10737 10738 10739 10740 10741 10742 10743 10744 10745 10746 10747 10748 10749 10750 10751 10752 10753 10754 10755 10756 10757 10758 10759 10760 10761 10762 10763 10764 10765 10766 10767 10768 10769 10770 10771 10772 10773 10774 10775 10776 10777 10778 10779 10780 10781 10782 10783 10784 10785 10786 10787 10788 10789 10790 10791 10792 10793 10794 10795 10796 10797 10798 10799 10800 10801 10802 10803 10804 10805 10806 10807 10808 10809 10810 10811 10812 10813 10814 10815 10816 10817 10818 10819 10820 10821 10822 10823 10824 10825 10826 10827 10828 10829 10830 10831 10832 10833 10834 10835 10836 10837 10838 10839 10840 10841 10842 10843 10844 10845 10846 10847 10848 10849 10850 10851 10852 10853 10854 10855 10856 10857 10858 10859 10860 10861 10862 10863 10864 10865 10866 10867 10868 10869 10870 10871 10872 10873 10874 10875 10876 10877 10878 10879 10880 10881 10882 10883 10884 10885 10886 10887 10888 10889 10890 10891 10892 10893 10894 10895 10896 10897 10898 10899 10900 10901 10902 10903 10904 10905 10906 10907 10908 10909 10910 10911 10912 10913 10914 10915 10916 10917 10918 10919 10920 10921 10922 10923 10924 10925 10926 10927 10928 10929 10930 10931 10932 10933 10934 10935 10936 10937 10938 10939 10940 10941 10942 10943 10944 10945 10946 10947 10948 10949 10950 10951 10952 10953 10954 10955 10956 10957 10958 10959 10960 10961 10962 10963 10964 10965 10966 10967 10968 10969 10970 10971 10972 10973 10974 10975 10976 10977 10978 10979 10980 10981 10982 10983 10984 10985 10986 10987 10988 10989 10990 10991 10992 10993 10994 10995 10996 10997 10998 10999 11000 11001 11002 11003 11004 11005 11006 11007 11008 11009 11010 11011 11012 11013 11014 11015 11016 11017 11018 11019 11020 11021 11022 11023 11024 11025 11026 11027 11028 11029 11030 11031 11032 11033 11034 11035 11036 11037 11038 11039 11040 11041 11042 11043 11044 11045 11046 11047 11048 11049 11050 11051 11052 11053 11054 11055 11056 11057 11058 11059 11060 11061 11062 11063 11064 11065 11066 11067 11068 11069 11070 11071 11072 11073 11074 11075 11076 11077 11078 11079 11080 11081 11082 11083 11084 11085 11086 11087 11088 11089 11090 11091 11092 11093 11094 11095 11096 11097 11098 11099 11100 11101 11102 11103 11104 11105 11106 11107 11108 11109 11110 11111 11112 11113 11114 11115 11116 11117 11118 11119 11120 11121 11122 11123 11124 11125 11126 11127 11128 11129 11130 11131 11132 11133 11134 11135 11136 11137 11138 11139 11140 11141 11142 11143 11144 11145 11146 11147 11148 11149 11150 11151 11152 11153 11154 11155 11156 11157 11158 11159 11160 11161 11162 11163 11164 11165 11166 11167 11168 11169 11170 11171 11172 11173 11174 11175 11176 11177 11178 11179 11180 11181 11182 11183 11184 11185 11186 11187 11188 11189 11190 11191 11192 11193 11194 11195 11196 11197 11198 11199 11200 11201 11202 11203 11204 11205 11206 11207 11208 11209 11210 11211 11212 11213 11214 11215 11216 11217 11218 11219 11220 11221 11222 11223 11224 11225 11226 11227 11228 11229 11230 11231 11232 11233 11234 11235 11236 11237 11238 11239 11240 11241 11242 11243 11244 11245 11246 11247 11248 11249 11250 11251 11252 11253 11254 11255 11256 11257 11258 11259 11260 11261 11262 11263 11264 11265 11266 11267 11268 11269 11270 11271 11272 11273 11274 11275 11276 11277 11278 11279 11280 11281 11282 11283 11284 11285 11286 11287 11288 11289 11290 11291 11292 11293 11294 11295 11296 11297 11298 11299 11300 11301 11302 11303 11304 11305 11306 11307 11308 11309 11310 11311 11312 11313 11314 11315 11316 11317 11318 11319 11320 11321 11322 11323 11324 11325 11326 11327 11328 11329 11330 11331 11332 11333 11334 11335 11336 11337 11338 11339 11340 11341 11342 11343 11344 11345 11346 11347 11348 11349 11350 11351 11352 11353 11354 11355 11356 11357 11358 11359 11360 11361 11362 11363 11364 11365 11366 11367 11368 11369 11370 11371 11372 11373 11374 11375 11376 11377 11378 11379 11380 11381 11382 11383 11384 11385 11386 11387 11388 11389 11390 11391 11392 11393 11394 11395 11396 11397 11398 11399 11400 11401 11402 11403 11404 11405 11406 11407 11408 11409 11410 11411 11412 11413 11414 11415 11416 11417 11418 11419 11420 11421 11422 11423 11424 11425 11426 11427 11428 11429 11430 11431 11432 11433 11434 11435 11436 11437 11438 11439 11440 11441 11442 11443 11444 11445 11446 11447 11448 11449 11450 11451 11452 11453 11454 11455 11456 11457 11458 11459 11460 11461 11462 11463 11464 11465 11466 11467 11468 11469 11470 11471 11472 11473 11474 11475 11476 11477 11478 11479 11480 11481 11482 11483 11484 11485 11486 11487 11488 11489 11490 11491 11492 11493 11494 11495 11496 11497 11498 11499 11500 11501 11502 11503 11504 11505 11506 11507 11508 11509 11510 11511 11512 11513 11514 11515 11516 11517 11518 11519 11520 11521 11522 11523 11524 11525 11526 11527 11528 11529 11530 11531 11532 11533 11534 11535 11536 11537 11538 11539 11540 11541 11542 11543 11544 11545 11546 11547 11548 11549 11550 11551 11552 11553 11554 11555 11556 11557 11558 11559 11560 11561 11562 11563 11564 11565 11566 11567 11568 11569 11570 11571 11572 11573 11574 11575 11576 11577 11578 11579 11580 11581 11582 11583 11584 11585 11586 11587 11588 11589 11590 11591 11592 11593 11594 11595 11596 11597 11598 11599 11600 11601 11602 11603 11604 11605 11606 11607 11608 11609 11610 11611 11612 11613 11614 11615 11616 11617 11618 11619 11620 11621 11622 11623 11624 11625 11626 11627 11628 11629 11630 11631 11632 11633 11634 11635 11636 11637 11638 11639 11640 11641 11642 11643 11644 11645 11646 11647 11648 11649 11650 11651 11652 11653 11654 11655 11656 11657 11658 11659 11660 11661 11662 11663 11664 11665 11666 11667 11668 11669 11670 11671 11672 11673 11674 11675 11676 11677 11678 11679 11680 11681 11682 11683 11684 11685 11686 11687 11688 11689 11690 11691 11692 11693 11694 11695 11696 11697 11698 11699 11700 11701 11702 11703 11704 11705 11706 11707 11708 11709 11710 11711 11712 11713 11714 11715 11716 11717 11718 11719 11720 11721 11722 11723 11724 11725 11726 11727 11728 11729 11730 11731 11732 11733 11734 11735 11736 11737 11738 11739 11740 11741 11742 11743 11744 11745 11746 11747 11748 11749 11750 11751 11752 11753 11754 11755 11756 11757 11758 11759 11760 11761 11762 11763 11764 11765 11766 11767 11768 11769 11770 11771 11772 11773 11774 11775 11776 11777 11778 11779 11780 11781 11782 11783 11784 11785 11786 11787 11788 11789 11790 11791 11792 11793 11794 11795 11796 11797 11798 11799 11800 11801 11802 11803 11804 11805 11806 11807 11808 11809 11810 11811 11812 11813 11814 11815 11816 11817 11818 11819 11820 11821 11822 11823 11824 11825 11826 11827 11828 11829 11830 11831 11832 11833 11834 11835 11836 11837 11838 11839 11840 11841 11842 11843 11844 11845 11846 11847 11848 11849 11850 11851 11852 11853 11854 11855 11856 11857 11858 11859 11860 11861 11862 11863 11864 11865 11866 11867 11868 11869 11870 11871 11872 11873 11874 11875 11876 11877 11878 11879 11880 11881 11882 11883 11884 11885 11886 11887 11888 11889 11890 11891 11892 11893 11894 11895 11896 11897 11898 11899 11900 11901 11902 11903 11904 11905 11906 11907 11908 11909 11910 11911 11912 11913 11914 11915 11916 11917 11918 11919 11920 11921 11922 11923 11924 11925 11926 11927 11928 11929 11930 11931 11932 11933 11934 11935 11936 11937 11938 11939 11940 11941 11942 11943 11944 11945 11946 11947 11948 11949 11950 11951 11952 11953 11954 11955 11956 11957 11958 11959 11960 11961 11962 11963 11964 11965 11966 11967 11968 11969 11970 11971 11972 11973 11974 11975 11976 11977 11978 11979 11980 11981 11982 11983 11984 11985 11986 11987 11988 11989 11990 11991 11992 11993 11994 11995 11996 11997 11998 11999 12000 12001 12002 12003 12004 12005 12006 12007 12008 12009 12010 12011 12012 12013 12014 12015 12016 12017 12018 12019 12020 12021 12022 12023 12024 12025 12026 12027 12028 12029 12030 12031 12032 12033 12034 12035 12036 12037 12038 12039 12040 12041 12042 12043 12044 12045 12046 12047 12048 12049 12050 12051 12052 12053 12054 12055 12056 12057 12058 12059 12060 12061 12062 12063 12064 12065 12066 12067 12068 12069 12070 12071 12072 12073 12074 12075 12076 12077 12078 12079 12080 12081 12082 12083 12084 12085 12086 12087 12088 12089 12090 12091 12092 12093 12094 12095 12096 12097 12098 12099 12100 12101 12102 12103 12104 12105 12106 12107 12108 12109 12110 12111 12112 12113 12114 12115 12116 12117 12118 12119 12120 12121 12122 12123 12124 12125 12126 12127 12128 12129 12130 12131 12132 12133 12134 12135 12136 12137 12138 12139 12140 12141 12142 12143 12144 12145 12146 12147 12148 12149 12150 12151 12152 12153 12154 12155 12156 12157 12158 12159 12160 12161 12162 12163 12164 12165 12166 12167 12168 12169 12170 12171 12172 12173 12174 12175 12176 12177 12178 12179 12180 12181 12182 12183 12184 12185 12186 12187 12188 12189 12190 12191 12192 12193 12194 12195 12196 12197 12198 12199 12200 12201 12202 12203 12204 12205 12206 12207 12208 12209 12210 12211 12212 12213 12214 12215 12216 12217 12218 12219 12220 12221 12222 12223 12224 12225 12226 12227 12228 12229 12230 12231 12232 12233 12234 12235 12236 12237 12238 12239 12240 12241 12242 12243 12244 12245 12246 12247 12248 12249 12250 12251 12252 12253 12254 12255 12256 12257 12258 12259 12260 12261 12262 12263 12264 12265 12266 12267 12268 12269 12270 12271 12272 12273 12274 12275 12276 12277 12278 12279 12280 12281 12282 12283 12284 12285 12286 12287 12288 12289 12290 12291 12292 12293 12294 12295 12296 12297 12298 12299 12300 12301 12302 12303 12304 12305 12306 12307 12308 12309 12310 12311 12312 12313 12314 12315 12316 12317 12318 12319 12320 12321 12322 12323 12324 12325 12326 12327 12328 12329 12330 12331 12332 12333 12334 12335 12336 12337 12338 12339 12340 12341 12342 12343 12344 12345 12346 12347 12348 12349 12350 12351 12352 12353 12354 12355 12356 12357 12358 12359 12360 12361 12362 12363 12364 12365 12366 12367 12368 12369 12370 12371 12372 12373 12374 12375 12376 12377 12378 12379 12380 12381 12382 12383 12384 12385 12386 12387 12388 12389 12390 12391 12392 12393 12394 12395 12396 12397 12398 12399 12400 12401 12402 12403 12404 12405 12406 12407 12408 12409 12410 12411 12412 12413 12414 12415 12416 12417 12418 12419 12420 12421 12422 12423 12424 12425 12426 12427 12428 12429 12430 12431 12432 12433 12434 12435 12436 12437 12438 12439 12440 12441 12442 12443 12444 12445 12446 12447 12448 12449 12450 12451 12452 12453 12454 12455 12456 12457 12458 12459 12460 12461 12462 12463 12464 12465 12466 12467 12468 12469 12470 12471 12472 12473 12474 12475 12476 12477 12478 12479 12480 12481 12482 12483 12484 12485 12486 12487 12488 12489 12490 12491 12492 12493 12494 12495 12496 12497 12498 12499 12500 12501 12502 12503 12504 12505 12506 12507 12508 12509 12510 12511 12512 12513 12514 12515 12516 12517 12518 12519 12520 12521 12522 12523 12524 12525 12526 12527 12528 12529 12530 12531 12532 12533 12534 12535 12536 12537 12538 12539 12540 12541 12542 12543 12544 12545 12546 12547 12548 12549 12550 12551 12552 12553 12554 12555 12556 12557 12558 12559 12560 12561 12562 12563 12564 12565 12566 12567 12568 12569 12570 12571 12572 12573 12574 12575 12576 12577 12578 12579 12580 12581 12582 12583 12584 12585 12586 12587 12588 12589 12590 12591 12592 12593 12594 12595 12596 12597 12598 12599 12600 12601 12602 12603 12604 12605 12606 12607 12608 12609 12610 12611 12612 12613 12614 12615 12616 12617 12618 12619 12620 12621 12622 12623 12624 12625 12626 12627 12628 12629 12630 12631 12632 12633 12634 12635 12636 12637 12638 12639 12640 12641 12642 12643 12644 12645 12646 12647 12648 12649 12650 12651 12652 12653 12654 12655 12656 12657 12658 12659 12660 12661 12662 12663 12664 12665 12666 12667 12668 12669 12670 12671 12672 12673 12674 12675 12676 12677 12678 12679 12680 12681 12682 12683 12684 12685 12686 12687 12688 12689 12690 12691 12692 12693 12694 12695 12696 12697 12698 12699 12700 12701 12702 12703 12704 12705 12706 12707 12708 12709 12710 12711 12712 12713 12714 12715 12716 12717 12718 12719 12720 12721 12722 12723 12724 12725 12726 12727 12728 12729 12730 12731 12732 12733 12734 12735 12736 12737 12738 12739 12740 12741 12742 12743 12744 12745 12746 12747 12748 12749 12750 12751 12752 12753 12754 12755 12756 12757 12758 12759 12760 12761 12762 12763 12764 12765 12766 12767 12768 12769 12770 12771 12772 12773 12774 12775 12776 12777 12778 12779 12780 12781 12782 12783 12784 12785 12786 12787 12788 12789 12790 12791 12792 12793 12794 12795 12796 12797 12798 12799 12800 12801 12802 12803 12804 12805 12806 12807 12808 12809 12810 12811 12812 12813 12814 12815 12816 12817 12818 12819 12820 12821 12822 12823 12824 12825 12826 12827 12828 12829 12830 12831 12832 12833 12834 12835 12836 12837 12838 12839 12840 12841 12842 12843 12844 12845 12846 12847 12848 12849 12850 12851 12852 12853 12854 12855 12856 12857 12858 12859 12860 12861 12862 12863 12864 12865 12866 12867 12868 12869 12870 12871 12872 12873 12874 12875 12876 12877 12878 12879 12880 12881 12882 12883 12884 12885 12886 12887 12888 12889 12890 12891 12892 12893 12894 12895 12896 12897 12898 12899 12900 12901 12902 12903 12904 12905 12906 12907 12908 12909 12910 12911 12912 12913 12914 12915 12916 12917 12918 12919 12920 12921 12922 12923 12924 12925 12926 12927 12928 12929 12930 12931 12932 12933 12934 12935 12936 12937 12938 12939 12940 12941 12942 12943 12944 12945 12946 12947 12948 12949 12950 12951 12952 12953 12954 12955 12956 12957 12958 12959 12960 12961 12962 12963 12964 12965 12966 12967 12968 12969 12970 12971 12972 12973 12974 12975 12976 12977 12978 12979 12980 12981 12982 12983 12984 12985 12986 12987 12988 12989 12990 12991 12992 12993 12994 12995 12996 12997 12998 12999 13000 13001 13002 13003 13004 13005 13006 13007 13008 13009 13010 13011 13012 13013 13014 13015 13016 13017 13018 13019 13020 13021 13022 13023 13024 13025 13026 13027 13028 13029 13030 13031 13032 13033 13034 13035 13036 13037 13038 13039 13040 13041 13042 13043 13044 13045 13046 13047 13048 13049 13050 13051 13052 13053 13054 13055 13056 13057 13058 13059 13060 13061 13062 13063 13064 13065 13066 13067 13068 13069 13070 13071 13072 13073 13074 13075 13076 13077 13078 13079 13080 13081 13082 13083 13084 13085 13086 13087 13088 13089 13090 13091 13092 13093 13094 13095 13096 13097 13098 13099 13100 13101 13102 13103 13104 13105 13106 13107 13108 13109 13110 13111 13112 13113 13114 13115 13116 13117 13118 13119 13120 13121 13122 13123 13124 13125 13126 13127 13128 13129 13130 13131 13132 13133 13134 13135 13136 13137 13138 13139 13140 13141 13142 13143 13144 13145 13146 13147 13148 13149 13150 13151 13152 13153 13154 13155 13156 13157 13158 13159 13160 13161 13162 13163 13164 13165 13166 13167 13168 13169 13170 13171 13172 13173 13174 13175 13176 13177 13178 13179 13180 13181 13182 13183 13184 13185 13186 13187 13188 13189 13190 13191 13192 13193 13194 13195 13196 13197 13198 13199 13200 13201 13202 13203 13204 13205 13206 13207 13208 13209 13210 13211 13212 13213 13214 13215 13216 13217 13218 13219 13220 13221 13222 13223 13224 13225 13226 13227 13228 13229 13230 13231 13232 13233 13234 13235 13236 13237 13238 13239 13240 13241 13242 13243 13244 13245 13246 13247 13248 13249 13250 13251 13252 13253 13254 13255 13256 13257 13258 13259 13260 13261 13262 13263 13264 13265 13266 13267 13268 13269 13270 13271 13272 13273 13274 13275 13276 13277 13278 13279 13280 13281 13282 13283 13284 13285 13286 13287 13288 13289 13290 13291 13292 13293 13294 13295 13296 13297 13298 13299 13300 13301 13302 13303 13304 13305 13306 13307 13308 13309 13310 13311 13312 13313 13314 13315 13316 13317 13318 13319 13320 13321 13322 13323 13324 13325 13326 13327 13328 13329 13330 13331 13332 13333 13334 13335 13336 13337 13338 13339 13340 13341 13342 13343 13344 13345 13346 13347 13348 13349 13350 13351 13352 13353 13354 13355 13356 13357 13358 13359 13360 13361 13362 13363 13364 13365 13366 13367 13368 13369 13370 13371 13372 13373 13374 13375 13376 13377 13378 13379 13380 13381 13382 13383 13384 13385 13386 13387 13388 13389 13390 13391 13392 13393 13394 13395 13396 13397 13398 13399 13400 13401 13402 13403 13404 13405 13406 13407 13408 13409 13410 13411 13412 13413 13414 13415 13416 13417 13418 13419 13420 13421 13422 13423 13424 13425 13426 13427 13428 13429 13430 13431 13432 13433 13434 13435 13436 13437 13438 13439 13440 13441 13442 13443 13444 13445 13446 13447 13448 13449 13450 13451 13452 13453 13454 13455 13456 13457 13458 13459 13460 13461 13462 13463 13464 13465 13466 13467 13468 13469 13470 13471 13472 13473 13474 13475 13476 13477 13478 13479 13480 13481 13482 13483 13484 13485 13486 13487 13488 13489 13490 13491 13492 13493 13494 13495 13496 13497 13498 13499 13500 13501 13502 13503 13504 13505 13506 13507 13508 13509 13510 13511 13512 13513 13514 13515 13516 13517 13518 13519 13520 13521 13522 13523 13524 13525 13526 13527 13528 13529 13530 13531 13532 13533 13534 13535 13536 13537 13538 13539 13540 13541 13542 13543 13544 13545 13546 13547 13548 13549 13550 13551 13552 13553 13554 13555 13556 13557 13558 13559 13560 13561 13562 13563 13564 13565 13566 13567 13568 13569 13570 13571 13572 13573 13574 13575 13576 13577 13578 13579 13580 13581 13582 13583 13584 13585 13586 13587 13588 13589 13590 13591 13592 13593 13594 13595 13596 13597 13598 13599 13600 13601 13602 13603 13604 13605 13606 13607 13608 13609 13610 13611 13612 13613 13614 13615 13616 13617 13618 13619 13620 13621 13622 13623 13624 13625 13626 13627 13628 13629 13630 13631 13632 13633 13634 13635 13636 13637 13638 13639 13640 13641 13642 13643 13644 13645 13646 13647 13648 13649 13650 13651 13652 13653 13654 13655 13656 13657 13658 13659 13660 13661 13662 13663 13664 13665 13666 13667 13668 13669 13670 13671 13672 13673 13674 13675 13676 13677 13678 13679 13680 13681 13682 13683 13684 13685 13686 13687 13688 13689 13690 13691 13692 13693 13694 13695 13696 13697 13698 13699 13700 13701 13702 13703 13704 13705 13706 13707 13708 13709 13710 13711 13712 13713 13714 13715 13716 13717 13718 13719 13720 13721 13722 13723 13724 13725 13726 13727 13728 13729 13730 13731 13732 13733 13734 13735 13736 13737 13738 13739 13740 13741 13742 13743 13744 13745 13746 13747 13748 13749 13750 13751 13752 13753 13754 13755 13756 13757 13758 13759 13760 13761 13762 13763 13764 13765 13766 13767 13768 13769 13770 13771 13772 13773 13774 13775 13776 13777 13778 13779 13780 13781 13782 13783 13784 13785 13786 13787 13788 13789 13790 13791 13792 13793 13794 13795 13796 13797 13798 13799 13800 13801 13802 13803 13804 13805 13806 13807 13808 13809 13810 13811 13812 13813 13814 13815 13816 13817 13818 13819 13820 13821 13822 13823 13824 13825 13826 13827 13828 13829 13830 13831 13832 13833 13834 13835 13836 13837 13838 13839 13840 13841 13842 13843 13844 13845 13846 13847 13848 13849 13850 13851 13852 13853 13854 13855 13856 13857 13858 13859 13860 13861 13862 13863 13864 13865 13866 13867 13868 13869 13870 13871 13872 13873 13874 13875 13876 13877 13878 13879 13880 13881 13882 13883 13884 13885 13886 13887 13888 13889 13890 13891 13892 13893 13894 13895 13896 13897 13898 13899 13900 13901 13902 13903 13904 13905 13906 13907 13908 13909 13910 13911 13912 13913 13914 13915 13916 13917 13918 13919 13920 13921 13922 13923 13924 13925 13926 13927 13928 13929 13930 13931 13932 13933 13934 13935 13936 13937 13938 13939 13940 13941 13942 13943 13944 13945 13946 13947 13948 13949 13950 13951 13952 13953 13954 13955 13956 13957 13958 13959 13960 13961 13962 13963 13964 13965 13966 13967 13968 13969 13970 13971 13972 13973 13974 13975 13976 13977 13978 13979 13980 13981 13982 13983 13984 13985 13986 13987 13988 13989 13990 13991 13992 13993 13994 13995 13996 13997 13998 13999 14000 14001 14002 14003 14004 14005 14006 14007 14008 14009 14010 14011 14012 14013 14014 14015 14016 14017 14018 14019 14020 14021 14022 14023 14024 14025 14026 14027 14028 14029 14030 14031 14032 14033 14034 14035 14036 14037 14038 14039 14040 14041 14042 14043 14044 14045 14046 14047 14048 14049 14050 14051 14052 14053 14054 14055 14056 14057 14058 14059 14060 14061 14062 14063 14064 14065 14066 14067 14068 14069 14070 14071 14072 14073 14074 14075 14076 14077 14078 14079 14080 14081 14082 14083 14084 14085 14086 14087 14088 14089 14090 14091 14092 14093 14094 14095 14096 14097 14098 14099 14100 14101 14102 14103 14104 14105 14106 14107 14108 14109 14110 14111 14112 14113 14114 14115 14116 14117 14118 14119 14120 14121 14122 14123 14124 14125 14126 14127 14128 14129 14130 14131 14132 14133 14134 14135 14136 14137 14138 14139 14140 14141 14142 14143 14144 14145 14146 14147 14148 14149 14150 14151 14152 14153 14154 14155 14156 14157 14158 14159 14160 14161 14162 14163 14164 14165 14166 14167 14168 14169 14170 14171 14172 14173 14174 14175 14176 14177 14178 14179 14180 14181 14182 14183 14184 14185 14186 14187 14188 14189 14190 14191 14192 14193 14194 14195 14196 14197 14198 14199 14200 14201 14202 14203 14204 14205 14206 14207 14208 14209 14210 14211 14212 14213 14214 14215 14216 14217 14218 14219 14220 14221 14222 14223 14224 14225 14226 14227 14228 14229 14230 14231 14232 14233 14234 14235 14236 14237 14238 14239 14240 14241 14242 14243 14244 14245 14246 14247 14248 14249 14250 14251 14252 14253 14254 14255 14256 14257 14258 14259 14260 14261 14262 14263 14264 14265 14266 14267 14268 14269 14270 14271 14272 14273 14274 14275 14276 14277 14278 14279 14280 14281 14282 14283 14284 14285 14286 14287 14288 14289 14290 14291 14292 14293 14294 14295 14296 14297 14298 14299 14300 14301 14302 14303 14304 14305 14306 14307 14308 14309 14310 14311 14312 14313 14314 14315 14316 14317 14318 14319 14320 14321 14322 14323 14324 14325 14326 14327 14328 14329 14330 14331 14332 14333 14334 14335 14336 14337 14338 14339 14340 14341 14342 14343 14344 14345 14346 14347 14348 14349 14350 14351 14352 14353 14354 14355 14356 14357 14358 14359 14360 14361 14362 14363 14364 14365 14366 14367 14368 14369 14370 14371 14372 14373 14374 14375 14376 14377 14378 14379 14380 14381 14382 14383 14384 14385 14386 14387 14388 14389 14390 14391 14392 14393 14394 14395 14396 14397 14398 14399 14400 14401 14402 14403 14404 14405 14406 14407 14408 14409 14410 14411 14412 14413 14414 14415 14416 14417 14418 14419 14420 14421 14422 14423 14424 14425 14426 14427 14428 14429 14430 14431 14432 14433 14434 14435 14436 14437 14438 14439 14440 14441 14442 14443 14444 14445 14446 14447 14448 14449 14450 14451 14452 14453 14454 14455 14456 14457 14458 14459 14460 14461 14462 14463 14464 14465 14466 14467 14468 14469 14470 14471 14472 14473 14474 14475 14476 14477 14478 14479 14480 14481 14482 14483 14484 14485 14486 14487 14488 14489 14490 14491 14492 14493 14494 14495 14496 14497 14498 14499 14500 14501 14502 14503 14504 14505 14506 14507 14508 14509 14510 14511 14512 14513 14514 14515 14516 14517 14518 14519 14520 14521 14522 14523 14524 14525 14526 14527 14528 14529 14530 14531 14532 14533 14534 14535 14536 14537 14538 14539 14540 14541 14542 14543 14544 14545 14546 14547 14548 14549 14550 14551 14552 14553 14554 14555 14556 14557 14558 14559 14560 14561 14562 14563 14564 14565 14566 14567 14568 14569 14570 14571 14572 14573 14574 14575 14576 14577 14578 14579 14580 14581 14582 14583 14584 14585 14586 14587 14588 14589 14590 14591 14592 14593 14594 14595 14596 14597 14598 14599 14600 14601 14602 14603 14604 14605 14606 14607 14608 14609 14610 14611 14612 14613 14614 14615 14616 14617 14618 14619 14620 14621 14622 14623 14624 14625 14626 14627 14628 14629 14630 14631 14632 14633 14634 14635 14636 14637 14638 14639 14640 14641 14642 14643 14644 14645 14646 14647 14648 14649 14650 14651 14652 14653 14654 14655 14656 14657 14658 14659 14660 14661 14662 14663 14664 14665 14666 14667 14668 14669 14670 14671 14672 14673 14674 14675 14676 14677 14678 14679 14680 14681 14682 14683 14684 14685 14686 14687 14688 14689 14690 14691 14692 14693 14694 14695 14696 14697 14698 14699 14700 14701 14702 14703 14704 14705 14706 14707 14708 14709 14710 14711 14712 14713 14714 14715 14716 14717 14718 14719 14720 14721 14722 14723 14724 14725 14726 14727 14728 14729 14730 14731 14732 14733 14734 14735 14736 14737 14738 14739 14740 14741 14742 14743 14744 14745 14746 14747 14748 14749 14750 14751 14752 14753 14754 14755 14756 14757 14758 14759 14760 14761 14762 14763 14764 14765 14766 14767 14768 14769 14770 14771 14772 14773 14774 14775 14776 14777 14778 14779 14780 14781 14782 14783 14784 14785 14786 14787 14788 14789 14790 14791 14792 14793 14794 14795 14796 14797 14798 14799 14800 14801 14802 14803 14804 14805 14806 14807 14808 14809 14810 14811 14812 14813 14814 14815 14816 14817 14818 14819 14820 14821 14822 14823 14824 14825 14826 14827 14828 14829 14830 14831 14832 14833 14834 14835 14836 14837 14838 14839 14840 14841 14842 14843 14844 14845 14846 14847 14848 14849 14850 14851 14852 14853 14854 14855 14856 14857 14858 14859 14860 14861 14862 14863 14864 14865 14866 14867 14868 14869 14870 14871 14872 14873 14874 14875 14876 14877 14878 14879 14880 14881 14882 14883 14884 14885 14886 14887 14888 14889 14890 14891 14892 14893 14894 14895 14896 14897 14898 14899 14900 14901 14902 14903 14904 14905 14906 14907 14908 14909 14910 14911 14912 14913 14914 14915 14916 14917 14918 14919 14920 14921 14922 14923 14924 14925 14926 14927 14928 14929 14930 14931 14932 14933 14934 14935 14936 14937 14938 14939 14940 14941 14942 14943 14944 14945 14946 14947 14948 14949 14950 14951 14952 14953 14954 14955 14956 14957 14958 14959 14960 14961 14962 14963 14964 14965 14966 14967 14968 14969 14970 14971 14972 14973 14974 14975 14976 14977 14978 14979 14980 14981 14982 14983 14984 14985 14986 14987 14988 14989 14990 14991 14992 14993 14994 14995 14996 14997 14998 14999 15000 15001 15002 15003 15004 15005 15006 15007 15008 15009 15010 15011 15012 15013 15014 15015 15016 15017 15018 15019 15020 15021 15022 15023 15024 15025 15026 15027 15028 15029 15030 15031 15032 15033 15034 15035 15036 15037 15038 15039 15040 15041 15042 15043 15044 15045 15046 15047 15048 15049 15050 15051 15052 15053 15054 15055 15056 15057 15058 15059 15060 15061 15062 15063 15064 15065 15066 15067 15068 15069 15070 15071 15072 15073 15074 15075 15076 15077 15078 15079 15080 15081 15082 15083 15084 15085 15086 15087 15088 15089 15090 15091 15092 15093 15094 15095 15096 15097 15098 15099 15100 15101 15102 15103 15104 15105 15106 15107 15108 15109 15110 15111 15112 15113 15114 15115 15116 15117 15118 15119 15120 15121 15122 15123 15124 15125 15126 15127 15128 15129 15130 15131 15132 15133 15134 15135 15136 15137 15138 15139 15140 15141 15142 15143 15144 15145 15146 15147 15148 15149 15150 15151 15152 15153 15154 15155 15156 15157 15158 15159 15160 15161 15162 15163 15164 15165 15166 15167 15168 15169 15170 15171 15172 15173 15174 15175 15176 15177 15178 15179 15180 15181 15182 15183 15184 15185 15186 15187 15188 15189 15190 15191 15192 15193 15194 15195 15196 15197 15198 15199 15200 15201 15202 15203 15204 15205 15206 15207 15208 15209 15210 15211 15212 15213 15214 15215 15216 15217 15218 15219 15220 15221 15222 15223 15224 15225 15226 15227 15228 15229 15230 15231 15232 15233 15234 15235 15236 15237 15238 15239 15240 15241 15242 15243 15244 15245 15246 15247 15248 15249 15250 15251 15252 15253 15254 15255 15256 15257 15258 15259 15260 15261 15262 15263 15264 15265 15266 15267 15268 15269 15270 15271 15272 15273 15274 15275 15276 15277 15278 15279 15280 15281 15282 15283 15284 15285 15286 15287 15288 15289 15290 15291 15292 15293 15294 15295 15296 15297 15298 15299 15300 15301 15302 15303 15304 15305 15306 15307 15308 15309 15310 15311 15312 15313 15314 15315 15316 15317 15318 15319 15320 15321 15322 15323 15324 15325 15326 15327 15328 15329 15330 15331 15332 15333 15334 15335 15336 15337 15338 15339 15340 15341 15342 15343 15344 15345 15346 15347 15348 15349 15350 15351 15352 15353 15354 15355 15356 15357 15358 15359 15360 15361 15362 15363 15364 15365 15366 15367 15368 15369 15370 15371 15372 15373 15374 15375 15376 15377 15378 15379 15380 15381 15382 15383 15384 15385 15386 15387 15388 15389 15390 15391 15392 15393 15394 15395 15396 15397 15398 15399 15400 15401 15402 15403 15404 15405 15406 15407 15408 15409 15410 15411 15412 15413 15414 15415 15416 15417 15418 15419 15420 15421 15422 15423 15424 15425 15426 15427 15428 15429 15430 15431 15432 15433 15434 15435 15436 15437 15438 15439 15440 15441 15442 15443 15444 15445 15446 15447 15448 15449 15450 15451 15452 15453 15454 15455 15456 15457 15458 15459 15460 15461 15462 15463 15464 15465 15466 15467 15468 15469 15470 15471 15472 15473 15474 15475 15476 15477 15478 15479 15480 15481 15482 15483 15484 15485 15486 15487 15488 15489 15490 15491 15492 15493 15494 15495 15496 15497 15498 15499 15500 15501 15502 15503 15504 15505 15506 15507 15508 15509 15510 15511 15512 15513 15514 15515 15516 15517 15518 15519 15520 15521 15522 15523 15524 15525 15526 15527 15528 15529 15530 15531 15532 15533 15534 15535 15536 15537 15538 15539 15540 15541 15542 15543 15544 15545 15546 15547 15548 15549 15550 15551 15552 15553 15554 15555 15556 15557 15558 15559 15560 15561 15562 15563 15564 15565 15566 15567 15568 15569 15570 15571 15572 15573 15574 15575 15576 15577 15578 15579 15580 15581 15582 15583 15584 15585 15586 15587 15588 15589 15590 15591 15592 15593 15594 15595 15596 15597 15598 15599 15600 15601 15602 15603 15604 15605 15606 15607 15608 15609 15610 15611 15612 15613 15614 15615 15616 15617 15618 15619 15620 15621 15622 15623 15624 15625 15626 15627 15628 15629 15630 15631 15632 15633 15634 15635 15636 15637 15638 15639 15640 15641 15642 15643 15644 15645 15646 15647 15648 15649 15650 15651 15652 15653 15654 15655 15656 15657 15658 15659 15660 15661 15662 15663 15664 15665 15666 15667 15668 15669 15670 15671 15672 15673 15674 15675 15676 15677 15678 15679 15680 15681 15682 15683 15684 15685 15686 15687 15688 15689 15690 15691 15692 15693 15694 15695 15696 15697 15698 15699 15700 15701 15702 15703 15704 15705 15706 15707 15708 15709 15710 15711 15712 15713 15714 15715 15716 15717 15718 15719 15720 15721 15722 15723 15724 15725 15726 15727 15728 15729 15730 15731 15732 15733 15734 15735 15736 15737 15738 15739 15740 15741 15742 15743 15744 15745 15746 15747 15748 15749 15750 15751 15752 15753 15754 15755 15756 15757 15758 15759 15760 15761 15762 15763 15764 15765 15766 15767 15768 15769 15770 15771 15772 15773 15774 15775 15776 15777 15778 15779 15780 15781 15782 15783 15784 15785 15786 15787 15788 15789 15790 15791 15792 15793 15794 15795 15796 15797 15798 15799 15800 15801 15802 15803 15804 15805 15806 15807 15808 15809 15810 15811 15812 15813 15814 15815 15816 15817 15818 15819 15820 15821 15822 15823 15824 15825 15826 15827 15828 15829 15830 15831 15832 15833 15834 15835 15836 15837 15838 15839 15840 15841 15842 15843 15844 15845 15846 15847 15848 15849 15850 15851 15852 15853 15854 15855 15856 15857 15858 15859 15860 15861 15862 15863 15864 15865 15866 15867 15868 15869 15870 15871 15872 15873 15874 15875 15876 15877 15878 15879 15880 15881 15882 15883 15884 15885 15886 15887 15888 15889 15890 15891 15892 15893 15894 15895 15896 15897 15898 15899 15900 15901 15902 15903 15904 15905 15906 15907 15908 15909 15910 15911 15912 15913 15914 15915 15916 15917 15918 15919 15920 15921 15922 15923 15924 15925 15926 15927 15928 15929 15930 15931 15932 15933 15934 15935 15936 15937 15938 15939 15940 15941 15942 15943 15944 15945 15946 15947 15948 15949 15950 15951 15952 15953 15954 15955 15956 15957 15958 15959 15960 15961 15962 15963 15964 15965 15966 15967 15968 15969 15970 15971 15972 15973 15974 15975 15976 15977 15978 15979 15980 15981 15982 15983 15984 15985 15986 15987 15988 15989 15990 15991 15992 15993 15994 15995 15996 15997 15998 15999 16000 16001 16002 16003 16004 16005 16006 16007 16008 16009 16010 16011 16012 16013 16014 16015 16016 16017 16018 16019 16020 16021 16022 16023 16024 16025 16026 16027 16028 16029 16030 16031 16032 16033 16034 16035 16036 16037 16038 16039 16040 16041 16042 16043 16044 16045 16046 16047 16048 16049 16050 16051 16052 16053 16054 16055 16056 16057 16058 16059 16060 16061 16062 16063 16064 16065 16066 16067 16068 16069 16070 16071 16072 16073 16074 16075 16076 16077 16078 16079 16080 16081 16082 16083 16084 16085 16086 16087 16088 16089 16090 16091 16092 16093 16094 16095 16096 16097 16098 16099 16100 16101 16102 16103 16104 16105 16106 16107 16108 16109 16110 16111 16112 16113 16114 16115 16116 16117 16118 16119 16120 16121 16122 16123 16124 16125 16126 16127 16128 16129 16130 16131 16132 16133 16134 16135 16136 16137 16138 16139 16140 16141 16142 16143 16144 16145 16146 16147 16148 16149 16150 16151 16152 16153 16154 16155 16156 16157 16158 16159 16160 16161 16162 16163 16164 16165 16166 16167 16168 16169 16170 16171 16172 16173 16174 16175 16176 16177 16178 16179 16180 16181 16182 16183 16184 16185 16186 16187 16188 16189 16190 16191 16192 16193 16194 16195 16196 16197 16198 16199 16200 16201 16202 16203 16204 16205 16206 16207 16208 16209 16210 16211 16212 16213 16214 16215 16216 16217 16218 16219 16220 16221 16222 16223 16224 16225 16226 16227 16228 16229 16230 16231 16232 16233 16234 16235 16236 16237 16238 16239 16240 16241 16242 16243 16244 16245 16246 16247 16248 16249 16250 16251 16252 16253 16254 16255 16256 16257 16258 16259 16260 16261 16262 16263 16264 16265 16266 16267 16268 16269 16270 16271 16272 16273 16274 16275 16276 16277 16278 16279 16280 16281 16282 16283 16284 16285 16286 16287 16288 16289 16290 16291 16292 16293 16294 16295 16296 16297 16298 16299 16300 16301 16302 16303 16304 16305 16306 16307 16308 16309 16310 16311 16312 16313 16314 16315 16316 16317 16318 16319 16320 16321 16322 16323 16324 16325 16326 16327 16328 16329 16330 16331 16332 16333 16334 16335 16336 16337 16338 16339 16340 16341 16342 16343 16344 16345 16346 16347 16348 16349 16350 16351 16352 16353 16354 16355 16356 16357 16358 16359 16360 16361 16362 16363 16364 16365 16366 16367 16368 16369 16370 16371 16372 16373 16374 16375 16376 16377 16378 16379 16380 16381 16382 16383 16384 16385 16386 16387 16388 16389 16390 16391 16392 16393 16394 16395 16396 16397 16398 16399 16400 16401 16402 16403 16404 16405 16406 16407 16408 16409 16410 16411 16412 16413 16414 16415 16416 16417 16418 16419 16420 16421 16422 16423 16424 16425 16426 16427 16428 16429 16430 16431 16432 16433 16434 16435 16436 16437 16438 16439 16440 16441 16442 16443 16444 16445 16446 16447 16448 16449 16450 16451 16452 16453 16454 16455 16456 16457 16458 16459 16460 16461 16462 16463 16464 16465 16466 16467 16468 16469 16470 16471 16472 16473 16474 16475 16476 16477 16478 16479 16480 16481 16482 16483 16484 16485 16486 16487 16488 16489 16490 16491 16492 16493 16494 16495 16496 16497 16498 16499 16500 16501 16502 16503 16504 16505 16506 16507 16508 16509 16510 16511 16512 16513 16514 16515 16516 16517 16518 16519 16520 16521 16522 16523 16524 16525 16526 16527 16528 16529 16530 16531 16532 16533 16534 16535 16536 16537 16538 16539 16540 16541 16542 16543 16544 16545 16546 16547 16548 16549 16550 16551 16552 16553 16554 16555 16556 16557 16558 16559 16560 16561 16562 16563 16564 16565 16566 16567 16568 16569 16570 16571 16572 16573 16574 16575 16576 16577 16578 16579 16580 16581 16582 16583 16584 16585 16586 16587 16588 16589 16590 16591 16592 16593 16594 16595 16596 16597 16598 16599 16600 16601 16602 16603 16604 16605 16606 16607 16608 16609 16610 16611 16612 16613 16614 16615 16616 16617 16618 16619 16620 16621 16622 16623 16624 16625 16626 16627 16628 16629 16630 16631 16632 16633 16634 16635 16636 16637 16638 16639 16640 16641 16642 16643 16644 16645 16646 16647 16648 16649 16650 16651 16652 16653 16654 16655 16656 16657 16658 16659 16660 16661 16662 16663 16664 16665 16666 16667 16668 16669 16670 16671 16672 16673 16674 16675 16676 16677 16678 16679 16680 16681 16682 16683 16684 16685 16686 16687 16688 16689 16690 16691 16692 16693 16694 16695 16696 16697 16698 16699 16700 16701 16702 16703 16704 16705 16706 16707 16708 16709 16710 16711 16712 16713 16714 16715 16716 16717 16718 16719 16720 16721 16722 16723 16724 16725 16726 16727 16728 16729 16730 16731 16732 16733 16734 16735 16736 16737 16738 16739 16740 16741 16742 16743 16744 16745 16746 16747 16748 16749 16750 16751 16752 16753 16754 16755 16756 16757 16758 16759 16760 16761 16762 16763 16764 16765 16766 16767 16768 16769 16770 16771 16772 16773 16774 16775 16776 16777 16778 16779 16780 16781 16782 16783 16784 16785 16786 16787 16788 16789 16790 16791 16792 16793 16794 16795 16796 16797 16798 16799 16800 16801 16802 16803 16804 16805 16806 16807 16808 16809 16810 16811 16812 16813 16814 16815 16816 16817 16818 16819 16820 16821 16822 16823 16824 16825 16826 16827 16828 16829 16830 16831 16832 16833 16834 16835 16836 16837 16838 16839 16840 16841 16842 16843 16844 16845 16846 16847 16848 16849 16850 16851 16852 16853 16854 16855 16856 16857 16858 16859 16860 16861 16862 16863 16864 16865 16866 16867 16868 16869 16870 16871 16872 16873 16874 16875 16876 16877 16878 16879 16880 16881 16882 16883 16884 16885 16886 16887 16888 16889 16890 16891 16892 16893 16894 16895 16896 16897 16898 16899 16900 16901 16902 16903 16904 16905 16906 16907 16908 16909 16910 16911 16912 16913 16914 16915 16916 16917 16918 16919 16920 16921 16922 16923 16924 16925 16926 16927 16928 16929 16930 16931 16932 16933 16934 16935 16936 16937 16938 16939 16940 16941 16942 16943 16944 16945 16946 16947 16948 16949 16950 16951 16952 16953 16954 16955 16956 16957 16958 16959 16960 16961 16962 16963 16964 16965 16966 16967 16968 16969 16970 16971 16972 16973 16974 16975 16976 16977 16978 16979 16980 16981 16982 16983 16984 16985 16986 16987 16988 16989 16990 16991 16992 16993 16994 16995 16996 16997 16998 16999 17000 17001 17002 17003 17004 17005 17006 17007 17008 17009 17010 17011 17012 17013 17014 17015 17016 17017 17018 17019 17020 17021 17022 17023 17024 17025 17026 17027 17028 17029 17030 17031 17032 17033 17034 17035 17036 17037 17038 17039 17040 17041 17042 17043 17044 17045 17046 17047 17048 17049 17050 17051 17052 17053 17054 17055 17056 17057 17058 17059 17060 17061 17062 17063 17064 17065 17066 17067 17068 17069 17070 17071 17072 17073 17074 17075 17076 17077 17078 17079 17080 17081 17082 17083 17084 17085 17086 17087 17088 17089 17090 17091 17092 17093 17094 17095 17096 17097 17098 17099 17100 17101 17102 17103 17104 17105 17106 17107 17108 17109 17110 17111 17112 17113 17114 17115 17116 17117 17118 17119 17120 17121 17122 17123 17124 17125 17126 17127 17128 17129 17130 17131 17132 17133 17134 17135 17136 17137 17138 17139 17140 17141 17142 17143 17144 17145 17146 17147 17148 17149 17150 17151 17152 17153 17154 17155 17156 17157 17158 17159 17160 17161 17162 17163 17164 17165 17166 17167 17168 17169 17170 17171 17172 17173 17174 17175 17176 17177 17178 17179 17180 17181 17182 17183 17184 17185 17186 17187 17188 17189 17190 17191 17192 17193 17194 17195 17196 17197 17198 17199 17200 17201 17202 17203 17204 17205 17206 17207 17208 17209 17210 17211 17212 17213 17214 17215 17216 17217 17218 17219 17220 17221 17222 17223 17224 17225 17226 17227 17228 17229 17230 17231 17232 17233 17234 17235 17236 17237 17238 17239 17240 17241 17242 17243 17244 17245 17246 17247 17248 17249 17250 17251 17252 17253 17254 17255 17256 17257 17258 17259 17260 17261 17262 17263 17264 17265 17266 17267 17268 17269 17270 17271 17272 17273 17274 17275 17276 17277 17278 17279 17280 17281 17282 17283 17284 17285 17286 17287 17288 17289 17290 17291 17292 17293 17294 17295 17296 17297 17298 17299 17300 17301 17302 17303 17304 17305 17306 17307 17308 17309 17310 17311 17312 17313 17314 17315 17316 17317 17318 17319 17320 17321 17322 17323 17324 17325 17326 17327 17328 17329 17330 17331 17332 17333 17334 17335 17336 17337 17338 17339 17340 17341 17342 17343 17344 17345 17346 17347 17348 17349 17350 17351 17352 17353 17354 17355 17356 17357 17358 17359 17360 17361 17362 17363 17364 17365 17366 17367 17368 17369 17370 17371 17372 17373 17374 17375 17376 17377 17378 17379 17380 17381 17382 17383 17384 17385 17386 17387 17388 17389 17390 17391 17392 17393 17394 17395 17396 17397 17398 17399 17400 17401 17402 17403 17404 17405 17406 17407 17408 17409 17410 17411 17412 17413 17414 17415 17416 17417 17418 17419 17420 17421 17422 17423 17424 17425 17426 17427 17428 17429 17430 17431 17432 17433 17434 17435 17436 17437 17438 17439 17440 17441 17442 17443 17444 17445 17446 17447 17448 17449 17450 17451 17452 17453 17454 17455 17456 17457 17458 17459 17460 17461 17462 17463 17464 17465 17466 17467 17468 17469 17470 17471 17472 17473 17474 17475 17476 17477 17478 17479 17480 17481 17482 17483 17484 17485 17486 17487 17488 17489 17490 17491 17492 17493 17494 17495 17496 17497 17498 17499 17500 17501 17502 17503 17504 17505 17506 17507 17508 17509 17510 17511 17512 17513 17514 17515 17516 17517 17518 17519 17520 17521 17522 17523 17524 17525 17526 17527 17528 17529 17530 17531 17532 17533 17534 17535 17536 17537 17538 17539 17540 17541 17542 17543 17544 17545 17546 17547 17548 17549 17550 17551 17552 17553 17554 17555 17556 17557 17558 17559 17560 17561 17562 17563 17564 17565 17566 17567 17568 17569 17570 17571 17572 17573 17574 17575 17576 17577 17578 17579 17580 17581 17582 17583 17584 17585 17586 17587 17588 17589 17590 17591 17592 17593 17594 17595 17596 17597 17598 17599 17600 17601 17602 17603 17604 17605 17606 17607 17608 17609 17610 17611 17612 17613 17614 17615 17616 17617 17618 17619 17620 17621 17622 17623 17624 17625 17626 17627 17628 17629 17630 17631 17632 17633 17634 17635 17636 17637 17638 17639 17640 17641 17642 17643 17644 17645 17646 17647 17648 17649 17650 17651 17652 17653 17654 17655 17656 17657 17658 17659 17660 17661 17662 17663 17664 17665 17666 17667 17668 17669 17670 17671 17672 17673 17674 17675 17676 17677 17678 17679 17680 17681 17682 17683 17684 17685 17686 17687 17688 17689 17690 17691 17692 17693 17694 17695 17696 17697 17698 17699 17700 17701 17702 17703 17704 17705 17706 17707 17708 17709 17710 17711 17712 17713 17714 17715 17716 17717 17718 17719 17720 17721 17722 17723 17724 17725 17726 17727 17728 17729 17730 17731 17732 17733 17734 17735 17736 17737 17738 17739 17740 17741 17742 17743 17744 17745 17746 17747 17748 17749 17750 17751 17752 17753 17754 17755 17756 17757 17758 17759 17760 17761 17762 17763 17764 17765 17766 17767 17768 17769 17770 17771 17772 17773 17774 17775 17776 17777 17778 17779 17780 17781 17782 17783 17784 17785 17786 17787 17788 17789 17790 17791 17792 17793 17794 17795 17796 17797 17798 17799 17800 17801 17802 17803 17804 17805 17806 17807 17808 17809 17810 17811 17812 17813 17814 17815 17816 17817 17818 17819 17820 17821 17822 17823 17824 17825 17826 17827 17828 17829 17830 17831 17832 17833 17834 17835 17836 17837 17838 17839 17840 17841 17842 17843 17844 17845 17846 17847 17848 17849 17850 17851 17852 17853 17854 17855 17856 17857 17858 17859 17860 17861 17862 17863 17864 17865 17866 17867 17868 17869 17870 17871 17872 17873 17874 17875 17876 17877 17878 17879 17880 17881 17882 17883 17884 17885 17886 17887 17888 17889 17890 17891 17892 17893 17894 17895 17896 17897 17898 17899 17900 17901 17902 17903 17904 17905 17906 17907 17908 17909 17910 17911 17912 17913 17914 17915 17916 17917 17918 17919 17920 17921 17922 17923 17924 17925 17926 17927 17928 17929 17930 17931 17932 17933 17934 17935 17936 17937 17938 17939 17940 17941 17942 17943 17944 17945 17946 17947 17948 17949 17950 17951 17952 17953 17954 17955 17956 17957 17958 17959 17960 17961 17962 17963 17964 17965 17966 17967 17968 17969 17970 17971 17972 17973 17974 17975 17976 17977 17978 17979 17980 17981 17982 17983 17984 17985 17986 17987 17988 17989 17990 17991 17992 17993 17994 17995 17996 17997 17998 17999 18000 18001 18002 18003 18004 18005 18006 18007 18008 18009 18010 18011 18012 18013 18014 18015 18016 18017 18018 18019 18020 18021 18022 18023 18024 18025 18026 18027 18028 18029 18030 18031 18032 18033 18034 18035 18036 18037 18038 18039 18040 18041 18042 18043 18044 18045 18046 18047 18048 18049 18050 18051 18052 18053 18054 18055 18056 18057 18058 18059 18060 18061 18062 18063 18064 18065 18066 18067 18068 18069 18070 18071 18072 18073 18074 18075 18076 18077 18078 18079 18080 18081 18082 18083 18084 18085 18086 18087 18088 18089 18090 18091 18092 18093 18094 18095 18096 18097 18098 18099 18100 18101 18102 18103 18104 18105 18106 18107 18108 18109 18110 18111 18112 18113 18114 18115 18116 18117 18118 18119 18120 18121 18122 18123 18124 18125 18126 18127 18128 18129 18130 18131 18132 18133 18134 18135 18136 18137 18138 18139 18140 18141 18142 18143 18144 18145 18146 18147 18148 18149 18150 18151 18152 18153 18154 18155 18156 18157 18158 18159 18160 18161 18162 18163 18164 18165 18166 18167 18168 18169 18170 18171 18172 18173 18174 18175 18176 18177 18178 18179 18180 18181 18182 18183 18184 18185 18186 18187 18188 18189 18190 18191 18192 18193 18194 18195 18196 18197 18198 18199 18200 18201 18202 18203 18204 18205 18206 18207 18208 18209 18210 18211 18212 18213 18214 18215 18216 18217 18218 18219 18220 18221 18222 18223 18224 18225 18226 18227 18228 18229 18230 18231 18232 18233 18234 18235 18236 18237 18238 18239 18240 18241 18242 18243 18244 18245 18246 18247 18248 18249 18250 18251 18252 18253 18254 18255 18256 18257 18258 18259 18260 18261 18262 18263 18264 18265 18266 18267 18268 18269 18270 18271 18272 18273 18274 18275 18276 18277 18278 18279 18280 18281 18282 18283 18284 18285 18286 18287 18288 18289 18290 18291 18292 18293 18294 18295 18296 18297 18298 18299 18300 18301 18302 18303 18304 18305 18306 18307 18308 18309 18310 18311 18312 18313 18314 18315 18316 18317 18318 18319 18320 18321 18322 18323 18324 18325 18326 18327 18328 18329 18330 18331 18332 18333 18334 18335 18336 18337 18338 18339 18340 18341 18342 18343 18344 18345 18346 18347 18348 18349 18350 18351 18352 18353 18354 18355 18356 18357 18358 18359 18360 18361 18362 18363 18364 18365 18366 18367 18368 18369 18370 18371 18372 18373 18374 18375 18376 18377 18378 18379 18380 18381 18382 18383 18384 18385 18386 18387 18388 18389 18390 18391 18392 18393 18394 18395 18396 18397 18398 18399 18400 18401 18402 18403 18404 18405 18406 18407 18408 18409 18410 18411 18412 18413 18414 18415 18416 18417 18418 18419 18420 18421 18422 18423 18424 18425 18426 18427 18428 18429 18430 18431 18432 18433 18434 18435 18436 18437 18438 18439 18440 18441 18442 18443 18444 18445 18446 18447 18448 18449 18450 18451 18452 18453 18454 18455 18456 18457 18458 18459 18460 18461 18462 18463 18464 18465 18466 18467 18468 18469 18470 18471 18472 18473 18474 18475 18476 18477 18478 18479 18480 18481 18482 18483 18484 18485 18486 18487 18488 18489 18490 18491 18492 18493 18494 18495 18496 18497 18498 18499 18500 18501 18502 18503 18504 18505 18506 18507 18508 18509 18510 18511 18512 18513 18514 18515 18516 18517 18518 18519 18520 18521 18522 18523 18524 18525 18526 18527 18528 18529 18530 18531 18532 18533 18534 18535 18536 18537 18538 18539 18540 18541 18542 18543 18544 18545 18546 18547 18548 18549 18550 18551 18552 18553 18554 18555 18556 18557 18558 18559 18560 18561 18562 18563 18564 18565 18566 18567 18568 18569 18570 18571 18572 18573 18574 18575 18576 18577 18578 18579 18580 18581 18582 18583 18584 18585 18586 18587 18588 18589 18590 18591 18592 18593 18594 18595 18596 18597 18598 18599 18600 18601 18602 18603 18604 18605 18606 18607 18608 18609 18610 18611 18612 18613 18614 18615 18616 18617 18618 18619 18620 18621 18622 18623 18624 18625 18626 18627 18628 18629 18630 18631 18632 18633 18634 18635 18636 18637 18638 18639 18640 18641 18642 18643 18644 18645 18646 18647 18648 18649 18650 18651 18652 18653 18654 18655 18656 18657 18658 18659 18660 18661 18662 18663 18664 18665 18666 18667 18668 18669 18670 18671 18672 18673 18674 18675 18676 18677 18678 18679 18680 18681 18682 18683 18684 18685 18686 18687 18688 18689 18690 18691 18692 18693 18694 18695 18696 18697 18698 18699 18700 18701 18702 18703 18704 18705 18706 18707 18708 18709 18710 18711 18712 18713 18714 18715 18716 18717 18718 18719 18720 18721 18722 18723 18724 18725 18726 18727 18728 18729 18730 18731 18732 18733 18734 18735 18736 18737 18738 18739 18740 18741 18742 18743 18744 18745 18746 18747 18748 18749 18750 18751 18752 18753 18754 18755 18756 18757 18758 18759 18760 18761 18762 18763 18764 18765 18766 18767 18768 18769 18770 18771 18772 18773 18774 18775 18776 18777 18778 18779 18780 18781 18782 18783 18784 18785 18786 18787 18788 18789 18790 18791 18792 18793 18794 18795 18796 18797 18798 18799 18800 18801 18802 18803 18804 18805 18806 18807 18808 18809 18810 18811 18812 18813 18814 18815 18816 18817 18818 18819 18820 18821 18822 18823 18824 18825 18826 18827 18828 18829 18830 18831 18832 18833 18834 18835 18836 18837 18838 18839 18840 18841 18842 18843 18844 18845 18846 18847 18848 18849 18850 18851 18852 18853 18854 18855 18856 18857 18858 18859 18860 18861 18862 18863 18864 18865 18866 18867 18868 18869 18870 18871 18872 18873 18874 18875 18876 18877 18878 18879 18880 18881 18882 18883 18884 18885 18886 18887 18888 18889 18890 18891 18892 18893 18894 18895 18896 18897 18898 18899 18900 18901 18902 18903 18904 18905 18906 18907 18908 18909 18910 18911 18912 18913 18914 18915 18916 18917 18918 18919 18920 18921 18922 18923 18924 18925 18926 18927 18928 18929 18930 18931 18932 18933 18934 18935 18936 18937 18938 18939 18940 18941 18942 18943 18944 18945 18946 18947 18948 18949 18950 18951 18952 18953 18954 18955 18956 18957 18958 18959 18960 18961 18962 18963 18964 18965 18966 18967 18968 18969 18970 18971 18972 18973 18974 18975 18976 18977 18978 18979 18980 18981 18982 18983 18984 18985 18986 18987 18988 18989 18990 18991 18992 18993 18994 18995 18996 18997 18998 18999 19000 19001 19002 19003 19004 19005 19006 19007 19008 19009 19010 19011 19012 19013 19014 19015 19016 19017 19018 19019 19020 19021 19022 19023 19024 19025 19026 19027 19028 19029 19030 19031 19032 19033 19034 19035 19036 19037 19038 19039 19040 19041 19042 19043 19044 19045 19046 19047 19048 19049 19050 19051 19052 19053 19054 19055 19056 19057 19058 19059 19060 19061 19062 19063 19064 19065 19066 19067 19068 19069 19070 19071 19072 19073 19074 19075 19076 19077 19078 19079 19080 19081 19082 19083 19084 19085 19086 19087 19088 19089 19090 19091 19092 19093 19094 19095 19096 19097 19098 19099 19100 19101 19102 19103 19104 19105 19106 19107 19108 19109 19110 19111 19112 19113 19114 19115 19116 19117 19118 19119 19120 19121 19122 19123 19124 19125 19126 19127 19128 19129 19130 19131 19132 19133 19134 19135 19136 19137 19138 19139 19140 19141 19142 19143 19144 19145 19146 19147 19148 19149 19150 19151 19152 19153 19154 19155 19156 19157 19158 19159 19160 19161 19162 19163 19164 19165 19166 19167 19168 19169 19170 19171 19172 19173 19174 19175 19176 19177 19178 19179 19180 19181 19182 19183 19184 19185 19186 19187 19188 19189 19190 19191 19192 19193 19194 19195 19196 19197 19198 19199 19200 19201 19202 19203 19204 19205 19206 19207 19208 19209 19210 19211 19212 19213 19214 19215 19216 19217 19218 19219 19220 19221 19222 19223 19224 19225 19226 19227 19228 19229 19230 19231 19232 19233 19234 19235 19236 19237 19238 19239 19240 19241 19242 19243 19244 19245 19246 19247 19248 19249 19250 19251 19252 19253 19254 19255 19256 19257 19258 19259 19260 19261 19262 19263 19264 19265 19266 19267 19268 19269 19270 19271 19272 19273 19274 19275 19276 19277 19278 19279 19280 19281 19282 19283 19284 19285 19286 19287 19288 19289 19290 19291 19292 19293 19294 19295 19296 19297 19298 19299 19300 19301 19302 19303 19304 19305 19306 19307 19308 19309 19310 19311 19312 19313 19314 19315 19316 19317 19318 19319 19320 19321 19322 19323 19324 19325 19326 19327 19328 19329 19330 19331 19332 19333 19334 19335 19336 19337 19338 19339 19340 19341 19342 19343 19344 19345 19346 19347 19348 19349 19350 19351 19352 19353 19354 19355 19356 19357 19358 19359 19360 19361 19362 19363 19364 19365 19366 19367 19368 19369 19370 19371 19372 19373 19374 19375 19376 19377 19378 19379 19380 19381 19382 19383 19384 19385 19386 19387 19388 19389 19390 19391 19392 19393 19394 19395 19396 19397 19398 19399 19400 19401 19402 19403 19404 19405 19406 19407 19408 19409 19410 19411 19412 19413 19414 19415 19416 19417 19418 19419 19420 19421 19422 19423 19424 19425 19426 19427 19428 19429 19430 19431 19432 19433 19434 19435 19436 19437 19438 19439 19440 19441 19442 19443 19444 19445 19446 19447 19448 19449 19450 19451 19452 19453 19454 19455 19456 19457 19458 19459 19460 19461 19462 19463 19464 19465 19466 19467 19468 19469 19470 19471 19472 19473 19474 19475 19476 19477 19478 19479 19480 19481 19482 19483 19484 19485 19486 19487 19488 19489 19490 19491 19492 19493 19494 19495 19496 19497 19498 19499 19500 19501 19502 19503 19504 19505 19506 19507 19508 19509 19510 19511 19512 19513 19514 19515 19516 19517 19518 19519 19520 19521 19522 19523 19524 19525 19526 19527 19528 19529 19530 19531 19532 19533 19534 19535 19536 19537 19538 19539 19540 19541 19542 19543 19544 19545 19546 19547 19548 19549 19550 19551 19552 19553 19554 19555 19556 19557 19558 19559 19560 19561 19562 19563 19564 19565 19566 19567 19568 19569 19570 19571 19572 19573 19574 19575 19576 19577 19578 19579 19580 19581 19582 19583 19584 19585 19586 19587 19588 19589 19590 19591 19592 19593 19594 19595 19596 19597 19598 19599 19600 19601 19602 19603 19604 19605 19606 19607 19608 19609 19610 19611 19612 19613 19614 19615 19616 19617 19618 19619 19620 19621 19622 19623 19624 19625 19626 19627 19628 19629 19630 19631 19632 19633 19634 19635 19636 19637 19638 19639 19640 19641 19642 19643 19644 19645 19646 19647 19648 19649 19650 19651 19652 19653 19654 19655 19656 19657 19658 19659 19660 19661 19662 19663 19664 19665 19666 19667 19668 19669 19670 19671 19672 19673 19674 19675 19676 19677 19678 19679 19680 19681 19682 19683 19684 19685 19686 19687 19688 19689 19690 19691 19692 19693 19694 19695 19696 19697 19698 19699 19700 19701 19702 19703 19704 19705 19706 19707 19708 19709 19710 19711 19712 19713 19714 19715 19716 19717 19718 19719 19720 19721 19722 19723 19724 19725 19726 19727 19728 19729 19730 19731 19732 19733 19734 19735 19736 19737 19738 19739 19740 19741 19742 19743 19744 19745 19746 19747 19748 19749 19750 19751 19752 19753 19754 19755 19756 19757 19758 19759 19760 19761 19762 19763 19764 19765 19766 19767 19768 19769 19770 19771 19772 19773 19774 19775 19776 19777 19778 19779 19780 19781 19782 19783 19784 19785 19786 19787 19788 19789 19790 19791 19792 19793 19794 19795 19796 19797 19798 19799 19800 19801 19802 19803 19804 19805 19806 19807 19808 19809 19810 19811 19812 19813 19814 19815 19816 19817 19818 19819 19820 19821 19822 19823 19824 19825 19826 19827 19828 19829 19830 19831 19832 19833 19834 19835 19836 19837 19838 19839 19840 19841 19842 19843 19844 19845 19846 19847 19848 19849 19850 19851 19852 19853 19854 19855 19856 19857 19858 19859 19860 19861 19862 19863 19864 19865 19866 19867 19868 19869 19870 19871 19872 19873 19874 19875 19876 19877 19878 19879 19880 19881 19882 19883 19884 19885 19886 19887 19888 19889 19890 19891 19892 19893 19894 19895 19896 19897 19898 19899 19900 19901 19902 19903 19904 19905 19906 19907 19908 19909 19910 19911 19912 19913 19914 19915 19916 19917 19918 19919 19920 19921 19922 19923 19924 19925 19926 19927 19928 19929 19930 19931 19932 19933 19934 19935 19936 19937 19938 19939 19940 19941 19942 19943 19944 19945 19946 19947 19948 19949 19950 19951 19952 19953 19954 19955 19956 19957 19958 19959 19960 19961 19962 19963 19964 19965 19966 19967 19968 19969 19970 19971 19972 19973 19974 19975 19976 19977 19978 19979 19980 19981 19982 19983 19984 19985 19986 19987 19988 19989 19990 19991 19992 19993 19994 19995 19996 19997 19998 19999 20000 20001 20002 20003 20004 20005 20006 20007 20008 20009 20010 20011 20012 20013 20014 20015 20016 20017 20018 20019 20020 20021 20022 20023 20024 20025 20026 20027 20028 20029 20030 20031 20032 20033 20034 20035 20036 20037 20038 20039 20040 20041 20042 20043 20044 20045 20046 20047 20048 20049 20050 20051 20052 20053 20054 20055 20056 20057 20058 20059 20060 20061 20062 20063 20064 20065 20066 20067 20068 20069 20070 20071 20072 20073 20074 20075 20076 20077 20078 20079 20080 20081 20082 20083 20084 20085 20086 20087 20088 20089 20090 20091 20092 20093 20094 20095 20096 20097 20098 20099 20100 20101 20102 20103 20104 20105 20106 20107 20108 20109 20110 20111 20112 20113 20114 20115 20116 20117 20118 20119 20120 20121 20122 20123 20124 20125 20126 20127 20128 20129 20130 20131 20132 20133 20134 20135 20136 20137 20138 20139 20140 20141 20142 20143 20144 20145 20146 20147 20148 20149 20150 20151 20152 20153 20154 20155 20156 20157 20158 20159 20160 20161 20162 20163 20164 20165 20166 20167 20168 20169 20170 20171 20172 20173 20174 20175 20176 20177 20178 20179 20180 20181 20182 20183 20184 20185 20186 20187 20188 20189 20190 20191 20192 20193 20194 20195 20196 20197 20198 20199 20200 20201 20202 20203 20204 20205 20206 20207 20208 20209 20210 20211 20212 20213 20214 20215 20216 20217 20218 20219 20220 20221 20222 20223 20224 20225 20226 20227 20228 20229 20230 20231 20232 20233 20234 20235 20236 20237 20238 20239 20240 20241 20242 20243 20244 20245 20246 20247 20248 20249 20250 20251 20252 20253 20254 20255 20256 20257 20258 20259 20260 20261 20262 20263 20264 20265 20266 20267 20268 20269 20270 20271 20272 20273 20274 20275 20276 20277 20278 20279 20280 20281 20282 20283 20284 20285 20286 20287 20288 20289 20290 20291 20292 20293 20294 20295 20296 20297 20298 20299 20300 20301 20302 20303 20304 20305 20306 20307 20308 20309 20310 20311 20312 20313 20314 20315 20316 20317 20318 20319 20320 20321 20322 20323 20324 20325 20326 20327 20328 20329 20330 20331 20332 20333 20334 20335 20336 20337 20338 20339 20340 20341 20342 20343 20344 20345 20346 20347 20348 20349 20350 20351 20352 20353 20354 20355 20356 20357 20358 20359 20360 20361 20362 20363 20364 20365 20366 20367 20368 20369 20370 20371 20372 20373 20374 20375 20376 20377 20378 20379 20380 20381 20382 20383 20384 20385 20386 20387 20388 20389 20390 20391 20392 20393 20394 20395 20396 20397 20398 20399 20400 20401 20402 20403 20404 20405 20406 20407 20408 20409 20410 20411 20412 20413 20414 20415 20416 20417 20418 20419 20420 20421 20422 20423 20424 20425 20426 20427 20428 20429 20430 20431 20432 20433 20434 20435 20436 20437 20438 20439 20440 20441 20442 20443 20444 20445 20446 20447 20448 20449 20450 20451 20452 20453 20454 20455 20456 20457 20458 20459 20460 20461 20462 20463 20464 20465 20466 20467 20468 20469 20470 20471 20472 20473 20474 20475 20476 20477 20478 20479 20480 20481 20482 20483 20484 20485 20486 20487 20488 20489 20490 20491 20492 20493 20494 20495 20496 20497 20498 20499 20500 20501 20502 20503 20504 20505 20506 20507 20508 20509 20510 20511 20512 20513 20514 20515 20516 20517 20518 20519 20520 20521 20522 20523 20524 20525 20526 20527 20528 20529 20530 20531 20532 20533 20534 20535 20536 20537 20538 20539 20540 20541 20542 20543 20544 20545 20546 20547 20548 20549 20550 20551 20552 20553 20554 20555 20556 20557 20558 20559 20560 20561 20562 20563 20564 20565 20566 20567 20568 20569 20570 20571 20572 20573 20574 20575 20576 20577 20578 20579 20580 20581 20582 20583 20584 20585 20586 20587 20588 20589 20590 20591 20592 20593 20594 20595 20596 20597 20598 20599 20600 20601 20602 20603 20604 20605 20606 20607 20608 20609 20610 20611 20612 20613 20614 20615 20616 20617 20618 20619 20620 20621 20622 20623 20624 20625 20626 20627 20628 20629 20630 20631 20632 20633 20634 20635 20636 20637 20638 20639 20640 20641 20642 20643 20644 20645 20646 20647 20648 20649 20650 20651 20652 20653 20654 20655 20656 20657 20658 20659 20660 20661 20662 20663 20664 20665 20666 20667 20668 20669 20670 20671 20672 20673 20674 20675 20676 20677 20678 20679 20680 20681 20682 20683 20684 20685 20686 20687 20688 20689 20690 20691 20692 20693 20694 20695 20696 20697 20698 20699 20700 20701 20702 20703 20704 20705 20706 20707 20708 20709 20710 20711 20712 20713 20714 20715 20716 20717 20718 20719 20720 20721 20722 20723 20724 20725 20726 20727 20728 20729 20730 20731 20732 20733 20734 20735 20736 20737 20738 20739 20740 20741 20742 20743 20744 20745 20746 20747 20748 20749 20750 20751 20752 20753 20754 20755 20756 20757 20758 20759 20760 20761 20762 20763 20764 20765 20766 20767 20768 20769 20770 20771 20772 20773 20774 20775 20776 20777 20778 20779 20780 20781 20782 20783 20784 20785 20786 20787 20788 20789 20790 20791 20792 20793 20794 20795 20796 20797 20798 20799 20800 20801 20802 20803 20804 20805 20806 20807 20808 20809 20810 20811 20812 20813 20814 20815 20816 20817 20818 20819 20820 20821 20822 20823 20824 20825 20826 20827 20828 20829 20830 20831 20832 20833 20834 20835 20836 20837 20838 20839 20840 20841 20842 20843 20844 20845 20846 20847 20848 20849 20850 20851 20852 20853 20854 20855 20856 20857 20858 20859 20860 20861 20862 20863 20864 20865 20866 20867 20868 20869 20870 20871 20872 20873 20874 20875 20876 20877 20878 20879 20880 20881 20882 20883 20884 20885 20886 20887 20888 20889 20890 20891 20892 20893 20894 20895 20896 20897 20898 20899 20900 20901 20902 20903 20904 20905 20906 20907 20908 20909 20910 20911 20912 20913 20914 20915 20916 20917 20918 20919 20920 20921 20922 20923 20924 20925 20926 20927 20928 20929 20930 20931 20932 20933 20934 20935 20936 20937 20938 20939 20940 20941 20942 20943 20944 20945 20946 20947 20948 20949 20950 20951 20952 20953 20954 20955 20956 20957 20958 20959 20960 20961 20962 20963 20964 20965 20966 20967 20968 20969 20970 20971 20972 20973 20974 20975 20976 20977 20978 20979 20980 20981 20982 20983 20984 20985 20986 20987 20988 20989 20990 20991 20992 20993 20994 20995 20996 20997 20998 20999 21000 21001 21002 21003 21004 21005 21006 21007 21008 21009 21010 21011 21012 21013 21014 21015 21016 21017 21018 21019 21020 21021 21022 21023 21024 21025 21026 21027 21028 21029 21030 21031 21032 21033 21034 21035 21036 21037 21038 21039 21040 21041 21042 21043 21044 21045 21046 21047 21048 21049 21050 21051 21052 21053 21054 21055 21056 21057 21058 21059 21060 21061 21062 21063 21064 21065 21066 21067 21068 21069 21070 21071 21072 21073 21074 21075 21076 21077 21078 21079 21080 21081 21082 21083 21084 21085 21086 21087 21088 21089 21090 21091 21092 21093 21094 21095 21096 21097 21098 21099 21100 21101 21102 21103 21104 21105 21106 21107 21108 21109 21110 21111 21112 21113 21114 21115 21116 21117 21118 21119 21120 21121 21122 21123 21124 21125 21126 21127 21128 21129 21130 21131 21132 21133 21134 21135 21136 21137 21138 21139 21140 21141 21142 21143 21144 21145 21146 21147 21148 21149 21150 21151 21152 21153 21154 21155 21156 21157 21158 21159 21160 21161 21162 21163 21164 21165 21166 21167 21168 21169 21170 21171 21172 21173 21174 21175 21176 21177 21178 21179 21180 21181 21182 21183 21184 21185 21186 21187 21188 21189 21190 21191 21192 21193 21194 21195 21196 21197 21198 21199 21200 21201 21202 21203 21204 21205 21206 21207 21208 21209 21210 21211 21212 21213 21214 21215 21216 21217 21218 21219 21220 21221 21222 21223 21224 21225 21226 21227 21228 21229 21230 21231 21232 21233 21234 21235 21236 21237 21238 21239 21240 21241 21242 21243 21244 21245 21246 21247 21248 21249 21250 21251 21252 21253 21254 21255 21256 21257 21258 21259 21260 21261 21262 21263 21264 21265 21266 21267 21268 21269 21270 21271 21272 21273 21274 21275 21276 21277 21278 21279 21280 21281 21282 21283 21284 21285 21286 21287 21288 21289 21290 21291 21292 21293 21294 21295 21296 21297 21298 21299 21300 21301 21302 21303 21304 21305 21306 21307 21308 21309 21310 21311 21312 21313 21314 21315 21316 21317 21318 21319 21320 21321 21322 21323 21324 21325 21326 21327 21328 21329 21330 21331 21332 21333 21334 21335 21336 21337 21338 21339 21340 21341 21342 21343 21344 21345 21346 21347 21348 21349 21350 21351 21352 21353 21354 21355 21356 21357 21358 21359 21360 21361 21362 21363 21364 21365 21366 21367 21368 21369 21370 21371 21372 21373 21374 21375 21376 21377 21378 21379 21380 21381 21382 21383 21384 21385 21386 21387 21388 21389 21390 21391 21392 21393 21394 21395 21396 21397 21398 21399 21400 21401 21402 21403 21404 21405 21406 21407 21408 21409 21410 21411 21412 21413 21414 21415 21416 21417 21418 21419 21420 21421 21422 21423 21424 21425 21426 21427 21428 21429 21430 21431 21432 21433 21434 21435 21436 21437 21438 21439 21440 21441 21442 21443 21444 21445 21446 21447 21448 21449 21450 21451 21452 21453 21454 21455 21456 21457 21458 21459 21460 21461 21462 21463 21464 21465 21466 21467 21468 21469 21470 21471 21472 21473 21474 21475 21476 21477 21478 21479 21480 21481 21482 21483 21484 21485 21486 21487 21488 21489 21490 21491 21492 21493 21494 21495 21496 21497 21498 21499 21500 21501 21502 21503 21504 21505 21506 21507 21508 21509 21510 21511 21512 21513 21514 21515 21516 21517 21518 21519 21520 21521 21522 21523 21524 21525 21526 21527 21528 21529 21530 21531 21532 21533 21534 21535 21536 21537 21538 21539 21540 21541 21542 21543 21544 21545 21546 21547 21548 21549 21550 21551 21552 21553 21554 21555 21556 21557 21558 21559 21560 21561 21562 21563 21564 21565 21566 21567 21568 21569 21570 21571 21572 21573 21574 21575 21576 21577 21578 21579 21580 21581 21582 21583 21584 21585 21586 21587 21588 21589 21590 21591 21592 21593 21594 21595 21596 21597 21598 21599 21600 21601 21602 21603 21604 21605 21606 21607 21608 21609 21610 21611 21612 21613 21614 21615 21616 21617 21618 21619 21620 21621 21622 21623 21624 21625 21626 21627 21628 21629 21630 21631 21632 21633 21634 21635 21636 21637 21638 21639 21640 21641 21642 21643 21644 21645 21646 21647 21648 21649 21650 21651 21652 21653 21654 21655 21656 21657 21658 21659 21660 21661 21662 21663 21664 21665 21666 21667 21668 21669 21670 21671 21672 21673 21674 21675 21676 21677 21678 21679 21680 21681 21682 21683 21684 21685 21686 21687 21688 21689 21690 21691 21692 21693 21694 21695 21696 21697 21698 21699 21700 21701 21702 21703 21704 21705 21706 21707 21708 21709 21710 21711 21712 21713 21714 21715 21716 21717 21718 21719 21720 21721 21722 21723 21724 21725 21726 21727 21728 21729 21730 21731 21732 21733 21734 21735 21736 21737 21738 21739 21740 21741 21742 21743 21744 21745 21746 21747 21748 21749 21750 21751 21752 21753 21754 21755 21756 21757 21758 21759 21760 21761 21762 21763 21764 21765 21766 21767 21768 21769 21770 21771 21772 21773 21774 21775 21776 21777 21778 21779 21780 21781 21782 21783 21784 21785 21786 21787 21788 21789 21790 21791 21792 21793 21794 21795 21796 21797 21798 21799 21800 21801 21802 21803 21804 21805 21806 21807 21808 21809 21810 21811 21812 21813 21814 21815 21816 21817 21818 21819 21820 21821 21822 21823 21824 21825 21826 21827 21828 21829 21830 21831 21832 21833 21834 21835 21836 21837 21838 21839 21840 21841 21842 21843 21844 21845 21846 21847 21848 21849 21850 21851 21852 21853 21854 21855 21856 21857 21858 21859 21860 21861 21862 21863 21864 21865 21866 21867 21868 21869 21870 21871 21872 21873 21874 21875 21876 21877 21878 21879 21880 21881 21882 21883 21884 21885 21886 21887 21888 21889 21890 21891 21892 21893 21894 21895 21896 21897 21898 21899 21900 21901 21902 21903 21904 21905 21906 21907 21908 21909 21910 21911 21912 21913 21914 21915 21916 21917 21918 21919 21920 21921 21922 21923 21924 21925 21926 21927 21928 21929 21930 21931 21932 21933 21934 21935 21936 21937 21938 21939 21940 21941 21942 21943 21944 21945 21946 21947 21948 21949 21950 21951 21952 21953 21954 21955 21956 21957 21958 21959 21960 21961 21962 21963 21964 21965 21966 21967 21968 21969 21970 21971 21972 21973 21974 21975 21976 21977 21978 21979 21980 21981 21982 21983 21984 21985 21986 21987 21988 21989 21990 21991 21992 21993 21994 21995 21996 21997 21998 21999 22000 22001 22002 22003 22004 22005 22006 22007 22008 22009 22010 22011 22012 22013 22014 22015 22016 22017 22018 22019 22020 22021 22022 22023 22024 22025 22026 22027 22028 22029 22030 22031 22032 22033 22034 22035 22036 22037 22038 22039 22040 22041 22042 22043 22044 22045 22046 22047 22048 22049 22050 22051 22052 22053 22054 22055 22056 22057 22058 22059 22060 22061 22062 22063 22064 22065 22066 22067 22068 22069 22070 22071 22072 22073 22074 22075 22076 22077 22078 22079 22080 22081 22082 22083 22084 22085 22086 22087 22088 22089 22090 22091 22092 22093 22094 22095 22096 22097 22098 22099 22100 22101 22102 22103 22104 22105 22106 22107 22108 22109 22110 22111 22112 22113 22114 22115 22116 22117 22118 22119 22120 22121 22122 22123 22124 22125 22126 22127 22128 22129 22130 22131 22132 22133 22134 22135 22136 22137 22138 22139 22140 22141 22142 22143 22144 22145 22146 22147 22148 22149 22150 22151 22152 22153 22154 22155 22156 22157 22158 22159 22160 22161 22162 22163 22164 22165 22166 22167 22168 22169 22170 22171 22172 22173 22174 22175 22176 22177 22178 22179 22180 22181 22182 22183 22184 22185 22186 22187 22188 22189 22190 22191 22192 22193 22194 22195 22196 22197 22198 22199 22200 22201 22202 22203 22204 22205 22206 22207 22208 22209 22210 22211 22212 22213 22214 22215 22216 22217 22218 22219 22220 22221 22222 22223 22224 22225 22226 22227 22228 22229 22230 22231 22232 22233 22234 22235 22236 22237 22238 22239 22240 22241 22242 22243 22244 22245 22246 22247 22248 22249 22250 22251 22252 22253 22254 22255 22256 22257 22258 22259 22260 22261 22262 22263 22264 22265 22266 22267 22268 22269 22270 22271 22272 22273 22274 22275 22276 22277 22278 22279 22280 22281 22282 22283 22284 22285 22286 22287 22288 22289 22290 22291 22292 22293 22294 22295 22296 22297 22298 22299 22300 22301 22302 22303 22304 22305 22306 22307 22308 22309 22310 22311 22312 22313 22314 22315 22316 22317 22318 22319 22320 22321 22322 22323 22324 22325 22326 22327 22328 22329 22330 22331 22332 22333 22334 22335 22336 22337 22338 22339 22340 22341 22342 22343 22344 22345 22346 22347 22348 22349 22350 22351 22352 22353 22354 22355 22356 22357 22358 22359 22360 22361 22362 22363 22364 22365 22366 22367 22368 22369 22370 22371 22372 22373 22374 22375 22376 22377 22378 22379 22380 22381 22382 22383 22384 22385 22386 22387 22388 22389 22390 22391 22392 22393 22394 22395 22396 22397 22398 22399 22400 22401 22402 22403 22404 22405 22406 22407 22408 22409 22410 22411 22412 22413 22414 22415 22416 22417 22418 22419 22420 22421 22422 22423 22424 22425 22426 22427 22428 22429 22430 22431 22432 22433 22434 22435 22436 22437 22438 22439 22440 22441 22442 22443 22444 22445 22446 22447 22448 22449 22450 22451 22452 22453 22454 22455 22456 22457 22458 22459 22460 22461 22462 22463 22464 22465 22466 22467 22468 22469 22470 22471 22472 22473 22474 22475 22476 22477 22478 22479 22480 22481 22482 22483 22484 22485 22486 22487 22488 22489 22490 22491 22492 22493 22494 22495 22496 22497 22498 22499 22500 22501 22502 22503 22504 22505 22506 22507 22508 22509 22510 22511 22512 22513 22514 22515 22516 22517 22518 22519 22520 22521 22522 22523 22524 22525 22526 22527 22528 22529 22530 22531 22532 22533 22534 22535 22536 22537 22538 22539 22540 22541 22542 22543 22544 22545 22546 22547 22548 22549 22550 22551 22552 22553 22554 22555 22556 22557 22558 22559 22560 22561 22562 22563 22564 22565 22566 22567 22568 22569 22570 22571 22572 22573 22574 22575 22576 22577 22578 22579 22580 22581 22582 22583 22584 22585 22586 22587 22588 22589 22590 22591 22592 22593 22594 22595 22596 22597 22598 22599 22600 22601 22602 22603 22604 22605 22606 22607 22608 22609 22610 22611 22612 22613 22614 22615 22616 22617 22618 22619 22620 22621 22622 22623 22624 22625 22626 22627 22628 22629 22630 22631 22632 22633 22634 22635 22636 22637 22638 22639 22640 22641 22642 22643 22644 22645 22646 22647 22648 22649 22650 22651 22652 22653 22654 22655 22656 22657 22658 22659 22660 22661 22662 22663 22664 22665 22666 22667 22668 22669 22670 22671 22672 22673 22674 22675 22676 22677 22678 22679 22680 22681 22682 22683 22684 22685 22686 22687 22688 22689 22690 22691 22692 22693 22694 22695 22696 22697 22698 22699 22700 22701 22702 22703 22704 22705 22706 22707 22708 22709 22710 22711 22712 22713 22714 22715 22716 22717 22718 22719 22720 22721 22722 22723 22724 22725 22726 22727 22728 22729 22730 22731 22732 22733 22734 22735 22736 22737 22738 22739 22740 22741 22742 22743 22744 22745 22746 22747 22748 22749 22750 22751 22752 22753 22754 22755 22756 22757 22758 22759 22760 22761 22762 22763 22764 22765 22766 22767 22768 22769 22770 22771 22772 22773 22774 22775 22776 22777 22778 22779 22780 22781 22782 22783 22784 22785 22786 22787 22788 22789 22790 22791 22792 22793 22794 22795 22796 22797 22798 22799 22800 22801 22802 22803 22804 22805 22806 22807 22808 22809 22810 22811 22812 22813 22814 22815 22816 22817 22818 22819 22820 22821 22822 22823 22824 22825 22826 22827 22828 22829 22830 22831 22832 22833 22834 22835 22836 22837 22838 22839 22840 22841 22842 22843 22844 22845 22846 22847 22848 22849 22850 22851 22852 22853 22854 22855 22856 22857 22858 22859 22860 22861 22862 22863 22864 22865 22866 22867 22868 22869 22870 22871 22872 22873 22874 22875 22876 22877 22878 22879 22880 22881 22882 22883 22884 22885 22886 22887 22888 22889 22890 22891 22892 22893 22894 22895 22896 22897 22898 22899 22900 22901 22902 22903 22904 22905 22906 22907 22908 22909 22910 22911 22912 22913 22914 22915 22916 22917 22918 22919 22920 22921 22922 22923 22924 22925 22926 22927 22928 22929 22930 22931 22932 22933 22934 22935 22936 22937 22938 22939 22940 22941 22942 22943 22944 22945 22946 22947 22948 22949 22950 22951 22952 22953 22954 22955 22956 22957 22958 22959 22960 22961 22962 22963 22964 22965 22966 22967 22968 22969 22970 22971 22972 22973 22974 22975 22976 22977 22978 22979 22980 22981 22982 22983 22984 22985 22986 22987 22988 22989 22990 22991 22992 22993 22994 22995 22996 22997 22998 22999 23000 23001 23002 23003 23004 23005 23006 23007 23008 23009 23010 23011 23012 23013 23014 23015 23016 23017 23018 23019 23020 23021 23022 23023 23024 23025 23026 23027 23028 23029 23030 23031 23032 23033 23034 23035 23036 23037 23038 23039 23040 23041 23042 23043 23044 23045 23046 23047 23048 23049 23050 23051 23052 23053 23054 23055 23056 23057 23058 23059 23060 23061 23062 23063 23064 23065 23066 23067 23068 23069 23070 23071 23072 23073 23074 23075 23076 23077 23078 23079 23080 23081 23082 23083 23084 23085 23086 23087 23088 23089 23090 23091 23092 23093 23094 23095 23096 23097 23098 23099 23100 23101 23102 23103 23104 23105 23106 23107 23108 23109 23110 23111 23112 23113 23114 23115 23116 23117 23118 23119 23120 23121 23122 23123 23124 23125 23126 23127 23128 23129 23130 23131 23132 23133 23134 23135 23136 23137 23138 23139 23140 23141 23142 23143 23144 23145 23146 23147 23148 23149 23150 23151 23152 23153 23154 23155 23156 23157 23158 23159 23160 23161 23162 23163 23164 23165 23166 23167 23168 23169 23170 23171 23172 23173 23174 23175 23176 23177 23178 23179 23180 23181 23182 23183 23184 23185 23186 23187 23188 23189 23190 23191 23192 23193 23194 23195 23196 23197 23198 23199 23200 23201 23202 23203 23204 23205 23206 23207 23208 23209 23210 23211 23212 23213 23214 23215 23216 23217 23218 23219 23220 23221 23222 23223 23224 23225 23226 23227 23228 23229 23230 23231 23232 23233 23234 23235 23236 23237 23238 23239 23240 23241 23242 23243 23244 23245 23246 23247 23248 23249 23250 23251 23252 23253 23254 23255 23256 23257 23258 23259 23260 23261 23262 23263 23264 23265 23266 23267 23268 23269 23270 23271 23272 23273 23274 23275 23276 23277 23278 23279 23280 23281 23282 23283 23284 23285 23286 23287 23288 23289 23290 23291 23292 23293 23294 23295 23296 23297 23298 23299 23300 23301 23302 23303 23304 23305 23306 23307 23308 23309 23310 23311 23312 23313 23314 23315 23316 23317 23318 23319 23320 23321 23322 23323 23324 23325 23326 23327 23328 23329 23330 23331 23332 23333 23334 23335 23336 23337 23338 23339 23340 23341 23342 23343 23344 23345 23346 23347 23348 23349 23350 23351 23352 23353 23354 23355 23356 23357 23358 23359 23360 23361 23362 23363 23364 23365 23366 23367 23368 23369 23370 23371 23372 23373 23374 23375 23376 23377 23378 23379 23380 23381 23382 23383 23384 23385 23386 23387 23388 23389 23390 23391 23392 23393 23394 23395 23396 23397 23398 23399 23400 23401 23402 23403 23404 23405 23406 23407 23408 23409 23410 23411 23412 23413 23414 23415 23416 23417 23418 23419 23420 23421 23422 23423 23424 23425 23426 23427 23428 23429 23430 23431 23432 23433 23434 23435 23436 23437 23438 23439 23440 23441 23442 23443 23444 23445 23446 23447 23448 23449 23450 23451 23452 23453 23454 23455 23456 23457 23458 23459 23460 23461 23462 23463 23464 23465 23466 23467 23468 23469 23470 23471 23472 23473 23474 23475 23476 23477 23478 23479 23480 23481 23482 23483 23484 23485 23486 23487 23488 23489 23490 23491 23492 23493 23494 23495 23496 23497 23498 23499 23500 23501 23502 23503 23504 23505 23506 23507 23508 23509 23510 23511 23512 23513 23514 23515 23516 23517 23518 23519 23520 23521 23522 23523 23524 23525 23526 23527 23528 23529 23530 23531 23532 23533 23534 23535 23536 23537 23538 23539 23540 23541 23542 23543 23544 23545 23546 23547 23548 23549 23550 23551 23552 23553 23554 23555 23556 23557 23558 23559 23560 23561 23562 23563 23564 23565 23566 23567 23568 23569 23570 23571 23572 23573 23574 23575 23576 23577 23578 23579 23580 23581 23582 23583 23584 23585 23586 23587 23588 23589 23590 23591 23592 23593 23594 23595 23596 23597 23598 23599 23600 23601 23602 23603 23604 23605 23606 23607 23608 23609 23610 23611 23612 23613 23614 23615 23616 23617 23618 23619 23620 23621 23622 23623 23624 23625 23626 23627 23628 23629 23630 23631 23632 23633 23634 23635 23636 23637 23638 23639 23640 23641 23642 23643 23644 23645 23646 23647 23648 23649 23650 23651 23652 23653 23654 23655 23656 23657 23658 23659 23660 23661 23662 23663 23664 23665 23666 23667 23668 23669 23670 23671 23672 23673 23674 23675 23676 23677 23678 23679 23680 23681 23682 23683 23684 23685 23686 23687 23688 23689 23690 23691 23692 23693 23694 23695 23696 23697 23698 23699 23700 23701 23702 23703 23704 23705 23706 23707 23708 23709 23710 23711 23712 23713 23714 23715 23716 23717 23718 23719 23720 23721 23722 23723 23724 23725 23726 23727 23728 23729 23730 23731 23732 23733 23734 23735 23736 23737 23738 23739 23740 23741 23742 23743 23744 23745 23746 23747 23748 23749 23750 23751 23752 23753 23754 23755 23756 23757 23758 23759 23760 23761 23762 23763 23764 23765 23766 23767 23768 23769 23770 23771 23772 23773 23774 23775 23776 23777 23778 23779 23780 23781 23782 23783 23784 23785 23786 23787 23788 23789 23790 23791 23792 23793 23794 23795 23796 23797 23798 23799 23800 23801 23802 23803 23804 23805 23806 23807 23808 23809 23810 23811 23812 23813 23814 23815 23816 23817 23818 23819 23820 23821 23822 23823 23824 23825 23826 23827 23828 23829 23830 23831 23832 23833 23834 23835 23836 23837 23838 23839 23840 23841 23842 23843 23844 23845 23846 23847 23848 23849 23850 23851 23852 23853 23854 23855 23856 23857 23858 23859 23860 23861 23862 23863 23864 23865 23866 23867 23868 23869 23870 23871 23872 23873 23874 23875 23876 23877 23878 23879 23880 23881 23882 23883 23884 23885 23886 23887 23888 23889 23890 23891 23892 23893 23894 23895 23896 23897 23898 23899 23900 23901 23902 23903 23904 23905 23906 23907 23908 23909 23910 23911 23912 23913 23914 23915 23916 23917 23918 23919 23920 23921 23922 23923 23924 23925 23926 23927 23928 23929 23930 23931 23932 23933 23934 23935 23936 23937 23938 23939 23940 23941 23942 23943 23944 23945 23946 23947 23948 23949 23950 23951 23952 23953 23954 23955 23956 23957 23958 23959 23960 23961 23962 23963 23964 23965 23966 23967 23968 23969 23970 23971 23972 23973 23974 23975 23976 23977 23978 23979 23980 23981 23982 23983 23984 23985 23986 23987 23988 23989 23990 23991 23992 23993 23994 23995 23996 23997 23998 23999 24000 24001 24002 24003 24004 24005 24006 24007 24008 24009 24010 24011 24012 24013 24014 24015 24016 24017 24018 24019 24020 24021 24022 24023 24024 24025 24026 24027 24028 24029 24030 24031 24032 24033 24034 24035 24036 24037 24038 24039 24040 24041 24042 24043 24044 24045 24046 24047 24048 24049 24050 24051 24052 24053 24054 24055 24056 24057 24058 24059 24060 24061 24062 24063 24064 24065 24066 24067 24068 24069 24070 24071 24072 24073 24074 24075 24076 24077 24078 24079 24080 24081 24082 24083 24084 24085 24086 24087 24088 24089 24090 24091 24092 24093 24094 24095 24096 24097 24098 24099 24100 24101 24102 24103 24104 24105 24106 24107 24108 24109 24110 24111 24112 24113 24114 24115 24116 24117 24118 24119 24120 24121 24122 24123 24124 24125 24126 24127 24128 24129 24130 24131 24132 24133 24134 24135 24136 24137 24138 24139 24140 24141 24142 24143 24144 24145 24146 24147 24148 24149 24150 24151 24152 24153 24154 24155 24156 24157 24158 24159 24160 24161 24162 24163 24164 24165 24166 24167 24168 24169 24170 24171 24172 24173 24174 24175 24176 24177 24178 24179 24180 24181 24182 24183 24184 24185 24186 24187 24188 24189 24190 24191 24192 24193 24194 24195 24196 24197 24198 24199 24200 24201 24202 24203 24204 24205 24206 24207 24208 24209 24210 24211 24212 24213 24214 24215 24216 24217 24218 24219 24220 24221 24222 24223 24224 24225 24226 24227 24228 24229 24230 24231 24232 24233 24234 24235 24236 24237 24238 24239 24240 24241 24242 24243 24244 24245 24246 24247 24248 24249 24250 24251 24252 24253 24254 24255 24256 24257 24258 24259 24260 24261 24262 24263 24264 24265 24266 24267 24268 24269 24270 24271 24272 24273 24274 24275 24276 24277 24278 24279 24280 24281 24282 24283 24284 24285 24286 24287 24288 24289 24290 24291 24292 24293 24294 24295 24296 24297 24298 24299 24300 24301 24302 24303 24304 24305 24306 24307 24308 24309 24310 24311 24312 24313 24314 24315 24316 24317 24318 24319 24320 24321 24322 24323 24324 24325 24326 24327 24328 24329 24330 24331 24332 24333 24334 24335 24336 24337 24338 24339 24340 24341 24342 24343 24344 24345 24346 24347 24348 24349 24350 24351 24352 24353 24354 24355 24356 24357 24358 24359 24360 24361 24362 24363 24364 24365 24366 24367 24368 24369 24370 24371 24372 24373 24374 24375 24376 24377 24378 24379 24380 24381 24382 24383 24384 24385 24386 24387 24388 24389 24390 24391 24392 24393 24394 24395 24396 24397 24398 24399 24400 24401 24402 24403 24404 24405 24406 24407 24408 24409 24410 24411 24412 24413 24414 24415 24416 24417 24418 24419 24420 24421 24422 24423 24424 24425 24426 24427 24428 24429 24430 24431 24432 24433 24434 24435 24436 24437 24438 24439 24440 24441 24442 24443 24444 24445 24446 24447 24448 24449 24450 24451 24452 24453 24454 24455 24456 24457 24458 24459 24460 24461 24462 24463 24464 24465 24466 24467 24468 24469 24470 24471 24472 24473 24474 24475 24476 24477 24478 24479 24480 24481 24482 24483 24484 24485 24486 24487 24488 24489 24490 24491 24492 24493 24494 24495 24496 24497 24498 24499 24500 24501 24502 24503 24504 24505 24506 24507 24508 24509 24510 24511 24512 24513 24514 24515 24516 24517 24518 24519 24520 24521 24522 24523 24524 24525 24526 24527 24528 24529 24530 24531 24532 24533 24534 24535 24536 24537 24538 24539 24540 24541 24542 24543 24544 24545 24546 24547 24548 24549 24550 24551 24552 24553 24554 24555 24556 24557 24558 24559 24560 24561 24562 24563 24564 24565 24566 24567 24568 24569 24570 24571 24572 24573 24574 24575 24576 24577 24578 24579 24580 24581 24582 24583 24584 24585 24586 24587 24588 24589 24590 24591 24592 24593 24594 24595 24596 24597 24598 24599 24600 24601 24602 24603 24604 24605 24606 24607 24608 24609 24610 24611 24612 24613 24614 24615 24616 24617 24618 24619 24620 24621 24622 24623 24624 24625 24626 24627 24628 24629 24630 24631 24632 24633 24634 24635 24636 24637 24638 24639 24640 24641 24642 24643 24644 24645 24646 24647 24648 24649 24650 24651 24652 24653 24654 24655 24656 24657 24658 24659 24660 24661 24662 24663 24664 24665 24666 24667 24668 24669 24670 24671 24672 24673 24674 24675 24676 24677 24678 24679 24680 24681 24682 24683 24684 24685 24686 24687 24688 24689 24690 24691 24692 24693 24694 24695 24696 24697 24698 24699 24700 24701 24702 24703 24704 24705 24706 24707 24708 24709 24710 24711 24712 24713 24714 24715 24716 24717 24718 24719 24720 24721 24722 24723 24724 24725 24726 24727 24728 24729 24730 24731 24732 24733 24734 24735 24736 24737 24738 24739 24740 24741 24742 24743 24744 24745 24746 24747 24748 24749 24750 24751 24752 24753 24754 24755 24756 24757 24758 24759 24760 24761 24762 24763 24764 24765 24766 24767 24768 24769 24770 24771 24772 24773 24774 24775 24776 24777 24778 24779 24780 24781 24782 24783 24784 24785 24786 24787 24788 24789 24790 24791 24792 24793 24794 24795 24796 24797 24798 24799 24800 24801 24802 24803 24804 24805 24806 24807 24808 24809 24810 24811 24812 24813 24814 24815 24816 24817 24818 24819 24820 24821 24822 24823 24824 24825 24826 24827 24828 24829 24830 24831 24832 24833 24834 24835 24836 24837 24838 24839 24840 24841 24842 24843 24844 24845 24846 24847 24848 24849 24850 24851 24852 24853 24854 24855 24856 24857 24858 24859 24860 24861 24862 24863 24864 24865 24866 24867 24868 24869 24870 24871 24872 24873 24874 24875 24876 24877 24878 24879 24880 24881 24882 24883 24884 24885 24886 24887 24888 24889 24890 24891 24892 24893 24894 24895 24896 24897 24898 24899 24900 24901 24902 24903 24904 24905 24906 24907 24908 24909 24910 24911 24912 24913 24914 24915 24916 24917 24918 24919 24920 24921 24922 24923 24924 24925 24926 24927 24928 24929 24930 24931 24932 24933 24934 24935 24936 24937 24938 24939 24940 24941 24942 24943 24944 24945 24946 24947 24948 24949 24950 24951 24952 24953 24954 24955 24956 24957 24958 24959 24960 24961 24962 24963 24964 24965 24966 24967 24968 24969 24970 24971 24972 24973 24974 24975 24976 24977 24978 24979 24980 24981 24982 24983 24984 24985 24986 24987 24988 24989 24990 24991 24992 24993 24994 24995 24996 24997 24998 24999 25000 25001 25002 25003 25004 25005 25006 25007 25008 25009 25010 25011 25012 25013 25014 25015 25016 25017 25018 25019 25020 25021 25022 25023 25024 25025 25026 25027 25028 25029 25030 25031 25032 25033 25034 25035 25036 25037 25038 25039 25040 25041 25042 25043 25044 25045 25046 25047 25048 25049 25050 25051 25052 25053 25054 25055 25056 25057 25058 25059 25060 25061 25062 25063 25064 25065 25066 25067 25068 25069 25070 25071 25072 25073 25074 25075 25076 25077 25078 25079 25080 25081 25082 25083 25084 25085 25086 25087 25088 25089 25090 25091 25092 25093 25094 25095 25096 25097 25098 25099 25100 25101 25102 25103 25104 25105 25106 25107 25108 25109 25110 25111 25112 25113 25114 25115 25116 25117 25118 25119 25120 25121 25122 25123 25124 25125 25126 25127 25128 25129 25130 25131 25132 25133 25134 25135 25136 25137 25138 25139 25140 25141 25142 25143 25144 25145 25146 25147 25148 25149 25150 25151 25152 25153 25154 25155 25156 25157 25158 25159 25160 25161 25162 25163 25164 25165 25166 25167 25168 25169 25170 25171 25172 25173 25174 25175 25176 25177 25178 25179 25180 25181 25182 25183 25184 25185 25186 25187 25188 25189 25190 25191 25192 25193 25194 25195 25196 25197 25198 25199 25200 25201 25202 25203 25204 25205 25206 25207 25208 25209 25210 25211 25212 25213 25214 25215 25216 25217 25218 25219 25220 25221 25222 25223 25224 25225 25226 25227 25228 25229 25230 25231 25232 25233 25234 25235 25236 25237 25238 25239 25240 25241 25242 25243 25244 25245 25246 25247 25248 25249 25250 25251 25252 25253 25254 25255 25256 25257 25258 25259 25260 25261 25262 25263 25264 25265 25266 25267 25268 25269 25270 25271 25272 25273 25274 25275 25276 25277 25278 25279 25280 25281 25282 25283 25284 25285 25286 25287 25288 25289 25290 25291 25292 25293 25294 25295 25296 25297 25298 25299 25300 25301 25302 25303 25304 25305 25306 25307 25308 25309 25310 25311 25312 25313 25314 25315 25316 25317 25318 25319 25320 25321 25322 25323 25324 25325 25326 25327 25328 25329 25330 25331 25332 25333 25334 25335 25336 25337 25338 25339 25340 25341 25342 25343 25344 25345 25346 25347 25348 25349 25350 25351 25352 25353 25354 25355 25356 25357 25358 25359 25360 25361 25362 25363 25364 25365 25366 25367 25368 25369 25370 25371 25372 25373 25374 25375 25376 25377 25378 25379 25380 25381 25382 25383 25384 25385 25386 25387 25388 25389 25390 25391 25392 25393 25394 25395 25396 25397 25398 25399 25400 25401 25402 25403 25404 25405 25406 25407 25408 25409 25410 25411 25412 25413 25414 25415 25416 25417 25418 25419 25420 25421 25422 25423 25424 25425 25426 25427 25428 25429 25430 25431 25432 25433 25434 25435 25436 25437 25438 25439 25440 25441 25442 25443 25444 25445 25446 25447 25448 25449 25450 25451 25452 25453 25454 25455 25456 25457 25458 25459 25460 25461 25462 25463 25464 25465 25466 25467 25468 25469 25470 25471 25472 25473 25474 25475 25476 25477 25478 25479 25480 25481 25482 25483 25484 25485 25486 25487 25488 25489 25490 25491 25492 25493 25494 25495 25496 25497 25498 25499 25500 25501 25502 25503 25504 25505 25506 25507 25508 25509 25510 25511 25512 25513 25514 25515 25516 25517 25518 25519 25520 25521 25522 25523 25524 25525 25526 25527 25528 25529 25530 25531 25532 25533 25534 25535 25536 25537 25538 25539 25540 25541 25542 25543 25544 25545 25546 25547 25548 25549 25550 25551 25552 25553 25554 25555 25556 25557 25558 25559 25560 25561 25562 25563 25564 25565 25566 25567 25568 25569 25570 25571 25572 25573 25574 25575 25576 25577 25578 25579 25580 25581 25582 25583 25584 25585 25586 25587 25588 25589 25590 25591 25592 25593 25594 25595 25596 25597 25598 25599 25600 25601 25602 25603 25604 25605 25606 25607 25608 25609 25610 25611 25612 25613 25614 25615 25616 25617 25618 25619 25620 25621 25622 25623 25624 25625 25626 25627 25628 25629 25630 25631 25632 25633 25634 25635 25636 25637 25638 25639 25640 25641 25642 25643 25644 25645 25646 25647 25648 25649 25650 25651 25652 25653 25654 25655 25656 25657 25658 25659 25660 25661 25662 25663 25664 25665 25666 25667 25668 25669 25670 25671 25672 25673 25674 25675 25676 25677 25678 25679 25680 25681 25682 25683 25684 25685 25686 25687 25688 25689 25690 25691 25692 25693 25694 25695 25696 25697 25698 25699 25700 25701 25702 25703 25704 25705 25706 25707 25708 25709 25710 25711 25712 25713 25714 25715 25716 25717 25718 25719 25720 25721 25722 25723 25724 25725 25726 25727 25728 25729 25730 25731 25732 25733 25734 25735 25736 25737 25738 25739 25740 25741 25742 25743 25744 25745 25746 25747 25748 25749 25750 25751 25752 25753 25754 25755 25756 25757 25758 25759 25760 25761 25762 25763 25764 25765 25766 25767 25768 25769 25770 25771 25772 25773 25774 25775 25776 25777 25778 25779 25780 25781 25782 25783 25784 25785 25786 25787 25788 25789 25790 25791 25792 25793 25794 25795 25796 25797 25798 25799 25800 25801 25802 25803 25804 25805 25806 25807 25808 25809 25810 25811 25812 25813 25814 25815 25816 25817 25818 25819 25820 25821 25822 25823 25824 25825 25826 25827 25828 25829 25830 25831 25832 25833 25834 25835 25836 25837 25838 25839 25840 25841 25842 25843 25844 25845 25846 25847 25848 25849 25850 25851 25852 25853 25854 25855 25856 25857 25858 25859 25860 25861 25862 25863 25864 25865 25866 25867 25868 25869 25870 25871 25872 25873 25874 25875 25876 25877 25878 25879 25880 25881 25882 25883 25884 25885 25886 25887 25888 25889 25890 25891 25892 25893 25894 25895 25896 25897 25898 25899 25900 25901 25902 25903 25904 25905 25906 25907 25908 25909 25910 25911 25912 25913 25914 25915 25916 25917 25918 25919 25920 25921 25922 25923 25924 25925 25926 25927 25928 25929 25930 25931 25932 25933 25934 25935 25936 25937 25938 25939 25940 25941 25942 25943 25944 25945 25946 25947 25948 25949 25950 25951 25952 25953 25954 25955 25956 25957 25958 25959 25960 25961 25962 25963 25964 25965 25966 25967 25968 25969 25970 25971 25972 25973 25974 25975 25976 25977 25978 25979 25980 25981 25982 25983 25984 25985 25986 25987 25988 25989 25990 25991 25992 25993 25994 25995 25996 25997 25998 25999 26000 26001 26002 26003 26004 26005 26006 26007 26008 26009 26010 26011 26012 26013 26014 26015 26016 26017 26018 26019 26020 26021 26022 26023 26024 26025 26026 26027 26028 26029 26030 26031 26032 26033 26034 26035 26036 26037 26038 26039 26040 26041 26042 26043 26044 26045 26046 26047 26048 26049 26050 26051 26052 26053 26054 26055 26056 26057 26058 26059 26060 26061 26062 26063 26064 26065 26066 26067 26068 26069 26070 26071 26072 26073 26074 26075 26076 26077 26078 26079 26080 26081 26082 26083 26084 26085 26086 26087 26088 26089 26090 26091 26092 26093 26094 26095 26096 26097 26098 26099 26100 26101 26102 26103 26104 26105 26106 26107 26108 26109 26110 26111 26112 26113 26114 26115 26116 26117 26118 26119 26120 26121 26122 26123 26124 26125 26126 26127 26128 26129 26130 26131 26132 26133 26134 26135 26136 26137 26138 26139 26140 26141 26142 26143 26144 26145 26146 26147 26148 26149 26150 26151 26152 26153 26154 26155 26156 26157 26158 26159 26160 26161 26162 26163 26164 26165 26166 26167 26168 26169 26170 26171 26172 26173 26174 26175 26176 26177 26178 26179 26180 26181 26182 26183 26184 26185 26186 26187 26188 26189 26190 26191 26192 26193 26194 26195 26196 26197 26198 26199 26200 26201 26202 26203 26204 26205 26206 26207 26208 26209 26210 26211 26212 26213 26214 26215 26216 26217 26218 26219 26220 26221 26222 26223 26224 26225 26226 26227 26228 26229 26230 26231 26232 26233 26234 26235 26236 26237 26238 26239 26240 26241 26242 26243 26244 26245 26246 26247 26248 26249 26250 26251 26252 26253 26254 26255 26256 26257 26258 26259 26260 26261 26262 26263 26264 26265 26266 26267 26268 26269 26270 26271 26272 26273 26274 26275 26276 26277 26278 26279 26280 26281 26282 26283 26284 26285 26286 26287 26288 26289 26290 26291 26292 26293 26294 26295 26296 26297 26298 26299 26300 26301 26302 26303 26304 26305 26306 26307 26308 26309 26310 26311 26312 26313 26314 26315 26316 26317 26318 26319 26320 26321 26322 26323 26324 26325 26326 26327 26328 26329 26330 26331 26332 26333 26334 26335 26336 26337 26338 26339 26340 26341 26342 26343 26344 26345 26346 26347 26348 26349 26350 26351 26352 26353 26354 26355 26356 26357 26358 26359 26360 26361 26362 26363 26364 26365 26366 26367 26368 26369 26370 26371 26372 26373 26374 26375 26376 26377 26378 26379 26380 26381 26382 26383 26384 26385 26386 26387 26388 26389 26390 26391 26392 26393 26394 26395 26396 26397 26398 26399 26400 26401 26402 26403 26404 26405 26406 26407 26408 26409 26410 26411 26412 26413 26414 26415 26416 26417 26418 26419 26420 26421 26422 26423 26424 26425 26426 26427 26428 26429 26430 26431 26432 26433 26434 26435 26436 26437 26438 26439 26440 26441 26442 26443 26444 26445 26446 26447 26448 26449 26450 26451 26452 26453 26454 26455 26456 26457 26458 26459 26460 26461 26462 26463 26464 26465 26466 26467 26468 26469 26470 26471 26472 26473 26474 26475 26476 26477 26478 26479 26480 26481 26482 26483 26484 26485 26486 26487 26488 26489 26490 26491 26492 26493 26494 26495 26496 26497 26498 26499 26500 26501 26502 26503 26504 26505 26506 26507 26508 26509 26510 26511 26512 26513 26514 26515 26516 26517 26518 26519 26520 26521 26522 26523 26524 26525 26526 26527 26528 26529 26530 26531 26532 26533 26534 26535 26536 26537 26538 26539 26540 26541 26542 26543 26544 26545 26546 26547 26548 26549 26550 26551 26552 26553 26554 26555 26556 26557 26558 26559 26560 26561 26562 26563 26564 26565 26566 26567 26568 26569 26570 26571 26572 26573 26574 26575 26576 26577 26578 26579 26580 26581 26582 26583 26584 26585 26586 26587 26588 26589 26590 26591 26592 26593 26594 26595 26596 26597 26598 26599 26600 26601 26602 26603 26604 26605 26606 26607 26608 26609 26610 26611 26612 26613 26614 26615 26616 26617 26618 26619 26620 26621 26622 26623 26624 26625 26626 26627 26628 26629 26630 26631 26632 26633 26634 26635 26636 26637 26638 26639 26640 26641 26642 26643 26644 26645 26646 26647 26648 26649 26650 26651 26652 26653 26654 26655 26656 26657 26658 26659 26660 26661 26662 26663 26664 26665 26666 26667 26668 26669 26670 26671 26672 26673 26674 26675 26676 26677 26678 26679 26680 26681 26682 26683 26684 26685 26686 26687 26688 26689 26690 26691 26692 26693 26694 26695 26696 26697 26698 26699 26700 26701 26702 26703 26704 26705 26706 26707 26708 26709 26710 26711 26712 26713 26714 26715 26716 26717 26718 26719 26720 26721 26722 26723 26724 26725 26726 26727 26728 26729 26730 26731 26732 26733 26734 26735 26736 26737 26738 26739 26740 26741 26742 26743 26744 26745 26746 26747 26748 26749 26750 26751 26752 26753 26754 26755 26756 26757 26758 26759 26760 26761 26762 26763 26764 26765 26766 26767 26768 26769 26770 26771 26772 26773 26774 26775 26776 26777 26778 26779 26780 26781 26782 26783 26784 26785 26786 26787 26788 26789 26790 26791 26792 26793 26794 26795 26796 26797 26798 26799 26800 26801 26802 26803 26804 26805 26806 26807 26808 26809 26810 26811 26812 26813 26814 26815 26816 26817 26818 26819 26820 26821 26822 26823 26824 26825 26826 26827 26828 26829 26830 26831 26832 26833 26834 26835 26836 26837 26838 26839 26840 26841 26842 26843 26844 26845 26846 26847 26848 26849 26850 26851 26852 26853 26854 26855 26856 26857 26858 26859 26860 26861 26862 26863 26864 26865 26866 26867 26868 26869 26870 26871 26872 26873 26874 26875 26876 26877 26878 26879 26880 26881 26882 26883 26884 26885 26886 26887 26888 26889 26890 26891 26892 26893 26894 26895 26896 26897 26898 26899 26900 26901 26902 26903 26904 26905 26906 26907 26908 26909 26910 26911 26912 26913 26914 26915 26916 26917 26918 26919 26920 26921 26922 26923 26924 26925 26926 26927 26928 26929 26930 26931 26932 26933 26934 26935 26936 26937 26938 26939 26940 26941 26942 26943 26944 26945 26946 26947 26948 26949 26950 26951 26952 26953 26954 26955 26956 26957 26958 26959 26960 26961 26962 26963 26964 26965 26966 26967 26968 26969 26970 26971 26972 26973 26974 26975 26976 26977 26978 26979 26980 26981 26982 26983 26984 26985 26986 26987 26988 26989 26990 26991 26992 26993 26994 26995 26996 26997 26998 26999 27000 27001 27002 27003 27004 27005 27006 27007 27008 27009 27010 27011 27012 27013 27014 27015 27016 27017 27018 27019 27020 27021 27022 27023 27024 27025 27026 27027 27028 27029 27030 27031 27032 27033 27034 27035 27036 27037 27038 27039 27040 27041 27042 27043 27044 27045 27046 27047 27048 27049 27050 27051 27052 27053 27054 27055 27056 27057 27058 27059 27060 27061 27062 27063 27064 27065 27066 27067 27068 27069 27070 27071 27072 27073 27074 27075 27076 27077 27078 27079 27080 27081 27082 27083 27084 27085 27086 27087 27088 27089 27090 27091 27092 27093 27094 27095 27096 27097 27098 27099 27100 27101 27102 27103 27104 27105 27106 27107 27108 27109 27110 27111 27112 27113 27114 27115 27116 27117 27118 27119 27120 27121 27122 27123 27124 27125 27126 27127 27128 27129 27130 27131 27132 27133 27134 27135 27136 27137 27138 27139 27140 27141 27142 27143 27144 27145 27146 27147 27148 27149 27150 27151 27152 27153 27154 27155 27156 27157 27158 27159 27160 27161 27162 27163 27164 27165 27166 27167 27168 27169 27170 27171 27172 27173 27174 27175 27176 27177 27178 27179 27180 27181 27182 27183 27184 27185 27186 27187 27188 27189 27190 27191 27192 27193 27194 27195 27196 27197 27198 27199 27200 27201 27202 27203 27204 27205 27206 27207 27208 27209 27210 27211 27212 27213 27214 27215 27216 27217 27218 27219 27220 27221 27222 27223 27224 27225 27226 27227 27228 27229 27230 27231 27232 27233 27234 27235 27236 27237 27238 27239 27240 27241 27242 27243 27244 27245 27246 27247 27248 27249 27250 27251 27252 27253 27254 27255 27256 27257 27258 27259 27260 27261 27262 27263 27264 27265 27266 27267 27268 27269 27270 27271 27272 27273 27274 27275 27276 27277 27278 27279 27280 27281 27282 27283 27284 27285 27286 27287 27288 27289 27290 27291 27292 27293 27294 27295 27296 27297 27298 27299 27300 27301 27302 27303 27304 27305 27306 27307 27308 27309 27310 27311 27312 27313 27314 27315 27316 27317 27318 27319 27320 27321 27322 27323 27324 27325 27326 27327 27328 27329 27330 27331 27332 27333 27334 27335 27336 27337 27338 27339 27340 27341 27342 27343 27344 27345 27346 27347 27348 27349 27350 27351 27352 27353 27354 27355 27356 27357 27358 27359 27360 27361 27362 27363 27364 27365 27366 27367 27368 27369 27370 27371 27372 27373 27374 27375 27376 27377 27378 27379 27380 27381 27382 27383 27384 27385 27386 27387 27388 27389 27390 27391 27392 27393 27394 27395 27396 27397 27398 27399 27400 27401 27402 27403 27404 27405 27406 27407 27408 27409 27410 27411 27412 27413 27414 27415 27416 27417 27418 27419 27420 27421 27422 27423 27424 27425 27426 27427 27428 27429 27430 27431 27432 27433 27434 27435 27436 27437 27438 27439 27440 27441 27442 27443 27444 27445 27446 27447 27448 27449 27450 27451 27452 27453 27454 27455 27456 27457 27458 27459 27460 27461 27462 27463 27464 27465 27466 27467 27468 27469 27470 27471 27472 27473 27474 27475 27476 27477 27478 27479 27480 27481 27482 27483 27484 27485 27486 27487 27488 27489 27490 27491 27492 27493 27494 27495 27496 27497 27498 27499 27500 27501 27502 27503 27504 27505 27506 27507 27508 27509 27510 27511 27512 27513 27514 27515 27516 27517 27518 27519 27520 27521 27522 27523 27524 27525 27526 27527 27528 27529 27530 27531 27532 27533 27534 27535 27536 27537 27538 27539 27540 27541 27542 27543 27544 27545 27546 27547 27548 27549 27550 27551 27552 27553 27554 27555 27556 27557 27558 27559 27560 27561 27562 27563 27564 27565 27566 27567 27568 27569 27570 27571 27572 27573 27574 27575 27576 27577 27578 27579 27580 27581 27582 27583 27584 27585 27586 27587 27588 27589 27590 27591 27592 27593 27594 27595 27596 27597 27598 27599 27600 27601 27602 27603 27604 27605 27606 27607 27608 27609 27610 27611 27612 27613 27614 27615 27616 27617 27618 27619 27620 27621 27622 27623 27624 27625 27626 27627 27628 27629 27630 27631 27632 27633 27634 27635 27636 27637 27638 27639 27640 27641 27642 27643 27644 27645 27646 27647 27648 27649 27650 27651 27652 27653 27654 27655 27656 27657 27658 27659 27660 27661 27662 27663 27664 27665 27666 27667 27668 27669 27670 27671 27672 27673 27674 27675 27676 27677 27678 27679 27680 27681 27682 27683 27684 27685 27686 27687 27688 27689 27690 27691 27692 27693 27694 27695 27696 27697 27698 27699 27700 27701 27702 27703 27704 27705 27706 27707 27708 27709 27710 27711 27712 27713 27714 27715 27716 27717 27718 27719 27720 27721 27722 27723 27724 27725 27726 27727 27728 27729 27730 27731 27732 27733 27734 27735 27736 27737 27738 27739 27740 27741 27742 27743 27744 27745 27746 27747 27748 27749 27750 27751 27752 27753 27754 27755 27756 27757 27758 27759 27760 27761 27762 27763 27764 27765 27766 27767 27768 27769 27770 27771 27772 27773 27774 27775 27776 27777 27778 27779 27780 27781 27782 27783 27784 27785 27786 27787 27788 27789 27790 27791 27792 27793 27794 27795 27796 27797 27798 27799 27800 27801 27802 27803 27804 27805 27806 27807 27808 27809 27810 27811 27812 27813 27814 27815 27816 27817 27818 27819 27820 27821 27822 27823 27824 27825 27826 27827 27828 27829 27830 27831 27832 27833 27834 27835 27836 27837 27838 27839 27840 27841 27842 27843 27844 27845 27846 27847 27848 27849 27850 27851 27852 27853 27854 27855 27856 27857 27858 27859 27860 27861 27862 27863 27864 27865 27866 27867 27868 27869 27870 27871 27872 27873 27874 27875 27876 27877 27878 27879 27880 27881 27882 27883 27884 27885 27886 27887 27888 27889 27890 27891 27892 27893 27894 27895 27896 27897 27898 27899 27900 27901 27902 27903 27904 27905 27906 27907 27908 27909 27910 27911 27912 27913 27914 27915 27916 27917 27918 27919 27920 27921 27922 27923 27924 27925 27926 27927 27928 27929 27930 27931 27932 27933 27934 27935 27936 27937 27938 27939 27940 27941 27942 27943 27944 27945 27946 27947 27948 27949 27950 27951 27952 27953 27954 27955 27956 27957 27958 27959 27960 27961 27962 27963 27964 27965 27966 27967 27968 27969 27970 27971 27972 27973 27974 27975 27976 27977 27978 27979 27980 27981 27982 27983 27984 27985 27986 27987 27988 27989 27990 27991 27992 27993 27994 27995 27996 27997 27998 27999 28000 28001 28002 28003 28004 28005 28006 28007 28008 28009 28010 28011 28012 28013 28014 28015 28016 28017 28018 28019 28020 28021 28022 28023 28024 28025 28026 28027 28028 28029 28030 28031 28032 28033 28034 28035 28036 28037 28038 28039 28040 28041 28042 28043 28044 28045 28046 28047 28048 28049 28050 28051 28052 28053 28054 28055 28056 28057 28058 28059 28060 28061 28062 28063 28064 28065 28066 28067 28068 28069 28070 28071 28072 28073 28074 28075 28076 28077 28078 28079 28080 28081 28082 28083 28084 28085 28086 28087 28088 28089 28090 28091 28092 28093 28094 28095 28096 28097 28098 28099 28100 28101 28102 28103 28104 28105 28106 28107 28108 28109 28110 28111 28112 28113 28114 28115 28116 28117 28118 28119 28120 28121 28122 28123 28124 28125 28126 28127 28128 28129 28130 28131 28132 28133 28134 28135 28136 28137 28138 28139 28140 28141 28142 28143 28144 28145 28146 28147 28148 28149 28150 28151 28152 28153 28154 28155 28156 28157 28158 28159 28160 28161 28162 28163 28164 28165 28166 28167 28168 28169 28170 28171 28172 28173 28174 28175 28176 28177 28178 28179 28180 28181 28182 28183 28184 28185 28186 28187 28188 28189 28190 28191 28192 28193 28194 28195 28196 28197 28198 28199 28200 28201 28202 28203 28204 28205 28206 28207 28208 28209 28210 28211 28212 28213 28214 28215 28216 28217 28218 28219 28220 28221 28222 28223 28224 28225 28226 28227 28228 28229 28230 28231 28232 28233 28234 28235 28236 28237 28238 28239 28240 28241 28242 28243 28244 28245 28246 28247 28248 28249 28250 28251 28252 28253 28254 28255 28256 28257 28258 28259 28260 28261 28262 28263 28264 28265 28266 28267 28268 28269 28270 28271 28272 28273 28274 28275 28276 28277 28278 28279 28280 28281 28282 28283 28284 28285 28286 28287 28288 28289 28290 28291 28292 28293 28294 28295 28296 28297 28298 28299 28300 28301 28302 28303 28304 28305 28306 28307 28308 28309 28310 28311 28312 28313 28314 28315 28316 28317 28318 28319 28320 28321 28322 28323 28324 28325 28326 28327 28328 28329 28330 28331 28332 28333 28334 28335 28336 28337 28338 28339 28340 28341 28342 28343 28344 28345 28346 28347 28348 28349 28350 28351 28352 28353 28354 28355 28356 28357 28358 28359 28360 28361 28362 28363 28364 28365 28366 28367 28368 28369 28370 28371 28372 28373 28374 28375 28376 28377 28378 28379 28380 28381 28382 28383 28384 28385 28386 28387 28388 28389 28390 28391 28392 28393 28394 28395 28396 28397 28398 28399 28400 28401 28402 28403 28404 28405 28406 28407 28408 28409 28410 28411 28412 28413 28414 28415 28416 28417 28418 28419 28420 28421 28422 28423 28424 28425 28426 28427 28428 28429 28430 28431 28432 28433 28434 28435 28436 28437 28438 28439 28440 28441 28442 28443 28444 28445 28446 28447 28448 28449 28450 28451 28452 28453 28454 28455 28456 28457 28458 28459 28460 28461 28462 28463 28464 28465 28466 28467 28468 28469 28470 28471 28472 28473 28474 28475 28476 28477 28478 28479 28480 28481 28482 28483 28484 28485 28486 28487 28488 28489 28490 28491 28492 28493 28494 28495 28496 28497 28498 28499 28500 28501 28502 28503 28504 28505 28506 28507 28508 28509 28510 28511 28512 28513 28514 28515 28516 28517 28518 28519 28520 28521 28522 28523 28524 28525 28526 28527 28528 28529 28530 28531 28532 28533 28534 28535 28536 28537 28538 28539 28540 28541 28542 28543 28544 28545 28546 28547 28548 28549 28550 28551 28552 28553 28554 28555 28556 28557 28558 28559 28560 28561 28562 28563 28564 28565 28566 28567 28568 28569 28570 28571 28572 28573 28574 28575 28576 28577 28578 28579 28580 28581 28582 28583 28584 28585 28586 28587 28588 28589 28590 28591 28592 28593 28594 28595 28596 28597 28598 28599 28600 28601 28602 28603 28604 28605 28606 28607 28608 28609 28610 28611 28612 28613 28614 28615 28616 28617 28618 28619 28620 28621 28622 28623 28624 28625 28626 28627 28628 28629 28630 28631 28632 28633 28634 28635 28636 28637 28638 28639 28640 28641 28642 28643 28644 28645 28646 28647 28648 28649 28650 28651 28652 28653 28654 28655 28656 28657 28658 28659 28660 28661 28662 28663 28664 28665 28666 28667 28668 28669 28670 28671 28672 28673 28674 28675 28676 28677 28678 28679 28680 28681 28682 28683 28684 28685 28686 28687 28688 28689 28690 28691 28692 28693 28694 28695 28696 28697 28698 28699 28700 28701 28702 28703 28704 28705 28706 28707 28708 28709 28710 28711 28712 28713 28714 28715 28716 28717 28718 28719 28720 28721 28722 28723 28724 28725 28726 28727 28728 28729 28730 28731 28732 28733 28734 28735 28736 28737 28738 28739 28740 28741 28742 28743 28744 28745 28746 28747 28748 28749 28750 28751 28752 28753 28754 28755 28756 28757 28758 28759 28760 28761 28762 28763 28764 28765 28766 28767 28768 28769 28770 28771 28772 28773 28774 28775 28776 28777 28778 28779 28780 28781 28782 28783 28784 28785 28786 28787 28788 28789 28790 28791 28792 28793 28794 28795 28796 28797 28798 28799 28800 28801 28802 28803 28804 28805 28806 28807 28808 28809 28810 28811 28812 28813 28814 28815 28816 28817 28818 28819 28820 28821 28822 28823 28824 28825 28826 28827 28828 28829 28830 28831 28832 28833 28834 28835 28836 28837 28838 28839 28840 28841 28842 28843 28844 28845 28846 28847 28848 28849 28850 28851 28852 28853 28854 28855 28856 28857 28858 28859 28860 28861 28862 28863 28864 28865 28866 28867 28868 28869 28870 28871 28872 28873 28874 28875 28876 28877 28878 28879 28880 28881 28882 28883 28884 28885 28886 28887 28888 28889 28890 28891 28892 28893 28894 28895 28896 28897 28898 28899 28900 28901 28902 28903 28904 28905 28906 28907 28908 28909 28910 28911 28912 28913 28914 28915 28916 28917 28918 28919 28920 28921 28922 28923 28924 28925 28926 28927 28928 28929 28930 28931 28932 28933 28934 28935 28936 28937 28938 28939 28940 28941 28942 28943 28944 28945 28946 28947 28948 28949 28950 28951 28952 28953 28954 28955 28956 28957 28958 28959 28960 28961 28962 28963 28964 28965 28966 28967 28968 28969 28970 28971 28972 28973 28974 28975 28976 28977 28978 28979 28980 28981 28982 28983 28984 28985 28986 28987 28988 28989 28990 28991 28992 28993 28994 28995 28996 28997 28998 28999 29000 29001 29002 29003 29004 29005 29006 29007 29008 29009 29010 29011 
</DataArray>
<DataArray type="UInt32" Name="offsets" format="ascii">
3 6 9 12 14 17 20 23 26 29 31 34 37 40 43 46 49 52 55 58 61 64 67 70 73 76 79 82 85 88 91 94 97 99 102 105 108 111 114 117 120 123 125 128 131 134 137 140 142 144 147 150 153 156 159 162 165 167 170 172 175 178 181 184 187 189 192 195 198 201 204 207 210 213 215 218 221 224 227 230 233 236 239 242 245 247 250 253 255 258 261 264 267 270 272 275 278 281 284 287 290 293 296 299 302 305 308 311 314 317 320 323 326 329 332 335 337 340 343 345 348 351 354 357 360 363 365 368 371 374 377 380 382 385 388 391 394 397 400 403 406 409 412 415 418 421 424 427 429 432 435 438 441 444 447 450 453 455 458 461 464 466 469 472 475 478 481 484 486 489 492 495 498 501 504 507 509 512 515 518 521 524 527 530 533 535 538 541 544 547 550 553 556 559 562 565 568 570 573 576 579 582 585 588 591 594 597 600 603 606 609 612 614 617 620 623 626 629 632 635 638 641 644 647 650 653 656 659 662 665 668 670 673 676 679 682 685 688 691 693 696 699 702 705 708 711 714 717 720 723 726 729 732 735 738 741 743 746 748 751 754 757 760 763 766 769 772 775 778 781 784 786 789 792 794 797 800 803 806 809 812 815 818 821 824 826 829 832 835 838 841 844 847 850 853 856 859 862 865 868 871 874 877 880 883 885 887 890 892 895 897 900 903 906 908 911 914 917 920 922 925 928 931 934 937 939 942 944 947 950 952 955 957 960 962 965 967 970 972 974 977 980 982 985 987 990 993 996 999 1002 1004 1007 1009 1012 1015 1018 1021 1024 1027 1030 1033 1036 1039 1042 1045 1048 1051 1054 1056 1059 1062 1065 1068 1070 1073 1076 1079 1082 1085 1088 1090 1093 1096 1098 1101 1104 1107 1110 1113 1115 1118 1120 1123 1126 1129 1132 1135 1138 1141 1144 1147 1150 1153 1156 1159 1161 1164 1167 1170 1173 1176 1179 1182 1185 1188 1191 1194 1197 1199 1202 1205 1208 1211 1214 1216 1219 1221 1224 1227 1230 1232 1235 1237 1240 1243 1246 1248 1250 1253 1256 1259 1261 1264 1267 1270 1272 1275 1278 1281 1284 1287 1289 1292 1295 1298 1301 1304 1307 1310 1312 1315 1317 1320 1323 1326 1329 1332 1335 1338 1341 1344 1347 1350 1353 1356 1359 1362 1365 1368 1371 1374 1377 1380 1383 1386 1389 1392 1395 1398 1401 1404 1407 1410 1413 1416 1419 1422 1425 1428 1431 1434 1436 1439 1442 1445 1448 1450 1453 1456 1458 1461 1464 1467 1470 1473 1476 1479 1482 1484 1487 1490 1493 1496 1499 1502 1505 1508 1511 1514 1517 1520 1523 1526 1529 1532 1535 1538 1541 1544 1547 1550 1553 1556 1558 1561 1564 1567 1570 1572 1575 1578 1580 1583 1586 1589 1591 1594 1597 1600 1603 1606 1609 1612 1614 1617 1620 1623 1626 1629 1632 1635 1638 1641 1643 1646 1649 1652 1655 1658 1661 1664 1667 1670 1673 1676 1678 1681 1684 1687 1690 1693 1696 1699 1702 1705 1708 1711 1714 1716 1719 1722 1725 1728 1731 1734 1737 1740 1743 1746 1749 1752 1755 1757 1760 1763 1766 1769 1772 1775 1777 1780 1782 1785 1788 1791 1793 1796 1799 1802 1804 1807 1810 1813 1816 1819 1822 1825 1827 1830 1833 1836 1839 1842 1845 1848 1851 1854 1857 1860 1863 1866 1869 1871 1874 1877 1880 1883 1886 1889 1892 1895 1898 1901 1904 1907 1910 1913 1916 1919 1922 1925 1928 1931 1934 1937 1940 1943 1946 1948 1951 1953 1956 1959 1962 1965 1968 1971 1974 1977 1980 1983 1986 1989 1992 1995 1998 2001 2004 2006 2009 2012 2015 2018 2020 2022 2025 2028 2031 2033 2036 2039 2042 2045 2048 2051 2054 2057 2060 2063 2065 2068 2070 2073 2075 2078 2081 2084 2087 2090 2093 2096 2099 2102 2105 2108 2111 2114 2117 2120 2123 2126 2129 2131 2134 2137 2139 2142 2145 2148 2151 2154 2157 2160 2163 2166 2169 2172 2175 2178 2181 2184 2187 2190 2193 2196 2198 2201 2204 2207 2209 2212 2215 2218 2221 2224 2226 2229 2232 2235 2238 2241 2244 2247 2250 2253 2256 2259 2261 2264 2267 2270 2273 2276 2279 2281 2284 2287 2290 2293 2296 2299 2302 2304 2306 2309 2312 2315 2317 2320 2323 2326 2328 2331 2334 2337 2340 2343 2346 2349 2352 2355 2358 2361 2364 2366 2368 2371 2374 2377 2380 2382 2385 2388 2391 2394 2397 2400 2403 2406 2408 2411 2414 2417 2419 2422 2425 2428 2431 2434 2437 2440 2443 2446 2449 2452 2455 2458 2461 2464 2467 2470 2473 2476 2479 2482 2485 2488 2491 2493 2496 2499 2502 2505 2507 2510 2513 2516 2519 2521 2524 2527 2530 2533 2536 2539 2542 2545 2548 2551 2554 2557 2560 2563 2566 2569 2572 2575 2578 2581 2584 2587 2590 2593 2596 2599 2601 2604 2607 2609 2612 2615 2618 2620 2622 2625 2628 2631 2634 2637 2640 2642 2645 2647 2650 2653 2656 2659 2662 2665 2667 2670 2673 2676 2679 2682 2685 2688 2691 2694 2696 2699 2701 2704 2707 2710 2713 2715 2718 2721 2724 2727 2730 2732 2735 2738 2740 2742 2745 2748 2751 2754 2757 2760 2763 2766 2768 2770 2773 2776 2779 2782 2785 2788 2791 2794 2797 2800 2803 2806 2809 2812 2815 2818 2821 2824 2827 2830 2833 2835 2838 2841 2844 2847 2850 2853 2856 2859 2862 2865 2868 2871 2874 2877 2880 2883 2886 2889 2892 2895 2898 2901 2904 2907 2910 2913 2916 2919 2922 2925 2927 2930 2933 2936 2939 2942 2945 2948 2951 2954 2957 2960 2963 2966 2969 2972 2974 2977 2980 2982 2985 2988 2990 2993 2996 2999 3002 3005 3007 3010 3013 3016 3019 3022 3025 3028 3031 3034 3037 3040 3043 3046 3049 3052 3055 3058 3061 3064 3067 3070 3073 3076 3079 3082 3085 3088 3091 3094 3097 3100 3103 3106 3109 3112 3115 3118 3121 3124 3127 3130 3133 3136 3139 3142 3145 3148 3151 3154 3157 3160 3163 3166 3169 3171 3174 3176 3179 3182 3185 3188 3191 3194 3197 3200 3203 3205 3208 3211 3214 3217 3220 3223 3225 3228 3231 3234 3237 3240 3243 3246 3249 3252 3255 3258 3261 3264 3267 3270 3273 3276 3279 3282 3285 3288 3291 3294 3297 3300 3303 3306 3309 3312 3315 3318 3321 3324 3327 3330 3333 3336 3339 3342 3345 3348 3351 3354 3357 3360 3363 3366 3369 3372 3375 3378 3381 3384 3387 3390 3393 3396 3399 3402 3405 3408 3411 3414 3417 3420 3423 3426 3429 3432 3435 3438 3441 3444 3447 3450 3453 3456 3459 3462 3465 3468 3471 3474 3477 3480 3483 3485 3488 3491 3493 3496 3499 3502 3505 3508 3511 3514 3517 3520 3523 3526 3529 3532 3535 3538 3541 3544 3547 3550 3553 3556 3559 3562 3565 3568 3571 3574 3577 3580 3583 3586 3589 3592 3595 3598 3601 3604 3607 3610 3613 3616 3619 3622 3625 3628 3631 3634 3637 3640 3643 3646 3649 3652 3655 3658 3661 3664 3667 3670 3673 3676 3678 3681 3684 3687 3690 3693 3695 3698 3701 3704 3707 3710 3713 3716 3718 3721 3724 3727 3730 3733 3736 3738 3741 3744 3747 3749 3752 3755 3758 3761 3764 3767 3770 3773 3776 3779 3781 3784 3786 3789 3792 3794 3797 3800 3803 3806 3809 3812 3815 3818 3821 3824 3827 3830 3833 3836 3839 3842 3845 3848 3851 3854 3857 3859 3862 3865 3868 3871 3874 3877 3880 3883 3886 3889 3892 3895 3897 3900 3903 3906 3909 3912 3915 3918 3921 3924 3927 3930 3933 3936 3938 3941 3944 3947 3950 3953 3955 3958 3960 3963 3966 3969 3972 3975 3978 3981 3984 3987 3990 3993 3995 3998 4000 4003 4006 4008 4011 4014 4017 4020 4022 4025 4028 4031 4034 4037 4040 4043 4046 4049 4052 4055 4058 4061 4064 4067 4070 4073 4076 4079 4082 4084 4087 4090 4093 4095 4097 4100 4103 4106 4109 4112 4115 4118 4121 4123 4126 4129 4132 4135 4138 4141 4143 4146 4149 4152 4155 4158 4161 4164 4167 4170 4173 4176 4179 4181 4184 4187 4189 4192 4195 4198 4201 4204 4207 4209 4212 4215 4217 4220 4223 4226 4229 4232 4235 4237 4240 4243 4245 4248 4251 4254 4257 4259 4262 4265 4268 4271 4274 4277 4280 4283 4286 4289 4292 4295 4298 4301 4303 4305 4308 4311 4314 4317 4320 4323 4326 4329 4332 4335 4338 4341 4344 4347 4350 4353 4356 4359 4362 4365 4368 4370 4373 4376 4379 4382 4385 4388 4391 4394 4397 4400 4403 4406 4409 4412 4415 4418 4421 4424 4427 4430 4433 4436 4439 4442 4445 4448 4450 4453 4456 4459 4462 4465 4468 4471 4474 4477 4480 4483 4486 4489 4491 4494 4496 4499 4502 4504 4507 4510 4512 4515 4518 4521 4524 4527 4530 4533 4536 4538 4541 4544 4547 4550 4553 4556 4559 4562 4565 4568 4571 4574 4577 4580 4583 4586 4589 4592 4595 4598 4601 4604 4607 4610 4613 4615 4618 4621 4623 4626 4628 4631 4633 4636 4639 4641 4644 4647 4650 4653 4656 4659 4662 4665 4667 4670 4673 4676 4678 4681 4684 4687 4690 4693 4696 4699 4702 4705 4707 4710 4713 4716 4719 4722 4725 4728 4731 4734 4737 4739 4742 4744 4747 4750 4753 4756 4759 4761 4764 4767 4770 4773 4776 4779 4782 4785 4788 4791 4793 4796 4799 4802 4805 4807 4810 4813 4816 4818 4820 4823 4826 4829 4832 4835 4838 4841 4844 4847 4850 4853 4856 4859 4862 4865 4868 4871 4874 4877 4880 4883 4886 4889 4892 4895 4898 4901 4904 4907 4910 4913 4916 4919 4922 4925 4928 4931 4934 4937 4940 4943 4946 4949 4952 4955 4958 4961 4964 4967 4970 4973 4976 4979 4982 4985 4988 4991 4994 4997 5000 5003 5006 5009 5012 5015 5018 5021 5024 5027 5030 5033 5036 5039 5042 5045 5048 5051 5054 5057 5060 5063 5066 5069 5072 5075 5078 5081 5084 5087 5090 5093 5096 5099 5102 5105 5108 5111 5114 5117 5120 5123 5126 5129 5132 5135 5138 5141 5144 5147 5150 5153 5156 5159 5162 5165 5168 5171 5174 5177 5180 5183 5186 5189 5192 5195 5198 5200 5202 5205 5207 5210 5213 5216 5219 5222 5225 5228 5231 5234 5237 5240 5243 5246 5249 5252 5255 5258 5261 5264 5267 5270 5273 5276 5279 5282 5285 5288 5291 5294 5297 5300 5303 5306 5309 5312 5315 5318 5321 5324 5327 5330 5333 5336 5339 5342 5345 5348 5351 5354 5357 5360 5363 5366 5369 5372 5375 5378 5381 5384 5387 5390 5393 5396 5399 5401 5403 5406 5409 5412 5415 5418 5421 5424 5427 5430 5433 5436 5439 5442 5444 5447 5450 5453 5456 5458 5461 5464 5467 5470 5473 5476 5479 5482 5485 5487 5490 5493 5496 5498 5501 5504 5507 5510 5513 5516 5519 5521 5524 5527 5530 5533 5536 5539 5541 5544 5547 5550 5553 5555 5558 5561 5564 5567 5570 5573 5576 5579 5582 5585 5587 5590 5593 5596 5598 5601 5604 5607 5610 5613 5615 5618 5621 5624 5627 5630 5633 5636 5639 5642 5645 5648 5651 5654 5657 5660 5663 5666 5669 5672 5675 5678 5681 5684 5687 5690 5693 5696 5699 5702 5705 5708 5710 5713 5715 5718 5721 5724 5726 5729 5732 5734 5737 5740 5743 5745 5748 5751 5754 5756 5759 5762 5765 5768 5771 5774 5777 5780 5783 5786 5789 5792 5795 5798 5801 5804 5807 5810 5813 5816 5819 5822 5825 5828 5831 5834 5837 5840 5843 5846 5849 5852 5855 5858 5860 5863 5866 5869 5872 5875 5877 5880 5883 5886 5889 5892 5895 5898 5901 5904 5907 5910 5913 5916 5919 5922 5925 5928 5931 5934 5937 5939 5942 5945 5947 5950 5953 5955 5958 5961 5963 5966 5969 5972 5975 5977 5979 5982 5985 5988 5991 5994 5997 6000 6003 6006 6009 6012 6015 6018 6021 6024 6026 6029 6032 6035 6037 6040 6042 6045 6047 6049 6052 6055 6058 6061 6064 6066 6069 6072 6075 6077 6080 6083 6086 6088 6091 6094 6097 6100 6103 6105 6108 6111 6114 6117 6119 6122 6125 6128 6131 6134 6137 6140 6142 6144 6147 6150 6153 6156 6158 6161 6164 6167 6170 6173 6176 6178 6180 6183 6186 6189 6192 6195 6198 6201 6203 6206 6209 6211 6214 6217 6220 6223 6226 6229 6232 6235 6238 6241 6244 6246 6249 6252 6255 6258 6261 6264 6267 6270 6272 6275 6278 6281 6284 6286 6289 6292 6295 6297 6300 6303 6306 6309 6311 6314 6317 6320 6323 6326 6329 6331 6334 6337 6340 6343 6346 6348 6351 6354 6357 6359 6362 6365 6368 6371 6374 6377 6380 6383 6386 6389 6392 6395 6398 6401 6404 6407 6410 6413 6416 6419 6422 6425 6428 6431 6434 6436 6439 6442 6445 6448 6451 6454 6457 6460 6463 6466 6469 6471 6474 6477 6480 6483 6486 6489 6492 6495 6497 6500 6503 6506 6509 6512 6515 6517 6519 6522 6524 6526 6529 6532 6535 6538 6541 6544 6547 6550 6553 6556 6559 6562 6565 6568 6571 6574 6577 6579 6582 6585 6588 6591 6593 6596 6599 6602 6605 6607 6610 6613 6616 6618 6621 6624 6627 6630 6633 6636 6639 6642 6644 6647 6650 6653 6656 6659 6662 6665 6667 6670 6673 6676 6678 6681 6684 6686 6689 6692 6694 6697 6699 6702 6705 6708 6711 6714 6717 6720 6723 6725 6728 6730 6733 6735 6738 6741 6744 6746 6748 6751 6754 6757 6759 6762 6765 6768 6771 6774 6777 6780 6782 6785 6787 6790 6792 6795 6797 6800 6803 6806 6809 6812 6815 6818 6821 6824 6826 6829 6832 6835 6838 6841 6844 6846 6849 6852 6855 6858 6861 6864 6867 6870 6873 6876 6879 6882 6885 6888 6891 6894 6897 6900 6902 6905 6908 6910 6913 6916 6919 6922 6925 6927 6930 6933 6936 6938 6941 6944 6947 6950 6953 6956 6958 6961 6964 6967 6970 6973 6975 6978 6981 6984 6987 6989 6992 6995 6998 7001 7004 7007 7010 7013 7016 7019 7022 7025 7028 7031 7034 7037 7040 7043 7046 7049 7052 7055 7057 7060 7063 7066 7069 7072 7075 7078 7081 7084 7087 7090 7093 7095 7098 7101 7104 7106 7109 7112 7115 7118 7120 7123 7126 7129 7131 7134 7137 7140 7142 7145 7147 7150 7153 7156 7159 7162 7165 7168 7171 7174 7177 7180 7183 7186 7189 7192 7195 7197 7200 7203 7206 7209 7212 7214 7217 7220 7223 7226 7229 7232 7235 7237 7240 7242 7245 7247 7250 7253 7255 7258 7261 7263 7266 7269 7272 7275 7278 7281 7284 7286 7289 7292 7295 7298 7301 7303 7306 7309 7312 7315 7318 7321 7324 7327 7330 7333 7336 7339 7342 7344 7347 7350 7352 7355 7358 7361 7364 7366 7369 7371 7374 7377 7380 7383 7386 7389 7392 7394 7397 7399 7402 7405 7408 7411 7414 7417 7420 7422 7425 7428 7431 7434 7437 7440 7442 7444 7447 7450 7452 7455 7458 7461 7464 7467 7470 7473 7476 7479 7482 7485 7488 7491 7494 7497 7500 7503 7506 7509 7512 7515 7518 7521 7524 7526 7529 7532 7534 7537 7540 7543 7546 7549 7552 7555 7558 7561 7564 7567 7570 7572 7575 7578 7580 7583 7586 7589 7592 7594 7597 7600 7603 7605 7608 7611 7614 7617 7619 7622 7625 7628 7630 7633 7636 7638 7641 7644 7646 7649 7651 7654 7656 7659 7662 7664 7667 7669 7672 7675 7678 7680 7683 7686 7689 7692 7695 7698 7701 7704 7707 7710 7713 7716 7718 7721 7724 7727 7730 7733 7735 7738 7741 7744 7747 7749 7752 7755 7758 7761 7764 7767 7770 7773 7776 7779 7782 7785 7788 7791 7794 7797 7800 7803 7806 7809 7812 7814 7817 7820 7822 7825 7828 7831 7834 7837 7840 7843 7846 7848 7851 7853 7856 7859 7862 7865 7868 7871 7874 7877 7880 7883 7885 7888 7891 7894 7896 7899 7902 7905 7908 7910 7913 7916 7919 7922 7925 7928 7931 7934 7936 7939 7941 7943 7946 7949 7952 7955 7958 7960 7963 7966 7968 7971 7974 7977 7979 7982 7984 7987 7990 7992 7995 7997 8000 8003 8006 8008 8010 8013 8016 8019 8021 8024 8026 8029 8031 8034 8037 8040 8042 8045 8048 8050 8053 8056 8059 8062 8065 8068 8071 8073 8076 8078 8080 8083 8085 8087 8089 8092 8095 8098 8100 8103 8106 8109 8112 8115 8117 8120 8123 8126 8128 8131 8133 8135 8137 8140 8143 8145 8148 8150 8152 8154 8157 8160 8163 8165 8168 8171 8173 8176 8179 8182 8185 8187 8190 8193 8196 8199 8202 8204 8207 8210 8213 8215 8218 8220 8223 8226 8229 8231 8234 8237 8240 8242 8245 8248 8251 8254 8256 8259 8262 8264 8267 8269 8272 8275 8277 8279 8282 8285 8288 8291 8293 8295 8298 8301 8304 8307 8310 8313 8316 8319 8322 8325 8328 8331 8334 8337 8340 8343 8346 8349 8352 8355 8358 8361 8364 8366 8369 8372 8375 8378 8381 8383 8386 8389 8392 8395 8398 8401 8404 8407 8410 8413 8415 8417 8420 8423 8426 8429 8431 8434 8436 8439 8441 8443 8446 8449 8451 8454 8456 8459 8462 8465 8468 8471 8474 8477 8480 8483 8486 8489 8492 8495 8498 8501 8504 8507 8510 8513 8516 8518 8521 8523 8526 8529 8532 8535 8538 8541 8544 8547 8550 8552 8555 8558 8561 8564 8567 8570 8573 8576 8579 8582 8585 8588 8591 8594 8597 8600 8603 8606 8609 8612 8615 8618 8621 8624 8627 8630 8632 8635 8638 8641 8644 8647 8650 8653 8656 8659 8662 8665 8668 8671 8674 8677 8680 8683 8686 8689 8692 8695 8698 8701 8704 8707 8710 8713 8716 8719 8722 8725 8728 8731 8734 8737 8740 8743 8746 8749 8752 8755 8758 8761 8764 8767 8770 8773 8776 8779 8782 8784 8787 8790 8793 8796 8799 8802 8805 8808 8811 8814 8817 8820 8823 8826 8829 8832 8835 8838 8841 8844 8847 8850 8853 8856 8859 8862 8865 8868 8871 8874 8877 8880 8883 8886 8889 8892 8895 8897 8900 8903 8906 8909 8912 8915 8918 8921 8924 8927 8930 8933 8936 8938 8941 8944 8947 8949 8952 8954 8957 8960 8963 8966 8969 8972 8974 8977 8980 8983 8986 8989 8991 8994 8997 9000 9003 9006 9009 9011 9014 9017 9020 9023 9026 9029 9032 9034 9037 9040 9043 9046 9049 9052 9055 9058 9061 9064 9067 9070 9073 9076 9079 9082 9085 9088 9091 9094 9097 9100 9103 9106 9109 9112 9115 9118 9121 9124 9127 9130 9133 9136 9139 9142 9145 9148 9151 9154 9157 9160 9163 9166 9169 9172 9175 9178 9181 9184 9187 9190 9193 9196 9199 9202 9205 9208 9211 9214 9217 9220 9223 9226 9229 9232 9235 9238 9241 9244 9247 9250 9253 9256 9259 9262 9265 9268 9271 9274 9277 9280 9283 9286 9289 9292 9295 9298 9301 9304 9307 9310 9313 9316 9319 9322 9325 9327 9330 9333 9336 9339 9341 9344 9347 9350 9353 9356 9359 9362 9365 9368 9370 9373 9375 9378 9381 9384 9387 9390 9393 9395 9397 9400 9403 9406 9409 9412 9415 9418 9421 9424 9426 9428 9431 9434 9436 9439 9442 9444 9447 9449 9452 9455 9458 9461 9464 9467 9470 9473 9476 9479 9482 9485 9488 9491 9494 9497 9500 9503 9506 9508 9511 9514 9517 9520 9522 9525 9528 9531 9534 9537 9540 9543 9546 9549 9552 9555 9558 9560 9563 9566 9569 9572 9575 9578 9581 9584 9587 9589 9591 9594 9596 9599 9602 9605 9607 9610 9613 9616 9619 9622 9625 9628 9631 9634 9637 9640 9643 9646 9648 9650 9653 9656 9658 9661 9664 9666 9669 9671 9674 9677 9680 9683 9686 9689 9692 9695 9698 9701 9704 9707 9710 9713 9715 9718 9721 9724 9726 9728 9731 9734 9737 9740 9742 9744 9747 9750 9753 9756 9759 9762 9765 9767 9770 9773 9775 9778 9780 9782 9785 9787 9790 9793 9796 9799 9802 9805 9808 9811 9814 9816 9819 9821 9824 9827 9829 9831 9834 9837 9840 9843 9846 9849 9851 9854 9856 9859 9862 9864 9867 9870 9873 9876 9878 9881 9884 9887 9890 9893 9896 9899 9902 9905 9908 9911 9914 9917 9920 9922 9925 9928 9931 9934 9937 9939 9942 9945 9947 9949 9952 9955 9958 9961 9964 9967 9970 9973 9976 9979 9982 9985 9988 9991 9994 9997 10000 10003 10006 10008 10011 10014 10017 10020 10023 10025 10028 10031 10034 10037 10040 10043 10046 10049 10052 10054 10057 10059 10062 10064 10067 10070 10073 10076 10078 10081 10084 10087 10090 10093 10095 10098 10101 10104 10107 10110 10113 10116 10119 10122 10125 10128 10131 10134 10137 10140 10142 10145 10148 10151 10154 10157 10160 10162 10165 10168 10171 10173 10176 10179 10181 10184 10187 10190 10193 10196 10199 10202 10205 10208 10211 10214 10217 10220 10223 10226 10229 10231 10234 10237 10240 10243 10246 10249 10252 10255 10258 10261 10264 10267 10269 10272 10275 10277 10280 10282 10285 10287 10290 10293 10296 10299 10302 10305 10308 10311 10314 10317 10320 10323 10326 10329 10332 10335 10338 10341 10344 10347 10350 10353 10356 10359 10362 10365 10368 10371 10374 10377 10380 10383 10386 10389 10392 10395 10398 10401 10404 10407 10410 10413 10416 10419 10422 10425 10428 10431 10434 10437 10440 10443 10446 10449 10451 10454 10457 10460 10463 10466 10468 10471 10474 10477 10480 10483 10486 10489 10492 10495 10497 10500 10503 10506 10509 10512 10514 10517 10520 10523 10526 10529 10532 10535 10538 10541 10544 10547 10550 10553 10556 10559 10562 10565 10567 10570 10573 10575 10578 10581 10583 10586 10588 10591 10594 10597 10600 10603 10606 10609 10612 10614 10617 10619 10622 10624 10627 10630 10633 10636 10639 10642 10645 10647 10650 10653 10656 10659 10662 10665 10668 10671 10674 10677 10680 10683 10686 10689 10692 10695 10698 10701 10703 10706 10708 10711 10713 10716 10719 10722 10725 10728 10731 10734 10737 10740 10743 10745 10748 10751 10753 10756 10759 10761 10764 10767 10770 10773 10776 10779 10781 10784 10787 10790 10793 10796 10799 10802 10805 10808 10811 10814 10817 10820 10823 10826 10829 10832 10835 10838 10841 10844 10847 10849 10852 10855 10857 10860 10863 10866 10869 10872 10875 10878 10881 10884 10887 10890 10893 10896 10899 10901 10903 10906 10909 10912 10915 10918 10921 10924 10927 10930 10933 10935 10938 10941 10944 10947 10950 10953 10956 10958 10961 10964 10967 10970 10973 10976 10979 10982 10985 10988 10991 10993 10996 10999 11002 11005 11008 11011 11014 11017 11019 11022 11024 11027 11030 11033 11036 11039 11042 11045 11048 11051 11054 11057 11060 11063 11066 11069 11072 11075 11078 11081 11083 11086 11089 11091 11094 11097 11100 11103 11106 11109 11112 11115 11117 11120 11123 11126 11129 11132 11135 11138 11141 11144 11147 11150 11153 11156 11159 11162 11164 11167 11170 11173 11176 11178 11181 11184 11187 11189 11192 11195 11198 11201 11204 11206 11209 11212 11215 11217 11220 11223 11226 11229 11231 11234 11237 11240 11242 11245 11248 11251 11254 11257 11260 11263 11266 11269 11272 11275 11278 11281 11284 11287 11290 11293 11296 11299 11302 11305 11308 11311 11314 11317 11320 11323 11326 11329 11332 11334 11337 11340 11343 11346 11349 11352 11354 11357 11360 11363 11365 11368 11371 11374 11377 11380 11383 11385 11388 11391 11393 11396 11399 11401 11404 11407 11409 11411 11414 11417 11420 11422 11425 11428 11430 11433 11436 11439 11442 11445 11448 11451 11454 11457 11460 11463 11465 11468 11470 11473 11476 11479 11482 11484 11487 11490 11493 11496 11499 11502 11505 11508 11511 11514 11516 11519 11522 11525 11528 11531 11534 11537 11540 11543 11546 11549 11552 11555 11558 11561 11564 11567 11570 11573 11576 11579 11582 11585 11588 11591 11594 11597 11600 11603 11606 11609 11612 11615 11618 11621 11624 11627 11630 11633 11636 11639 11642 11645 11648 11651 11654 11657 11660 11663 11666 11669 11671 11674 11677 11679 11682 11685 11688 11691 11694 11697 11700 11703 11706 11709 11712 11715 11718 11721 11724 11727 11730 11733 11735 11738 11741 11744 11747 11750 11753 11756 11759 11762 11765 11767 11770 11773 11776 11779 11782 11785 11788 11791 11794 11797 11800 11803 11806 11809 11812 11815 11818 11821 11824 11827 11830 11833 11836 11839 11842 11845 11848 11851 11854 11857 11860 11863 11866 11869 11872 11875 11878 11881 11884 11887 11889 11892 11895 11898 11901 11904 11907 11910 11913 11916 11919 11922 11924 11927 11930 11933 11936 11939 11942 11945 11948 11951 11954 11957 11960 11963 11965 11968 11971 11974 11977 11979 11982 11985 11988 11991 11994 11997 12000 12003 12006 12009 12012 12015 12018 12021 12024 12027 12030 12032 12035 12038 12041 12043 12046 12049 12052 12055 12058 12061 12064 12067 12070 12073 12076 12079 12082 12085 12088 12090 12093 12096 12099 12102 12105 12108 12111 12114 12116 12119 12122 12125 12128 12131 12134 12137 12140 12143 12145 12147 12150 12153 12156 12159 12161 12164 12167 12170 12172 12175 12178 12181 12184 12187 12190 12193 12196 12199 12202 12204 12207 12210 12213 12216 12219 12222 12225 12228 12231 12234 12237 12240 12243 12246 12249 12252 12255 12258 12261 12264 12267 12270 12272 12275 12278 12281 12284 12287 12290 12293 12296 12299 12302 12305 12308 12311 12314 12317 12320 12323 12326 12329 12332 12335 12338 12341 12344 12347 12350 12353 12356 12359 12362 12365 12368 12371 12374 12377 12380 12383 12386 12389 12392 12395 12398 12401 12404 12407 12410 12413 12416 12419 12422 12425 12428 12431 12434 12437 12440 12443 12446 12449 12452 12455 12458 12461 12464 12467 12470 12473 12476 12479 12482 12485 12488 12491 12494 12497 12500 12503 12506 12509 12512 12515 12518 12521 12523 12526 12529 12532 12535 12538 12541 12544 12547 12550 12553 12556 12559 12562 12565 12567 12570 12573 12575 12578 12581 12584 12587 12590 12592 12595 12598 12601 12604 12607 12610 12613 12616 12619 12622 12625 12627 12630 12633 12636 12639 12642 12645 12648 12651 12654 12657 12660 12663 12666 12669 12672 12675 12678 12681 12684 12686 12689 12692 12695 12698 12701 12704 12706 12709 12711 12714 12717 12720 12723 12726 12729 12732 12735 12738 12741 12744 12747 12750 12753 12755 12758 12761 12764 12767 12770 12773 12776 12779 12781 12784 12787 12790 12793 12796 12799 12801 12804 12807 12809 12811 12814 12817 12820 12823 12826 12829 12832 12835 12838 12841 12844 12847 12850 12853 12856 12859 12862 12864 12867 12870 12873 12876 12878 12881 12884 12887 12890 12893 12896 12899 12902 12905 12908 12911 12914 12917 12920 12922 12925 12928 12931 12934 12936 12939 12942 12944 12946 12949 12952 12955 12957 12960 12963 12966 12969 12971 12974 12976 12979 12981 12984 12987 12989 12992 12995 12997 13000 13003 13005 13008 13011 13014 13017 13020 13023 13025 13028 13031 13034 13036 13039 13041 13044 13047 13049 13052 13055 13058 13061 13064 13067 13070 13073 13076 13079 13082 13085 13088 13091 13094 13097 13100 13103 13106 13109 13112 13115 13118 13121 13124 13126 13129 13132 13135 13137 13140 13142 13145 13148 13150 13153 13156 13159 13162 13164 13167 13169 13172 13175 13178 13180 13183 13186 13189 13191 13193 13196 13199 13201 13204 13207 13210 13212 13215 13218 13221 13224 13227 13229 13232 13235 13238 13241 13244 13246 13249 13252 13255 13258 13261 13264 13267 13270 13273 13276 13279 13281 13284 13287 13290 13293 13296 13298 13301 13304 13306 13309 13311 13314 13317 13320 13322 13325 13328 13331 13334 13337 13340 13343 13346 13349 13352 13355 13358 13361 13364 13367 13370 13373 13376 13379 13382 13385 13388 13391 13394 13397 13400 13403 13406 13409 13412 13415 13418 13421 13424 13427 13429 13432 13435 13438 13441 13444 13447 13450 13453 13455 13458 13461 13463 13466 13469 13472 13475 13478 13481 13484 13487 13490 13493 13496 13499 13502 13505 13508 13511 13514 13517 13520 13523 13525 13528 13531 13534 13537 13540 13543 13546 13549 13552 13555 13558 13561 13564 13567 13570 13573 13576 13579 13582 13585 13588 13591 13594 13597 13600 13603 13606 13609 13612 13615 13618 13621 13624 13627 13630 13633 13636 13639 13642 13645 13648 13650 13652 13655 13657 13660 13663 13665 13668 13671 13674 13676 13679 13682 13685 13688 13691 13694 13697 13700 13703 13706 13709 13712 13715 13718 13721 13723 13725 13728 13731 13734 13737 13739 13742 13745 13748 13751 13754 13757 13760 13763 13766 13769 13771 13773 13775 13778 13781 13783 13786 13789 13792 13794 13797 13800 13803 13805 13808 13811 13813 13816 13819 13822 13825 13828 13831 13834 13837 13840 13843 13846 13849 13851 13854 13857 13860 13863 13866 13869 13872 13875 13877 13880 13883 13886 13888 13891 13894 13896 13899 13902 13904 13907 13910 13913 13916 13919 13922 13924 13927 13929 13932 13935 13938 13941 13943 13946 13949 13952 13955 13958 13961 13964 13967 13970 13973 13976 13979 13982 13985 13988 13991 13994 13997 14000 14003 14005 14008 14011 14014 14017 14019 14021 14024 14027 14030 14033 14036 14039 14042 14045 14048 14051 14054 14056 14059 14062 14065 14068 14071 14074 14077 14080 14082 14085 14088 14091 14094 14097 14100 14103 14106 14109 14112 14115 14118 14120 14123 14126 14129 14132 14135 14138 14141 14144 14147 14149 14152 14155 14157 14160 14162 14165 14168 14171 14173 14176 14179 14182 14185 14188 14190 14193 14196 14198 14201 14204 14207 14210 14213 14216 14219 14221 14224 14227 14230 14232 14235 14238 14241 14244 14247 14250 14253 14256 14259 14262 14265 14268 14271 14274 14277 14280 14283 14285 14288 14291 14293 14296 14299 14301 14303 14306 14309 14312 14315 14318 14321 14324 14327 14330 14333 14336 14339 14341 14344 14347 14350 14353 14356 14359 14362 14365 14368 14371 14374 14377 14380 14383 14386 14388 14391 14394 14396 14399 14402 14404 14407 14410 14412 14415 14418 14421 14424 14427 14430 14433 14436 14439 14442 14444 14447 14450 14453 14456 14459 14462 14465 14467 14470 14473 14476 14478 14481 14484 14487 14489 14492 14495 14497 14500 14503 14506 14509 14512 14515 14517 14520 14523 14526 14529 14532 14535 14538 14541 14544 14547 14549 14552 14555 14558 14561 14564 14566 14569 14572 14575 14578 14581 14584 14587 14590 14593 14595 14598 14601 14604 14607 14609 14612 14615 14618 14621 14624 14627 14630 14633 14636 14639 14642 14645 14648 14651 14654 14657 14660 14663 14666 14668 14671 14674 14677 14680 14682 14685 14688 14691 14694 14697 14700 14703 14705 14708 14711 14714 14717 14720 14723 14726 14729 14732 14735 14738 14741 14744 14747 14749 14752 14755 14757 14760 14763 14765 14768 14771 14774 14777 14780 14783 14786 14788 14791 14794 14796 14799 14802 14805 14808 14811 14814 14816 14818 14821 14823 14825 14828 14830 14832 14835 14838 14841 14843 14846 14849 14852 14855 14858 14861 14864 14867 14870 14873 14876 14879 14882 14885 14888 14891 14893 14896 14899 14902 14905 14908 14911 14914 14916 14919 14922 14925 14928 14931 14934 14937 14939 14941 14944 14946 14949 14952 14955 14958 14961 14963 14966 14969 14972 14975 14978 14981 14984 14987 14990 14993 14996 14999 15002 15005 15008 15011 15014 15017 15020 15023 15026 15029 15032 15035 15038 15041 15044 15047 15050 15053 15056 15059 15061 15064 15067 15070 15073 15075 15078 15081 15084 15087 15090 15093 15096 15098 15101 15104 15107 15110 15112 15115 15118 15121 15124 15127 15130 15132 15134 15137 15140 15143 15146 15149 15152 15155 15158 15161 15164 15166 15168 15171 15173 15175 15178 15181 15184 15187 15190 15193 15196 15199 15202 15205 15208 15211 15214 15217 15219 15222 15225 15228 15231 15234 15237 15240 15243 15246 15249 15251 15253 15256 15259 15262 15265 15267 15269 15272 15275 15277 15280 15283 15286 15289 15292 15295 15298 15301 15304 15307 15310 15313 15316 15319 15322 15325 15328 15331 15334 15337 15340 15343 15346 15349 15352 15355 15357 15360 15363 15366 15369 15372 15375 15378 15381 15384 15387 15390 15393 15396 15399 15402 15405 15408 15411 15414 15417 15420 15423 15426 15429 15432 15435 15437 15440 15443 15446 15449 15452 15455 15458 15461 15464 15467 15470 15473 15476 15479 15482 15485 15488 15490 15492 15495 15498 15501 15504 15507 15510 15513 15515 15518 15521 15524 15526 15528 15531 15534 15537 15540 15543 15546 15549 15552 15555 15558 15561 15564 15567 15570 15573 15576 15579 15581 15584 15587 15590 15593 15596 15599 15602 15605 15607 15610 15613 15616 15619 15622 15625 15628 15631 15634 15637 15639 15642 15645 15648 15651 15654 15657 15659 15662 15665 15668 15671 15674 15677 15680 15683 15686 15689 15691 15694 15697 15699 15702 15705 15708 15711 15714 15717 15720 15723 15725 15727 15730 15733 15736 15739 15741 15744 15747 15750 15752 15755 15758 15761 15763 15765 15768 15770 15773 15776 15779 15782 15785 15788 15791 15794 15796 15799 15802 15805 15808 15811 15814 15817 15820 15823 15826 15829 15832 15835 15837 15840 15843 15846 15849 15852 15855 15857 15859 15862 15864 15867 15870 15872 15874 15877 15880 15883 15886 15889 15892 15894 15897 15899 15902 15905 15908 15910 15913 15915 15918 15921 15924 15927 15930 15932 15935 15938 15941 15944 15947 15950 15953 15956 15959 15962 15965 15968 15971 15974 15977 15979 15982 15985 15988 15991 15994 15997 16000 16003 16006 16009 16012 16015 16018 16021 16024 16027 16030 16033 16036 16039 16042 16044 16046 16049 16052 16055 16058 16061 16064 16067 16070 16073 16076 16079 16082 16085 16088 16091 16094 16097 16100 16103 16105 16108 16111 16113 16116 16119 16122 16125 16128 16131 16134 16137 16140 16143 16146 16149 16152 16155 16158 16160 16163 16166 16169 16172 16174 16177 16180 16183 16186 16189 16192 16195 16198 16201 16204 16207 16210 16213 16216 16219 16221 16224 16226 16229 16232 16235 16238 16240 16243 16245 16248 16251 16254 16257 16260 16263 16266 16269 16272 16275 16278 16281 16284 16287 16290 16293 16296 16299 16302 16305 16308 16311 16314 16317 16320 16323 16326 16329 16332 16335 16338 16341 16344 16347 16350 16353 16356 16359 16362 16365 16367 16370 16373 16376 16379 16382 16385 16388 16390 16393 16396 16399 16402 16405 16408 16410 16412 16415 16418 16421 16424 16427 16430 16433 16436 16439 16442 16445 16448 16451 16454 16457 16460 16463 16466 16469 16472 16475 16478 16481 16484 16487 16490 16493 16496 16499 16502 16505 16507 16510 16513 16516 16519 16522 16525 16528 16531 16534 16537 16540 16543 16546 16549 16552 16555 16558 16561 16564 16567 16570 16573 16576 16579 16582 16585 16588 16591 16594 16597 16600 16603 16606 16609 16612 16615 16618 16621 16624 16627 16630 16633 16636 16639 16642 16645 16648 16651 16654 16657 16660 16663 16666 16669 16672 16675 16678 16680 16683 16686 16689 16691 16694 16696 16699 16701 16704 16707 16710 16713 16715 16718 16721 16724 16726 16729 16731 16733 16736 16738 16741 16744 16746 16749 16752 16755 16758 16761 16764 16767 16770 16772 16775 16778 16781 16784 16787 16790 16793 16796 16799 16802 16805 16808 16810 16813 16816 16819 16821 16824 16827 16829 16832 16835 16838 16841 16844 16847 16850 16852 16854 16857 16859 16862 16864 16866 16869 16872 16875 16878 16881 16884 16887 16890 16893 16896 16899 16902 16904 16907 16910 16913 16916 16919 16922 16925 16928 16931 16933 16936 16939 16942 16945 16948 16951 16954 16957 16960 16963 16966 16969 16972 16975 16978 16981 16984 16987 16990 16993 16996 16999 17002 17005 17008 17011 17014 17017 17020 17023 17025 17028 17031 17034 17037 17040 17043 17046 17048 17051 17053 17056 17059 17062 17065 17068 17071 17074 17076 17079 17082 17085 17088 17091 17094 17097 17099 17102 17105 17108 17110 17113 17115 17118 17121 17124 17127 17130 17133 17136 17139 17142 17145 17148 17151 17154 17157 17160 17163 17166 17169 17172 17175 17178 17181 17184 17187 17190 17193 17196 17199 17202 17205 17208 17211 17214 17217 17220 17223 17226 17229 17232 17235 17238 17241 17244 17247 17250 17253 17256 17259 17262 17264 17267 17269 17272 17275 17278 17280 17283 17286 17289 17291 17294 17297 17300 17302 17304 17307 17309 17312 17315 17318 17321 17324 17327 17330 17333 17336 17338 17341 17344 17347 17350 17353 17356 17359 17362 17365 17367 17370 17373 17376 17379 17381 17384 17387 17390 17393 17396 17399 17402 17405 17408 17411 17414 17417 17420 17422 17425 17428 17431 17434 17436 17439 17441 17444 17446 17449 17452 17455 17458 17461 17463 17466 17469 17471 17474 17477 17480 17483 17486 17488 17491 17494 17496 17499 17502 17505 17508 17511 17513 17516 17519 17521 17523 17525 17527 17530 17533 17535 17537 17540 17543 17546 17549 17552 17555 17558 17560 17563 17565 17568 17571 17574 17577 17580 17583 17586 17589 17592 17595 17598 17601 17604 17607 17610 17613 17616 17619 17622 17625 17628 17631 17634 17637 17640 17643 17646 17649 17652 17655 17658 17660 17663 17666 17669 17672 17675 17678 17681 17684 17686 17689 17692 17695 17698 17701 17704 17707 17710 17713 17716 17719 17722 17725 17728 17731 17733 17736 17739 17741 17744 17747 17750 17753 17756 17759 17762 17765 17768 17771 17774 17777 17780 17783 17785 17788 17791 17794 17797 17800 17803 17806 17809 17812 17815 17817 17820 17823 17826 17829 17831 17834 17837 17840 17843 17846 17848 17851 17854 17856 17858 17861 17864 17867 17870 17873 17876 17879 17882 17885 17887 17890 17893 17896 17899 17902 17905 17908 17911 17914 17917 17920 17923 17926 17929 17932 17935 17938 17941 17944 17947 17950 17953 17956 17959 17962 17965 17968 17971 17974 17977 17980 17983 17986 17989 17992 17995 17998 18000 18003 18006 18009 18012 18015 18018 18021 18024 18026 18028 18030 18032 18035 18038 18041 18044 18047 18050 18053 18056 18059 18062 18065 18068 18070 18073 18076 18078 18081 18084 18087 18090 18093 18096 18099 18102 18105 18108 18111 18113 18116 18119 18122 18125 18128 18131 18134 18137 18140 18143 18146 18149 18152 18155 18158 18160 18163 18166 18169 18172 18175 18178 18181 18184 18187 18189 18192 18194 18197 18200 18203 18206 18209 18212 18215 18218 18221 18224 18227 18230 18233 18236 18239 18242 18244 18247 18250 18253 18256 18259 18262 18264 18266 18269 18272 18274 18277 18280 18282 18285 18288 18291 18294 18297 18299 18302 18305 18308 18311 18314 18317 18320 18323 18326 18329 18332 18335 18338 18340 18343 18346 18349 18352 18354 18357 18359 18362 18365 18367 18369 18372 18375 18378 18381 18383 18386 18389 18392 18395 18398 18401 18404 18407 18410 18413 18416 18419 18421 18424 18427 18430 18433 18436 18439 18442 18445 18448 18451 18453 18455 18458 18461 18464 18467 18469 18472 18475 18477 18480 18483 18486 18489 18492 18494 18497 18500 18503 18506 18508 18511 18514 18517 18520 18523 18526 18529 18532 18535 18538 18541 18544 18547 18550 18553 18556 18559 18562 18565 18568 18571 18574 18577 18580 18583 18586 18588 18591 18593 18595 18597 18599 18602 18605 18608 18611 18614 18617 18620 18622 18625 18628 18631 18634 18637 18640 18643 18646 18649 18652 18655 18658 18660 18663 18666 18669 18672 18675 18678 18681 18684 18687 18690 18693 18696 18699 18702 18705 18708 18711 18714 18717 18720 18723 18726 18729 18732 18735 18738 18741 18744 18747 18750 18753 18756 18758 18761 18764 18767 18770 18773 18776 18779 18782 18785 18788 18791 18794 18797 18800 18803 18806 18809 18812 18815 18818 18821 18824 18827 18830 18833 18835 18838 18841 18844 18847 18850 18853 18856 18859 18862 18865 18867 18870 18873 18876 18879 18882 18885 18888 18891 18894 18897 18900 18902 18905 18908 18911 18914 18917 18920 18923 18926 18929 18932 18935 18938 18941 18944 18946 18949 18952 18955 18958 18961 18964 18967 18970 18973 18976 18979 18982 18985 18988 18991 18994 18997 19000 19003 19006 19009 19012 19015 19018 19021 19024 19027 19030 19033 19035 19038 19041 19044 19047 19049 19051 19054 19057 19060 19063 19066 19069 19072 19074 19077 19080 19083 19086 19089 19092 19095 19098 19101 19103 19106 19109 19112 19115 19118 19121 19124 19126 19129 19132 19135 19138 19141 19143 19146 19148 19151 19154 19157 19160 19162 19165 19168 19171 19174 19177 19180 19183 19186 19189 19192 19195 19197 19200 19203 19206 19209 19212 19215 19218 19221 19224 19227 19230 19232 19234 19237 19240 19243 19246 19248 19251 19254 19256 19259 19262 19265 19267 19270 19273 19276 19278 19281 19284 19287 19290 19293 19295 19298 19301 19304 19307 19310 19313 19316 19319 19322 19325 19328 19331 19334 19337 19340 19343 19346 19349 19352 19355 19357 19360 19363 19366 19368 19371 19374 19377 19380 19383 19385 19388 19390 19393 19396 19399 19402 19405 19408 19411 19414 19417 19420 19423 19425 19428 19431 19434 19437 19440 19443 19446 19449 19452 19455 19458 19461 19464 19467 19470 19473 19476 19479 19482 19485 19488 19491 19494 19497 19500 19503 19506 19509 19512 19515 19518 19520 19523 19526 19529 19532 19534 19537 19539 19542 19545 19548 19551 19554 19557 19560 19563 19566 19569 19572 19575 19577 19580 19583 19586 19588 19591 19594 19597 19600 19603 19605 19608 19611 19614 19617 19620 19623 19625 19627 19630 19633 19636 19639 19642 19645 19648 19650 19653 19656 19659 19662 19665 19668 19671 19674 19677 19680 19682 19685 19688 19691 19694 19697 19700 19703 19706 19709 19712 19715 19718 19721 19724 19727 19729 19732 19735 19738 19741 19744 19747 19750 19753 19756 19759 19762 19765 19768 19771 19774 19777 19780 19783 19786 19789 19792 19795 19798 19801 19803 19806 19808 19811 19814 19817 19820 19823 19826 19829 19832 19835 19838 19841 19844 19847 19850 19853 19856 19859 19862 19865 19868 19871 19874 19877 19880 19883 19886 19889 19892 19895 19898 19901 19904 19907 19910 19913 19916 19919 19922 19925 19928 19931 19934 19937 19940 19943 19946 19949 19952 19955 19958 19961 19964 19967 19970 19973 19976 19979 19982 19985 19988 19990 19993 19996 19999 20002 20004 20007 20009 20012 20015 20018 20021 20024 20027 20030 20032 20035 20038 20040 20043 20045 20048 20050 20053 20055 20058 20061 20064 20067 20070 20073 20076 20079 20082 20085 20088 20090 20092 20095 20097 20100 20102 20105 20108 20110 20113 20116 20119 20122 20124 20127 20129 20132 20135 20138 20140 20143 20146 20149 20152 20155 20157 20160 20162 20165 20168 20170 20172 20175 20178 20181 20183 20185 20188 20191 20194 20197 20200 20203 20206 20209 20212 20215 20218 20221 20224 20227 20230 20233 20236 20239 20242 20245 20248 20250 20253 20256 20258 20261 20264 20267 20270 20272 20275 20278 20281 20283 20286 20289 20292 20295 20298 20301 20304 20307 20310 20313 20316 20319 20322 20325 20328 20331 20334 20337 20340 20343 20345 20348 20351 20354 20357 20360 20363 20366 20368 20371 20374 20377 20379 20382 20385 20388 20391 20394 20397 20400 20403 20406 20409 20412 20415 20418 20421 20424 20427 20430 20433 20435 20438 20441 20443 20446 20449 20451 20454 20457 20459 20462 20465 20468 20471 20474 20477 20480 20483 20486 20489 20491 20494 20497 20500 20503 20506 20509 20512 20515 20518 20520 20523 20526 20529 20532 20535 20537 20540 20542 20545 20548 20551 20553 20556 20559 20562 20565 20568 20571 20574 20577 20580 20583 20586 20589 20592 20595 20598 20601 20604 20607 20610 20612 20615 20618 20621 20624 20627 20630 20633 20635 20638 20641 20644 20647 20650 20653 20656 20659 20661 20664 20667 20670 20673 20676 20678 20681 20683 20686 20688 20690 20693 20696 20699 20702 20705 20708 20711 20714 20717 20720 20723 20725 20728 20731 20734 20737 20740 20743 20746 20749 20752 20755 20758 20761 20764 20767 20769 20772 20774 20776 20779 20782 20785 20788 20791 20794 20797 20800 20803 20806 20809 20811 20813 20816 20819 20822 20824 20827 20830 20833 20835 20838 20841 20844 20847 20850 20853 20856 20859 20862 20865 20868 20871 20874 20877 20880 20882 20885 20887 20890 20893 20896 20899 20902 20904 20907 20910 20913 20916 20919 20922 20925 20927 20930 20933 20935 20938 20940 20943 20945 20948 20951 20954 20957 20960 20962 20965 20967 20970 20973 20975 20977 20980 20983 20986 20989 20992 20995 20998 21001 21004 21007 21010 21013 21016 21019 21022 21025 21028 21031 21034 21037 21040 21042 21045 21048 21051 21054 21057 21060 21063 21065 21068 21071 21074 21077 21080 21083 21086 21089 21092 21095 21098 21100 21103 21106 21109 21112 21115 21118 21121 21124 21127 21130 21133 21136 21139 21142 21145 21147 21150 21152 21155 21158 21161 21163 21166 21169 21172 21175 21178 21181 21184 21187 21190 21193 21196 21199 21202 21205 21208 21211 21214 21217 21219 21222 21224 21227 21230 21233 21235 21238 21241 21243 21246 21248 21251 21254 21257 21260 21263 21266 21269 21272 21275 21278 21280 21283 21286 21289 21291 21294 21297 21300 21303 21306 21308 21311 21314 21317 21319 21321 21324 21327 21330 21333 21336 21339 21342 21345 21348 21351 21354 21357 21360 21363 21366 21369 21372 21375 21378 21381 21384 21387 21389 21391 21394 21397 21400 21403 21406 21408 21411 21414 21417 21420 21423 21426 21429 21432 21435 21438 21441 21444 21447 21449 21452 21455 21458 21461 21464 21467 21470 21473 21476 21479 21482 21484 21487 21490 21493 21495 21498 21501 21504 21506 21509 21512 21515 21518 21521 21524 21526 21529 21532 21535 21538 21541 21544 21546 21549 21552 21555 21558 21561 21564 21567 21570 21573 21576 21579 21582 21585 21588 21591 21594 21597 21600 21603 21606 21609 21612 21615 21618 21620 21623 21625 21627 21630 21633 21635 21637 21640 21643 21646 21649 21652 21655 21657 21660 21663 21666 21668 21670 21673 21676 21679 21681 21684 21687 21690 21693 21695 21698 21701 21704 21707 21710 21713 21716 21719 21722 21725 21727 21729 21732 21735 21738 21741 21743 21746 21748 21751 21754 21756 21759 21762 21765 21768 21770 21773 21775 21778 21781 21784 21786 21789 21792 21795 21798 21801 21803 21806 21809 21812 21815 21817 21820 21822 21825 21828 21831 21834 21837 21840 21843 21846 21848 21851 21854 21857 21860 21863 21866 21868 21871 21874 21877 21880 21883 21886 21889 21892 21895 21898 21901 21904 21907 21910 21913 21916 21919 21922 21925 21928 21930 21933 21936 21939 21942 21945 21947 21950 21953 21956 21959 21962 21965 21968 21971 21974 21976 21979 21982 21985 21988 21991 21994 21997 22000 22003 22006 22009 22012 22015 22018 22021 22024 22027 22030 22033 22036 22039 22042 22045 22048 22051 22054 22057 22060 22063 22066 22069 22072 22075 22078 22081 22084 22087 22090 22093 22096 22099 22102 22105 22108 22111 22114 22117 22120 22123 22126 22129 22132 22135 22138 22141 22144 22147 22150 22153 22156 22159 22162 22165 22168 22171 22174 22177 22180 22183 22186 22189 22192 22195 22198 22201 22204 22207 22210 22213 22216 22219 22222 22225 22228 22230 22233 22236 22239 22242 22245 22248 22250 22253 22255 22258 22261 22264 22267 22270 22273 22276 22279 22281 22284 22287 22290 22293 22296 22299 22302 22305 22308 22311 22314 22317 22320 22323 22326 22329 22331 22334 22337 22340 22343 22346 22349 22352 22354 22357 22360 22363 22366 22369 22372 22375 22378 22381 22384 22387 22390 22393 22396 22399 22402 22405 22408 22411 22414 22416 22419 22422 22425 22428 22431 22434 22437 22439 22442 22445 22447 22450 22453 22456 22459 22461 22464 22467 22470 22473 22476 22479 22482 22485 22487 22490 22493 22496 22499 22502 22505 22508 22511 22514 22516 22519 22522 22524 22527 22530 22533 22536 22538 22541 22544 22546 22549 22552 22555 22558 22561 22564 22566 22569 22572 22575 22578 22581 22584 22587 22590 22593 22596 22599 22602 22605 22608 22611 22614 22616 22619 22622 22624 22627 22630 22633 22636 22639 22642 22645 22648 22651 22654 22657 22660 22663 22666 22669 22671 22674 22677 22680 22683 22686 22689 22692 22695 22697 22700 22703 22705 22708 22711 22714 22716 22719 22722 22725 22728 22731 22734 22737 22739 22742 22745 22748 22751 22754 22757 22760 22762 22765 22768 22771 22774 22777 22780 22783 22786 22789 22792 22795 22798 22801 22804 22807 22810 22812 22815 22818 22820 22822 22825 22828 22831 22834 22836 22839 22842 22845 22848 22851 22853 22856 22859 22862 22865 22868 22871 22874 22877 22879 22882 22885 22888 22891 22893 22896 22898 22901 22904 22907 22910 22913 22916 22919 22922 22925 22928 22931 22933 22935 22938 22941 22944 22947 22950 22953 22956 22959 22962 22964 22967 22970 22973 22976 22978 22981 22984 22987 22990 22993 22996 22999 23002 23005 23008 23011 23014 23017 23020 23023 23025 23027 23030 23033 23036 23039 23041 23043 23045 23047 23050 23053 23056 23059 23062 23065 23068 23070 23072 23075 23077 23080 23082 23085 23087 23090 23092 23094 23097 23100 23103 23105 23107 23110 23112 23115 23117 23120 23123 23126 23129 23132 23135 23138 23141 23144 23147 23149 23152 23155 23158 23161 23164 23167 23170 23173 23175 23178 23181 23184 23187 23190 23193 23196 23199 23202 23205 23208 23211 23214 23217 23220 23223 23226 23229 23232 23234 23237 23239 23242 23244 23247 23250 23253 23256 23258 23261 23264 23266 23269 23272 23275 23278 23281 23284 23287 23289 23292 23295 23298 23301 23304 23307 23310 23313 23316 23319 23322 23324 23327 23330 23332 23335 23338 23340 23343 23346 23349 23351 23354 23356 23359 23362 23365 23367 23370 23372 23375 23378 23380 23383 23386 23389 23391 23394 23397 23400 23403 23405 23407 23410 23412 23415 23418 23420 23422 23425 23427 23430 23433 23436 23438 23441 23444 23447 23450 23453 23456 23458 23461 23464 23467 23469 23471 23474 23477 23480 23483 23486 23489 23491 23494 23496 23499 23501 23504 23507 23510 23512 23514 23517 23520 23522 23525 23528 23531 23534 23537 23540 23543 23546 23549 23552 23555 23558 23561 23564 23567 23570 23573 23576 23579 23582 23585 23588 23591 23593 23596 23599 23601 23604 23606 23609 23612 23615 23618 23621 23623 23626 23629 23631 23634 23637 23640 23643 23646 23648 23650 23653 23656 23659 23662 23665 23668 23671 23674 23677 23679 23682 23685 23687 23690 23693 23696 23699 23702 23705 23707 23710 23713 23716 23719 23722 23725 23727 23730 23733 23736 23739 23742 23744 23747 23750 23753 23756 23759 23762 23765 23768 23770 23773 23776 23778 23781 23784 23787 23790 23792 23795 23798 23801 23804 23807 23810 23812 23815 23818 23821 23824 23827 23830 23833 23836 23839 23842 23844 23847 23850 23853 23856 23859 23861 23864 23867 23870 23873 23876 23879 23882 23884 23887 23889 23891 23894 23897 23899 23902 23904 23907 23909 23912 23915 23918 23921 23924 23926 23929 23932 23935 23938 23941 23944 23947 23950 23953 23956 23959 23961 23964 23967 23970 23973 23976 23979 23982 23985 23987 23990 23993 23996 23998 24001 24004 24006 24009 24012 24014 24017 24020 24023 24026 24028 24031 24033 24036 24039 24042 24045 24048 24051 24054 24056 24059 24062 24065 24067 24070 24072 24075 24077 24080 24083 24086 24089 24091 24094 24097 24099 24102 24105 24107 24109 24112 24115 24117 24120 24122 24125 24127 24130 24133 24135 24137 24139 24142 24144 24147 24150 24153 24156 24158 24161 24164 24167 24170 24172 24174 24177 24180 24182 24185 24188 24191 24194 24197 24200 24203 24205 24208 24210 24213 24216 24219 24222 24225 24228 24230 24233 24236 24239 24242 24245 24247 24250 24253 24256 24258 24261 24264 24267 24270 24273 24276 24279 24282 24285 24288 24290 24293 24296 24299 24302 24304 24307 24310 24313 24316 24319 24322 24325 24328 24331 24334 24337 24340 24343 24345 24348 24351 24354 24357 24360 24363 24366 24369 24372 24375 24378 24381 24384 24387 24390 24393 24396 24398 24401 24404 24407 24410 24413 24416 24419 24422 24424 24427 24430 24433 24436 24439 24442 24445 24448 24451 24454 24457 24460 24463 24466 24469 24472 24475 24477 24480 24483 24486 24488 24491 24494 24496 24499 24502 24505 24508 24511 24514 24517 24520 24523 24526 24529 24532 24535 24538 24541 24543 24546 24548 24551 24554 24556 24559 24561 24564 24567 24570 24572 24575 24578 24581 24583 24586 24589 24592 24595 24598 24601 24604 24607 24610 24613 24616 24619 24622 24625 24628 24631 24634 24637 24640 24643 24646 24649 24652 24655 24658 24661 24664 24666 24669 24672 24675 24678 24681 24684 24687 24690 24693 24696 24699 24702 24705 24708 24711 24714 24717 24719 24722 24725 24728 24731 24734 24736 24739 24742 24745 24748 24750 24752 24755 24758 24761 24764 24767 24770 24773 24776 24779 24782 24785 24788 24790 24793 24796 24799 24802 24805 24808 24811 24814 24817 24820 24823 24826 24829 24831 24834 24837 24840 24843 24845 24848 24851 24854 24857 24860 24862 24865 24867 24870 24873 24876 24879 24882 24884 24886 24889 24891 24894 24897 24900 24903 24905 24908 24910 24913 24916 24919 24922 24925 24928 24931 24934 24937 24940 24943 24945 24948 24951 24954 24957 24960 24963 24966 24969 24971 24974 24977 24980 24983 24986 24988 24990 24993 24996 24998 25001 25004 25007 25010 25013 25015 25018 25020 25023 25026 25029 25032 25035 25038 25041 25043 25046 25048 25051 25054 25057 25060 25063 25066 25069 25072 25075 25078 25081 25084 25087 25090 25093 25096 25099 25102 25105 25108 25111 25114 25117 25120 25123 25126 25129 25131 25134 25137 25140 25143 25146 25149 25152 25155 25157 25160 25163 25166 25169 25172 25174 25177 25180 25183 25186 25189 25192 25195 25198 25200 25203 25206 25209 25212 25215 25217 25220 25223 25225 25227 25230 25232 25235 25238 25240 25243 25246 25249 25252 25255 25258 25261 25264 25267 25270 25273 25276 25279 25282 25285 25288 25291 25294 25297 25300 25303 25305 25308 25311 25314 25317 25320 25323 25326 25328 25331 25334 25337 25340 25343 25346 25349 25352 25354 25356 25359 25362 25364 25367 25370 25373 25376 25378 25381 25384 25387 25389 25392 25395 25398 25401 25403 25406 25409 25412 25415 25418 25421 25424 25427 25430 25433 25436 25439 25442 25445 25448 25451 25454 25457 25460 25463 25466 25469 25472 25475 25478 25481 25484 25487 25490 25493 25496 25499 25502 25505 25508 25511 25514 25517 25520 25523 25526 25529 25532 25535 25538 25541 25544 25547 25550 25553 25556 25559 25562 25565 25568 25571 25573 25576 25579 25582 25585 25587 25590 25593 25596 25599 25602 25604 25607 25610 25612 25615 25618 25621 25624 25627 25630 25633 25636 25639 25642 25645 25648 25651 25654 25657 25660 25663 25666 25669 25672 25675 25678 25681 25684 25687 25690 25693 25696 25699 25702 25705 25708 25711 25714 25717 25720 25723 25726 25729 25732 25735 25738 25741 25744 25747 25750 25753 25756 25759 25762 25765 25768 25771 25774 25777 25780 25783 25786 25789 25792 25795 25798 25801 25803 25806 25809 25812 25815 25817 25820 25823 25826 25828 25831 25834 25837 25840 25843 25845 25848 25851 25854 25856 25859 25862 25865 25867 25870 25873 25875 25878 25881 25883 25886 25889 25891 25894 25896 25899 25902 25905 25908 25911 25914 25917 25919 25921 25924 25927 25930 25933 25936 25939 25942 25945 25948 25950 25952 25955 25958 25960 25962 25965 25967 25970 25973 25976 25978 25981 25984 25987 25990 25993 25996 25999 26002 26004 26007 26010 26012 26015 26018 26021 26023 26026 26029 26031 26034 26037 26039 26041 26044 26046 26049 26051 26054 26057 26060 26063 26066 26069 26072 26075 26077 26080 26083 26086 26089 26092 26095 26098 26101 26104 26107 26110 26113 26116 26119 26122 26125 26128 26131 26134 26137 26140 26143 26145 26148 26151 26154 26156 26159 26162 26165 26168 26171 26174 26177 26180 26183 26186 26189 26192 26195 26198 26201 26204 26207 26210 26213 26216 26219 26221 26224 26227 26230 26233 26236 26239 26241 26244 26247 26249 26252 26255 26258 26261 26264 26267 26270 26273 26276 26279 26282 26285 26288 26291 26294 26297 26300 26303 26306 26309 26312 26315 26318 26321 26324 26327 26330 26333 26336 26339 26342 26345 26348 26351 26354 26357 26359 26361 26364 26367 26369 26372 26375 26378 26381 26384 26387 26390 26393 26396 26399 26402 26405 26408 26411 26414 26417 26420 26423 26426 26429 26432 26435 26438 26441 26444 26447 26450 26453 26456 26459 26462 26465 26468 26471 26474 26477 26479 26482 26485 26488 26491 26494 26496 26499 26502 26505 26508 26511 26514 26517 26519 26522 26525 26528 26531 26534 26537 26540 26543 26546 26549 26552 26555 26558 26561 26564 26567 26570 26573 26576 26579 26582 26585 26588 26591 26594 26597 26600 26603 26606 26609 26612 26615 26618 26621 26624 26627 26630 26633 26635 26638 26641 26644 26647 26650 26652 26655 26658 26661 26664 26667 26670 26673 26676 26679 26681 26684 26686 26689 26692 26694 26697 26699 26702 26704 26707 26710 26713 26715 26718 26721 26724 26727 26730 26733 26736 26739 26742 26745 26748 26751 26754 26757 26760 26763 26766 26769 26772 26775 26778 26781 26784 26787 26790 26792 26795 26798 26801 26804 26807 26810 26813 26816 26819 26822 26825 26828 26831 26834 26837 26840 26843 26846 26849 26852 26855 26858 26861 26864 26867 26870 26873 26876 26879 26882 26885 26888 26890 26893 26895 26898 26901 26904 26907 26909 26912 26915 26918 26921 26924 26927 26930 26933 26936 26939 26942 26945 26948 26951 26954 26957 26960 26963 26966 26969 26972 26974 26977 26980 26983 26986 26989 26992 26994 26997 27000 27003 27006 27009 27012 27015 27017 27020 27023 27026 27029 27032 27035 27038 27041 27044 27047 27050 27052 27055 27058 27060 27063 27066 27069 27072 27075 27078 27081 27084 27087 27090 27092 27095 27098 27101 27104 27107 27110 27113 27115 27118 27121 27124 27127 27130 27133 27136 27139 27142 27145 27148 27151 27154 27157 27160 27163 27166 27168 27171 27174 27177 27180 27183 27186 27189 27191 27194 27197 27200 27203 27206 27209 27212 27215 27218 27221 27224 27227 27230 27233 27236 27239 27242 27245 27248 27251 27254 27257 27260 27263 27266 27269 27272 27275 27278 27281 27284 27287 27290 27293 27296 27299 27302 27304 27307 27310 27313 27315 27318 27321 27324 27327 27330 27333 27336 27339 27342 27345 27348 27351 27354 27357 27360 27363 27366 27369 27372 27375 27377 27380 27383 27386 27389 27392 27395 27398 27401 27404 27407 27410 27413 27416 27419 27422 27425 27427 27430 27433 27436 27439 27442 27444 27447 27450 27453 27456 27458 27461 27464 27467 27470 27473 27476 27479 27482 27485 27488 27491 27494 27497 27500 27503 27506 27509 27512 27515 27518 27521 27524 27527 27530 27533 27535 27538 27541 27544 27547 27550 27553 27555 27558 27561 27564 27567 27570 27573 27576 27579 27582 27585 27588 27590 27593 27596 27599 27602 27605 27608 27611 27614 27617 27620 27623 27626 27629 27632 27635 27638 27641 27644 27647 27650 27653 27656 27659 27662 27664 27666 27669 27672 27675 27678 27681 27684 27687 27690 27693 27696 27699 27702 27705 27708 27711 27714 27717 27720 27723 27726 27729 27732 27735 27738 27740 27742 27744 27747 27750 27753 27756 27759 27761 27764 27767 27770 27773 27775 27778 27781 27784 27786 27788 27791 27793 27796 27799 27801 27804 27807 27810 27813 27816 27819 27822 27825 27828 27831 27834 27837 27840 27843 27846 27849 27852 27855 27858 27861 27864 27867 27870 27873 27876 27879 27881 27883 27886 27889 27892 27895 27898 27901 27904 27907 27910 27913 27916 27919 27922 27925 27928 27931 27934 27937 27940 27943 27946 27949 27952 27955 27958 27961 27964 27967 27970 27973 27976 27979 27982 27985 27988 27991 27994 27997 28000 28003 28006 28009 28012 28015 28018 28021 28024 28027 28030 28033 28036 28039 28042 28045 28048 28051 28054 28057 28060 28063 28066 28069 28072 28075 28078 28081 28084 28087 28090 28092 28095 28098 28101 28104 28107 28109 28112 28115 28118 28121 28124 28127 28130 28133 28136 28139 28142 28145 28148 28151 28154 28157 28160 28163 28166 28169 28172 28175 28178 28181 28184 28187 28190 28193 28196 28199 28202 28205 28208 28211 28214 28217 28220 28223 28226 28229 28232 28235 28238 28241 28244 28247 28250 28253 28256 28259 28262 28265 28268 28271 28274 28277 28280 28283 28286 28288 28291 28294 28297 28300 28303 28306 28309 28312 28315 28318 28321 28324 28327 28330 28333 28336 28339 28342 28345 28348 28351 28354 28356 28359 28362 28365 28368 28371 28373 28376 28378 28380 28383 28386 28389 28391 28394 28397 28400 28403 28406 28409 28412 28415 28417 28420 28423 28425 28428 28431 28434 28437 28440 28443 28446 28449 28452 28455 28458 28461 28464 28467 28470 28473 28476 28479 28482 28485 28488 28490 28493 28496 28499 28502 28505 28508 28511 28514 28517 28520 28523 28526 28529 28532 28535 28538 28541 28544 28547 28550 28553 28556 28559 28562 28565 28568 28571 28574 28577 28580 28583 28586 28588 28591 28594 28597 28600 28603 28606 28609 28612 28615 28618 28621 28624 28627 28629 28632 28635 28638 28641 28644 28647 28650 28653 28656 28659 28662 28665 28668 28671 28674 28677 28680 28683 28686 28689 28692 28695 28698 28701 28704 28707 28710 28713 28716 28719 28722 28725 28728 28731 28734 28737 28740 28743 28746 28749 28752 28755 28758 28761 28764 28767 28770 28773 28776 28779 28782 28785 28788 28791 28794 28797 28800 28803 28806 28809 28812 28815 28818 28821 28824 28827 28830 28833 28836 28839 28842 28845 28848 28851 28854 28856 28859 28862 28865 28868 28870 28873 28876 28879 28882 28885 28888 28891 28894 28897 28900 28903 28906 28909 28912 28915 28918 28921 28924 28927 28930 28933 28936 28939 28942 28945 28948 28951 28954 28957 28960 28963 28966 28969 28972 28975 28978 28981 28984 28987 28990 28992 28995 28998 29000 29003 29006 29009 29012 
</DataArray>
<DataArray type="UInt32" Name="types" format="ascii">
5 5 5 5 3 5 5 5 5 5 3 5 5 5 5 5 5 5 5 5 5 5 5 5 5 5 5 5 5 5 5 5 5 3 5 5 5 5 5 5 5 5 3 5 5 5 5 5 3 3 5 5 5 5 5 5 5 3 5 3 5 5 5 5 5 3 5 5 5 5 5 5 5 5 3 5 5 5 5 5 5 5 5 5 5 3 5 5 3 5 5 5 5 5 3 5 5 5 5 5 5 5 5 5 5 5 5 5 5 5 5 5 5 5 5 5 3 5 5 3 5 5 5 5 5 5 3 5 5 5 5 5 3 5 5 5 5 5 5 5 5 5 5 5 5 5 5 5 3 5 5 5 5 5 5 5 5 3 5 5 5 3 5 5 5 5 5 5 3 5 5 5 5 5 5 5 3 5 5 5 5 5 5 5 5 3 5 5 5 5 5 5 5 5 5 5 5 3 5 5 5 5 5 5 5 5 5 5 5 5 5 5 3 5 5 5 5 5 5 5 5 5 5 5 5 5 5 5 5 5 5 3 5 5 5 5 5 5 5 3 5 5 5 5 5 5 5 5 5 5 5 5 5 5 5 5 3 5 3 5 5 5 5 5 5 5 5 5 5 5 5 3 5 5 3 5 5 5 5 5 5 5 5 5 5 3 5 5 5 5 5 5 5 5 5 5 5 5 5 5 5 5 5 5 5 3 3 5 3 5 3 5 5 5 3 5 5 5 5 3 5 5 5 5 5 3 5 3 5 5 3 5 3 5 3 5 3 5 3 3 5 5 3 5 3 5 5 5 5 5 3 5 3 5 5 5 5 5 5 5 5 5 5 5 5 5 5 5 3 5 5 5 5 3 5 5 5 5 5 5 3 5 5 3 5 5 5 5 5 3 5 3 5 5 5 5 5 5 5 5 5 5 5 5 5 3 5 5 5 5 5 5 5 5 5 5 5 5 3 5 5 5 5 5 3 5 3 5 5 5 3 5 3 5 5 5 3 3 5 5 5 3 5 5 5 3 5 5 5 5 5 3 5 5 5 5 5 5 5 3 5 3 5 5 5 5 5 5 5 5 5 5 5 5 5 5 5 5 5 5 5 5 5 5 5 5 5 5 5 5 5 5 5 5 5 5 5 5 5 5 5 3 5 5 5 5 3 5 5 3 5 5 5 5 5 5 5 5 3 5 5 5 5 5 5 5 5 5 5 5 5 5 5 5 5 5 5 5 5 5 5 5 5 3 5 5 5 5 3 5 5 3 5 5 5 3 5 5 5 5 5 5 5 3 5 5 5 5 5 5 5 5 5 3 5 5 5 5 5 5 5 5 5 5 5 3 5 5 5 5 5 5 5 5 5 5 5 5 3 5 5 5 5 5 5 5 5 5 5 5 5 5 3 5 5 5 5 5 5 3 5 3 5 5 5 3 5 5 5 3 5 5 5 5 5 5 5 3 5 5 5 5 5 5 5 5 5 5 5 5 5 5 3 5 5 5 5 5 5 5 5 5 5 5 5 5 5 5 5 5 5 5 5 5 5 5 5 5 3 5 3 5 5 5 5 5 5 5 5 5 5 5 5 5 5 5 5 5 3 5 5 5 5 3 3 5 5 5 3 5 5 5 5 5 5 5 5 5 5 3 5 3 5 3 5 5 5 5 5 5 5 5 5 5 5 5 5 5 5 5 5 5 3 5 5 3 5 5 5 5 5 5 5 5 5 5 5 5 5 5 5 5 5 5 5 3 5 5 5 3 5 5 5 5 5 3 5 5 5 5 5 5 5 5 5 5 5 3 5 5 5 5 5 5 3 5 5 5 5 5 5 5 3 3 5 5 5 3 5 5 5 3 5 5 5 5 5 5 5 5 5 5 5 5 3 3 5 5 5 5 3 5 5 5 5 5 5 5 5 3 5 5 5 3 5 5 5 5 5 5 5 5 5 5 5 5 5 5 5 5 5 5 5 5 5 5 5 5 3 5 5 5 5 3 5 5 5 5 3 5 5 5 5 5 5 5 5 5 5 5 5 5 5 5 5 5 5 5 5 5 5 5 5 5 5 3 5 5 3 5 5 5 3 3 5 5 5 5 5 5 3 5 3 5 5 5 5 5 5 3 5 5 5 5 5 5 5 5 5 3 5 3 5 5 5 5 3 5 5 5 5 5 3 5 5 3 3 5 5 5 5 5 5 5 5 3 3 5 5 5 5 5 5 5 5 5 5 5 5 5 5 5 5 5 5 5 5 5 3 5 5 5 5 5 5 5 5 5 5 5 5 5 5 5 5 5 5 5 5 5 5 5 5 5 5 5 5 5 5 3 5 5 5 5 5 5 5 5 5 5 5 5 5 5 5 3 5 5 3 5 5 3 5 5 5 5 5 3 5 5 5 5 5 5 5 5 5 5 5 5 5 5 5 5 5 5 5 5 5 5 5 5 5 5 5 5 5 5 5 5 5 5 5 5 5 5 5 5 5 5 5 5 5 5 5 5 5 5 5 5 5 5 3 5 3 5 5 5 5 5 5 5 5 5 3 5 5 5 5 5 5 3 5 5 5 5 5 5 5 5 5 5 5 5 5 5 5 5 5 5 5 5 5 5 5 5 5 5 5 5 5 5 5 5 5 5 5 5 5 5 5 5 5 5 5 5 5 5 5 5 5 5 5 5 5 5 5 5 5 5 5 5 5 5 5 5 5 5 5 5 5 5 5 5 5 5 5 5 5 5 5 5 5 5 5 5 5 5 3 5 5 3 5 5 5 5 5 5 5 5 5 5 5 5 5 5 5 5 5 5 5 5 5 5 5 5 5 5 5 5 5 5 5 5 5 5 5 5 5 5 5 5 5 5 5 5 5 5 5 5 5 5 5 5 5 5 5 5 5 5 5 5 5 3 5 5 5 5 5 3 5 5 5 5 5 5 5 3 5 5 5 5 5 5 3 5 5 5 3 5 5 5 5 5 5 5 5 5 5 3 5 3 5 5 3 5 5 5 5 5 5 5 5 5 5 5 5 5 5 5 5 5 5 5 5 5 3 5 5 5 5 5 5 5 5 5 5 5 5 3 5 5 5 5 5 5 5 5 5 5 5 5 5 3 5 5 5 5 5 3 5 3 5 5 5 5 5 5 5 5 5 5 5 3 5 3 5 5 3 5 5 5 5 3 5 5 5 5 5 5 5 5 5 5 5 5 5 5 5 5 5 5 5 5 3 5 5 5 3 3 5 5 5 5 5 5 5 5 3 5 5 5 5 5 5 3 5 5 5 5 5 5 5 5 5 5 5 5 3 5 5 3 5 5 5 5 5 5 3 5 5 3 5 5 5 5 5 5 3 5 5 3 5 5 5 5 3 5 5 5 5 5 5 5 5 5 5 5 5 5 5 3 3 5 5 5 5 5 5 5 5 5 5 5 5 5 5 5 5 5 5 5 5 5 3 5 5 5 5 5 5 5 5 5 5 5 5 5 5 5 5 5 5 5 5 5 5 5 5 5 5 3 5 5 5 5 5 5 5 5 5 5 5 5 5 3 5 3 5 5 3 5 5 3 5 5 5 5 5 5 5 5 3 5 5 5 5 5 5 5 5 5 5 5 5 5 5 5 5 5 5 5 5 5 5 5 5 5 3 5 5 3 5 3 5 3 5 5 3 5 5 5 5 5 5 5 5 3 5 5 5 3 5 5 5 5 5 5 5 5 5 3 5 5 5 5 5 5 5 5 5 5 3 5 3 5 5 5 5 5 3 5 5 5 5 5 5 5 5 5 5 3 5 5 5 5 3 5 5 5 3 3 5 5 5 5 5 5 5 5 5 5 5 5 5 5 5 5 5 5 5 5 5 5 5 5 5 5 5 5 5 5 5 5 5 5 5 5 5 5 5 5 5 5 5 5 5 5 5 5 5 5 5 5 5 5 5 5 5 5 5 5 5 5 5 5 5 5 5 5 5 5 5 5 5 5 5 5 5 5 5 5 5 5 5 5 5 5 5 5 5 5 5 5 5 5 5 5 5 5 5 5 5 5 5 5 5 5 5 5 5 5 5 5 5 5 5 5 5 5 5 5 5 5 5 5 5 5 3 3 5 3 5 5 5 5 5 5 5 5 5 5 5 5 5 5 5 5 5 5 5 5 5 5 5 5 5 5 5 5 5 5 5 5 5 5 5 5 5 5 5 5 5 5 5 5 5 5 5 5 5 5 5 5 5 5 5 5 5 5 5 5 5 5 5 5 3 3 5 5 5 5 5 5 5 5 5 5 5 5 5 3 5 5 5 5 3 5 5 5 5 5 5 5 5 5 3 5 5 5 3 5 5 5 5 5 5 5 3 5 5 5 5 5 5 3 5 5 5 5 3 5 5 5 5 5 5 5 5 5 5 3 5 5 5 3 5 5 5 5 5 3 5 5 5 5 5 5 5 5 5 5 5 5 5 5 5 5 5 5 5 5 5 5 5 5 5 5 5 5 5 5 5 3 5 3 5 5 5 3 5 5 3 5 5 5 3 5 5 5 3 5 5 5 5 5 5 5 5 5 5 5 5 5 5 5 5 5 5 5 5 5 5 5 5 5 5 5 5 5 5 5 5 5 5 3 5 5 5 5 5 3 5 5 5 5 5 5 5 5 5 5 5 5 5 5 5 5 5 5 5 5 3 5 5 3 5 5 3 5 5 3 5 5 5 5 3 3 5 5 5 5 5 5 5 5 5 5 5 5 5 5 5 3 5 5 5 3 5 3 5 3 3 5 5 5 5 5 3 5 5 5 3 5 5 5 3 5 5 5 5 5 3 5 5 5 5 3 5 5 5 5 5 5 5 3 3 5 5 5 5 3 5 5 5 5 5 5 3 3 5 5 5 5 5 5 5 3 5 5 3 5 5 5 5 5 5 5 5 5 5 5 3 5 5 5 5 5 5 5 5 3 5 5 5 5 3 5 5 5 3 5 5 5 5 3 5 5 5 5 5 5 3 5 5 5 5 5 3 5 5 5 3 5 5 5 5 5 5 5 5 5 5 5 5 5 5 5 5 5 5 5 5 5 5 5 5 5 3 5 5 5 5 5 5 5 5 5 5 5 3 5 5 5 5 5 5 5 5 3 5 5 5 5 5 5 3 3 5 3 3 5 5 5 5 5 5 5 5 5 5 5 5 5 5 5 5 5 3 5 5 5 5 3 5 5 5 5 3 5 5 5 3 5 5 5 5 5 5 5 5 3 5 5 5 5 5 5 5 3 5 5 5 3 5 5 3 5 5 3 5 3 5 5 5 5 5 5 5 5 3 5 3 5 3 5 5 5 3 3 5 5 5 3 5 5 5 5 5 5 5 3 5 3 5 3 5 3 5 5 5 5 5 5 5 5 5 3 5 5 5 5 5 5 3 5 5 5 5 5 5 5 5 5 5 5 5 5 5 5 5 5 5 3 5 5 3 5 5 5 5 5 3 5 5 5 3 5 5 5 5 5 5 3 5 5 5 5 5 3 5 5 5 5 3 5 5 5 5 5 5 5 5 5 5 5 5 5 5 5 5 5 5 5 5 5 5 3 5 5 5 5 5 5 5 5 5 5 5 5 3 5 5 5 3 5 5 5 5 3 5 5 5 3 5 5 5 3 5 3 5 5 5 5 5 5 5 5 5 5 5 5 5 5 5 5 3 5 5 5 5 5 3 5 5 5 5 5 5 5 3 5 3 5 3 5 5 3 5 5 3 5 5 5 5 5 5 5 3 5 5 5 5 5 3 5 5 5 5 5 5 5 5 5 5 5 5 5 3 5 5 3 5 5 5 5 3 5 3 5 5 5 5 5 5 5 3 5 3 5 5 5 5 5 5 5 3 5 5 5 5 5 5 3 3 5 5 3 5 5 5 5 5 5 5 5 5 5 5 5 5 5 5 5 5 5 5 5 5 5 5 5 3 5 5 3 5 5 5 5 5 5 5 5 5 5 5 5 3 5 5 3 5 5 5 5 3 5 5 5 3 5 5 5 5 3 5 5 5 3 5 5 3 5 5 3 5 3 5 3 5 5 3 5 3 5 5 5 3 5 5 5 5 5 5 5 5 5 5 5 5 3 5 5 5 5 5 3 5 5 5 5 3 5 5 5 5 5 5 5 5 5 5 5 5 5 5 5 5 5 5 5 5 5 3 5 5 3 5 5 5 5 5 5 5 5 3 5 3 5 5 5 5 5 5 5 5 5 5 3 5 5 5 3 5 5 5 5 3 5 5 5 5 5 5 5 5 3 5 3 3 5 5 5 5 5 3 5 5 3 5 5 5 3 5 3 5 5 3 5 3 5 5 5 3 3 5 5 5 3 5 3 5 3 5 5 5 3 5 5 3 5 5 5 5 5 5 5 3 5 3 3 5 3 3 3 5 5 5 3 5 5 5 5 5 3 5 5 5 3 5 3 3 3 5 5 3 5 3 3 3 5 5 5 3 5 5 3 5 5 5 5 3 5 5 5 5 5 3 5 5 5 3 5 3 5 5 5 3 5 5 5 3 5 5 5 5 3 5 5 3 5 3 5 5 3 3 5 5 5 5 3 3 5 5 5 5 5 5 5 5 5 5 5 5 5 5 5 5 5 5 5 5 5 5 5 3 5 5 5 5 5 3 5 5 5 5 5 5 5 5 5 5 3 3 5 5 5 5 3 5 3 5 3 3 5 5 3 5 3 5 5 5 5 5 5 5 5 5 5 5 5 5 5 5 5 5 5 5 5 3 5 3 5 5 5 5 5 5 5 5 5 3 5 5 5 5 5 5 5 5 5 5 5 5 5 5 5 5 5 5 5 5 5 5 5 5 5 5 3 5 5 5 5 5 5 5 5 5 5 5 5 5 5 5 5 5 5 5 5 5 5 5 5 5 5 5 5 5 5 5 5 5 5 5 5 5 5 5 5 5 5 5 5 5 5 5 5 5 5 3 5 5 5 5 5 5 5 5 5 5 5 5 5 5 5 5 5 5 5 5 5 5 5 5 5 5 5 5 5 5 5 5 5 5 5 5 5 3 5 5 5 5 5 5 5 5 5 5 5 5 5 3 5 5 5 3 5 3 5 5 5 5 5 5 3 5 5 5 5 5 3 5 5 5 5 5 5 3 5 5 5 5 5 5 5 3 5 5 5 5 5 5 5 5 5 5 5 5 5 5 5 5 5 5 5 5 5 5 5 5 5 5 5 5 5 5 5 5 5 5 5 5 5 5 5 5 5 5 5 5 5 5 5 5 5 5 5 5 5 5 5 5 5 5 5 5 5 5 5 5 5 5 5 5 5 5 5 5 5 5 5 5 5 5 5 5 5 5 5 5 5 5 5 5 5 5 5 5 5 5 5 5 5 3 5 5 5 5 3 5 5 5 5 5 5 5 5 5 3 5 3 5 5 5 5 5 5 3 3 5 5 5 5 5 5 5 5 5 3 3 5 5 3 5 5 3 5 3 5 5 5 5 5 5 5 5 5 5 5 5 5 5 5 5 5 5 5 3 5 5 5 5 3 5 5 5 5 5 5 5 5 5 5 5 5 3 5 5 5 5 5 5 5 5 5 3 3 5 3 5 5 5 3 5 5 5 5 5 5 5 5 5 5 5 5 5 3 3 5 5 3 5 5 3 5 3 5 5 5 5 5 5 5 5 5 5 5 5 5 5 3 5 5 5 3 3 5 5 5 5 3 3 5 5 5 5 5 5 5 3 5 5 3 5 3 3 5 3 5 5 5 5 5 5 5 5 5 3 5 3 5 5 3 3 5 5 5 5 5 5 3 5 3 5 5 3 5 5 5 5 3 5 5 5 5 5 5 5 5 5 5 5 5 5 5 3 5 5 5 5 5 3 5 5 3 3 5 5 5 5 5 5 5 5 5 5 5 5 5 5 5 5 5 5 5 3 5 5 5 5 5 3 5 5 5 5 5 5 5 5 5 3 5 3 5 3 5 5 5 5 3 5 5 5 5 5 3 5 5 5 5 5 5 5 5 5 5 5 5 5 5 5 3 5 5 5 5 5 5 3 5 5 5 3 5 5 3 5 5 5 5 5 5 5 5 5 5 5 5 5 5 5 5 3 5 5 5 5 5 5 5 5 5 5 5 5 3 5 5 3 5 3 5 3 5 5 5 5 5 5 5 5 5 5 5 5 5 5 5 5 5 5 5 5 5 5 5 5 5 5 5 5 5 5 5 5 5 5 5 5 5 5 5 5 5 5 5 5 5 5 5 5 5 5 5 5 5 5 3 5 5 5 5 5 3 5 5 5 5 5 5 5 5 5 3 5 5 5 5 5 3 5 5 5 5 5 5 5 5 5 5 5 5 5 5 5 5 5 3 5 5 3 5 5 3 5 3 5 5 5 5 5 5 5 5 3 5 3 5 3 5 5 5 5 5 5 5 3 5 5 5 5 5 5 5 5 5 5 5 5 5 5 5 5 5 5 3 5 3 5 3 5 5 5 5 5 5 5 5 5 5 3 5 5 3 5 5 3 5 5 5 5 5 5 3 5 5 5 5 5 5 5 5 5 5 5 5 5 5 5 5 5 5 5 5 5 5 3 5 5 3 5 5 5 5 5 5 5 5 5 5 5 5 5 5 3 3 5 5 5 5 5 5 5 5 5 5 3 5 5 5 5 5 5 5 3 5 5 5 5 5 5 5 5 5 5 5 3 5 5 5 5 5 5 5 5 3 5 3 5 5 5 5 5 5 5 5 5 5 5 5 5 5 5 5 5 5 5 3 5 5 3 5 5 5 5 5 5 5 5 3 5 5 5 5 5 5 5 5 5 5 5 5 5 5 5 3 5 5 5 5 3 5 5 5 3 5 5 5 5 5 3 5 5 5 3 5 5 5 5 3 5 5 5 3 5 5 5 5 5 5 5 5 5 5 5 5 5 5 5 5 5 5 5 5 5 5 5 5 5 5 5 5 5 5 3 5 5 5 5 5 5 3 5 5 5 3 5 5 5 5 5 5 3 5 5 3 5 5 3 5 5 3 3 5 5 5 3 5 5 3 5 5 5 5 5 5 5 5 5 5 5 3 5 3 5 5 5 5 3 5 5 5 5 5 5 5 5 5 5 3 5 5 5 5 5 5 5 5 5 5 5 5 5 5 5 5 5 5 5 5 5 5 5 5 5 5 5 5 5 5 5 5 5 5 5 5 5 5 5 5 5 5 5 5 5 5 5 5 5 5 5 3 5 5 3 5 5 5 5 5 5 5 5 5 5 5 5 5 5 5 5 5 5 3 5 5 5 5 5 5 5 5 5 5 3 5 5 5 5 5 5 5 5 5 5 5 5 5 5 5 5 5 5 5 5 5 5 5 5 5 5 5 5 5 5 5 5 5 5 5 5 5 5 5 5 3 5 5 5 5 5 5 5 5 5 5 5 3 5 5 5 5 5 5 5 5 5 5 5 5 5 3 5 5 5 5 3 5 5 5 5 5 5 5 5 5 5 5 5 5 5 5 5 5 3 5 5 5 3 5 5 5 5 5 5 5 5 5 5 5 5 5 5 5 3 5 5 5 5 5 5 5 5 3 5 5 5 5 5 5 5 5 5 3 3 5 5 5 5 3 5 5 5 3 5 5 5 5 5 5 5 5 5 5 3 5 5 5 5 5 5 5 5 5 5 5 5 5 5 5 5 5 5 5 5 5 5 3 5 5 5 5 5 5 5 5 5 5 5 5 5 5 5 5 5 5 5 5 5 5 5 5 5 5 5 5 5 5 5 5 5 5 5 5 5 5 5 5 5 5 5 5 5 5 5 5 5 5 5 5 5 5 5 5 5 5 5 5 5 5 5 5 5 5 5 5 5 5 5 5 5 5 5 5 5 5 5 5 5 5 5 3 5 5 5 5 5 5 5 5 5 5 5 5 5 5 3 5 5 3 5 5 5 5 5 3 5 5 5 5 5 5 5 5 5 5 5 3 5 5 5 5 5 5 5 5 5 5 5 5 5 5 5 5 5 5 5 3 5 5 5 5 5 5 3 5 3 5 5 5 5 5 5 5 5 5 5 5 5 5 5 3 5 5 5 5 5 5 5 5 3 5 5 5 5 5 5 3 5 5 3 3 5 5 5 5 5 5 5 5 5 5 5 5 5 5 5 5 5 3 5 5 5 5 3 5 5 5 5 5 5 5 5 5 5 5 5 5 5 3 5 5 5 5 3 5 5 3 3 5 5 5 3 5 5 5 5 3 5 3 5 3 5 5 3 5 5 3 5 5 3 5 5 5 5 5 5 3 5 5 5 3 5 3 5 5 3 5 5 5 5 5 5 5 5 5 5 5 5 5 5 5 5 5 5 5 5 5 5 5 5 5 3 5 5 5 3 5 3 5 5 3 5 5 5 5 3 5 3 5 5 5 3 5 5 5 3 3 5 5 3 5 5 5 3 5 5 5 5 5 3 5 5 5 5 5 3 5 5 5 5 5 5 5 5 5 5 5 3 5 5 5 5 5 3 5 5 3 5 3 5 5 5 3 5 5 5 5 5 5 5 5 5 5 5 5 5 5 5 5 5 5 5 5 5 5 5 5 5 5 5 5 5 5 5 5 5 5 5 3 5 5 5 5 5 5 5 5 3 5 5 3 5 5 5 5 5 5 5 5 5 5 5 5 5 5 5 5 5 5 5 5 3 5 5 5 5 5 5 5 5 5 5 5 5 5 5 5 5 5 5 5 5 5 5 5 5 5 5 5 5 5 5 5 5 5 5 5 5 5 5 5 5 5 3 3 5 3 5 5 3 5 5 5 3 5 5 5 5 5 5 5 5 5 5 5 5 5 5 5 3 3 5 5 5 5 3 5 5 5 5 5 5 5 5 5 5 3 3 3 5 5 3 5 5 5 3 5 5 5 3 5 5 3 5 5 5 5 5 5 5 5 5 5 5 5 3 5 5 5 5 5 5 5 5 3 5 5 5 3 5 5 3 5 5 3 5 5 5 5 5 5 3 5 3 5 5 5 5 3 5 5 5 5 5 5 5 5 5 5 5 5 5 5 5 5 5 5 5 5 3 5 5 5 5 3 3 5 5 5 5 5 5 5 5 5 5 5 3 5 5 5 5 5 5 5 5 3 5 5 5 5 5 5 5 5 5 5 5 5 3 5 5 5 5 5 5 5 5 5 3 5 5 3 5 3 5 5 5 3 5 5 5 5 5 3 5 5 3 5 5 5 5 5 5 5 3 5 5 5 3 5 5 5 5 5 5 5 5 5 5 5 5 5 5 5 5 5 3 5 5 3 5 5 3 3 5 5 5 5 5 5 5 5 5 5 5 5 3 5 5 5 5 5 5 5 5 5 5 5 5 5 5 5 3 5 5 3 5 5 3 5 5 3 5 5 5 5 5 5 5 5 5 5 3 5 5 5 5 5 5 5 3 5 5 5 3 5 5 5 3 5 5 3 5 5 5 5 5 5 3 5 5 5 5 5 5 5 5 5 5 3 5 5 5 5 5 3 5 5 5 5 5 5 5 5 5 3 5 5 5 5 3 5 5 5 5 5 5 5 5 5 5 5 5 5 5 5 5 5 5 5 3 5 5 5 5 3 5 5 5 5 5 5 5 3 5 5 5 5 5 5 5 5 5 5 5 5 5 5 3 5 5 3 5 5 3 5 5 5 5 5 5 5 3 5 5 3 5 5 5 5 5 5 3 3 5 3 3 5 3 3 5 5 5 3 5 5 5 5 5 5 5 5 5 5 5 5 5 5 5 5 3 5 5 5 5 5 5 5 3 5 5 5 5 5 5 5 3 3 5 3 5 5 5 5 5 3 5 5 5 5 5 5 5 5 5 5 5 5 5 5 5 5 5 5 5 5 5 5 5 5 5 5 5 5 5 5 5 5 3 5 5 5 5 3 5 5 5 5 5 5 5 3 5 5 5 5 3 5 5 5 5 5 5 3 3 5 5 5 5 5 5 5 5 5 5 3 3 5 3 3 5 5 5 5 5 5 5 5 5 5 5 5 5 5 3 5 5 5 5 5 5 5 5 5 5 3 3 5 5 5 5 3 3 5 5 3 5 5 5 5 5 5 5 5 5 5 5 5 5 5 5 5 5 5 5 5 5 5 5 5 5 5 3 5 5 5 5 5 5 5 5 5 5 5 5 5 5 5 5 5 5 5 5 5 5 5 5 5 5 3 5 5 5 5 5 5 5 5 5 5 5 5 5 5 5 5 5 3 3 5 5 5 5 5 5 5 3 5 5 5 3 3 5 5 5 5 5 5 5 5 5 5 5 5 5 5 5 5 5 3 5 5 5 5 5 5 5 5 3 5 5 5 5 5 5 5 5 5 5 3 5 5 5 5 5 5 3 5 5 5 5 5 5 5 5 5 5 3 5 5 3 5 5 5 5 5 5 5 5 3 3 5 5 5 5 3 5 5 5 3 5 5 5 3 3 5 3 5 5 5 5 5 5 5 5 3 5 5 5 5 5 5 5 5 5 5 5 5 5 3 5 5 5 5 5 5 3 3 5 3 5 5 3 3 5 5 5 5 5 5 3 5 3 5 5 5 3 5 3 5 5 5 5 5 3 5 5 5 5 5 5 5 5 5 5 5 5 5 5 5 3 5 5 5 5 5 5 5 5 5 5 5 5 5 5 5 5 5 5 5 5 5 3 3 5 5 5 5 5 5 5 5 5 5 5 5 5 5 5 5 5 5 5 3 5 5 3 5 5 5 5 5 5 5 5 5 5 5 5 5 5 5 3 5 5 5 5 3 5 5 5 5 5 5 5 5 5 5 5 5 5 5 5 3 5 3 5 5 5 5 3 5 3 5 5 5 5 5 5 5 5 5 5 5 5 5 5 5 5 5 5 5 5 5 5 5 5 5 5 5 5 5 5 5 5 5 5 5 5 5 5 5 5 3 5 5 5 5 5 5 5 3 5 5 5 5 5 5 3 3 5 5 5 5 5 5 5 5 5 5 5 5 5 5 5 5 5 5 5 5 5 5 5 5 5 5 5 5 5 5 5 3 5 5 5 5 5 5 5 5 5 5 5 5 5 5 5 5 5 5 5 5 5 5 5 5 5 5 5 5 5 5 5 5 5 5 5 5 5 5 5 5 5 5 5 5 5 5 5 5 5 5 5 5 5 5 5 5 5 3 5 5 5 3 5 3 5 3 5 5 5 5 3 5 5 5 3 5 3 3 5 3 5 5 3 5 5 5 5 5 5 5 5 3 5 5 5 5 5 5 5 5 5 5 5 5 3 5 5 5 3 5 5 3 5 5 5 5 5 5 5 3 3 5 3 5 3 3 5 5 5 5 5 5 5 5 5 5 5 5 3 5 5 5 5 5 5 5 5 5 3 5 5 5 5 5 5 5 5 5 5 5 5 5 5 5 5 5 5 5 5 5 5 5 5 5 5 5 5 5 5 3 5 5 5 5 5 5 5 3 5 3 5 5 5 5 5 5 5 3 5 5 5 5 5 5 5 3 5 5 5 3 5 3 5 5 5 5 5 5 5 5 5 5 5 5 5 5 5 5 5 5 5 5 5 5 5 5 5 5 5 5 5 5 5 5 5 5 5 5 5 5 5 5 5 5 5 5 5 5 5 5 5 3 5 3 5 5 5 3 5 5 5 3 5 5 5 3 3 5 3 5 5 5 5 5 5 5 5 5 3 5 5 5 5 5 5 5 5 5 3 5 5 5 5 3 5 5 5 5 5 5 5 5 5 5 5 5 5 3 5 5 5 5 3 5 3 5 3 5 5 5 5 5 3 5 5 3 5 5 5 5 5 3 5 5 3 5 5 5 5 5 3 5 5 3 3 3 3 5 5 3 3 5 5 5 5 5 5 5 3 5 3 5 5 5 5 5 5 5 5 5 5 5 5 5 5 5 5 5 5 5 5 5 5 5 5 5 5 5 5 5 5 5 3 5 5 5 5 5 5 5 5 3 5 5 5 5 5 5 5 5 5 5 5 5 5 5 5 3 5 5 3 5 5 5 5 5 5 5 5 5 5 5 5 5 5 3 5 5 5 5 5 5 5 5 5 5 3 5 5 5 5 3 5 5 5 5 5 3 5 5 3 3 5 5 5 5 5 5 5 5 5 3 5 5 5 5 5 5 5 5 5 5 5 5 5 5 5 5 5 5 5 5 5 5 5 5 5 5 5 5 5 5 5 5 5 5 5 5 5 3 5 5 5 5 5 5 5 5 3 3 3 3 5 5 5 5 5 5 5 5 5 5 5 5 3 5 5 3 5 5 5 5 5 5 5 5 5 5 5 3 5 5 5 5 5 5 5 5 5 5 5 5 5 5 5 3 5 5 5 5 5 5 5 5 5 3 5 3 5 5 5 5 5 5 5 5 5 5 5 5 5 5 5 5 3 5 5 5 5 5 5 3 3 5 5 3 5 5 3 5 5 5 5 5 3 5 5 5 5 5 5 5 5 5 5 5 5 5 3 5 5 5 5 3 5 3 5 5 3 3 5 5 5 5 3 5 5 5 5 5 5 5 5 5 5 5 5 3 5 5 5 5 5 5 5 5 5 5 3 3 5 5 5 5 3 5 5 3 5 5 5 5 5 3 5 5 5 5 3 5 5 5 5 5 5 5 5 5 5 5 5 5 5 5 5 5 5 5 5 5 5 5 5 5 5 3 5 3 3 3 3 5 5 5 5 5 5 5 3 5 5 5 5 5 5 5 5 5 5 5 5 3 5 5 5 5 5 5 5 5 5 5 5 5 5 5 5 5 5 5 5 5 5 5 5 5 5 5 5 5 5 5 5 5 3 5 5 5 5 5 5 5 5 5 5 5 5 5 5 5 5 5 5 5 5 5 5 5 5 5 3 5 5 5 5 5 5 5 5 5 5 3 5 5 5 5 5 5 5 5 5 5 5 3 5 5 5 5 5 5 5 5 5 5 5 5 5 5 3 5 5 5 5 5 5 5 5 5 5 5 5 5 5 5 5 5 5 5 5 5 5 5 5 5 5 5 5 5 3 5 5 5 5 3 3 5 5 5 5 5 5 5 3 5 5 5 5 5 5 5 5 5 3 5 5 5 5 5 5 5 3 5 5 5 5 5 3 5 3 5 5 5 5 3 5 5 5 5 5 5 5 5 5 5 5 3 5 5 5 5 5 5 5 5 5 5 5 3 3 5 5 5 5 3 5 5 3 5 5 5 3 5 5 5 3 5 5 5 5 5 3 5 5 5 5 5 5 5 5 5 5 5 5 5 5 5 5 5 5 5 5 3 5 5 5 3 5 5 5 5 5 3 5 3 5 5 5 5 5 5 5 5 5 5 5 3 5 5 5 5 5 5 5 5 5 5 5 5 5 5 5 5 5 5 5 5 5 5 5 5 5 5 5 5 5 5 5 3 5 5 5 5 3 5 3 5 5 5 5 5 5 5 5 5 5 5 5 3 5 5 5 3 5 5 5 5 5 3 5 5 5 5 5 5 3 3 5 5 5 5 5 5 5 3 5 5 5 5 5 5 5 5 5 5 3 5 5 5 5 5 5 5 5 5 5 5 5 5 5 5 3 5 5 5 5 5 5 5 5 5 5 5 5 5 5 5 5 5 5 5 5 5 5 5 5 3 5 3 5 5 5 5 5 5 5 5 5 5 5 5 5 5 5 5 5 5 5 5 5 5 5 5 5 5 5 5 5 5 5 5 5 5 5 5 5 5 5 5 5 5 5 5 5 5 5 5 5 5 5 5 5 5 5 5 5 5 5 5 3 5 5 5 5 3 5 3 5 5 5 5 5 5 5 3 5 5 3 5 3 5 3 5 3 5 5 5 5 5 5 5 5 5 5 5 3 3 5 3 5 3 5 5 3 5 5 5 5 3 5 3 5 5 5 3 5 5 5 5 5 3 5 3 5 5 3 3 5 5 5 3 3 5 5 5 5 5 5 5 5 5 5 5 5 5 5 5 5 5 5 5 5 5 3 5 5 3 5 5 5 5 3 5 5 5 3 5 5 5 5 5 5 5 5 5 5 5 5 5 5 5 5 5 5 5 5 3 5 5 5 5 5 5 5 3 5 5 5 3 5 5 5 5 5 5 5 5 5 5 5 5 5 5 5 5 5 5 3 5 5 3 5 5 3 5 5 3 5 5 5 5 5 5 5 5 5 5 3 5 5 5 5 5 5 5 5 5 3 5 5 5 5 5 3 5 3 5 5 5 3 5 5 5 5 5 5 5 5 5 5 5 5 5 5 5 5 5 5 5 3 5 5 5 5 5 5 5 3 5 5 5 5 5 5 5 5 3 5 5 5 5 5 3 5 3 5 3 3 5 5 5 5 5 5 5 5 5 5 5 3 5 5 5 5 5 5 5 5 5 5 5 5 5 5 3 5 3 3 5 5 5 5 5 5 5 5 5 5 5 3 3 5 5 5 3 5 5 5 3 5 5 5 5 5 5 5 5 5 5 5 5 5 5 5 3 5 3 5 5 5 5 5 3 5 5 5 5 5 5 5 3 5 5 3 5 3 5 3 5 5 5 5 5 3 5 3 5 5 3 3 5 5 5 5 5 5 5 5 5 5 5 5 5 5 5 5 5 5 5 5 5 3 5 5 5 5 5 5 5 3 5 5 5 5 5 5 5 5 5 5 5 3 5 5 5 5 5 5 5 5 5 5 5 5 5 5 5 3 5 3 5 5 5 3 5 5 5 5 5 5 5 5 5 5 5 5 5 5 5 5 5 5 3 5 3 5 5 5 3 5 5 3 5 3 5 5 5 5 5 5 5 5 5 5 3 5 5 5 3 5 5 5 5 5 3 5 5 5 3 3 5 5 5 5 5 5 5 5 5 5 5 5 5 5 5 5 5 5 5 5 5 5 3 3 5 5 5 5 5 3 5 5 5 5 5 5 5 5 5 5 5 5 5 3 5 5 5 5 5 5 5 5 5 5 5 3 5 5 5 3 5 5 5 3 5 5 5 5 5 5 3 5 5 5 5 5 5 3 5 5 5 5 5 5 5 5 5 5 5 5 5 5 5 5 5 5 5 5 5 5 5 5 3 5 3 3 5 5 3 3 5 5 5 5 5 5 3 5 5 5 3 3 5 5 5 3 5 5 5 5 3 5 5 5 5 5 5 5 5 5 5 3 3 5 5 5 5 3 5 3 5 5 3 5 5 5 5 3 5 3 5 5 5 3 5 5 5 5 5 3 5 5 5 5 3 5 3 5 5 5 5 5 5 5 5 3 5 5 5 5 5 5 3 5 5 5 5 5 5 5 5 5 5 5 5 5 5 5 5 5 5 5 5 3 5 5 5 5 5 3 5 5 5 5 5 5 5 5 5 3 5 5 5 5 5 5 5 5 5 5 5 5 5 5 5 5 5 5 5 5 5 5 5 5 5 5 5 5 5 5 5 5 5 5 5 5 5 5 5 5 5 5 5 5 5 5 5 5 5 5 5 5 5 5 5 5 5 5 5 5 5 5 5 5 5 5 5 5 5 5 5 5 5 5 5 5 5 5 5 5 5 5 5 5 3 5 5 5 5 5 5 3 5 3 5 5 5 5 5 5 5 5 3 5 5 5 5 5 5 5 5 5 5 5 5 5 5 5 5 3 5 5 5 5 5 5 5 3 5 5 5 5 5 5 5 5 5 5 5 5 5 5 5 5 5 5 5 5 3 5 5 5 5 5 5 5 3 5 5 3 5 5 5 5 3 5 5 5 5 5 5 5 5 3 5 5 5 5 5 5 5 5 5 3 5 5 3 5 5 5 5 3 5 5 3 5 5 5 5 5 5 3 5 5 5 5 5 5 5 5 5 5 5 5 5 5 5 5 3 5 5 3 5 5 5 5 5 5 5 5 5 5 5 5 5 5 5 3 5 5 5 5 5 5 5 5 3 5 5 3 5 5 5 3 5 5 5 5 5 5 5 3 5 5 5 5 5 5 5 3 5 5 5 5 5 5 5 5 5 5 5 5 5 5 5 5 3 5 5 3 3 5 5 5 5 3 5 5 5 5 5 3 5 5 5 5 5 5 5 5 3 5 5 5 5 3 5 3 5 5 5 5 5 5 5 5 5 5 5 3 3 5 5 5 5 5 5 5 5 5 3 5 5 5 5 3 5 5 5 5 5 5 5 5 5 5 5 5 5 5 5 3 3 5 5 5 5 3 3 3 3 5 5 5 5 5 5 5 3 3 5 3 5 3 5 3 5 3 3 5 5 5 3 3 5 3 5 3 5 5 5 5 5 5 5 5 5 5 3 5 5 5 5 5 5 5 5 3 5 5 5 5 5 5 5 5 5 5 5 5 5 5 5 5 5 5 5 3 5 3 5 3 5 5 5 5 3 5 5 3 5 5 5 5 5 5 5 3 5 5 5 5 5 5 5 5 5 5 5 3 5 5 3 5 5 3 5 5 5 3 5 3 5 5 5 3 5 3 5 5 3 5 5 5 3 5 5 5 5 3 3 5 3 5 5 3 3 5 3 5 5 5 3 5 5 5 5 5 5 3 5 5 5 3 3 5 5 5 5 5 5 3 5 3 5 3 5 5 5 3 3 5 5 3 5 5 5 5 5 5 5 5 5 5 5 5 5 5 5 5 5 5 5 5 5 5 5 3 5 5 3 5 3 5 5 5 5 5 3 5 5 3 5 5 5 5 5 3 3 5 5 5 5 5 5 5 5 5 3 5 5 3 5 5 5 5 5 5 3 5 5 5 5 5 5 3 5 5 5 5 5 3 5 5 5 5 5 5 5 5 3 5 5 3 5 5 5 5 3 5 5 5 5 5 5 3 5 5 5 5 5 5 5 5 5 5 3 5 5 5 5 5 3 5 5 5 5 5 5 5 3 5 3 3 5 5 3 5 3 5 3 5 5 5 5 5 3 5 5 5 5 5 5 5 5 5 5 5 3 5 5 5 5 5 5 5 5 3 5 5 5 3 5 5 3 5 5 3 5 5 5 5 3 5 3 5 5 5 5 5 5 5 3 5 5 5 3 5 3 5 3 5 5 5 5 3 5 5 3 5 5 3 3 5 5 3 5 3 5 3 5 5 3 3 3 5 3 5 5 5 5 3 5 5 5 5 3 3 5 5 3 5 5 5 5 5 5 5 3 5 3 5 5 5 5 5 5 3 5 5 5 5 5 3 5 5 5 3 5 5 5 5 5 5 5 5 5 5 3 5 5 5 5 3 5 5 5 5 5 5 5 5 5 5 5 5 5 3 5 5 5 5 5 5 5 5 5 5 5 5 5 5 5 5 5 3 5 5 5 5 5 5 5 5 3 5 5 5 5 5 5 5 5 5 5 5 5 5 5 5 5 5 3 5 5 5 3 5 5 3 5 5 5 5 5 5 5 5 5 5 5 5 5 5 5 3 5 3 5 5 3 5 3 5 5 5 3 5 5 5 3 5 5 5 5 5 5 5 5 5 5 5 5 5 5 5 5 5 5 5 5 5 5 5 5 5 5 5 3 5 5 5 5 5 5 5 5 5 5 5 5 5 5 5 5 5 3 5 5 5 5 5 3 5 5 5 5 3 3 5 5 5 5 5 5 5 5 5 5 5 5 3 5 5 5 5 5 5 5 5 5 5 5 5 5 3 5 5 5 5 3 5 5 5 5 5 3 5 3 5 5 5 5 5 3 3 5 3 5 5 5 5 3 5 3 5 5 5 5 5 5 5 5 5 5 5 3 5 5 5 5 5 5 5 5 3 5 5 5 5 5 3 3 5 5 3 5 5 5 5 5 3 5 3 5 5 5 5 5 5 5 3 5 3 5 5 5 5 5 5 5 5 5 5 5 5 5 5 5 5 5 5 5 5 5 5 5 5 5 5 5 3 5 5 5 5 5 5 5 5 3 5 5 5 5 5 3 5 5 5 5 5 5 5 5 3 5 5 5 5 5 3 5 5 3 3 5 3 5 5 3 5 5 5 5 5 5 5 5 5 5 5 5 5 5 5 5 5 5 5 5 5 3 5 5 5 5 5 5 5 3 5 5 5 5 5 5 5 5 3 3 5 5 3 5 5 5 5 3 5 5 5 3 5 5 5 5 3 5 5 5 5 5 5 5 5 5 5 5 5 5 5 5 5 5 5 5 5 5 5 5 5 5 5 5 5 5 5 5 5 5 5 5 5 5 5 5 5 5 5 5 5 5 5 5 5 5 5 5 5 5 5 5 5 3 5 5 5 5 3 5 5 5 5 5 3 5 5 3 5 5 5 5 5 5 5 5 5 5 5 5 5 5 5 5 5 5 5 5 5 5 5 5 5 5 5 5 5 5 5 5 5 5 5 5 5 5 5 5 5 5 5 5 5 5 5 5 5 5 5 5 5 5 5 5 5 5 5 5 5 5 5 3 5 5 5 5 3 5 5 5 3 5 5 5 5 5 3 5 5 5 3 5 5 5 3 5 5 3 5 5 3 5 5 3 5 3 5 5 5 5 5 5 5 3 3 5 5 5 5 5 5 5 5 5 3 3 5 5 3 3 5 3 5 5 5 3 5 5 5 5 5 5 5 5 3 5 5 3 5 5 5 3 5 5 3 5 5 3 3 5 3 5 3 5 5 5 5 5 5 5 5 3 5 5 5 5 5 5 5 5 5 5 5 5 5 5 5 5 5 5 5 5 5 5 3 5 5 5 3 5 5 5 5 5 5 5 5 5 5 5 5 5 5 5 5 5 5 5 5 5 3 5 5 5 5 5 5 3 5 5 3 5 5 5 5 5 5 5 5 5 5 5 5 5 5 5 5 5 5 5 5 5 5 5 5 5 5 5 5 5 5 5 5 5 5 5 5 3 3 5 5 3 5 5 5 5 5 5 5 5 5 5 5 5 5 5 5 5 5 5 5 5 5 5 5 5 5 5 5 5 5 5 5 5 5 5 5 5 3 5 5 5 5 5 3 5 5 5 5 5 5 5 3 5 5 5 5 5 5 5 5 5 5 5 5 5 5 5 5 5 5 5 5 5 5 5 5 5 5 5 5 5 5 5 5 5 5 5 5 5 5 3 5 5 5 5 5 3 5 5 5 5 5 5 5 5 5 3 5 3 5 5 3 5 3 5 3 5 5 5 3 5 5 5 5 5 5 5 5 5 5 5 5 5 5 5 5 5 5 5 5 5 5 5 5 5 3 5 5 5 5 5 5 5 5 5 5 5 5 5 5 5 5 5 5 5 5 5 5 5 5 5 5 5 5 5 5 5 5 3 5 3 5 5 5 5 3 5 5 5 5 5 5 5 5 5 5 5 5 5 5 5 5 5 5 5 5 5 3 5 5 5 5 5 5 3 5 5 5 5 5 5 5 3 5 5 5 5 5 5 5 5 5 5 5 3 5 5 3 5 5 5 5 5 5 5 5 5 5 3 5 5 5 5 5 5 5 3 5 5 5 5 5 5 5 5 5 5 5 5 5 5 5 5 5 3 5 5 5 5 5 5 5 3 5 5 5 5 5 5 5 5 5 5 5 5 5 5 5 5 5 5 5 5 5 5 5 5 5 5 5 5 5 5 5 5 5 5 5 5 5 3 5 5 5 3 5 5 5 5 5 5 5 5 5 5 5 5 5 5 5 5 5 5 5 5 3 5 5 5 5 5 5 5 5 5 5 5 5 5 5 5 5 3 5 5 5 5 5 3 5 5 5 5 3 5 5 5 5 5 5 5 5 5 5 5 5 5 5 5 5 5 5 5 5 5 5 5 5 5 3 5 5 5 5 5 5 3 5 5 5 5 5 5 5 5 5 5 5 3 5 5 5 5 5 5 5 5 5 5 5 5 5 5 5 5 5 5 5 5 5 5 5 5 3 3 5 5 5 5 5 5 5 5 5 5 5 5 5 5 5 5 5 5 5 5 5 5 5 5 3 3 3 5 5 5 5 5 3 5 5 5 5 3 5 5 5 3 3 5 3 5 5 3 5 5 5 5 5 5 5 5 5 5 5 5 5 5 5 5 5 5 5 5 5 5 5 5 5 5 3 3 5 5 5 5 5 5 5 5 5 5 5 5 5 5 5 5 5 5 5 5 5 5 5 5 5 5 5 5 5 5 5 5 5 5 5 5 5 5 5 5 5 5 5 5 5 5 5 5 5 5 5 5 5 5 5 5 5 5 5 5 5 5 5 5 5 5 5 5 5 3 5 5 5 5 5 3 5 5 5 5 5 5 5 5 5 5 5 5 5 5 5 5 5 5 5 5 5 5 5 5 5 5 5 5 5 5 5 5 5 5 5 5 5 5 5 5 5 5 5 5 5 5 5 5 5 5 5 5 5 5 5 5 5 5 5 3 5 5 5 5 5 5 5 5 5 5 5 5 5 5 5 5 5 5 5 5 5 5 3 5 5 5 5 5 3 5 3 3 5 5 5 3 5 5 5 5 5 5 5 5 3 5 5 3 5 5 5 5 5 5 5 5 5 5 5 5 5 5 5 5 5 5 5 5 5 3 5 5 5 5 5 5 5 5 5 5 5 5 5 5 5 5 5 5 5 5 5 5 5 5 5 5 5 5 5 5 5 5 3 5 5 5 5 5 5 5 5 5 5 5 5 5 3 5 5 5 5 5 5 5 5 5 5 5 5 5 5 5 5 5 5 5 5 5 5 5 5 5 5 5 5 5 5 5 5 5 5 5 5 5 5 5 5 5 5 5 5 5 5 5 5 5 5 5 5 5 5 5 5 5 5 5 5 5 5 5 5 5 5 5 5 5 5 5 5 5 5 5 3 5 5 5 5 3 5 5 5 5 5 5 5 5 5 5 5 5 5 5 5 5 5 5 5 5 5 5 5 5 5 5 5 5 5 5 5 5 5 5 5 5 5 5 5 5 3 5 5 3 5 5 5 5 
</DataArray>
</Cells>
<PointData Scalars="" Vectors="displacement," Tensors="">
<DataArray type="Float64" Name="displacement" NumberOfComponents="3" format="ascii">
-0.024999412627902558 -0.024997188592409916 0 -0.024998539022710375 -0.022712095394740638 0 -0.024577192044689621 -0.023480197838537758 0 -0.024999412627902558 -0.024997188592409916 0 -0.024577192044689621 -0.023480197838537758 0 -0.023358857368658208 -0.024239130307155764 0 -0.024999412627902558 -0.024997188592409916 0 -0.023358857368658208 -0.024239130307155764 0 -0.021736896861024972 -0.024489031503403445 0 -0.024998539022710375 -0.022712095394740638 0 -0.025184812324361958 -0.022236689453399718 0 -0.025000293790336147 -0.021047668272361521 0 -0.023843934538639863 -0.023321283832806246 0 -0.024446036285276515 -0.022240980235790717 0 -0.023151472170427095 -0.023250498151821303 0 -0.023643287426362406 -0.02216799343142694 0 -0.023440931109788777 -0.022508529039322336 0 -0.024998539022710375 -0.022712095394740638 0 -0.024577192044689621 -0.023480197838537758 0 -0.025184812324361958 -0.022236689453399718 0 -0.022883732348859369 -0.023579806432953453 0 -0.023358857368658208 -0.024239130307155764 0 -0.021736896861024972 -0.024489031503403445 0 -0.023151472170427095 -0.023250498151821303 0 -0.022883732348859369 -0.023579806432953453 0 -0.023440931109788777 -0.022508529039322336 0 -0.023151472170427095 -0.023250498151821303 0 -0.022883732348859369 -0.023579806432953453 0 -0.023358857368658208 -0.024239130307155764 0 -0.023843934538639863 -0.023321283832806246 0 -0.02348376617985003 -0.024029899399022513 0 -0.024999412627902558 -0.024997188592409916 0 -0.021736896861024972 -0.024489031503403445 0 -0.019156393194495074 -0.024995947401414649 0 -0.021736896861024972 -0.024489031503403445 0 -0.019156393194495074 -0.024995947401414649 0 -0.020612286627880196 -0.024430060197616465 0 -0.019156393194495074 -0.024995947401414649 0 -0.020612286627880196 -0.024430060197616465 0 -0.019124410880892371 -0.024518723435245721 0 -0.020612286627880196 -0.024430060197616465 0 -0.021807674185948422 -0.023955012153074221 0 -0.02101039671151262 -0.024236946295780347 0 -0.020612286627880196 -0.024430060197616465 0 -0.02101039671151262 -0.024236946295780347 0 -0.019124410880892371 -0.024518723435245721 0 -0.022883732348859369 -0.023579806432953453 0 -0.021736896861024972 -0.024489031503403445 0 -0.021807674185948422 -0.023955012153074221 0 -0.021736896861024972 -0.024489031503403445 0 -0.020612286627880196 -0.024430060197616465 0 -0.021807674185948422 -0.023955012153074221 0 -0.022883732348859369 -0.023579806432953453 0 -0.021807674185948422 -0.023955012153074221 0 -0.022472916392863571 -0.023381632162703066 0 -0.021807674185948422 -0.023955012153074221 0 -0.022472916392863571 -0.023381632162703066 0 -0.022015371850690954 -0.023633725869051769 0 -0.021807674185948422 -0.023955012153074221 0 -0.022015371850690954 -0.023633725869051769 0 -0.02101039671151262 -0.024236946295780347 0 -0.022015371850690954 -0.023633725869051769 0 -0.022054891312549171 -0.023476426651766896 0 -0.021729245348546398 -0.0238664424761433 0 -0.022015371850690954 -0.023633725869051769 0 -0.022054891312549171 -0.023476426651766896 0 -0.022124811333228408 -0.023311029295283749 0 -0.022015371850690954 -0.023633725869051769 0 -0.022124811333228408 -0.023311029295283749 0 -0.02253976978202139 -0.023031622887656054 0 -0.022472916392863571 -0.023381632162703066 0 -0.022015371850690954 -0.023633725869051769 0 -0.02253976978202139 -0.023031622887656054 0 -0.02101039671151262 -0.024236946295780347 0 -0.019124410880892371 -0.024518723435245721 0 -0.019216123047505931 -0.025068420182908752 0 -0.02101039671151262 -0.024236946295780347 0 -0.021158429027916894 -0.024313569852164381 0 -0.019216123047505931 -0.025068420182908752 0 -0.02101039671151262 -0.024236946295780347 0 -0.021729245348546398 -0.0238664424761433 0 -0.021158429027916894 -0.024313569852164381 0 -0.022015371850690954 -0.023633725869051769 0 -0.02101039671151262 -0.024236946295780347 0 -0.021729245348546398 -0.0238664424761433 0 -0.011946028214556205 -0.020477150578387286 0 -0.011209654916219719 -0.018859740301472302 0 -0.013235169595543918 -0.01875765700358735 0 -0.011946028214556205 -0.020477150578387286 0 -0.011209654916219719 -0.018859740301472302 0 -0.0094780379957984592 -0.018842794572581967 0 -0.021729245348546398 -0.0238664424761433 0 -0.021158429027916894 -0.024313569852164381 0 -0.022529379045535727 -0.022636061896571878 0 -0.021158429027916894 -0.024313569852164381 0 -0.022529379045535727 -0.022636061896571878 0 -0.022863871636414949 -0.022205788014157003 0 -0.016004343077732741 -0.022336520171292062 0 -0.018488232162619089 -0.019838594628650636 0 -0.01044258513502253 -0.01816741058427334 0 -0.011209654916219719 -0.018859740301472302 0 -0.0094780379957984592 -0.018842794572581967 0 -0.01044258513502253 -0.01816741058427334 0 -0.011209654916219719 -0.018859740301472302 0 -0.011507143211292339 -0.017150563061601402 0 -0.011209654916219719 -0.018859740301472302 0 -0.013235169595543918 -0.01875765700358735 0 -0.011507143211292339 -0.017150563061601402 0 -0.022246420390247337 -0.023252711437890539 0 -0.022124811333228408 -0.023311029295283749 0 -0.02253976978202139 -0.023031622887656054 0 -0.022054891312549171 -0.023476426651766896 0 -0.021729245348546398 -0.0238664424761433 0 -0.022529379045535727 -0.022636061896571878 0 -0.022054891312549171 -0.023476426651766896 0 -0.022124811333228408 -0.023311029295283749 0 -0.022529379045535727 -0.022636061896571878 0 -0.024000372903778516 -0.019795327620531319 0 -0.022842574271781907 -0.022160895164830895 0 -0.022529379045535727 -0.022636061896571878 0 -0.022246420390247337 -0.023252711437890539 0 -0.022124811333228408 -0.023311029295283749 0 -0.022529379045535727 -0.022636061896571878 0 -0.023224632020039351 -0.021617390374792086 0 -0.022804222669211709 -0.022379640540078322 0 -0.022842574271781907 -0.022160895164830895 0 -0.022529379045535727 -0.022636061896571878 0 -0.022863871636414949 -0.022205788014157003 0 -0.023526377288297092 -0.020721299689964813 0 -0.023974159628043671 -0.020047759284713661 0 -0.024221463817609101 -0.019400240174170708 0 -0.024000372903778516 -0.019795327620531319 0 -0.022842574271781907 -0.022160895164830895 0 -0.023526377288297092 -0.020721299689964813 0 -0.023526377288297092 -0.020721299689964813 0 -0.023657262281245654 -0.020852832028357117 0 -0.024221463817609101 -0.019400240174170708 0 -0.022842574271781907 -0.022160895164830895 0 -0.023526377288297092 -0.020721299689964813 0 -0.023348346874214172 -0.021315471214927013 0 -0.019557768045796304 -0.021263945109111584 0 -0.018488232162619089 -0.019838594628650636 0 -0.020850658316129384 -0.020884128846282563 0 -0.018488232162619089 -0.019838594628650636 0 -0.01044258513502253 -0.01816741058427334 0 -0.0094780379957984592 -0.018842794572581967 0 -0.010180687974028921 -0.017108490137785572 0 -0.023974159628043671 -0.020047759284713661 0 -0.024499479610458747 -0.019492733530798119 0 -0.024348570187541836 -0.019466317761990082 0 -0.024000372903778516 -0.019795327620531319 0 -0.023974159628043671 -0.020047759284713661 0 -0.024499479610458747 -0.019492733530798119 0 -0.024000372903778516 -0.019795327620531319 0 -0.023526377288297092 -0.020721299689964813 0 -0.023974159628043671 -0.020047759284713661 0 -0.024000372903778516 -0.019795327620531319 0 -0.024499479610458747 -0.019492733530798119 0 -0.024760273757597987 -0.019148895709869752 0 -0.023134283863100989 -0.022879293823699885 0 -0.02253976978202139 -0.023031622887656054 0 -0.023521738709712383 -0.022255763092747953 0 -0.022246420390247337 -0.023252711437890539 0 -0.023134283863100989 -0.022879293823699885 0 -0.02253976978202139 -0.023031622887656054 0 -0.023224632020039351 -0.021617390374792086 0 -0.023926259968466382 -0.021000751793639673 0 -0.023134283863100989 -0.022879293823699885 0 -0.024209464864049138 -0.021770173491286848 0 -0.023521738709712383 -0.022255763092747953 0 -0.023926259968466382 -0.021000751793639673 0 -0.024576204688391879 -0.020388525984697273 0 -0.024499479610458747 -0.019492733530798119 0 -0.024760273757597987 -0.019148895709869752 0 -0.025133217598549879 -0.019152557976215113 0 -0.024760273757597987 -0.019148895709869752 0 -0.025133217598549879 -0.019152557976215113 0 -0.025256200496532752 -0.019090822195009318 0 -0.025133217598549879 -0.019152557976215113 0 -0.025255883983454422 -0.018969312279506514 0 -0.025256200496532752 -0.019090822195009318 0 -0.025255883983454422 -0.018969312279506514 0 -0.024999925139350242 -0.019494023862054104 0 -0.025256200496532752 -0.019090822195009318 0 -0.025255883983454422 -0.018969312279506514 0 -0.024999925139350242 -0.019494023862054104 0 -0.024999819470904801 -0.018559299827786663 0 -0.024999460193247287 -0.019495352541037774 0 -0.024576204688391879 -0.020388525984697273 0 -0.024999652700897917 -0.0194982381518145 0 -0.024209464864049138 -0.021770173491286848 0 -0.024492972013116662 -0.021229761087226511 0 -0.024999652700897917 -0.0194982381518145 0 -0.02499959544586217 -0.020271858761937756 0 -0.024492972013116662 -0.021229761087226511 0 -0.024209464864049138 -0.021770173491286848 0 -0.024492972013116662 -0.021229761087226511 0 -0.023521738709712383 -0.022255763092747953 0 -0.023794760946597465 -0.021984102695499348 0 -0.024492972013116662 -0.021229761087226511 0 -0.023521738709712383 -0.022255763092747953 0 -0.023794760946597465 -0.021984102695499348 0 -0.024492972013116662 -0.021229761087226511 0 -0.024060314710666594 -0.021720668258238315 0 -0.024492972013116662 -0.021229761087226511 0 -0.024997996161994551 -0.02104879863912678 0 -0.024060314710666594 -0.021720668258238315 0 -0.02499959544586217 -0.020271858761937756 0 -0.024492972013116662 -0.021229761087226511 0 -0.024997996161994551 -0.02104879863912678 0 -0.023643287426362406 -0.02216799343142694 0 -0.024997996161994551 -0.02104879863912678 0 -0.024060314710666594 -0.021720668258238315 0 -0.024446036285276515 -0.022240980235790717 0 -0.024999790230805865 -0.021048584325279819 0 -0.023794760946597465 -0.021984102695499348 0 -0.024060314710666594 -0.021720668258238315 0 -0.023440931109788777 -0.022508529039322336 0 -0.023643287426362406 -0.02216799343142694 0 -0.024060314710666594 -0.021720668258238315 0 -0.023440931109788777 -0.022508529039322336 0 -0.022883732348859369 -0.023579806432953453 0 -0.023440931109788777 -0.022508529039322336 0 -0.023078035454508743 -0.022762429587294804 0 -0.023794760946597465 -0.021984102695499348 0 -0.023440931109788777 -0.022508529039322336 0 -0.023078035454508743 -0.022762429587294804 0 -0.022883732348859369 -0.023579806432953453 0 -0.022472916392863571 -0.023381632162703066 0 -0.023078035454508743 -0.022762429587294804 0 -0.023078035454508743 -0.022762429587294804 0 -0.02253976978202139 -0.023031622887656054 0 -0.023521738709712383 -0.022255763092747953 0 -0.022472916392863571 -0.023381632162703066 0 -0.023078035454508743 -0.022762429587294804 0 -0.02253976978202139 -0.023031622887656054 0 -0.023794760946597465 -0.021984102695499348 0 -0.023078035454508743 -0.022762429587294804 0 -0.023521738709712383 -0.022255763092747953 0 -0.01299839526702711 -0.025728833141119178 0 -0.014640291258357682 -0.024999116281645715 0 -0.011379956274344273 -0.024999660218250407 0 -0.015904218941107894 -0.024655164519518328 0 -0.015905022299153731 -0.024797804780017231 0 -0.015845583828239813 -0.024533208464330866 0 -0.013402278656890037 -0.025670883207308731 0 -0.014830090253056363 -0.025937906444445505 0 -0.01589013431242426 -0.02480535942276748 0 -0.016027977796066076 -0.024718046981009451 0 -0.015822785185015592 -0.025018774955324379 0 -0.015984458589408126 -0.02469801368217801 0 -0.015904218941107894 -0.024655164519518328 0 -0.015994265112319009 -0.024573250512062925 0 -0.013402278656890037 -0.025670883207308731 0 -0.015013623931153885 -0.025712109626312617 0 -0.01589013431242426 -0.02480535942276748 0 -0.016027977796066076 -0.024718046981009451 0 -0.015904218941107894 -0.024655164519518328 0 -0.01589013431242426 -0.02480535942276748 0 -0.015904218941107894 -0.024655164519518328 0 -0.015905022299153731 -0.024797804780017231 0 -0.01589013431242426 -0.02480535942276748 0 -0.015905022299153731 -0.024797804780017231 0 -0.015822785185015592 -0.025018774955324379 0 -0.015905022299153731 -0.024797804780017231 0 -0.015822785185015592 -0.025018774955324379 0 -0.015497340182369392 -0.025096449389801222 0 -0.015822785185015592 -0.025018774955324379 0 -0.014678736940278471 -0.025593295133736645 0 -0.015497340182369392 -0.025096449389801222 0 -0.014830090253056363 -0.025937906444445505 0 -0.014741569961635854 -0.025628804286982776 0 -0.012931845844308631 -0.027886277300569008 0 -0.012818131881727151 -0.026888874641635967 0 -0.013739913571208021 -0.026883355703318099 0 -0.012818131881727151 -0.026888874641635967 0 -0.013739913571208021 -0.026883355703318099 0 -0.01299839526702711 -0.025728833141119178 0 -0.01299839526702711 -0.025728833141119178 0 -0.014678736940278471 -0.025593295133736645 0 -0.014640291258357682 -0.024999116281645715 0 -0.013739913571208021 -0.026883355703318099 0 -0.01299839526702711 -0.025728833141119178 0 -0.014678736940278471 -0.025593295133736645 0 -0.014678736940278471 -0.025593295133736645 0 -0.015550010833914774 -0.025163089624036645 0 -0.015497340182369392 -0.025096449389801222 0 -0.014678736940278471 -0.025593295133736645 0 -0.014640291258357682 -0.024999116281645715 0 -0.015550010833914774 -0.025163089624036645 0 -0.014640291258357682 -0.024999116281645715 0 -0.015550010833914774 -0.025163089624036645 0 -0.016955525015500735 -0.024916036384086026 0 -0.015550010833914774 -0.025163089624036645 0 -0.016227719331566633 -0.024964561374149877 0 -0.015497340182369392 -0.025096449389801222 0 -0.016227719331566633 -0.024964561374149877 0 -0.015497340182369392 -0.025096449389801222 0 -0.016086867450038941 -0.024718589015459078 0 -0.015905022299153731 -0.024797804780017231 0 -0.015497340182369392 -0.025096449389801222 0 -0.016086867450038941 -0.024718589015459078 0 -0.015905022299153731 -0.024797804780017231 0 -0.016086867450038941 -0.024718589015459078 0 -0.016231043726801661 -0.024530644525945066 0 -0.016227719331566633 -0.024964561374149877 0 -0.016086867450038941 -0.024718589015459078 0 -0.016709656732377755 -0.024484310229067385 0 -0.019156393194495074 -0.024995947401414649 0 -0.014640291258357682 -0.024999116281645715 0 -0.016955525015500735 -0.024916036384086026 0 -0.016700866862289738 -0.024804811108644936 0 -0.016955525015500735 -0.024916036384086026 0 -0.016994798927781163 -0.024650432260739229 0 -0.016700866862289738 -0.024804811108644936 0 -0.016994798927781163 -0.024650432260739229 0 -0.016709656732377755 -0.024484310229067385 0 -0.016227719331566633 -0.024964561374149877 0 -0.016700866862289738 -0.024804811108644936 0 -0.016709656732377755 -0.024484310229067385 0 -0.016227719331566633 -0.024964561374149877 0 -0.016700866862289738 -0.024804811108644936 0 -0.016955525015500735 -0.024916036384086026 0 -0.015550010833914774 -0.025163089624036645 0 -0.016227719331566633 -0.024964561374149877 0 -0.016955525015500735 -0.024916036384086026 0 -0.019156393194495074 -0.024995947401414649 0 -0.016955525015500735 -0.024916036384086026 0 -0.019124410880892371 -0.024518723435245721 0 -0.016955525015500735 -0.024916036384086026 0 -0.019124410880892371 -0.024518723435245721 0 -0.016994798927781163 -0.024650432260739229 0 -0.019124410880892371 -0.024518723435245721 0 -0.019216123047505931 -0.025068420182908752 0 -0.016994798927781163 -0.024650432260739229 0 -0.01674317242894895 -0.023705427813401226 0 -0.016956863401589743 -0.024538615924108845 0 -0.014068662863306049 -0.022349938018380373 0 -0.014466446273887644 -0.02038032650234305 0 -0.015877040112560074 -0.022126995786534643 0 -0.014068662863306049 -0.022349938018380373 0 -0.015877040112560074 -0.022126995786534643 0 -0.016994798927781163 -0.024650432260739229 0 -0.016004343077732741 -0.022336520171292062 0 -0.01674317242894895 -0.023705427813401226 0 -0.011946028214556205 -0.020477150578387286 0 -0.014068662863306049 -0.022349938018380373 0 -0.014466446273887644 -0.02038032650234305 0 -0.011946028214556205 -0.020477150578387286 0 -0.013235169595543918 -0.01875765700358735 0 -0.014466446273887644 -0.02038032650234305 0 -0.013235169595543918 -0.01875765700358735 0 -0.015165789109179784 -0.018509275597512836 0 -0.014466446273887644 -0.02038032650234305 0 -0.013235169595543918 -0.01875765700358735 0 -0.015165789109179784 -0.018509275597512836 0 -0.013699028450394859 -0.016359976078533171 0 -0.014466446273887644 -0.02038032650234305 0 -0.016657975974665618 -0.02022464803811953 0 -0.015877040112560074 -0.022126995786534643 0 -0.015165789109179784 -0.018509275597512836 0 -0.014466446273887644 -0.02038032650234305 0 -0.016657975974665618 -0.02022464803811953 0 -0.015063835078306251 -0.017979664398686774 0 -0.016624408790553144 -0.020071159629684865 0 -0.014870526626873583 -0.017339307844658095 0 -0.016657975974665618 -0.02022464803811953 0 -0.016612287195380982 -0.017686352415025725 0 -0.014870526626873583 -0.017339307844658095 0 -0.016612287195380982 -0.017686352415025725 0 -0.016404066589101166 -0.015664952122338992 0 -0.016657975974665618 -0.02022464803811953 0 -0.016612287195380982 -0.017686352415025725 0 -0.018284101358460772 -0.017277113660824062 0 -0.016612287195380982 -0.017686352415025725 0 -0.018284101358460772 -0.017277113660824062 0 -0.016404066589101166 -0.015664952122338992 0 -0.016657975974665618 -0.02022464803811953 0 -0.018284101358460772 -0.017277113660824062 0 -0.019819134008434745 -0.019760681142947375 0 -0.017120427024828931 -0.023083111954431419 0 -0.018113516399720836 -0.021967982380001114 0 -0.016657975974665618 -0.02022464803811953 0 -0.017221860510553921 -0.023109844803906984 0 -0.019819134008434745 -0.019760681142947375 0 -0.017221860510553921 -0.023109844803906984 0 -0.01672938922296777 -0.023957373365058793 0 -0.016521282100904831 -0.024259698088305401 0 -0.017221860510553921 -0.023109844803906984 0 -0.015877040112560074 -0.022126995786534643 0 -0.016994798927781163 -0.024650432260739229 0 -0.016657975974665618 -0.02022464803811953 0 -0.017221860510553921 -0.023109844803906984 0 -0.015877040112560074 -0.022126995786534643 0 -0.017221860510553921 -0.023109844803906984 0 -0.016709656732377755 -0.024484310229067385 0 -0.01672938922296777 -0.023957373365058793 0 -0.017221860510553921 -0.023109844803906984 0 -0.016994798927781163 -0.024650432260739229 0 -0.016709656732377755 -0.024484310229067385 0 -0.016086867450038941 -0.024718589015459078 0 -0.016709656732377755 -0.024484310229067385 0 -0.016379853871919665 -0.024302314743838527 0 -0.016709656732377755 -0.024484310229067385 0 -0.016379853871919665 -0.024302314743838527 0 -0.01672938922296777 -0.023957373365058793 0 -0.016086867450038941 -0.024718589015459078 0 -0.016379853871919665 -0.024302314743838527 0 -0.016231043726801661 -0.024530644525945066 0 -0.016379853871919665 -0.024302314743838527 0 -0.016384249972099255 -0.024334224760640365 0 -0.016231043726801661 -0.024530644525945066 0 -0.016379853871919665 -0.024302314743838527 0 -0.016417375831684945 -0.024231694047219299 0 -0.016521282100904831 -0.024259698088305401 0 -0.016379853871919665 -0.024302314743838527 0 -0.016417375831684945 -0.024231694047219299 0 -0.016384249972099255 -0.024334224760640365 0 -0.016379853871919665 -0.024302314743838527 0 -0.01672938922296777 -0.023957373365058793 0 -0.016521282100904831 -0.024259698088305401 0 -0.018284101358460772 -0.017277113660824062 0 -0.019819134008434745 -0.019760681142947375 0 -0.019861255963596697 -0.017401290465806331 0 -0.019861255963596697 -0.017401290465806331 0 -0.020880287822558907 -0.017325940015363975 0 -0.020355781097407398 -0.015844271149332852 0 -0.018113516399720836 -0.021967982380001114 0 -0.018443478672290726 -0.021126776899593851 0 -0.019819134008434745 -0.019760681142947375 0 -0.019861255963596697 -0.017401290465806331 0 -0.020880287822558907 -0.017325940015363975 0 -0.016417375831684945 -0.024231694047219299 0 -0.016521282100904831 -0.024259698088305401 0 -0.016427370366583063 -0.024019410929420691 0 -0.016417375831684945 -0.024231694047219299 0 -0.016427370366583063 -0.024019410929420691 0 -0.01651618746804516 -0.024180734086514041 0 -0.016427370366583063 -0.024019410929420691 0 -0.016648138125988216 -0.023996309100843782 0 -0.016679014407299353 -0.023865494293117732 0 -0.01651618746804516 -0.024180734086514041 0 -0.016648138125988216 -0.023996309100843782 0 -0.016693319143589267 -0.024115404850524394 0 -0.016427370366583063 -0.024019410929420691 0 -0.01651618746804516 -0.024180734086514041 0 -0.016648138125988216 -0.023996309100843782 0 -0.016427370366583063 -0.024019410929420691 0 -0.016816080597548792 -0.023586591064669888 0 -0.016679014407299353 -0.023865494293117732 0 -0.020880287822558907 -0.017325940015363975 0 -0.021256125592303356 -0.0158006363049857 0 -0.021696470259899316 -0.015608814502767349 0 -0.018443478672290726 -0.021126776899593851 0 -0.019562941699109701 -0.016909033621681301 0 -0.020880287822558907 -0.017325940015363975 0 -0.021256125592303356 -0.0158006363049857 0 -0.020355781097407398 -0.015844271149332852 0 -0.016816080597548792 -0.023586591064669888 0 -0.016850665718059647 -0.023869061679028671 0 -0.017212809194501428 -0.023577102195994088 0 -0.016850665718059647 -0.023869061679028671 0 -0.016884919896670181 -0.024123685410302922 0 -0.017212809194501428 -0.023577102195994088 0 -0.021335519663792324 -0.016219406052885528 0 -0.019562941699109701 -0.016909033621681301 0 -0.016816080597548792 -0.023586591064669888 0 -0.016679014407299353 -0.023865494293117732 0 -0.016850665718059647 -0.023869061679028671 0 -0.016850665718059647 -0.023869061679028671 0 -0.016693319143589267 -0.024115404850524394 0 -0.016884919896670181 -0.024123685410302922 0 -0.016648138125988216 -0.023996309100843782 0 -0.016850665718059647 -0.023869061679028671 0 -0.016693319143589267 -0.024115404850524394 0 -0.016648138125988216 -0.023996309100843782 0 -0.016679014407299353 -0.023865494293117732 0 -0.016850665718059647 -0.023869061679028671 0 -0.015854717308722149 -0.023542896546307659 0 -0.015975448066505284 -0.023920604208756954 0 -0.01572091632111728 -0.024387773541329053 0 -0.016693319143589267 -0.024115404850524394 0 -0.016884919896670181 -0.024123685410302922 0 -0.016580636278426274 -0.024436922763369947 0 -0.015968773465974025 -0.024675649415237762 0 -0.01624786935822738 -0.024185948644411003 0 -0.015975448066505284 -0.023920604208756954 0 -0.015939031483913728 -0.024257990374403276 0 -0.01572091632111728 -0.024387773541329053 0 -0.015975448066505284 -0.023920604208756954 0 -0.015939031483913728 -0.024257990374403276 0 -0.0160733654394099 -0.024022834906958109 0 -0.01651618746804516 -0.024180734086514041 0 -0.016384249972099255 -0.024334224760640365 0 -0.016580636278426274 -0.024436922763369947 0 -0.01651618746804516 -0.024180734086514041 0 -0.016693319143589267 -0.024115404850524394 0 -0.016580636278426274 -0.024436922763369947 0 -0.016417375831684945 -0.024231694047219299 0 -0.01651618746804516 -0.024180734086514041 0 -0.016384249972099255 -0.024334224760640365 0 -0.015905022299153731 -0.024797804780017231 0 -0.015845583828239813 -0.024533208464330866 0 -0.01572091632111728 -0.024387773541329053 0 -0.015905022299153731 -0.024797804780017231 0 -0.016231043726801661 -0.024530644525945066 0 -0.016580636278426274 -0.024436922763369947 0 -0.015905085019983545 -0.024825212239341522 0 -0.01624786935822738 -0.024185948644411003 0 -0.016384249972099255 -0.024334224760640365 0 -0.016231043726801661 -0.024530644525945066 0 -0.016580636278426274 -0.024436922763369947 0 -0.015845583828239813 -0.024533208464330866 0 -0.015994265112319009 -0.024573250512062925 0 -0.015968051169902343 -0.024452196042560544 0 -0.015904218941107894 -0.024655164519518328 0 -0.015845583828239813 -0.024533208464330866 0 -0.015994265112319009 -0.024573250512062925 0 -0.015994265112319009 -0.024573250512062925 0 -0.015968051169902343 -0.024452196042560544 0 -0.016071999804778424 -0.024473788482124986 0 -0.015939031483913728 -0.024257990374403276 0 -0.015968051169902343 -0.024452196042560544 0 -0.016089129075379474 -0.024211543408945005 0 -0.015939031483913728 -0.024257990374403276 0 -0.015845583828239813 -0.024533208464330866 0 -0.015968051169902343 -0.024452196042560544 0 -0.015939031483913728 -0.024257990374403276 0 -0.015845583828239813 -0.024533208464330866 0 -0.01572091632111728 -0.024387773541329053 0 -0.021834616667887993 -0.012819243566924888 0 -0.021354755372600034 -0.011584884549294659 0 -0.021679100837017476 -0.010760813452968226 0 -0.021213247145949233 -0.01434621484851243 0 -0.020460593981949191 -0.015740999751827123 0 -0.020469418185733609 -0.016291251049057588 0 -0.021359983516841829 -0.018928807959042386 0 -0.020162752925754184 -0.017988635384806811 0 -0.021269988203303523 -0.012325300910979503 0 -0.021834616667887993 -0.012819243566924888 0 -0.021354755372600034 -0.011584884549294659 0 -0.021269988203303523 -0.012325300910979503 0 -0.021834616667887993 -0.012819243566924888 0 -0.021023232115108759 -0.01288577399610393 0 -0.021354755372600034 -0.011584884549294659 0 -0.02089333604504089 -0.012021114371734993 0 -0.020904278783818508 -0.010953929407904709 0 -0.021269988203303523 -0.012325300910979503 0 -0.021354755372600034 -0.011584884549294659 0 -0.02089333604504089 -0.012021114371734993 0 -0.02089333604504089 -0.012021114371734993 0 -0.020321681892892178 -0.011497226186742157 0 -0.020904278783818508 -0.010953929407904709 0 -0.02089333604504089 -0.012021114371734993 0 -0.021023232115108759 -0.01288577399610393 0 -0.020493877169244334 -0.012475005040433239 0 -0.02089333604504089 -0.012021114371734993 0 -0.020493877169244334 -0.012475005040433239 0 -0.020321681892892178 -0.011497226186742157 0 -0.021269988203303523 -0.012325300910979503 0 -0.02089333604504089 -0.012021114371734993 0 -0.021023232115108759 -0.01288577399610393 0 -0.021023232115108759 -0.01288577399610393 0 -0.021307215560534096 -0.013600439821735838 0 -0.020562804915427061 -0.013443086126052028 0 -0.021023232115108759 -0.01288577399610393 0 -0.020562804915427061 -0.013443086126052028 0 -0.020493877169244334 -0.012475005040433239 0 -0.021333691704295988 -0.013615170116158962 0 -0.020541681302081168 -0.013999991272405105 0 -0.021834616667887993 -0.012819243566924888 0 -0.021307215560534096 -0.013600439821735838 0 -0.020581135561384353 -0.014659346040418301 0 -0.021834616667887993 -0.012819243566924888 0 -0.021023232115108759 -0.01288577399610393 0 -0.021307215560534096 -0.013600439821735838 0 -0.021307215560534096 -0.013600439821735838 0 -0.02104459502662983 -0.014536209556578533 0 -0.020488841446921487 -0.01457332629102848 0 -0.021307215560534096 -0.013600439821735838 0 -0.02104459502662983 -0.014536209556578533 0 -0.020581135561384353 -0.014659346040418301 0 -0.02104459502662983 -0.014536209556578533 0 -0.020745385395228029 -0.014793644313980982 0 -0.020581135561384353 -0.014659346040418301 0 -0.02104459502662983 -0.014536209556578533 0 -0.021013412763010865 -0.014936478699427993 0 -0.020745385395228029 -0.014793644313980982 0 -0.021013412763010865 -0.014936478699427993 0 -0.021145211500658057 -0.015171669548734461 0 -0.020745385395228029 -0.014793644313980982 0 -0.021256125592303356 -0.0158006363049857 0 -0.021221650342638867 -0.015059212658108077 0 -0.021145211500658057 -0.015171669548734461 0 -0.021221650342638867 -0.015059212658108077 0 -0.021145211500658057 -0.015171669548734461 0 -0.020745385395228029 -0.014793644313980982 0 -0.021256125592303356 -0.0158006363049857 0 -0.020837987569309459 -0.015353665411009342 0 -0.020355781097407398 -0.015844271149332852 0 -0.021256125592303356 -0.0158006363049857 0 -0.021145211500658057 -0.015171669548734461 0 -0.020837987569309459 -0.015353665411009342 0 -0.021013412763010865 -0.014936478699427993 0 -0.021145211500658057 -0.015171669548734461 0 -0.020837987569309459 -0.015353665411009342 0 -0.02104459502662983 -0.014536209556578533 0 -0.021013412763010865 -0.014936478699427993 0 -0.020488841446921487 -0.01457332629102848 0 -0.021013412763010865 -0.014936478699427993 0 -0.020837987569309459 -0.015353665411009342 0 -0.020488841446921487 -0.01457332629102848 0 -0.020541681302081168 -0.013999991272405105 0 -0.018867635253402116 -0.014712176234226144 0 -0.020488841446921487 -0.01457332629102848 0 -0.020355781097407398 -0.015844271149332852 0 -0.018979502167549761 -0.015060912126015822 0 -0.020837987569309459 -0.015353665411009342 0 -0.020488841446921487 -0.01457332629102848 0 -0.020355781097407398 -0.015844271149332852 0 -0.019861255963596697 -0.017401290465806331 0 -0.020355781097407398 -0.015844271149332852 0 -0.018979502167549761 -0.015060912126015822 0 -0.018284101358460772 -0.017277113660824062 0 -0.019861255963596697 -0.017401290465806331 0 -0.018979502167549761 -0.015060912126015822 0 -0.020562804915427061 -0.013443086126052028 0 -0.018900317075024584 -0.014309460821159241 0 -0.019256791066166824 -0.012124025494277347 0 -0.018900317075024584 -0.014309460821159241 0 -0.019256791066166824 -0.012124025494277347 0 -0.017998542096738755 -0.012152970210193816 0 -0.020562804915427061 -0.013443086126052028 0 -0.020493877169244334 -0.012475005040433239 0 -0.019256791066166824 -0.012124025494277347 0 -0.020321681892892178 -0.011497226186742157 0 -0.019256791066166824 -0.012124025494277347 0 -0.019643992980898216 -0.010770808853770667 0 -0.020493877169244334 -0.012475005040433239 0 -0.020321681892892178 -0.011497226186742157 0 -0.019256791066166824 -0.012124025494277347 0 -0.019256791066166824 -0.012124025494277347 0 -0.018707794273142793 -0.01031448202171243 0 -0.019643992980898216 -0.010770808853770667 0 -0.017998542096738755 -0.012152970210193816 0 -0.017134903064179991 -0.010399987850539987 0 -0.018707794273142793 -0.01031448202171243 0 -0.019256791066166824 -0.012124025494277347 0 -0.017998542096738755 -0.012152970210193816 0 -0.018707794273142793 -0.01031448202171243 0 -0.016581868677834295 -0.012109210569798919 0 -0.015879732109172685 -0.010985673231406054 0 -0.017134903064179991 -0.010399987850539987 0 -0.016581868677834295 -0.012109210569798919 0 -0.017998542096738755 -0.012152970210193816 0 -0.017134903064179991 -0.010399987850539987 0 -0.016581868677834295 -0.012109210569798919 0 -0.017998542096738755 -0.012152970210193816 0 -0.017187808266809539 -0.013458276648425296 0 -0.016581868677834295 -0.012109210569798919 0 -0.017187808266809539 -0.013458276648425296 0 -0.015964724985518403 -0.013431684366193974 0 -0.018900317075024584 -0.014309460821159241 0 -0.017998542096738755 -0.012152970210193816 0 -0.017187808266809539 -0.013458276648425296 0 -0.018900317075024584 -0.014309460821159241 0 -0.016404066589101166 -0.015664952122338992 0 -0.017187808266809539 -0.013458276648425296 0 -0.018867635253402116 -0.014712176234226144 0 -0.016490422939295594 -0.015612672178908946 0 -0.018284101358460772 -0.017277113660824062 0 -0.018979502167549761 -0.015060912126015822 0 -0.016404066589101166 -0.015664952122338992 0 -0.016404066589101166 -0.015664952122338992 0 -0.017187808266809539 -0.013458276648425296 0 -0.015964724985518403 -0.013431684366193974 0 -0.016404066589101166 -0.015664952122338992 0 -0.014864999938099893 -0.014291200978868922 0 -0.015964724985518403 -0.013431684366193974 0 -0.014870526626873583 -0.017339307844658095 0 -0.016404066589101166 -0.015664952122338992 0 -0.01489895144409094 -0.015645677349085296 0 -0.016404066589101166 -0.015664952122338992 0 -0.014864999938099893 -0.014291200978868922 0 -0.01489895144409094 -0.015645677349085296 0 -0.014870526626873583 -0.017339307844658095 0 -0.01489895144409094 -0.015645677349085296 0 -0.013552214239064582 -0.015313920014473728 0 -0.014864999938099893 -0.014291200978868922 0 -0.01489895144409094 -0.015645677349085296 0 -0.013552214239064582 -0.015313920014473728 0 -0.015063835078306251 -0.017979664398686774 0 -0.013575232771135558 -0.015796479781152371 0 -0.014864999938099893 -0.014291200978868922 0 -0.013552214239064582 -0.015313920014473728 0 -0.013904377676903706 -0.013399439952875597 0 -0.013552214239064582 -0.015313920014473728 0 -0.013904377676903706 -0.013399439952875597 0 -0.012931618154763904 -0.013581827571162455 0 -0.014864999938099893 -0.014291200978868922 0 -0.013904377676903706 -0.013399439952875597 0 -0.015092951328216194 -0.012466576906871954 0 -0.013904377676903706 -0.013399439952875597 0 -0.014080087627126318 -0.012028047948480152 0 -0.01307854749934095 -0.012405667553825992 0 -0.013904377676903706 -0.013399439952875597 0 -0.014080087627126318 -0.012028047948480152 0 -0.015092951328216194 -0.012466576906871954 0 -0.014864999938099893 -0.014291200978868922 0 -0.015964724985518403 -0.013431684366193974 0 -0.015092951328216194 -0.012466576906871954 0 -0.016581868677834295 -0.012109210569798919 0 -0.015964724985518403 -0.013431684366193974 0 -0.015092951328216194 -0.012466576906871954 0 -0.016581868677834295 -0.012109210569798919 0 -0.015092951328216194 -0.012466576906871954 0 -0.015879732109172685 -0.010985673231406054 0 -0.015092951328216194 -0.012466576906871954 0 -0.015879732109172685 -0.010985673231406054 0 -0.014804145091205071 -0.010786880846292625 0 -0.015879732109172685 -0.010985673231406054 0 -0.014804145091205071 -0.010786880846292625 0 -0.015961301513675343 -0.0095678255284556476 0 -0.014080087627126318 -0.012028047948480152 0 -0.015092951328216194 -0.012466576906871954 0 -0.014804145091205071 -0.010786880846292625 0 -0.014804145091205071 -0.010786880846292625 0 -0.014161531998209452 -0.0098476217802591116 0 -0.013507547181514109 -0.011051481063439197 0 -0.014080087627126318 -0.012028047948480152 0 -0.01307854749934095 -0.012405667553825992 0 -0.013507547181514109 -0.011051481063439197 0 -0.014080087627126318 -0.012028047948480152 0 -0.014804145091205071 -0.010786880846292625 0 -0.013507547181514109 -0.011051481063439197 0 -0.01511355011181827 -0.0091362224994862747 0 -0.015679450003148514 -0.0084115030788014904 0 -0.014712028802390158 -0.0082572738851595037 0 -0.01511355011181827 -0.0091362224994862747 0 -0.014161531998209452 -0.0098476217802591116 0 -0.014484948753593263 -0.0085151661280240334 0 -0.015575042991030956 -0.0084493537069090102 0 -0.017484991113860347 -0.0095130406534018937 0 -0.014161531998209452 -0.0098476217802591116 0 -0.014484948753593263 -0.0085151661280240334 0 -0.012959023851254428 -0.0097068202338397875 0 -0.017484991113860347 -0.0095130406534018937 0 -0.019493422895839219 -0.010343400406453939 0 -0.014804145091205071 -0.010786880846292625 0 -0.01511355011181827 -0.0091362224994862747 0 -0.014161531998209452 -0.0098476217802591116 0 -0.015879732109172685 -0.010985673231406054 0 -0.015961301513675343 -0.0095678255284556476 0 -0.017134903064179991 -0.010399987850539987 0 -0.014804145091205071 -0.010786880846292625 0 -0.01511355011181827 -0.0091362224994862747 0 -0.015961301513675343 -0.0095678255284556476 0 -0.015961301513675343 -0.0095678255284556476 0 -0.016084642430948759 -0.0085696123613167221 0 -0.016759166491931952 -0.0087044709111663184 0 -0.015961301513675343 -0.0095678255284556476 0 -0.015679450003148514 -0.0084115030788014904 0 -0.016084642430948759 -0.0085696123613167221 0 -0.01511355011181827 -0.0091362224994862747 0 -0.015961301513675343 -0.0095678255284556476 0 -0.015679450003148514 -0.0084115030788014904 0 -0.015679450003148514 -0.0084115030788014904 0 -0.016095510713589573 -0.0076097100682694921 0 -0.015512499530757564 -0.0076996565567463747 0 -0.016095510713589573 -0.0076097100682694921 0 -0.016397465500841348 -0.0069311475161007467 0 -0.017048171537466569 -0.0077434339418290402 0 -0.015679450003148514 -0.0084115030788014904 0 -0.016084642430948759 -0.0085696123613167221 0 -0.016095510713589573 -0.0076097100682694921 0 -0.016084642430948759 -0.0085696123613167221 0 -0.016095510713589573 -0.0076097100682694921 0 -0.016759166491931952 -0.0087044709111663184 0 -0.016095510713589573 -0.0076097100682694921 0 -0.015512499530757564 -0.0076996565567463747 0 -0.015880050548854829 -0.006719609360252181 0 -0.015512499530757564 -0.0076996565567463747 0 -0.01547877826592638 -0.0076838852987770974 0 -0.015880050548854829 -0.006719609360252181 0 -0.017484991113860347 -0.0095130406534018937 0 -0.021261606945050016 -0.0092668021125164833 0 -0.01547877826592638 -0.0076838852987770974 0 -0.015880050548854829 -0.006719609360252181 0 -0.016011210036819806 -0.0060013050435349163 0 -0.015679450003148514 -0.0084115030788014904 0 -0.015512499530757564 -0.0076996565567463747 0 -0.014712028802390158 -0.0082572738851595037 0 -0.016585592649067754 -0.0091771909608385667 0 -0.017484991113860347 -0.0095130406534018937 0 -0.015880050548854829 -0.006719609360252181 0 -0.016181113102965296 -0.0058135298447293164 0 -0.016011210036819806 -0.0060013050435349163 0 -0.016181113102965296 -0.0058135298447293164 0 -0.016224405770144109 -0.0060629825620952815 0 -0.016079526080663754 -0.0053393692608250101 0 -0.015880050548854829 -0.006719609360252181 0 -0.016181113102965296 -0.0058135298447293164 0 -0.016224405770144109 -0.0060629825620952815 0 -0.015880050548854829 -0.006719609360252181 0 -0.016224405770144109 -0.0060629825620952815 0 -0.016397465500841348 -0.0069311475161007467 0 -0.016224405770144109 -0.0060629825620952815 0 -0.016397465500841348 -0.0069311475161007467 0 -0.017082688109611274 -0.0065732600124555549 0 -0.016095510713589573 -0.0076097100682694921 0 -0.015880050548854829 -0.006719609360252181 0 -0.016397465500841348 -0.0069311475161007467 0 -0.017082688109611274 -0.0065732600124555549 0 -0.018211045178299162 -0.0081395335797328407 0 -0.017048171537466569 -0.0077434339418290402 0 -0.016397465500841348 -0.0069311475161007467 0 -0.017082688109611274 -0.0065732600124555549 0 -0.017048171537466569 -0.0077434339418290402 0 -0.016224405770144109 -0.0060629825620952815 0 -0.017082688109611274 -0.0065732600124555549 0 -0.016695114156531285 -0.0055346128646682428 0 -0.017082688109611274 -0.0065732600124555549 0 -0.017733213969631102 -0.0057870740262217606 0 -0.016695114156531285 -0.0055346128646682428 0 -0.017772157080424681 -0.0057932536241598531 0 -0.018946318207187795 -0.0065341530678342001 0 -0.017733213969631102 -0.0057870740262217606 0 -0.018037841736425409 -0.0067107555636471425 0 -0.019102143586412677 -0.0066410792810108511 0 -0.017082688109611274 -0.0065732600124555549 0 -0.017733213969631102 -0.0057870740262217606 0 -0.018037841736425409 -0.0067107555636471425 0 -0.018037841736425409 -0.0067107555636471425 0 -0.018211045178299162 -0.0081395335797328407 0 -0.019102143586412677 -0.0066410792810108511 0 -0.017082688109611274 -0.0065732600124555549 0 -0.018037841736425409 -0.0067107555636471425 0 -0.018211045178299162 -0.0081395335797328407 0 -0.018211045178299162 -0.0081395335797328407 0 -0.017048171537466569 -0.0077434339418290402 0 -0.017735447426860715 -0.009280787411252869 0 -0.016095510713589573 -0.0076097100682694921 0 -0.017048171537466569 -0.0077434339418290402 0 -0.016759166491931952 -0.0087044709111663184 0 -0.017048171537466569 -0.0077434339418290402 0 -0.016759166491931952 -0.0087044709111663184 0 -0.017735447426860715 -0.009280787411252869 0 -0.015961301513675343 -0.0095678255284556476 0 -0.016759166491931952 -0.0087044709111663184 0 -0.017134903064179991 -0.010399987850539987 0 -0.016759166491931952 -0.0087044709111663184 0 -0.017134903064179991 -0.010399987850539987 0 -0.017735447426860715 -0.009280787411252869 0 -0.018211045178299162 -0.0081395335797328407 0 -0.017735447426860715 -0.009280787411252869 0 -0.018707794273142793 -0.01031448202171243 0 -0.017134903064179991 -0.010399987850539987 0 -0.017735447426860715 -0.009280787411252869 0 -0.018707794273142793 -0.01031448202171243 0 -0.018211045178299162 -0.0081395335797328407 0 -0.019487064808725606 -0.009805598335159935 0 -0.018707794273142793 -0.01031448202171243 0 -0.019487064808725606 -0.009805598335159935 0 -0.018707794273142793 -0.01031448202171243 0 -0.019643992980898216 -0.010770808853770667 0 -0.020321681892892178 -0.011497226186742157 0 -0.019643992980898216 -0.010770808853770667 0 -0.020352275923861855 -0.010543564526090328 0 -0.020321681892892178 -0.011497226186742157 0 -0.020352275923861855 -0.010543564526090328 0 -0.020904278783818508 -0.010953929407904709 0 -0.020352275923861855 -0.010543564526090328 0 -0.020287591717666118 -0.010119683183396946 0 -0.020599208072717565 -0.010435511400972555 0 -0.019487064808725606 -0.009805598335159935 0 -0.020352275923861855 -0.010543564526090328 0 -0.020459657453289041 -0.0091352730370754306 0 -0.019487064808725606 -0.009805598335159935 0 -0.019643992980898216 -0.010770808853770667 0 -0.020352275923861855 -0.010543564526090328 0 -0.01795448656322517 -0.0096107899428178288 0 -0.017927315714654141 -0.0092062940103568615 0 -0.018528068425527545 -0.009716689967691091 0 -0.020317268114418065 -0.010492105118930737 0 -0.019874575678586248 -0.0092229623585337213 0 -0.019874575678586248 -0.0092229623585337213 0 -0.017524967618491195 -0.0079849822903421946 0 -0.018211045178299162 -0.0081395335797328407 0 -0.020326544692943361 -0.0084412842611383057 0 -0.020275754495342468 -0.007625036478796714 0 -0.018469885284132875 -0.0080764186454466928 0 -0.019874575678586248 -0.0092229623585337213 0 -0.018211045178299162 -0.0081395335797328407 0 -0.019487064808725606 -0.009805598335159935 0 -0.020459657453289041 -0.0091352730370754306 0 -0.018946318207187795 -0.0065341530678342001 0 -0.017524967618491195 -0.0079849822903421946 0 -0.018211045178299162 -0.0081395335797328407 0 -0.019102143586412677 -0.0066410792810108511 0 -0.020275754495342468 -0.007625036478796714 0 -0.017733213969631102 -0.0057870740262217606 0 -0.018354856056665463 -0.0062789543227609766 0 -0.018361849611922873 -0.0057156395750999267 0 -0.018354856056665463 -0.0062789543227609766 0 -0.018361849611922873 -0.0057156395750999267 0 -0.01894047280011452 -0.0061087028721188976 0 -0.015868545673470014 -0.0069164704167196858 0 -0.015004797740604495 -0.0049062978917916826 0 -0.018361849611922873 -0.0057156395750999267 0 -0.01894047280011452 -0.0061087028721188976 0 -0.018912194342272044 -0.0053933441745723232 0 -0.013475131208751684 -0.0068865730749430292 0 -0.012775328959518934 -0.0074800308031992783 0 -0.012692153238119048 -0.0057913258932731438 0 -0.013475131208751684 -0.0068865730749430292 0 -0.012775328959518934 -0.0074800308031992783 0 -0.013723988987593921 -0.0077716699994041499 0 -0.012775328959518934 -0.0074800308031992783 0 -0.012868838695408655 -0.0093176950400024345 0 -0.013723988987593921 -0.0077716699994041499 0 -0.015868545673470014 -0.0069164704167196858 0 -0.017524967618491195 -0.0079849822903421946 0 -0.018354856056665463 -0.0062789543227609766 0 -0.01894047280011452 -0.0061087028721188976 0 -0.018974083501822541 -0.0068093042501569138 0 -0.012868838695408655 -0.0093176950400024345 0 -0.013979492095458708 -0.008814925720613152 0 -0.013723988987593921 -0.0077716699994041499 0 -0.012868838695408655 -0.0093176950400024345 0 -0.013979492095458708 -0.008814925720613152 0 -0.014342349938386522 -0.0096551125578727935 0 -0.013979492095458708 -0.008814925720613152 0 -0.014342349938386522 -0.0096551125578727935 0 -0.015001247527306975 -0.0085127946533652583 0 -0.013979492095458708 -0.008814925720613152 0 -0.015001247527306975 -0.0085127946533652583 0 -0.013723988987593921 -0.0077716699994041499 0 -0.010551403179672294 -0.0092291756060087649 0 -0.014329829523923601 -0.0087711141077637163 0 -0.014778444615937001 -0.0084250747239313761 0 -0.013723988987593921 -0.0077716699994041499 0 -0.014190257449213553 -0.0063562171743145861 0 -0.010551403179672294 -0.0092291756060087649 0 -0.0095279269741919588 -0.005655266730213479 0 -0.013475131208751684 -0.0068865730749430292 0 -0.013723988987593921 -0.0077716699994041499 0 -0.014190257449213553 -0.0063562171743145861 0 -0.0033583760883313181 -0.0097293092084018151 0 -0.002408201112778703 -0.0062285524099639829 0 -0.0066422393727592196 -0.0077056755823847415 0 -0.0095279269741919588 -0.005655266730213479 0 -0.0079258315400741516 -0.006889831971619808 0 -0.0033583760883313181 -0.0097293092084018151 0 -0.0075959444031590091 -0.012481388954392094 0 -0.0066422393727592196 -0.0077056755823847415 0 -0.010551403179672294 -0.0092291756060087649 0 -0.0098972633380694768 -0.012688196402711632 0 -0.011416184696313822 -0.011820384258782284 0 -0.012018037329761418 -0.013808061614292762 0 -0.013546308940924673 -0.013152273804726503 0 -0.01672272030235859 -0.013784185994482822 0 -0.016997989192395674 -0.017359868983848548 0 -0.019092864818296605 -0.012649316635946832 0 -0.016875085402228016 -0.012278571366413669 0 -0.019660338865048387 -0.014557084877110601 0 -0.019874575678586248 -0.0092229623585337213 0 -0.017566360311718661 -0.010927868535688395 0 -0.014342349938386522 -0.0096551125578727935 0 -0.015001247527306975 -0.0085127946533652583 0 -0.015783089015449177 -0.011073213200187474 0 -0.017524967618491195 -0.0079849822903421946 0 -0.017566360311718661 -0.010927868535688395 0 -0.010551403179672294 -0.0092291756060087649 0 -0.01672272030235859 -0.013784185994482822 0 -0.020287591717666118 -0.010119683183396946 0 -0.020971643566709629 -0.010181944542054943 0 -0.020599208072717565 -0.010435511400972555 0 -0.012868838695408655 -0.0093176950400024345 0 -0.014342349938386522 -0.0096551125578727935 0 -0.014745878590050204 -0.010895503567580055 0 -0.01672272030235859 -0.013784185994482822 0 -0.017566360311718661 -0.010927868535688395 0 -0.014342349938386522 -0.0096551125578727935 0 -0.015783089015449177 -0.011073213200187474 0 -0.014745878590050204 -0.010895503567580055 0 -0.017566360311718661 -0.010927868535688395 0 -0.020460593981949191 -0.015740999751827123 0 -0.020971643566709629 -0.010181944542054943 0 -0.020904278783818508 -0.010953929407904709 0 -0.021679100837017476 -0.010760813452968226 0 -0.020352275923861855 -0.010543564526090328 0 -0.020599208072717565 -0.010435511400972555 0 -0.020904278783818508 -0.010953929407904709 0 -0.020971643566709629 -0.010181944542054943 0 -0.020599208072717565 -0.010435511400972555 0 -0.020904278783818508 -0.010953929407904709 0 -0.021354755372600034 -0.011584884549294659 0 -0.020904278783818508 -0.010953929407904709 0 -0.021679100837017476 -0.010760813452968226 0 -0.021865508919519262 -0.020139653952472372 0 -0.02072523497064524 -0.019333682322047258 0 -0.019236649990585861 -0.019901735380566655 0 -0.020460593981949191 -0.015740999751827123 0 -0.021109195552428246 -0.018502100144210502 0 -0.02072523497064524 -0.019333682322047258 0 -0.021600280271384754 -0.019224029774010158 0 -0.020162752925754184 -0.017988635384806811 0 -0.01672272030235859 -0.013784185994482822 0 -0.020460593981949191 -0.015740999751827123 0 -0.021865508919519262 -0.020139653952472372 0 -0.02072523497064524 -0.019333682322047258 0 -0.021600280271384754 -0.019224029774010158 0 -0.025880971452315431 -0.01732022721219777 0 -0.025783606450935522 -0.016162974599871073 0 -0.025458356097069017 -0.017167120039241639 0 -0.025880971452315431 -0.01732022721219777 0 -0.025458356097069017 -0.017167120039241639 0 -0.025560340546293841 -0.017977961295676494 0 -0.025880971452315431 -0.01732022721219777 0 -0.026624348700207502 -0.016349415397036195 0 -0.027003750519760655 -0.017660401040619327 0 -0.025880971452315431 -0.01732022721219777 0 -0.026624348700207502 -0.016349415397036195 0 -0.025783606450935522 -0.016162974599871073 0 -0.026624348700207502 -0.016349415397036195 0 -0.027568942395666454 -0.015628066171451311 0 -0.026234155848044942 -0.014973722829912836 0 -0.026624348700207502 -0.016349415397036195 0 -0.025783606450935522 -0.016162974599871073 0 -0.026234155848044942 -0.014973722829912836 0 -0.025783606450935522 -0.016162974599871073 0 -0.025328357892916525 -0.016266447734392241 0 -0.025358327904727796 -0.015095435011973057 0 -0.025328357892916525 -0.016266447734392241 0 -0.024999469406322718 -0.01614343944282496 0 -0.025358327904727796 -0.015095435011973057 0 -0.024999469406322718 -0.01614343944282496 0 -0.025216546509523357 -0.017023125622400118 0 -0.024999426515057308 -0.01762229404943123 0 -0.025328357892916525 -0.016266447734392241 0 -0.024999469406322718 -0.01614343944282496 0 -0.025216546509523357 -0.017023125622400118 0 -0.025783606450935522 -0.016162974599871073 0 -0.025328357892916525 -0.016266447734392241 0 -0.025458356097069017 -0.017167120039241639 0 -0.025328357892916525 -0.016266447734392241 0 -0.025216546509523357 -0.017023125622400118 0 -0.025458356097069017 -0.017167120039241639 0 -0.025458356097069017 -0.017167120039241639 0 -0.025277764245002072 -0.017868031131591005 0 -0.025560340546293841 -0.017977961295676494 0 -0.025216546509523357 -0.017023125622400118 0 -0.025458356097069017 -0.017167120039241639 0 -0.025277764245002072 -0.017868031131591005 0 -0.025266106016070464 -0.018282492008292864 0 -0.024999910944817787 -0.0176231185233412 0 -0.025216546509523357 -0.017023125622400118 0 -0.025277764245002072 -0.017868031131591005 0 -0.024999426515057308 -0.01762229404943123 0 -0.025255883983454422 -0.018969312279506514 0 -0.025357952811095527 -0.018708353954096715 0 -0.024999819470904801 -0.018559299827786663 0 -0.025357952811095527 -0.018708353954096715 0 -0.024999769268289014 -0.017623934676275835 0 -0.024999819470904801 -0.018559299827786663 0 -0.025133217598549879 -0.019152557976215113 0 -0.025255883983454422 -0.018969312279506514 0 -0.025357952811095527 -0.018708353954096715 0 -0.025266106016070464 -0.018282492008292864 0 -0.025225169334626419 -0.018959525871458549 0 -0.025133217598549879 -0.019152557976215113 0 -0.025357952811095527 -0.018708353954096715 0 -0.024862208735285187 -0.019395823865861295 0 -0.024499479610458747 -0.019492733530798119 0 -0.025133217598549879 -0.019152557976215113 0 -0.024862208735285187 -0.019395823865861295 0 -0.025277764245002072 -0.017868031131591005 0 -0.025629886587308474 -0.018484410468670706 0 -0.025560340546293841 -0.017977961295676494 0 -0.025629886587308474 -0.018484410468670706 0 -0.025560340546293841 -0.017977961295676494 0 -0.025607721164095092 -0.018659284738216667 0 -0.025880971452315431 -0.01732022721219777 0 -0.025560340546293841 -0.017977961295676494 0 -0.025607721164095092 -0.018659284738216667 0 -0.025880971452315431 -0.01732022721219777 0 -0.025607721164095092 -0.018659284738216667 0 -0.027003750519760655 -0.017660401040619327 0 -0.025501943861217492 -0.018781674778517103 0 -0.026185883878293664 -0.018351539484460284 0 -0.025607721164095092 -0.018659284738216667 0 -0.02464136560848405 -0.019631035659371073 0 -0.024708429055103717 -0.019186945183984821 0 -0.025629886587308474 -0.018484410468670706 0 -0.025607721164095092 -0.018659284738216667 0 -0.024348570187541836 -0.019466317761990082 0 -0.025225169334626419 -0.018959525871458549 0 -0.024527195518254597 -0.01933768915172725 0 -0.024499479610458747 -0.019492733530798119 0 -0.024862208735285187 -0.019395823865861295 0 -0.024348570187541836 -0.019466317761990082 0 -0.025607721164095092 -0.018659284738216667 0 -0.024348570187541836 -0.019466317761990082 0 -0.024708429055103717 -0.019186945183984821 0 -0.023974159628043671 -0.020047759284713661 0 -0.024348570187541836 -0.019466317761990082 0 -0.024221463817609101 -0.019400240174170708 0 -0.024348570187541836 -0.019466317761990082 0 -0.024221463817609101 -0.019400240174170708 0 -0.024708429055103717 -0.019186945183984821 0 -0.0094780379957984592 -0.018842794572581967 0 -0.0089771121941871323 -0.015862761298281472 0 -0.010180687974028921 -0.017108490137785572 0 -0.018488232162619089 -0.019838594628650636 0 -0.015683874754921834 -0.017323560526872461 0 -0.0089771121941871323 -0.015862761298281472 0 -0.010180687974028921 -0.017108490137785572 0 -0.010616712724243971 -0.015313241751972604 0 -0.015683874754921834 -0.017323560526872461 0 -0.021971109337908717 -0.017178213293426701 0 -0.0089771121941871323 -0.015862761298281472 0 -0.010404385314183747 -0.013367667429221262 0 -0.0087149706308878583 -0.012626217721044013 0 -0.0089771121941871323 -0.015862761298281472 0 -0.010616712724243971 -0.015313241751972604 0 -0.010404385314183747 -0.013367667429221262 0 -0.024221463817609101 -0.019400240174170708 0 -0.02464136560848405 -0.019631035659371073 0 -0.024708429055103717 -0.019186945183984821 0 -0.024221463817609101 -0.019400240174170708 0 -0.02464136560848405 -0.019631035659371073 0 -0.024343929425064588 -0.019804297449575143 0 -0.013699028450394859 -0.016359976078533171 0 -0.011507143211292339 -0.017150563061601402 0 -0.011923490123733085 -0.015559327584179246 0 -0.013235169595543918 -0.01875765700358735 0 -0.013699028450394859 -0.016359976078533171 0 -0.011507143211292339 -0.017150563061601402 0 -0.011507143211292339 -0.017150563061601402 0 -0.010616712724243971 -0.015313241751972604 0 -0.011923490123733085 -0.015559327584179246 0 -0.01044258513502253 -0.01816741058427334 0 -0.011507143211292339 -0.017150563061601402 0 -0.010180687974028921 -0.017108490137785572 0 -0.011507143211292339 -0.017150563061601402 0 -0.010180687974028921 -0.017108490137785572 0 -0.010616712724243971 -0.015313241751972604 0 -0.010616712724243971 -0.015313241751972604 0 -0.011177259666209688 -0.014217768997800985 0 -0.010404385314183747 -0.013367667429221262 0 -0.011177259666209688 -0.014217768997800985 0 -0.011923490123733085 -0.015559327584179246 0 -0.012028299205086888 -0.013773087601591169 0 -0.011177259666209688 -0.014217768997800985 0 -0.012028299205086888 -0.013773087601591169 0 -0.011356661711382296 -0.013306723324729429 0 -0.010616712724243971 -0.015313241751972604 0 -0.011177259666209688 -0.014217768997800985 0 -0.011923490123733085 -0.015559327584179246 0 -0.013575232771135558 -0.015796479781152371 0 -0.012071289115828551 -0.013896767185525382 0 -0.013699028450394859 -0.016359976078533171 0 -0.011923490123733085 -0.015559327584179246 0 -0.012028299205086888 -0.013773087601591169 0 -0.013552214239064582 -0.015313920014473728 0 -0.012028299205086888 -0.013773087601591169 0 -0.012931618154763904 -0.013581827571162455 0 -0.01307854749934095 -0.012405667553825992 0 -0.012931618154763904 -0.013581827571162455 0 -0.012157441992933761 -0.012844183641546238 0 -0.013904377676903706 -0.013399439952875597 0 -0.01307854749934095 -0.012405667553825992 0 -0.012931618154763904 -0.013581827571162455 0 -0.012028299205086888 -0.013773087601591169 0 -0.012931618154763904 -0.013581827571162455 0 -0.012157441992933761 -0.012844183641546238 0 -0.01307854749934095 -0.012405667553825992 0 -0.012157441992933761 -0.012844183641546238 0 -0.012546848979454525 -0.011418238863164308 0 -0.012157441992933761 -0.012844183641546238 0 -0.010981791546023105 -0.012371821219474867 0 -0.011594563734100916 -0.010583982030277867 0 -0.010981791546023105 -0.012371821219474867 0 -0.011594563734100916 -0.010583982030277867 0 -0.0087149706308878583 -0.012626217721044013 0 -0.012028299205086888 -0.013773087601591169 0 -0.012157441992933761 -0.012844183641546238 0 -0.011356661711382296 -0.013306723324729429 0 -0.012157441992933761 -0.012844183641546238 0 -0.011356661711382296 -0.013306723324729429 0 -0.010981791546023105 -0.012371821219474867 0 -0.011356661711382296 -0.013306723324729429 0 -0.010404385314183747 -0.013367667429221262 0 -0.010981791546023105 -0.012371821219474867 0 -0.011177259666209688 -0.014217768997800985 0 -0.011356661711382296 -0.013306723324729429 0 -0.010404385314183747 -0.013367667429221262 0 -0.010961706523161825 -0.011237093235973104 0 -0.018374145338710516 -0.012925701134215791 0 -0.012546848979454525 -0.011418238863164308 0 -0.013507547181514109 -0.011051481063439197 0 -0.012959023851254428 -0.0097068202338397875 0 -0.012157441992933761 -0.012844183641546238 0 -0.011490109098551615 -0.010820372759572596 0 -0.012546848979454525 -0.011418238863164308 0 -0.011490109098551615 -0.010820372759572596 0 -0.012546848979454525 -0.011418238863164308 0 -0.012959023851254428 -0.0097068202338397875 0 -0.01307854749934095 -0.012405667553825992 0 -0.012546848979454525 -0.011418238863164308 0 -0.013507547181514109 -0.011051481063439197 0 -0.026624348700207502 -0.016349415397036195 0 -0.027003750519760655 -0.017660401040619327 0 -0.027851663954266262 -0.016958543905738987 0 -0.026185883878293664 -0.018351539484460284 0 -0.021971109337908717 -0.017178213293426701 0 -0.010404385314183747 -0.013367667429221262 0 -0.010981791546023105 -0.012371821219474867 0 -0.0087149706308878583 -0.012626217721044013 0 -0.018374145338710516 -0.012925701134215791 0 -0.021971109337908717 -0.017178213293426701 0 -0.02573245191697273 -0.018616852543208651 0 -0.025697213918720319 -0.016571958722852585 0 -0.026832491764264173 -0.016346251855179409 0 -0.028010744291955384 -0.016950370666502013 0 -0.02573245191697273 -0.018616852543208651 0 -0.026832491764264173 -0.016346251855179409 0 -0.026624348700207502 -0.016349415397036195 0 -0.027851663954266262 -0.016958543905738987 0 -0.027568942395666454 -0.015628066171451311 0 -0.021971109337908717 -0.017178213293426701 0 -0.026973037429655299 -0.016361503878718164 0 -0.027568942395666454 -0.015628066171451311 0 -0.027176327346466789 -0.014362669073294622 0 -0.026234155848044942 -0.014973722829912836 0 -0.026973037429655299 -0.016361503878718164 0 -0.026489397232624869 -0.014491018140042123 0 -0.026832491764264173 -0.016346251855179409 0 -0.025869160303253657 -0.014629483529438384 0 -0.027493883381775448 -0.015120963686217541 0 -0.025697213918720319 -0.016571958722852585 0 -0.026832491764264173 -0.016346251855179409 0 -0.025869160303253657 -0.014629483529438384 0 -0.025869160303253657 -0.014629483529438384 0 -0.027493883381775448 -0.015120963686217541 0 -0.027071058565415699 -0.013541269619627545 0 -0.027420901404605052 -0.014021052843205876 0 -0.026564642225811477 -0.012639966134861886 0 -0.026489397232624869 -0.014491018140042123 0 -0.026370040547396587 -0.013372709411243961 0 -0.027176327346466789 -0.014362669073294622 0 -0.026340004417066881 -0.0131570833940804 0 -0.02621144013376131 -0.013867105532892221 0 -0.024932049943944688 -0.011673994752871369 0 -0.025265195503388901 -0.011515437271452586 0 -0.02547171599307483 -0.011778907183691602 0 -0.014161531998209452 -0.0098476217802591116 0 -0.013507547181514109 -0.011051481063439197 0 -0.012959023851254428 -0.0097068202338397875 0 -0.018374145338710516 -0.012925701134215791 0 -0.019493422895839219 -0.010343400406453939 0 -0.025265195503388901 -0.011515437271452586 0 -0.025861787850507415 -0.011645779389921987 0 -0.02547171599307483 -0.011778907183691602 0 -0.028010744291955384 -0.016950370666502013 0 -0.026832491764264173 -0.016346251855179409 0 -0.027493883381775448 -0.015120963686217541 0 -0.025483173363505713 -0.011397539504191855 0 -0.025265195503388901 -0.011515437271452586 0 -0.025861787850507415 -0.011645779389921987 0 -0.018374145338710516 -0.012925701134215791 0 -0.027420901404605052 -0.014021052843205876 0 -0.025861787850507415 -0.011645779389921987 0 -0.025924442281619185 -0.012081885209760239 0 -0.026271996307264612 -0.012029126284211652 0 -0.025861787850507415 -0.011645779389921987 0 -0.02547171599307483 -0.011778907183691602 0 -0.025924442281619185 -0.012081885209760239 0 -0.024932049943944688 -0.011673994752871369 0 -0.02547171599307483 -0.011778907183691602 0 -0.025407821811915473 -0.012056435894173295 0 -0.016011210036819806 -0.0060013050435349163 0 -0.018340874564991342 -0.0049354953985201342 0 -0.016795420253091355 -0.0055966897368140128 0 -0.016181113102965296 -0.0058135298447293164 0 -0.016011210036819806 -0.0060013050435349163 0 -0.016795420253091355 -0.0055966897368140128 0 -0.021261606945050016 -0.0092668021125164833 0 -0.022257478681507362 -0.0086958334172554299 0 -0.02547171599307483 -0.011778907183691602 0 -0.025407821811915473 -0.012056435894173295 0 -0.025924442281619185 -0.012081885209760239 0 -0.025407821811915473 -0.012056435894173295 0 -0.025924442281619185 -0.012081885209760239 0 -0.026162972055593429 -0.012355780934798152 0 -0.025924442281619185 -0.012081885209760239 0 -0.026162972055593429 -0.012355780934798152 0 -0.026271996307264612 -0.012029126284211652 0 -0.018340874564991342 -0.0049354953985201342 0 -0.016795420253091355 -0.0055966897368140128 0 -0.017053923041783572 -0.0060572544897304712 0 -0.016181113102965296 -0.0058135298447293164 0 -0.016795420253091355 -0.0055966897368140128 0 -0.017053923041783572 -0.0060572544897304712 0 -0.025869160303253657 -0.014629483529438384 0 -0.026340004417066881 -0.0131570833940804 0 -0.027071058565415699 -0.013541269619627545 0 -0.026340004417066881 -0.0131570833940804 0 -0.027071058565415699 -0.013541269619627545 0 -0.026586872255828384 -0.012370817099880346 0 -0.026564642225811477 -0.012639966134861886 0 -0.026616584481737041 -0.012481186415348901 0 -0.026162972055593429 -0.012355780934798152 0 -0.026271996307264612 -0.012029126284211652 0 -0.026586872255828384 -0.012370817099880346 0 -0.022257478681507362 -0.0086958334172554299 0 -0.024572596067658995 -0.0095191051790993186 0 -0.026162972055593429 -0.012355780934798152 0 -0.026586872255828384 -0.012370817099880346 0 -0.026721153232517052 -0.011804172765337354 0 -0.026586872255828384 -0.012370817099880346 0 -0.025877855533978811 -0.012168895076567248 0 -0.02591804560119151 -0.011511059778506329 0 -0.026340004417066881 -0.0131570833940804 0 -0.026586872255828384 -0.012370817099880346 0 -0.025877855533978811 -0.012168895076567248 0 -0.025877855533978811 -0.012168895076567248 0 -0.025854816216088393 -0.01308108697084186 0 -0.025459685132936564 -0.011970185292299724 0 -0.026340004417066881 -0.0131570833940804 0 -0.025877855533978811 -0.012168895076567248 0 -0.025854816216088393 -0.01308108697084186 0 -0.025854816216088393 -0.01308108697084186 0 -0.025343677443221038 -0.013083130366495246 0 -0.025459685132936564 -0.011970185292299724 0 -0.025854816216088393 -0.01308108697084186 0 -0.02621144013376131 -0.013867105532892221 0 -0.025646763871310169 -0.014028230064880496 0 -0.025854816216088393 -0.01308108697084186 0 -0.025646763871310169 -0.014028230064880496 0 -0.025343677443221038 -0.013083130366495246 0 -0.026340004417066881 -0.0131570833940804 0 -0.025854816216088393 -0.01308108697084186 0 -0.02621144013376131 -0.013867105532892221 0 -0.02621144013376131 -0.013867105532892221 0 -0.025646763871310169 -0.014028230064880496 0 -0.026234155848044942 -0.014973722829912836 0 -0.027176327346466789 -0.014362669073294622 0 -0.02621144013376131 -0.013867105532892221 0 -0.026234155848044942 -0.014973722829912836 0 -0.025646763871310169 -0.014028230064880496 0 -0.026234155848044942 -0.014973722829912836 0 -0.025358327904727796 -0.015095435011973057 0 -0.025783606450935522 -0.016162974599871073 0 -0.026234155848044942 -0.014973722829912836 0 -0.025358327904727796 -0.015095435011973057 0 -0.025646763871310169 -0.014028230064880496 0 -0.025358327904727796 -0.015095435011973057 0 -0.024999439219215418 -0.014663142344839055 0 -0.025646763871310169 -0.014028230064880496 0 -0.024999439219215418 -0.014663142344839055 0 -0.025343677443221038 -0.013083130366495246 0 -0.024999469406322718 -0.01614343944282496 0 -0.025358327904727796 -0.015095435011973057 0 -0.024999439219215418 -0.014663142344839055 0 -0.024999439219215418 -0.014663142344839055 0 -0.025343677443221038 -0.013083130366495246 0 -0.024999489200623223 -0.013183301667321283 0 -0.025343677443221038 -0.013083130366495246 0 -0.025224242145479081 -0.012128130467341833 0 -0.025459685132936564 -0.011970185292299724 0 -0.025343677443221038 -0.013083130366495246 0 -0.024999489200623223 -0.013183301667321283 0 -0.025224242145479081 -0.012128130467341833 0 -0.024999489200623223 -0.013183301667321283 0 -0.025224242145479081 -0.012128130467341833 0 -0.024999422521959809 -0.011703470196624302 0 -0.025224242145479081 -0.012128130467341833 0 -0.025310122146332509 -0.010744091806878015 0 -0.025459685132936564 -0.011970185292299724 0 -0.025224242145479081 -0.012128130467341833 0 -0.025310122146332509 -0.010744091806878015 0 -0.024999422521959809 -0.011703470196624302 0 -0.025310122146332509 -0.010744091806878015 0 -0.024999422521959809 -0.011703470196624302 0 -0.024999623883178584 -0.010224094482851026 0 -0.025877855533978811 -0.012168895076567248 0 -0.025459685132936564 -0.011970185292299724 0 -0.025429478258977203 -0.010981874672658163 0 -0.025877855533978811 -0.012168895076567248 0 -0.025429478258977203 -0.010981874672658163 0 -0.02591804560119151 -0.011511059778506329 0 -0.025310122146332509 -0.010744091806878015 0 -0.025459685132936564 -0.011970185292299724 0 -0.025429478258977203 -0.010981874672658163 0 -0.025310122146332509 -0.010744091806878015 0 -0.025429478258977203 -0.010981874672658163 0 -0.025219640764578194 -0.010354589380067234 0 -0.025429478258977203 -0.010981874672658163 0 -0.025219640764578194 -0.010354589380067234 0 -0.02540738990949741 -0.010100396217805452 0 -0.025310122146332509 -0.010744091806878015 0 -0.025219640764578194 -0.010354589380067234 0 -0.025043733823967296 -0.0099309826095073384 0 -0.025219640764578194 -0.010354589380067234 0 -0.025043733823967296 -0.0099309826095073384 0 -0.024598028713042747 -0.01017102127694953 0 -0.025043733823967296 -0.0099309826095073384 0 -0.024266578905009002 -0.0093468829785074425 0 -0.024598028713042747 -0.01017102127694953 0 -0.025310122146332509 -0.010744091806878015 0 -0.025043733823967296 -0.0099309826095073384 0 -0.025335990583946092 -0.00953885382351209 0 -0.025310122146332509 -0.010744091806878015 0 -0.024999623883178584 -0.010224094482851026 0 -0.025335990583946092 -0.00953885382351209 0 -0.024999623883178584 -0.010224094482851026 0 -0.02499949421505682 -0.0087447393957618483 0 -0.025335990583946092 -0.00953885382351209 0 -0.02499949421505682 -0.0087447393957618483 0 -0.025491006104205946 -0.0080827538849924802 0 -0.025335990583946092 -0.00953885382351209 0 -0.02499949421505682 -0.0087447393957618483 0 -0.025491006104205946 -0.0080827538849924802 0 -0.024999681475559098 -0.0072647306679848355 0 -0.025491006104205946 -0.0080827538849924802 0 -0.025335990583946092 -0.00953885382351209 0 -0.026055452774613162 -0.0087497399400420957 0 -0.025043733823967296 -0.0099309826095073384 0 -0.025335990583946092 -0.00953885382351209 0 -0.026055452774613162 -0.0087497399400420957 0 -0.025043733823967296 -0.0099309826095073384 0 -0.024266578905009002 -0.0093468829785074425 0 -0.023124724098427911 -0.0085067913738320674 0 -0.024949759406459902 -0.0097028965680059573 0 -0.024626411690187536 -0.0085341415456092942 0 -0.024266578905009002 -0.0093468829785074425 0 -0.024523408163876034 -0.0089529985027370952 0 -0.024598028713042747 -0.01017102127694953 0 -0.024266578905009002 -0.0093468829785074425 0 -0.024012719571854586 -0.0075047112528368095 0 -0.024523408163876034 -0.0089529985027370952 0 -0.024266578905009002 -0.0093468829785074425 0 -0.024012719571854586 -0.0075047112528368095 0 -0.023124724098427911 -0.0085067913738320674 0 -0.025491006104205946 -0.0080827538849924802 0 -0.026055452774613162 -0.0087497399400420957 0 -0.026332781992706101 -0.0072521406414139096 0 -0.024626411690187536 -0.0085341415456092942 0 -0.024530856543010373 -0.0067143044877163551 0 -0.024012719571854586 -0.0075047112528368095 0 -0.023124724098427911 -0.0085067913738320674 0 -0.022696794465927886 -0.006163541214524889 0 -0.024012719571854586 -0.0075047112528368095 0 -0.022696794465927886 -0.006163541214524889 0 -0.023913253658468765 -0.0051528468649545906 0 -0.024530856543010373 -0.0067143044877163551 0 -0.024700305337341362 -0.0050087860255478038 0 -0.022696794465927886 -0.006163541214524889 0 -0.023913253658468765 -0.0051528468649545906 0 -0.02322033848609243 -0.0041422993699597238 0 -0.026332781992706101 -0.0072521406414139096 0 -0.025462289726785912 -0.0065307309815468353 0 -0.026140481033788323 -0.0056817308340115389 0 -0.025462289726785912 -0.0065307309815468353 0 -0.024999681475559098 -0.0072647306679848355 0 -0.024999334816207495 -0.0057841781274638598 0 -0.025491006104205946 -0.0080827538849924802 0 -0.025462289726785912 -0.0065307309815468353 0 -0.024999681475559098 -0.0072647306679848355 0 -0.025491006104205946 -0.0080827538849924802 0 -0.026332781992706101 -0.0072521406414139096 0 -0.025462289726785912 -0.0065307309815468353 0 -0.026389599938785445 -0.0066620711198089348 0 -0.025712671862514434 -0.0070630186395274326 0 -0.02601126417245719 -0.008176689459809908 0 -0.026389599938785445 -0.0066620711198089348 0 -0.025712671862514434 -0.0070630186395274326 0 -0.025426396488785519 -0.0058780869703928124 0 -0.015979156966240294 -0.0052689166848292612 0 -0.015861901225417665 -0.0050534413716504453 0 -0.015513749450651568 -0.0052939411378995216 0 -0.021077657520391396 -0.0056887140866678301 0 -0.021576321926671225 -0.0055309915040403284 0 -0.015979156966240294 -0.0052689166848292612 0 -0.015826722552334409 -0.005641882073512231 0 -0.015513749450651568 -0.0052939411378995216 0 -0.026634551376431961 -0.0051630739322435296 0 -0.025426396488785519 -0.0058780869703928124 0 -0.025026381777348596 -0.0045108057052269529 0 -0.026389599938785445 -0.0066620711198089348 0 -0.026634551376431961 -0.0051630739322435296 0 -0.025426396488785519 -0.0058780869703928124 0 -0.024600774602532682 -0.0051486344800081687 0 -0.025426396488785519 -0.0058780869703928124 0 -0.024604701250950111 -0.006336976183252639 0 -0.024600774602532682 -0.0051486344800081687 0 -0.025426396488785519 -0.0058780869703928124 0 -0.025026381777348596 -0.0045108057052269529 0 -0.023913253658468765 -0.0051528468649545906 0 -0.024600774602532682 -0.0051486344800081687 0 -0.024604701250950111 -0.006336976183252639 0 -0.024012719571854586 -0.0075047112528368095 0 -0.024604701250950111 -0.006336976183252639 0 -0.024720619793406187 -0.0077733323306471364 0 -0.024012719571854586 -0.0075047112528368095 0 -0.023913253658468765 -0.0051528468649545906 0 -0.024604701250950111 -0.006336976183252639 0 -0.025426396488785519 -0.0058780869703928124 0 -0.024604701250950111 -0.006336976183252639 0 -0.025218725893504473 -0.0069146358888310883 0 -0.024604701250950111 -0.006336976183252639 0 -0.025218725893504473 -0.0069146358888310883 0 -0.024720619793406187 -0.0077733323306471364 0 -0.025712671862514434 -0.0070630186395274326 0 -0.025426396488785519 -0.0058780869703928124 0 -0.025218725893504473 -0.0069146358888310883 0 -0.025712671862514434 -0.0070630186395274326 0 -0.025218725893504473 -0.0069146358888310883 0 -0.025532457248042685 -0.0077793671534103154 0 -0.025712671862514434 -0.0070630186395274326 0 -0.025532457248042685 -0.0077793671534103154 0 -0.02601126417245719 -0.008176689459809908 0 -0.025532457248042685 -0.0077793671534103154 0 -0.024899125307290611 -0.0085988086878803303 0 -0.024720619793406187 -0.0077733323306471364 0 -0.025218725893504473 -0.0069146358888310883 0 -0.025532457248042685 -0.0077793671534103154 0 -0.024720619793406187 -0.0077733323306471364 0 -0.025532457248042685 -0.0077793671534103154 0 -0.025478936965901738 -0.0085392685012163107 0 -0.025800745031415578 -0.0083258801573763766 0 -0.025532457248042685 -0.0077793671534103154 0 -0.024899125307290611 -0.0085988086878803303 0 -0.025478936965901738 -0.0085392685012163107 0 -0.025478936965901738 -0.0085392685012163107 0 -0.025800745031415578 -0.0083258801573763766 0 -0.026136504171376734 -0.008537185247791141 0 -0.025532457248042685 -0.0077793671534103154 0 -0.025800745031415578 -0.0083258801573763766 0 -0.02601126417245719 -0.008176689459809908 0 -0.024012719571854586 -0.0075047112528368095 0 -0.024720619793406187 -0.0077733323306471364 0 -0.024523408163876034 -0.0089529985027370952 0 -0.024899125307290611 -0.0085988086878803303 0 -0.024720619793406187 -0.0077733323306471364 0 -0.024523408163876034 -0.0089529985027370952 0 -0.024523408163876034 -0.0089529985027370952 0 -0.024734680004520736 -0.0093928108281278559 0 -0.024598028713042747 -0.01017102127694953 0 -0.024899125307290611 -0.0085988086878803303 0 -0.024523408163876034 -0.0089529985027370952 0 -0.024734680004520736 -0.0093928108281278559 0 -0.024734680004520736 -0.0093928108281278559 0 -0.026136504171376734 -0.008537185247791141 0 -0.024293355830028215 -0.010897429657318401 0 -0.022455893322303942 -0.0087653157498296368 0 -0.024816743006729935 -0.011728784788192647 0 -0.025478936965901738 -0.0085392685012163107 0 -0.024734680004520736 -0.0093928108281278559 0 -0.026136504171376734 -0.008537185247791141 0 -0.024899125307290611 -0.0085988086878803303 0 -0.025478936965901738 -0.0085392685012163107 0 -0.024734680004520736 -0.0093928108281278559 0 -0.015906963692145122 -0.0049133555397537923 0 -0.016047899230640181 -0.0050054731663319906 0 -0.01588157040979328 -0.0048899902542920998 0 -0.022897576339447598 -0.013807917390575993 0 -0.022345751318806065 -0.011133212900031275 0 -0.024293355830028215 -0.010897429657318401 0 -0.022455893322303942 -0.0087653157498296368 0 -0.018689907115135455 -0.0081104561145656628 0 -0.015906963692145122 -0.0049133555397537923 0 -0.015927793361570398 -0.0049703573473963416 0 -0.016047899230640181 -0.0050054731663319906 0 -0.015979156966240294 -0.0052689166848292612 0 -0.016047899230640181 -0.0050054731663319906 0 -0.015861901225417665 -0.0050534413716504453 0 -0.021077657520391396 -0.0056887140866678301 0 -0.022455893322303942 -0.0087653157498296368 0 -0.015927793361570398 -0.0049703573473963416 0 -0.016047899230640181 -0.0050054731663319906 0 -0.015861901225417665 -0.0050534413716504453 0 -0.026389599938785445 -0.0066620711198089348 0 -0.026094656359420893 -0.0084351438701653157 0 -0.02601126417245719 -0.008176689459809908 0 -0.025800745031415578 -0.0083258801573763766 0 -0.026136504171376734 -0.008537185247791141 0 -0.02601126417245719 -0.008176689459809908 0 -0.022455893322303942 -0.0087653157498296368 0 -0.02281998923437055 -0.008759297147889953 0 -0.015861901225417665 -0.0050534413716504453 0 -0.015846575467074932 -0.0049121803134641231 0 -0.015574196783872616 -0.004870478151386924 0 -0.015846575467074932 -0.0049121803134641231 0 -0.015900897718717135 -0.0048468186707971775 0 -0.015574196783872616 -0.004870478151386924 0 -0.015927793361570398 -0.0049703573473963416 0 -0.015861901225417665 -0.0050534413716504453 0 -0.015846575467074932 -0.0049121803134641231 0 -0.015906963692145122 -0.0049133555397537923 0 -0.015927793361570398 -0.0049703573473963416 0 -0.015846575467074932 -0.0049121803134641231 0 -0.015906963692145122 -0.0049133555397537923 0 -0.015846575467074932 -0.0049121803134641231 0 -0.015900897718717135 -0.0048468186707971775 0 -0.015906963692145122 -0.0049133555397537923 0 -0.015900897718717135 -0.0048468186707971775 0 -0.01588157040979328 -0.0048899902542920998 0 -0.015900897718717135 -0.0048468186707971775 0 -0.01588157040979328 -0.0048899902542920998 0 -0.01598178240532256 -0.0052099059236309078 0 -0.018689907115135455 -0.0081104561145656628 0 -0.018166457442661318 -0.0072543362685719886 0 -0.022345751318806065 -0.011133212900031275 0 -0.022909035915278351 -0.01009910739654018 0 -0.020348890821913119 -0.0096697588754570563 0 -0.015900897718717135 -0.0048468186707971775 0 -0.01598178240532256 -0.0052099059236309078 0 -0.015943631280504841 -0.0048375279415432829 0 -0.024734680004520736 -0.0093928108281278559 0 -0.024598028713042747 -0.01017102127694953 0 -0.024293355830028215 -0.010897429657318401 0 -0.024598028713042747 -0.01017102127694953 0 -0.024293355830028215 -0.010897429657318401 0 -0.024720959434346004 -0.010523383668056947 0 -0.022345751318806065 -0.011133212900031275 0 -0.024293355830028215 -0.010897429657318401 0 -0.022909035915278351 -0.01009910739654018 0 -0.024293355830028215 -0.010897429657318401 0 -0.022909035915278351 -0.01009910739654018 0 -0.024720959434346004 -0.010523383668056947 0 -0.022909035915278351 -0.01009910739654018 0 -0.024720959434346004 -0.010523383668056947 0 -0.02540738990949741 -0.010100396217805452 0 -0.025219640764578194 -0.010354589380067234 0 -0.024598028713042747 -0.01017102127694953 0 -0.024720959434346004 -0.010523383668056947 0 -0.025219640764578194 -0.010354589380067234 0 -0.024720959434346004 -0.010523383668056947 0 -0.02540738990949741 -0.010100396217805452 0 -0.02536041580197004 -0.010050824127187804 0 -0.024572596067658995 -0.0095191051790993186 0 -0.025429478258977203 -0.010981874672658163 0 -0.02540738990949741 -0.010100396217805452 0 -0.02591804560119151 -0.011511059778506329 0 -0.022909035915278351 -0.01009910739654018 0 -0.02540738990949741 -0.010100396217805452 0 -0.022593322416422628 -0.0070893114503668506 0 -0.022909035915278351 -0.01009910739654018 0 -0.022593322416422628 -0.0070893114503668506 0 -0.020297980476442202 -0.0076643365401723547 0 -0.026586872255828384 -0.012370817099880346 0 -0.026721153232517052 -0.011804172765337354 0 -0.02591804560119151 -0.011511059778506329 0 -0.02540738990949741 -0.010100396217805452 0 -0.026721153232517052 -0.011804172765337354 0 -0.02591804560119151 -0.011511059778506329 0 -0.01598178240532256 -0.0052099059236309078 0 -0.016240835359697722 -0.0054253498788093754 0 -0.015943631280504841 -0.0048375279415432829 0 -0.01598178240532256 -0.0052099059236309078 0 -0.017053923041783572 -0.0060572544897304712 0 -0.016240835359697722 -0.0054253498788093754 0 -0.022909035915278351 -0.01009910739654018 0 -0.020348890821913119 -0.0096697588754570563 0 -0.020297980476442202 -0.0076643365401723547 0 -0.018340874564991342 -0.0049354953985201342 0 -0.020297980476442202 -0.0076643365401723547 0 -0.017053923041783572 -0.0060572544897304712 0 -0.018340874564991342 -0.0049354953985201342 0 -0.022593322416422628 -0.0070893114503668506 0 -0.020297980476442202 -0.0076643365401723547 0 -0.020348890821913119 -0.0096697588754570563 0 -0.020297980476442202 -0.0076643365401723547 0 -0.017053923041783572 -0.0060572544897304712 0 -0.018166457442661318 -0.0072543362685719886 0 -0.017174889615059134 -0.005956839142877971 0 -0.016181113102965296 -0.0058135298447293164 0 -0.017053923041783572 -0.0060572544897304712 0 -0.016240835359697722 -0.0054253498788093754 0 -0.016181113102965296 -0.0058135298447293164 0 -0.016240835359697722 -0.0054253498788093754 0 -0.016079526080663754 -0.0053393692608250101 0 -0.016240835359697722 -0.0054253498788093754 0 -0.01599341732732764 -0.004818506337647503 0 -0.016079526080663754 -0.0053393692608250101 0 -0.016240835359697722 -0.0054253498788093754 0 -0.01599341732732764 -0.004818506337647503 0 -0.015943631280504841 -0.0048375279415432829 0 -0.01599341732732764 -0.004818506337647503 0 -0.016079526080663754 -0.0053393692608250101 0 -0.016005643938754852 -0.0044728909330645833 0 -0.016079526080663754 -0.0053393692608250101 0 -0.016695114156531285 -0.0055346128646682428 0 -0.016005643938754852 -0.0044728909330645833 0 -0.016224405770144109 -0.0060629825620952815 0 -0.016079526080663754 -0.0053393692608250101 0 -0.016695114156531285 -0.0055346128646682428 0 -0.016695114156531285 -0.0055346128646682428 0 -0.017837568894247868 -0.0049176677482659394 0 -0.016005643938754852 -0.0044728909330645833 0 -0.017733213969631102 -0.0057870740262217606 0 -0.018361849611922873 -0.0057156395750999267 0 -0.017837568894247868 -0.0049176677482659394 0 -0.017733213969631102 -0.0057870740262217606 0 -0.016695114156531285 -0.0055346128646682428 0 -0.017837568894247868 -0.0049176677482659394 0 -0.01455246450455216 -0.0033771656849523532 0 -0.015050473870661612 -0.0042129199454686546 0 -0.01412410807877592 -0.0038441413218925709 0 -0.01455246450455216 -0.0033771656849523532 0 -0.015050473870661612 -0.0042129199454686546 0 -0.016005643938754852 -0.0044728909330645833 0 -0.016421440601220437 -0.0041337374326010905 0 -0.015917433526178172 -0.0043992238748208918 0 -0.015050473870661612 -0.0042129199454686546 0 -0.016005643938754852 -0.0044728909330645833 0 -0.015379396665691287 -0.0046758537930250395 0 -0.014468133092706108 -0.0042899329488658095 0 -0.015379396665691287 -0.0046758537930250395 0 -0.014109728017096142 -0.0044796051380550763 0 -0.015050473870661612 -0.0042129199454686546 0 -0.014468133092706108 -0.0042899329488658095 0 -0.015379396665691287 -0.0046758537930250395 0 -0.015050473870661612 -0.0042129199454686546 0 -0.014468133092706108 -0.0042899329488658095 0 -0.01412410807877592 -0.0038441413218925709 0 -0.015900897718717135 -0.0048468186707971775 0 -0.015943631280504841 -0.0048375279415432829 0 -0.015574196783872616 -0.004870478151386924 0 -0.015379396665691287 -0.0046758537930250395 0 -0.015943631280504841 -0.0048375279415432829 0 -0.015574196783872616 -0.004870478151386924 0 -0.01599341732732764 -0.004818506337647503 0 -0.016005643938754852 -0.0044728909330645833 0 -0.015379396665691287 -0.0046758537930250395 0 -0.01599341732732764 -0.004818506337647503 0 -0.015379396665691287 -0.0046758537930250395 0 -0.015943631280504841 -0.0048375279415432829 0 -0.010615255343792155 -0.0046466918832051892 0 -0.010774336519666857 -0.004209217786903926 0 -0.01090446193789393 -0.0038397736749259579 0 -0.010615255343792155 -0.0046466918832051892 0 -0.01090446193789393 -0.0038397736749259579 0 -0.010867962788789867 -0.0043160287940613622 0 -0.010615255343792155 -0.0046466918832051892 0 -0.010251322429818759 -0.0050172652022999163 0 -0.010400335541079581 -0.0061059576310478446 0 -0.010615255343792155 -0.0046466918832051892 0 -0.010837767712821926 -0.0051234549265266448 0 -0.010400335541079581 -0.0061059576310478446 0 -0.010541659940822236 -0.004568682241134497 0 -0.010251322429818759 -0.0050172652022999163 0 -0.010619106057336377 -0.0042361332790979136 0 -0.0095279269741919588 -0.005655266730213479 0 -0.012157234181638572 -0.0038691948320305068 0 -0.010615255343792155 -0.0046466918832051892 0 -0.010541659940822236 -0.004568682241134497 0 -0.010251322429818759 -0.0050172652022999163 0 -0.010541659940822236 -0.004568682241134497 0 -0.010774336519666857 -0.004209217786903926 0 -0.010619106057336377 -0.0042361332790979136 0 -0.010774336519666857 -0.004209217786903926 0 -0.011080896829995581 -0.0038673011475916694 0 -0.01090446193789393 -0.0038397736749259579 0 -0.010619106057336377 -0.0042361332790979136 0 -0.011587662892950906 -0.003651102528998217 0 -0.011080896829995581 -0.0038673011475916694 0 -0.010615255343792155 -0.0046466918832051892 0 -0.010541659940822236 -0.004568682241134497 0 -0.010774336519666857 -0.004209217786903926 0 -0.010774336519666857 -0.004209217786903926 0 -0.010619106057336377 -0.0042361332790979136 0 -0.011080896829995581 -0.0038673011475916694 0 -0.01337509181498186 -0.003168023919047819 0 -0.015004797740604495 -0.0049062978917916826 0 -0.013609409148447582 -0.0038404873258311039 0 -0.013428917773763038 -0.0037418166823636528 0 -0.013494955821261092 -0.0040500791151529504 0 -0.012157234181638572 -0.0038691948320305068 0 -0.012577676369378172 -0.0039936847867700822 0 -0.013609409148447582 -0.0038404873258311039 0 -0.013428917773763038 -0.0037418166823636528 0 -0.013546371925017458 -0.0035784641615906575 0 -0.013609409148447582 -0.0038404873258311039 0 -0.013542862230538225 -0.0030689327050180573 0 -0.013906655332835352 -0.0035127806947717259 0 -0.013330932171040467 -0.0035230030765584066 0 -0.013428917773763038 -0.0037418166823636528 0 -0.013546371925017458 -0.0035784641615906575 0 -0.0095279269741919588 -0.005655266730213479 0 -0.015004797740604495 -0.0049062978917916826 0 -0.013475131208751684 -0.0068865730749430292 0 -0.014190257449213553 -0.0063562171743145861 0 -0.012692153238119048 -0.0057913258932731438 0 -0.018361849611922873 -0.0057156395750999267 0 -0.017837568894247868 -0.0049176677482659394 0 -0.018912194342272044 -0.0053933441745723232 0 -0.01455246450455216 -0.0033771656849523532 0 -0.013542862230538225 -0.0030689327050180573 0 -0.013906655332835352 -0.0035127806947717259 0 -0.016421440601220437 -0.0041337374326010905 0 -0.015004797740604495 -0.0049062978917916826 0 -0.01455246450455216 -0.0033771656849523532 0 -0.013906655332835352 -0.0035127806947717259 0 -0.01412410807877592 -0.0038441413218925709 0 -0.013609409148447582 -0.0038404873258311039 0 -0.013906655332835352 -0.0035127806947717259 0 -0.01412410807877592 -0.0038441413218925709 0 -0.014468133092706108 -0.0042899329488658095 0 -0.01412410807877592 -0.0038441413218925709 0 -0.013786438162934265 -0.0041177224438368413 0 -0.013609409148447582 -0.0038404873258311039 0 -0.01412410807877592 -0.0038441413218925709 0 -0.013786438162934265 -0.0041177224438368413 0 -0.013786438162934265 -0.0041177224438368413 0 -0.014109728017096142 -0.0044796051380550763 0 -0.013176940301795781 -0.0042271207151337344 0 -0.014468133092706108 -0.0042899329488658095 0 -0.013786438162934265 -0.0041177224438368413 0 -0.014109728017096142 -0.0044796051380550763 0 -0.013176940301795781 -0.0042271207151337344 0 -0.01200547792278227 -0.0038907713143174483 0 -0.011587662892950906 -0.003651102528998217 0 -0.013062460941474089 -0.0043074263407743485 0 -0.012577676369378172 -0.0039936847867700822 0 -0.013176940301795781 -0.0042271207151337344 0 -0.01200547792278227 -0.0038907713143174483 0 -0.012491484548081362 -0.0042940542335587247 0 -0.013786438162934265 -0.0041177224438368413 0 -0.013176940301795781 -0.0042271207151337344 0 -0.013494955821261092 -0.0040500791151529504 0 -0.01200547792278227 -0.0038907713143174483 0 -0.011587662892950906 -0.003651102528998217 0 -0.011502070161390604 -0.0037516300953801497 0 -0.013609409148447582 -0.0038404873258311039 0 -0.013786438162934265 -0.0041177224438368413 0 -0.013494955821261092 -0.0040500791151529504 0 -0.011080896829995581 -0.0038673011475916694 0 -0.011502070161390604 -0.0037516300953801497 0 -0.011367612005173403 -0.0037304618881426584 0 -0.011080896829995581 -0.0038673011475916694 0 -0.011367612005173403 -0.0037304618881426584 0 -0.01090446193789393 -0.0038397736749259579 0 -0.011587662892950906 -0.003651102528998217 0 -0.011080896829995581 -0.0038673011475916694 0 -0.011502070161390604 -0.0037516300953801497 0 -0.011367612005173403 -0.0037304618881426584 0 -0.011325925161349355 -0.0039357105773256415 0 -0.012491484548081362 -0.0042940542335587247 0 -0.01200547792278227 -0.0038907713143174483 0 -0.011367612005173403 -0.0037304618881426584 0 -0.012491484548081362 -0.0042940542335587247 0 -0.01200547792278227 -0.0038907713143174483 0 -0.011502070161390604 -0.0037516300953801497 0 -0.011367612005173403 -0.0037304618881426584 0 -0.011367612005173403 -0.0037304618881426584 0 -0.0110153447045145 -0.0036732719882655567 0 -0.011325925161349355 -0.0039357105773256415 0 -0.0110153447045145 -0.0036732719882655567 0 -0.011325925161349355 -0.0039357105773256415 0 -0.010839083999780619 -0.0036287372357341418 0 -0.0110153447045145 -0.0036732719882655567 0 -0.01090446193789393 -0.0038397736749259579 0 -0.010835158455949422 -0.0036062529160148424 0 -0.011367612005173403 -0.0037304618881426584 0 -0.0110153447045145 -0.0036732719882655567 0 -0.01090446193789393 -0.0038397736749259579 0 -0.011427931759891565 -0.0039341252519803941 0 -0.011942797941843343 -0.0045454737815611894 0 -0.011325925161349355 -0.0039357105773256415 0 -0.01118255392938387 -0.0042732843150205839 0 -0.010572682810167371 -0.0036420834170011545 0 -0.010936551410459062 -0.0043663416132491356 0 -0.01118255392938387 -0.0042732843150205839 0 -0.010572682810167371 -0.0036420834170011545 0 -0.011325925161349355 -0.0039357105773256415 0 -0.010839083999780619 -0.0036287372357341418 0 -0.010572682810167371 -0.0036420834170011545 0 -0.011325925161349355 -0.0039357105773256415 0 -0.012491484548081362 -0.0042940542335587247 0 -0.012575358737030118 -0.0046701475799912203 0 -0.012491484548081362 -0.0042940542335587247 0 -0.012575358737030118 -0.0046701475799912203 0 -0.01302682077574018 -0.0047733519326881033 0 -0.011325925161349355 -0.0039357105773256415 0 -0.012575358737030118 -0.0046701475799912203 0 -0.012814052484496656 -0.0051275219323983715 0 -0.012575358737030118 -0.0046701475799912203 0 -0.013157174796618104 -0.0050246376562875193 0 -0.012814052484496656 -0.0051275219323983715 0 -0.012575358737030118 -0.0046701475799912203 0 -0.01302682077574018 -0.0047733519326881033 0 -0.013157174796618104 -0.0050246376562875193 0 -0.01302682077574018 -0.0047733519326881033 0 -0.013644701840108454 -0.0047438423140154897 0 -0.013579440448702559 -0.0050091017066500286 0 -0.01302682077574018 -0.0047733519326881033 0 -0.013579440448702559 -0.0050091017066500286 0 -0.013157174796618104 -0.0050246376562875193 0 -0.013176940301795781 -0.0042271207151337344 0 -0.012491484548081362 -0.0042940542335587247 0 -0.013644701840108454 -0.0047438423140154897 0 -0.012491484548081362 -0.0042940542335587247 0 -0.01302682077574018 -0.0047733519326881033 0 -0.013644701840108454 -0.0047438423140154897 0 -0.014109728017096142 -0.0044796051380550763 0 -0.013644701840108454 -0.0047438423140154897 0 -0.014504665534313005 -0.0048260592874512795 0 -0.014109728017096142 -0.0044796051380550763 0 -0.013176940301795781 -0.0042271207151337344 0 -0.013644701840108454 -0.0047438423140154897 0 -0.013644701840108454 -0.0047438423140154897 0 -0.013579440448702559 -0.0050091017066500286 0 -0.01407368360685286 -0.0050347269005223206 0 -0.013870120170376929 -0.0050842412883818269 0 -0.013579440448702559 -0.0050091017066500286 0 -0.01407368360685286 -0.0050347269005223206 0 -0.013870120170376929 -0.0050842412883818269 0 -0.013579440448702559 -0.0050091017066500286 0 -0.01360332193786872 -0.0050492670159462492 0 -0.013870120170376929 -0.0050842412883818269 0 -0.013877971030757795 -0.004919298154518836 0 -0.014006582737874109 -0.0051748518346670033 0 -0.013870120170376929 -0.0050842412883818269 0 -0.013877971030757795 -0.004919298154518836 0 -0.01360332193786872 -0.0050492670159462492 0 -0.013877971030757795 -0.004919298154518836 0 -0.013753236205978054 -0.0048884619024068508 0 -0.01360332193786872 -0.0050492670159462492 0 -0.013753236205978054 -0.0048884619024068508 0 -0.01360332193786872 -0.0050492670159462492 0 -0.013441110699016727 -0.0050456481505855647 0 -0.013579440448702559 -0.0050091017066500286 0 -0.01360332193786872 -0.0050492670159462492 0 -0.013157174796618104 -0.0050246376562875193 0 -0.01360332193786872 -0.0050492670159462492 0 -0.013157174796618104 -0.0050246376562875193 0 -0.013441110699016727 -0.0050456481505855647 0 -0.013157174796618104 -0.0050246376562875193 0 -0.013441110699016727 -0.0050456481505855647 0 -0.012814052484496656 -0.0051275219323983715 0 -0.013441110699016727 -0.0050456481505855647 0 -0.013872568370125068 -0.004887619317044815 0 -0.012814052484496656 -0.0051275219323983715 0 -0.012682505608536194 -0.0049974429351953443 0 -0.011942797941843343 -0.0045454737815611894 0 -0.013753236205978054 -0.0048884619024068508 0 -0.013441110699016727 -0.0050456481505855647 0 -0.013872568370125068 -0.004887619317044815 0 -0.010439953706723799 -0.0035872548332026954 0 -0.010377547923349089 -0.0034487602171091535 0 -0.0098564040119654556 -0.0028105019089283657 0 -0.0098787048641689901 -0.0023487549323149724 0 -0.010001769743384905 -0.0026015201621042571 0 -0.011158460900649562 -0.0046189959789849052 0 -0.010936551410459062 -0.0043663416132491356 0 -0.011127078914032428 -0.004625095425605995 0 -0.010012557924189076 -0.002405786069671045 0 -0.0098787048641689901 -0.0023487549323149724 0 -0.010001769743384905 -0.0026015201621042571 0 -0.011158460900649562 -0.0046189959789849052 0 -0.010936551410459062 -0.0043663416132491356 0 -0.01118255392938387 -0.0042732843150205839 0 -0.015574196783872616 -0.004870478151386924 0 -0.014822000708210619 -0.005056352537104839 0 -0.015513749450651568 -0.0052939411378995216 0 -0.015861901225417665 -0.0050534413716504453 0 -0.015574196783872616 -0.004870478151386924 0 -0.015513749450651568 -0.0052939411378995216 0 -0.015574196783872616 -0.004870478151386924 0 -0.015107411404978064 -0.0048423516206524608 0 -0.014822000708210619 -0.005056352537104839 0 -0.015379396665691287 -0.0046758537930250395 0 -0.015574196783872616 -0.004870478151386924 0 -0.015107411404978064 -0.0048423516206524608 0 -0.015379396665691287 -0.0046758537930250395 0 -0.014109728017096142 -0.0044796051380550763 0 -0.014504665534313005 -0.0048260592874512795 0 -0.015379396665691287 -0.0046758537930250395 0 -0.015107411404978064 -0.0048423516206524608 0 -0.014504665534313005 -0.0048260592874512795 0 -0.013644701840108454 -0.0047438423140154897 0 -0.014504665534313005 -0.0048260592874512795 0 -0.01407368360685286 -0.0050347269005223206 0 -0.014504665534313005 -0.0048260592874512795 0 -0.014822000708210619 -0.005056352537104839 0 -0.01407368360685286 -0.0050347269005223206 0 -0.015107411404978064 -0.0048423516206524608 0 -0.014504665534313005 -0.0048260592874512795 0 -0.014822000708210619 -0.005056352537104839 0 -0.014822000708210619 -0.005056352537104839 0 -0.014006582737874109 -0.0051748518346670033 0 -0.014956545991484407 -0.0057871885961877654 0 -0.013870120170376929 -0.0050842412883818269 0 -0.01407368360685286 -0.0050347269005223206 0 -0.014006582737874109 -0.0051748518346670033 0 -0.014822000708210619 -0.005056352537104839 0 -0.01407368360685286 -0.0050347269005223206 0 -0.014006582737874109 -0.0051748518346670033 0 -0.013877971030757795 -0.004919298154518836 0 -0.014006582737874109 -0.0051748518346670033 0 -0.013936607758253809 -0.0045175039398719034 0 -0.014351715388720541 -0.0051920543611751781 0 -0.013378499668784899 -0.0051672599428060359 0 -0.014822000708210619 -0.005056352537104839 0 -0.015513749450651568 -0.0052939411378995216 0 -0.014956545991484407 -0.0057871885961877654 0 -0.015513749450651568 -0.0052939411378995216 0 -0.015484596906203765 -0.0057007366254665055 0 -0.014956545991484407 -0.0057871885961877654 0 -0.015826722552334409 -0.005641882073512231 0 -0.015513749450651568 -0.0052939411378995216 0 -0.015484596906203765 -0.0057007366254665055 0 -0.015484596906203765 -0.0057007366254665055 0 -0.015627888368759269 -0.0061139407705892296 0 -0.014956545991484407 -0.0057871885961877654 0 -0.017706253242652195 -0.0036393600439592537 0 -0.013378499668784899 -0.0051672599428060359 0 -0.016370615266867842 -0.0018923529852073369 0 -0.02008547126901369 -0.0031233112763442272 0 -0.012687393962636545 -0.0031983597875697681 0 -0.012307230100025336 -0.0023158398585449748 0 -0.012314022792112503 -0.003749629045876566 0 -0.012403612456661167 -0.0037822895685225288 0 -0.013047874788375907 -0.003514590643316958 0 -0.013341863578958793 -0.0043700079016477647 0 -0.012403612456661167 -0.0037822895685225288 0 -0.012687393962636545 -0.0031983597875697681 0 -0.012314022792112503 -0.003749629045876566 0 -0.017706253242652195 -0.0036393600439592537 0 -0.02008547126901369 -0.0031233112763442272 0 -0.012403612456661167 -0.0037822895685225288 0 -0.013047874788375907 -0.003514590643316958 0 -0.012687393962636545 -0.0031983597875697681 0 -0.013047874788375907 -0.003514590643316958 0 -0.013341863578958793 -0.0043700079016477647 0 -0.013615093525503372 -0.0033641089545733095 0 -0.014006582737874109 -0.0051748518346670033 0 -0.013341863578958793 -0.0043700079016477647 0 -0.013936607758253809 -0.0045175039398719034 0 -0.013341863578958793 -0.0043700079016477647 0 -0.013936607758253809 -0.0045175039398719034 0 -0.013789443359680676 -0.0038655967937749327 0 -0.013789443359680676 -0.0038655967937749327 0 -0.013808473237671535 -0.0035548996893373336 0 -0.01391752662775108 -0.004093658616984931 0 -0.013936607758253809 -0.0045175039398719034 0 -0.013789443359680676 -0.0038655967937749327 0 -0.01391752662775108 -0.004093658616984931 0 -0.013341863578958793 -0.0043700079016477647 0 -0.013789443359680676 -0.0038655967937749327 0 -0.013615093525503372 -0.0033641089545733095 0 -0.013615093525503372 -0.0033641089545733095 0 -0.013658026183003415 -0.0032643056612410137 0 -0.013479199941548229 -0.0025659421007863986 0 -0.013615093525503372 -0.0033641089545733095 0 -0.013808473237671535 -0.0035548996893373336 0 -0.013658026183003415 -0.0032643056612410137 0 -0.013789443359680676 -0.0038655967937749327 0 -0.013615093525503372 -0.0033641089545733095 0 -0.013808473237671535 -0.0035548996893373336 0 -0.013940614533784456 -0.0018523636221327157 0 -0.013833730159405673 -0.0013698801024322887 0 -0.013808473237671535 -0.0035548996893373336 0 -0.013658026183003415 -0.0032643056612410137 0 -0.01380311120099373 -0.0032750203170063157 0 -0.013940614533784456 -0.0018523636221327157 0 -0.013418939134067174 -0.0025368659229806608 0 -0.014479341519307331 -0.00033829692859902382 0 -0.013858570572565893 -0.00050483617188262851 0 -0.013479199941548229 -0.0025659421007863986 0 -0.016370615266867842 -0.0018923529852073369 0 -0.016797559337307623 -0.0013318185181914644 0 -0.013858570572565893 -0.00050483617188262851 0 -0.012307230100025336 -0.0023158398585449748 0 -0.013036117896128852 -0.00025189320923277108 0 -0.013858570572565893 -0.00050483617188262851 0 -0.012307230100025336 -0.0023158398585449748 0 -0.013479199941548229 -0.0025659421007863986 0 -0.013047874788375907 -0.003514590643316958 0 -0.012687393962636545 -0.0031983597875697681 0 -0.013479199941548229 -0.0025659421007863986 0 -0.012687393962636545 -0.0031983597875697681 0 -0.012307230100025336 -0.0023158398585449748 0 -0.013479199941548229 -0.0025659421007863986 0 -0.013047874788375907 -0.003514590643316958 0 -0.013615093525503372 -0.0033641089545733095 0 -0.013479199941548229 -0.0025659421007863986 0 -0.010018398057778341 -0.0018318773266617315 0 -0.0098787048641689901 -0.0023487549323149724 0 -0.0098515177835239789 -0.0016334935995740622 0 -0.010281354706452335 -0.0016640157801271853 0 -0.010164235671556077 -0.0018970445146768173 0 -0.010182436684834595 -0.001453189459051309 0 -0.010018398057778341 -0.0018318773266617315 0 -0.010027666374234101 -0.0014880356058334257 0 -0.010182436684834595 -0.001453189459051309 0 -0.010018398057778341 -0.0018318773266617315 0 -0.010164235671556077 -0.0018970445146768173 0 -0.010182436684834595 -0.001453189459051309 0 -0.010018398057778341 -0.0018318773266617315 0 -0.010164235671556077 -0.0018970445146768173 0 -0.010032015532368443 -0.0021231432445544423 0 -0.010281354706452335 -0.0016640157801271853 0 -0.010164235671556077 -0.0018970445146768173 0 -0.010274727453319284 -0.0019760202150588993 0 -0.010164235671556077 -0.0018970445146768173 0 -0.010032015532368443 -0.0021231432445544423 0 -0.010117617467392056 -0.0022570339508030893 0 -0.010018398057778341 -0.0018318773266617315 0 -0.010032015532368443 -0.0021231432445544423 0 -0.0098787048641689901 -0.0023487549323149724 0 -0.010012557924189076 -0.002405786069671045 0 -0.010013344353511668 -0.0022858999665306204 0 -0.0098787048641689901 -0.0023487549323149724 0 -0.010032015532368443 -0.0021231432445544423 0 -0.010117617467392056 -0.0022570339508030893 0 -0.010013344353511668 -0.0022858999665306204 0 -0.010012557924189076 -0.002405786069671045 0 -0.010117617467392056 -0.0022570339508030893 0 -0.010013344353511668 -0.0022858999665306204 0 -0.010032015532368443 -0.0021231432445544423 0 -0.010013344353511668 -0.0022858999665306204 0 -0.0098787048641689901 -0.0023487549323149724 0 -0.011158460900649562 -0.0046189959789849052 0 -0.011127078914032428 -0.004625095425605995 0 -0.011147182331543314 -0.0045759353332986488 0 -0.012682505608536194 -0.0049974429351953443 0 -0.011398656104699659 -0.0031655754293347959 0 -0.013872568370125068 -0.004887619317044815 0 -0.014049948140949078 -0.004468180746697816 0 -0.014299835789609331 -0.0041560855433585651 0 -0.013872568370125068 -0.004887619317044815 0 -0.014049948140949078 -0.004468180746697816 0 -0.013941237324635805 -0.0045814297736732944 0 -0.010377547923349089 -0.0034487602171091535 0 -0.011398656104699659 -0.0031655754293347959 0 -0.013753236205978054 -0.0048884619024068508 0 -0.013872568370125068 -0.004887619317044815 0 -0.013941237324635805 -0.0045814297736732944 0 -0.014049948140949078 -0.004468180746697816 0 -0.014299835789609331 -0.0041560855433585651 0 -0.014041907903958855 -0.004224440185920335 0 -0.010018398057778341 -0.0018318773266617315 0 -0.0098515177835239789 -0.0016334935995740622 0 -0.010027666374234101 -0.0014880356058334257 0 -0.014041907903958855 -0.004224440185920335 0 -0.013918053956759031 -0.0045549319127783042 0 -0.01391752662775108 -0.004093658616984931 0 -0.014299835789609331 -0.0041560855433585651 0 -0.014041907903958855 -0.004224440185920335 0 -0.014023520332202315 -0.003862248215659397 0 -0.014041907903958855 -0.004224440185920335 0 -0.01391752662775108 -0.004093658616984931 0 -0.014023520332202315 -0.003862248215659397 0 -0.014049948140949078 -0.004468180746697816 0 -0.014041907903958855 -0.004224440185920335 0 -0.013941237324635805 -0.0045814297736732944 0 -0.014041907903958855 -0.004224440185920335 0 -0.013941237324635805 -0.0045814297736732944 0 -0.013918053956759031 -0.0045549319127783042 0 -0.013877971030757795 -0.004919298154518836 0 -0.013753236205978054 -0.0048884619024068508 0 -0.013918053956759031 -0.0045549319127783042 0 -0.013753236205978054 -0.0048884619024068508 0 -0.013941237324635805 -0.0045814297736732944 0 -0.013918053956759031 -0.0045549319127783042 0 -0.013877971030757795 -0.004919298154518836 0 -0.013936607758253809 -0.0045175039398719034 0 -0.013918053956759031 -0.0045549319127783042 0 -0.013936607758253809 -0.0045175039398719034 0 -0.013918053956759031 -0.0045549319127783042 0 -0.01391752662775108 -0.004093658616984931 0 -0.013808473237671535 -0.0035548996893373336 0 -0.013985736207813685 -0.00355885541587872 0 -0.014023520332202315 -0.003862248215659397 0 -0.013808473237671535 -0.0035548996893373336 0 -0.01391752662775108 -0.004093658616984931 0 -0.014023520332202315 -0.003862248215659397 0 -0.013808473237671535 -0.0035548996893373336 0 -0.013985736207813685 -0.00355885541587872 0 -0.01380311120099373 -0.0032750203170063157 0 -0.013985736207813685 -0.00355885541587872 0 -0.014019246543271012 -0.0033271389271954973 0 -0.01380311120099373 -0.0032750203170063157 0 -0.013985736207813685 -0.00355885541587872 0 -0.01423577866049611 -0.0035012626804134073 0 -0.014023520332202315 -0.003862248215659397 0 -0.013985736207813685 -0.00355885541587872 0 -0.01423577866049611 -0.0035012626804134073 0 -0.014019246543271012 -0.0033271389271954973 0 -0.014299835789609331 -0.0041560855433585651 0 -0.01423577866049611 -0.0035012626804134073 0 -0.014023520332202315 -0.003862248215659397 0 -0.011398656104699659 -0.0031655754293347959 0 -0.012226760928298101 -0.0023011413055018877 0 -0.009842666609085577 -0.0015643682024533588 0 -0.010111607486189493 -0.00080992447052758397 0 -0.009960447334683268 -0.0013107010217712559 0 -0.0098515177835239789 -0.0016334935995740622 0 -0.010027666374234101 -0.0014880356058334257 0 -0.009960447334683268 -0.0013107010217712559 0 -0.010027666374234101 -0.0014880356058334257 0 -0.009960447334683268 -0.0013107010217712559 0 -0.010124994120074921 -0.0012244555677286494 0 -0.011398656104699659 -0.0031655754293347959 0 -0.010466808230670369 -0.0012437756750215397 0 -0.009960447334683268 -0.0013107010217712559 0 -0.010171234805457622 -0.0009473890403744543 0 -0.010124994120074921 -0.0012244555677286494 0 -0.010171234805457622 -0.0009473890403744543 0 -0.010286964630237811 -0.00077259273032777678 0 -0.010373156098016296 -0.0005555228113527515 0 -0.010111607486189493 -0.00080992447052758397 0 -0.010171234805457622 -0.0009473890403744543 0 -0.010373156098016296 -0.0005555228113527515 0 -0.010111607486189493 -0.00080992447052758397 0 -0.009960447334683268 -0.0013107010217712559 0 -0.010171234805457622 -0.0009473890403744543 0 -0.010268883096183538 -0.0010070612420787191 0 -0.010308806745533833 -0.00062469732521236226 0 -0.010504136636498325 -0.0013196430007219961 0 -0.010270512551078343 -0.00070681638546254977 0 -0.010132569938144046 -0.0013643579035068189 0 -0.010171234805457622 -0.0009473890403744543 0 -0.010268883096183538 -0.0010070612420787191 0 -0.010286964630237811 -0.00077259273032777678 0 -0.010268883096183538 -0.0010070612420787191 0 -0.010286964630237811 -0.00077259273032777678 0 -0.010308806745533833 -0.00062469732521236226 0 -0.010268883096183538 -0.0010070612420787191 0 -0.010182436684834595 -0.001453189459051309 0 -0.010504136636498325 -0.0013196430007219961 0 -0.010171234805457622 -0.0009473890403744543 0 -0.010268883096183538 -0.0010070612420787191 0 -0.010124994120074921 -0.0012244555677286494 0 -0.010268883096183538 -0.0010070612420787191 0 -0.010124994120074921 -0.0012244555677286494 0 -0.010182436684834595 -0.001453189459051309 0 -0.010027666374234101 -0.0014880356058334257 0 -0.010124994120074921 -0.0012244555677286494 0 -0.010182436684834595 -0.001453189459051309 0 -0.010281354706452335 -0.0016640157801271853 0 -0.010182436684834595 -0.001453189459051309 0 -0.010504136636498325 -0.0013196430007219961 0 -0.009568657420797988 0.00015831222750944338 0 -0.0095045886454470114 9.2931491731538417e-05 0 -0.0096436940905414662 9.6577851251082543e-05 0 -0.009568657420797988 0.00015831222750944338 0 -0.0095045886454470114 9.2931491731538417e-05 0 -0.0095206372452827891 0.00021766220537010363 0 -0.010308806745533833 -0.00062469732521236226 0 -0.010514063022055733 -0.00028944472997392519 0 -0.010100992763901872 -0.00092805383318586478 0 -0.0095045886454470114 9.2931491731538417e-05 0 -0.0096436940905414662 9.6577851251082543e-05 0 -0.0095920411292875398 -6.4410745287661055e-05 0 -0.0098591659774226875 -0.0001815256626011142 0 -0.0099678861726598816 -0.00044881708394729113 0 -0.010308806745533833 -0.00062469732521236226 0 -0.010514063022055733 -0.00028944472997392519 0 -0.010373156098016296 -0.0005555228113527515 0 -0.010286964630237811 -0.00077259273032777678 0 -0.010308806745533833 -0.00062469732521236226 0 -0.010373156098016296 -0.0005555228113527515 0 -0.010514063022055733 -0.00028944472997392519 0 -0.010491690094927921 -0.00038259100327590732 0 -0.010647969005966517 -0.0002161715939448006 0 -0.010514063022055733 -0.00028944472997392519 0 -0.010373156098016296 -0.0005555228113527515 0 -0.010491690094927921 -0.00038259100327590732 0 -0.010111607486189493 -0.00080992447052758397 0 -0.010373156098016296 -0.0005555228113527515 0 -0.010491690094927921 -0.00038259100327590732 0 -0.010514063022055733 -0.00028944472997392519 0 -0.010940881721446975 -1.5181876958152507e-05 0 -0.010647969005966517 -0.0002161715939448006 0 -0.0098591659774226875 -0.0001815256626011142 0 -0.011161159729354827 0.00072626185253624642 0 -0.0095045886454470114 9.2931491731538417e-05 0 -0.0094455301428377318 0.00021383172478524343 0 -0.0095206372452827891 0.00021766220537010363 0 -0.010514063022055733 -0.00028944472997392519 0 -0.010940881721446975 -1.5181876958152507e-05 0 -0.011122098986533912 -0.00027618262539563619 0 -0.010940881721446975 -1.5181876958152507e-05 0 -0.011796211966706644 4.3052939861039974e-05 0 -0.012446090419096424 0.00060729743725746865 0 -0.010940881721446975 -1.5181876958152507e-05 0 -0.011796211966706644 4.3052939861039974e-05 0 -0.011122098986533912 -0.00027618262539563619 0 -0.011796211966706644 4.3052939861039974e-05 0 -0.012508983944300093 0.00027572730146637657 0 -0.012446090419096424 0.00060729743725746865 0 -0.012508983944300093 0.00027572730146637657 0 -0.012446090419096424 0.00060729743725746865 0 -0.012871549888333281 0.00034572853929080549 0 -0.012446090419096424 0.00060729743725746865 0 -0.012455540386663768 0.00078070468762514997 0 -0.013131705974416747 0.00052185406150562208 0 -0.012478923804531711 -6.7034335301806918e-05 0 -0.01269433709740051 -0.00079738627272032546 0 -0.011176391650933098 -0.00029137227825603613 0 -0.01269433709740051 -0.00079738627272032546 0 -0.010940881721446975 -1.5181876958152507e-05 0 -0.012446090419096424 0.00060729743725746865 0 -0.012255618739544586 0.0011348520929252853 0 -0.010940881721446975 -1.5181876958152507e-05 0 -0.010445578602303092 -0.00019612746977899659 0 -0.010647969005966517 -0.0002161715939448006 0 -0.010491690094927921 -0.00038259100327590732 0 -0.010445578602303092 -0.00019612746977899659 0 -0.010647969005966517 -0.0002161715939448006 0 -0.012226760928298101 -0.0023011413055018877 0 -0.01269433709740051 -0.00079738627272032546 0 -0.01423577866049611 -0.0035012626804134073 0 -0.014076539436415068 -0.0030536139042105599 0 -0.014019246543271012 -0.0033271389271954973 0 -0.010111607486189493 -0.00080992447052758397 0 -0.010491690094927921 -0.00038259100327590732 0 -0.010445578602303092 -0.00019612746977899659 0 -0.014076539436415068 -0.0030536139042105599 0 -0.014019246543271012 -0.0033271389271954973 0 -0.01380311120099373 -0.0032750203170063157 0 -0.01269433709740051 -0.00079738627272032546 0 -0.013833730159405673 -0.0013698801024322887 0 -0.013131705974416747 0.00052185406150562208 0 -0.013762484282281663 0.00066339275021135415 0 -0.013629159724816984 0.00046220145271817537 0 -0.012455540386663768 0.00078070468762514997 0 -0.013131705974416747 0.00052185406150562208 0 -0.013762484282281663 0.00066339275021135415 0 -0.012446090419096424 0.00060729743725746865 0 -0.013131705974416747 0.00052185406150562208 0 -0.012871549888333281 0.00034572853929080549 0 -0.013131705974416747 0.00052185406150562208 0 -0.012871549888333281 0.00034572853929080549 0 -0.01317594735852228 0.00036866436279169436 0 -0.012508983944300093 0.00027572730146637657 0 -0.012871549888333281 0.00034572853929080549 0 -0.012856679483847361 0.00015361051141673764 0 -0.013131705974416747 0.00052185406150562208 0 -0.01317594735852228 0.00036866436279169436 0 -0.013629159724816984 0.00046220145271817537 0 -0.012856679483847361 0.00015361051141673764 0 -0.012496262269681709 0.0011934805835891386 0 -0.013160854389220844 0.00051786626251909768 0 -0.01317594735852228 0.00036866436279169436 0 -0.012856679483847361 0.00015361051141673764 0 -0.013160854389220844 0.00051786626251909768 0 -0.012871549888333281 0.00034572853929080549 0 -0.01317594735852228 0.00036866436279169436 0 -0.012856679483847361 0.00015361051141673764 0 -0.012496262269681709 0.0011934805835891386 0 -0.013160854389220844 0.00051786626251909768 0 -0.013361704736735576 0.00058205391752077097 0 -0.012496262269681709 0.0011934805835891386 0 -0.011036514177807929 0.001778688824986032 0 -0.011220020356230837 0.0011210559869127888 0 -0.012496262269681709 0.0011934805835891386 0 -0.01107855446903655 0.0030588513090237962 0 -0.011036514177807929 0.001778688824986032 0 -0.012814839458670915 0.0014433226804548057 0 -0.011161159729354827 0.00072626185253624642 0 -0.013145093569937415 0.00012503400188525451 0 -0.011161159729354827 0.00072626185253624642 0 -0.011796211966706644 4.3052939861039974e-05 0 -0.012856679483847361 0.00015361051141673764 0 -0.011122098986533912 -0.00027618262539563619 0 -0.012856679483847361 0.00015361051141673764 0 -0.012496262269681709 0.0011934805835891386 0 -0.013597667629064423 0.00020224927702840715 0 -0.011796211966706644 4.3052939861039974e-05 0 -0.012508983944300093 0.00027572730146637657 0 -0.012856679483847361 0.00015361051141673764 0 -0.01107855446903655 0.0030588513090237962 0 -0.010472858140484046 0.002375310574404323 0 -0.009963990644142301 0.0028170360109748185 0 -0.011161159729354827 0.00072626185253624642 0 -0.0097077760591277006 0.0015450827953381327 0 -0.01107855446903655 0.0030588513090237962 0 -0.010472858140484046 0.002375310574404323 0 -0.011036514177807929 0.001778688824986032 0 -0.011036514177807929 0.001778688824986032 0 -0.010189855612867059 0.0016679345234667969 0 -0.011220020356230837 0.0011210559869127888 0 -0.010472858140484046 0.002375310574404323 0 -0.010189855612867059 0.0016679345234667969 0 -0.0097156293246953886 0.0022607305872782567 0 -0.010472858140484046 0.002375310574404323 0 -0.011036514177807929 0.001778688824986032 0 -0.010189855612867059 0.0016679345234667969 0 -0.010189855612867059 0.0016679345234667969 0 -0.0097156293246953886 0.0022607305872782567 0 -0.0095443594949880528 0.0018165612416685994 0 -0.0097156293246953886 0.0022607305872782567 0 -0.0095443594949880528 0.0018165612416685994 0 -0.0091728409677875912 0.0021476177780865454 0 -0.009568657420797988 0.00015831222750944338 0 -0.0095206372452827891 0.00021766220537010363 0 -0.0096113934047106792 0.00022932821183807757 0 -0.0097156293246953886 0.0022607305872782567 0 -0.009963990644142301 0.0028170360109748185 0 -0.0090599639397453829 0.0026504002044997347 0 -0.0097077760591277006 0.0015450827953381327 0 -0.0088053919629085212 0.0011253038554562775 0 -0.010472858140484046 0.002375310574404323 0 -0.0097156293246953886 0.0022607305872782567 0 -0.009963990644142301 0.0028170360109748185 0 -0.014537869331983711 0.00053874171742271154 0 -0.014105252314944557 0.00033769190332896706 0 -0.014503874746766185 0.00044043173214175187 0 -0.014105252314944557 0.00033769190332896706 0 -0.014175684006525755 0.0004389962627860956 0 -0.014503874746766185 0.00044043173214175187 0 -0.016848913995493174 -0.00079410308232847823 0 -0.016797559337307623 -0.0013318185181914644 0 -0.019406544748552464 -0.0016819822742842746 0 -0.02051008177046109 -0.0021591354336421582 0 -0.020365480786718126 -0.0020639135350481327 0 -0.013858570572565893 -0.00050483617188262851 0 -0.013036117896128852 -0.00025189320923277108 0 -0.014105252314944557 0.00033769190332896706 0 -0.014537869331983711 0.00053874171742271154 0 -0.013036117896128852 -0.00025189320923277108 0 -0.014105252314944557 0.00033769190332896706 0 -0.013858570572565893 -0.00050483617188262851 0 -0.014105252314944557 0.00033769190332896706 0 -0.014175684006525755 0.0004389962627860956 0 -0.014479341519307331 -0.00033829692859902382 0 -0.014042868593507679 0.00045514128851634542 0 -0.014175684006525755 0.0004389962627860956 0 -0.014479341519307331 -0.00033829692859902382 0 -0.013858570572565893 -0.00050483617188262851 0 -0.014175684006525755 0.0004389962627860956 0 -0.013762484282281663 0.00066339275021135415 0 -0.014042868593507679 0.00045514128851634542 0 -0.013629159724816984 0.00046220145271817537 0 -0.014479341519307331 -0.00033829692859902382 0 -0.013762484282281663 0.00066339275021135415 0 -0.014042868593507679 0.00045514128851634542 0 -0.014042868593507679 0.00045514128851634542 0 -0.013629159724816984 0.00046220145271817537 0 -0.014024774047526292 0.00047987118635128216 0 -0.014042868593507679 0.00045514128851634542 0 -0.014175684006525755 0.0004389962627860956 0 -0.014024774047526292 0.00047987118635128216 0 -0.014175684006525755 0.0004389962627860956 0 -0.014024774047526292 0.00047987118635128216 0 -0.014503874746766185 0.00044043173214175187 0 -0.013825224309129622 0.0004590917754053227 0 -0.014782620637803515 -9.4257501740171074e-05 0 -0.014503874746766185 0.00044043173214175187 0 -0.014024774047526292 0.00047987118635128216 0 -0.013825224309129622 0.0004590917754053227 0 -0.014503874746766185 0.00044043173214175187 0 -0.013629159724816984 0.00046220145271817537 0 -0.014024774047526292 0.00047987118635128216 0 -0.013825224309129622 0.0004590917754053227 0 -0.013629159724816984 0.00046220145271817537 0 -0.013825224309129622 0.0004590917754053227 0 -0.013160854389220844 0.00051786626251909768 0 -0.01317594735852228 0.00036866436279169436 0 -0.013629159724816984 0.00046220145271817537 0 -0.013160854389220844 0.00051786626251909768 0 -0.012496262269681709 0.0011934805835891386 0 -0.013361704736735576 0.00058205391752077097 0 -0.013329594400202508 0.00057036700907558025 0 -0.013825224309129622 0.0004590917754053227 0 -0.013160854389220844 0.00051786626251909768 0 -0.013361704736735576 0.00058205391752077097 0 -0.013361704736735576 0.00058205391752077097 0 -0.013914022332969225 0.00033958897960045082 0 -0.013329594400202508 0.00057036700907558025 0 -0.013914022332969225 0.00033958897960045082 0 -0.014782620637803515 -9.4257501740171074e-05 0 -0.014333585965997403 0.00019180242451478252 0 -0.013825224309129622 0.0004590917754053227 0 -0.013914022332969225 0.00033958897960045082 0 -0.014782620637803515 -9.4257501740171074e-05 0 -0.013825224309129622 0.0004590917754053227 0 -0.013361704736735576 0.00058205391752077097 0 -0.013914022332969225 0.00033958897960045082 0 -0.014782620637803515 -9.4257501740171074e-05 0 -0.014503874746766185 0.00044043173214175187 0 -0.01636205511105962 -0.0005203908111468279 0 -0.014537869331983711 0.00053874171742271154 0 -0.014503874746766185 0.00044043173214175187 0 -0.01636205511105962 -0.0005203908111468279 0 -0.016848913995493174 -0.00079410308232847823 0 -0.016485880761255747 -0.00083289129160168485 0 -0.019406544748552464 -0.0016819822742842746 0 -0.01636205511105962 -0.0005203908111468279 0 -0.018628243901426363 -0.0013328380086335481 0 -0.014782620637803515 -9.4257501740171074e-05 0 -0.01636205511105962 -0.0005203908111468279 0 -0.015779546385987601 -0.00051408945367911317 0 -0.01636205511105962 -0.0005203908111468279 0 -0.015779546385987601 -0.00051408945367911317 0 -0.019173539111877923 -0.0019155745332205668 0 -0.015779546385987601 -0.00051408945367911317 0 -0.015470661987990795 -0.00022140889663899841 0 -0.015481525153290435 -0.00023557120077200846 0 -0.016113093152070698 -0.00060046782500862244 0 -0.017419623463288833 -0.00091530228824881273 0 -0.015470661987990795 -0.00022140889663899841 0 -0.015523298893666696 -0.00020445815767582208 0 -0.015415410741523484 -0.00019060211642750387 0 -0.015470661987990795 -0.00022140889663899841 0 -0.015523298893666696 -0.00020445815767582208 0 -0.015481525153290435 -0.00023557120077200846 0 -0.015523298893666696 -0.00020445815767582208 0 -0.015481525153290435 -0.00023557120077200846 0 -0.015649508666245489 4.7819903828456106e-05 0 -0.019173539111877923 -0.0019155745332205668 0 -0.019865070929939201 -0.0018894397035672556 0 -0.021322382554903461 -0.002726379873835158 0 -0.017419623463288833 -0.00091530228824881273 0 -0.018394257686198356 -0.0014362108063996832 0 -0.018628243901426363 -0.0013328380086335481 0 -0.019173539111877923 -0.0019155745332205668 0 -0.019865070929939201 -0.0018894397035672556 0 -0.01636205511105962 -0.0005203908111468279 0 -0.018628243901426363 -0.0013328380086335481 0 -0.019173539111877923 -0.0019155745332205668 0 -0.019865070929939201 -0.0018894397035672556 0 -0.021119777832245813 -0.0023023285104660824 0 -0.020365480786718126 -0.0020639135350481327 0 -0.019406544748552464 -0.0016819822742842746 0 -0.019865070929939201 -0.0018894397035672556 0 -0.020365480786718126 -0.0020639135350481327 0 -0.019406544748552464 -0.0016819822742842746 0 -0.018628243901426363 -0.0013328380086335481 0 -0.019865070929939201 -0.0018894397035672556 0 -0.019865070929939201 -0.0018894397035672556 0 -0.021119777832245813 -0.0023023285104660824 0 -0.021322382554903461 -0.002726379873835158 0 -0.021119777832245813 -0.0023023285104660824 0 -0.021270478541314974 -0.0022645409487798674 0 -0.020365480786718126 -0.0020639135350481327 0 -0.021119777832245813 -0.0023023285104660824 0 -0.021270478541314974 -0.0022645409487798674 0 -0.022064110067037103 -0.0024319426325373722 0 -0.02051008177046109 -0.0021591354336421582 0 -0.021270478541314974 -0.0022645409487798674 0 -0.020365480786718126 -0.0020639135350481327 0 -0.022782335991130276 -0.0027804953535671092 0 -0.022146986812411361 -0.0026433246094229143 0 -0.023073571647062106 -0.0030490124780159556 0 -0.022782335991130276 -0.0027804953535671092 0 -0.023180124468800984 -0.0028981233519716721 0 -0.023073571647062106 -0.0030490124780159556 0 -0.023180124468800984 -0.0028981233519716721 0 -0.023073571647062106 -0.0030490124780159556 0 -0.023567418731838354 -0.003012284988913953 0 -0.023073571647062106 -0.0030490124780159556 0 -0.023567418731838354 -0.003012284988913953 0 -0.023794045026009941 -0.0030870958812999707 0 -0.023180124468800984 -0.0028981233519716721 0 -0.023376350315646284 -0.0028769970514017935 0 -0.023567418731838354 -0.003012284988913953 0 -0.023376350315646284 -0.0028769970514017935 0 -0.023567418731838354 -0.003012284988913953 0 -0.023729099928019175 -0.0029712477316277833 0 -0.023376350315646284 -0.0028769970514017935 0 -0.022990854755363263 -0.0027348505563337508 0 -0.023264916464477415 -0.0027009911847844801 0 -0.022782335991130276 -0.0027804953535671092 0 -0.023180124468800984 -0.0028981233519716721 0 -0.022990854755363263 -0.0027348505563337508 0 -0.023180124468800984 -0.0028981233519716721 0 -0.023376350315646284 -0.0028769970514017935 0 -0.022990854755363263 -0.0027348505563337508 0 -0.022782335991130276 -0.0027804953535671092 0 -0.022990854755363263 -0.0027348505563337508 0 -0.022544916294915639 -0.0026110133337679487 0 -0.022990854755363263 -0.0027348505563337508 0 -0.022544916294915639 -0.0026110133337679487 0 -0.022827940741615267 -0.0025191257668112049 0 -0.022544916294915639 -0.0026110133337679487 0 -0.022064110067037103 -0.0024319426325373722 0 -0.022827940741615267 -0.0025191257668112049 0 -0.021119777832245813 -0.0023023285104660824 0 -0.022064110067037103 -0.0024319426325373722 0 -0.022146986812411361 -0.0026433246094229143 0 -0.022544916294915639 -0.0026110133337679487 0 -0.022064110067037103 -0.0024319426325373722 0 -0.022146986812411361 -0.0026433246094229143 0 -0.022782335991130276 -0.0027804953535671092 0 -0.022544916294915639 -0.0026110133337679487 0 -0.022146986812411361 -0.0026433246094229143 0 -0.016011493606253879 0.00023519864250435348 0 -0.016051051812785613 0.00031001934589517532 0 -0.015649508666245489 4.7819903828456106e-05 0 -0.022146986812411361 -0.0026433246094229143 0 -0.022763644423544883 -0.0030205347350686948 0 -0.021322382554903461 -0.002726379873835158 0 -0.020021948236625939 -9.7795727672543445e-05 0 -0.018394257686198356 -0.0014362108063996832 0 -0.021119777832245813 -0.0023023285104660824 0 -0.022146986812411361 -0.0026433246094229143 0 -0.021322382554903461 -0.002726379873835158 0 -0.019304795652080604 0.0083927681788506323 0 -0.020203519379465767 0.0062449595311061092 0 -0.021645340148715015 0.0079629034334636039 0 -0.020107316308130254 0.0022961802360294522 0 -0.021824339054725601 0.0042730906815933861 0 -0.022042468764371752 0.00019269413185065313 0 -0.022217030348185722 0.00024011247843311567 0 -0.022406686908362686 0.0001332678961293871 0 -0.022042468764371752 0.00019269413185065313 0 -0.022071416083831532 0.00025151931064731095 0 -0.022217030348185722 0.00024011247843311567 0 -0.022146986812411361 -0.0026433246094229143 0 -0.022763644423544883 -0.0030205347350686948 0 -0.023073571647062106 -0.0030490124780159556 0 -0.020107316308130254 0.0022961802360294522 0 -0.020021948236625939 -9.7795727672543445e-05 0 -0.020021948236625939 -9.7795727672543445e-05 0 -0.021970557409285128 -0.00053202376100758167 0 -0.022152918144090393 0.0003012088633281129 0 -0.022217030348185722 0.00024011247843311567 0 -0.02240373148246716 0.00031900771040012539 0 -0.022071416083831532 0.00025151931064731095 0 -0.022152918144090393 0.0003012088633281129 0 -0.022217030348185722 0.00024011247843311567 0 -0.020203519379465767 0.0062449595311061092 0 -0.017941309502209849 0.0057582650789778124 0 -0.019445258525312512 0.0048516027928970249 0 -0.019304795652080604 0.0083927681788506323 0 -0.020203519379465767 0.0062449595311061092 0 -0.017941309502209849 0.0057582650789778124 0 -0.015523298893666696 -0.00020445815767582208 0 -0.015649508666245489 4.7819903828456106e-05 0 -0.015691101680852259 -0.00014745227000374328 0 -0.016011493606253879 0.00023519864250435348 0 -0.015649508666245489 4.7819903828456106e-05 0 -0.015691101680852259 -0.00014745227000374328 0 -0.020107316308130254 0.0022961802360294522 0 -0.016591045136830719 0.0031066954900140368 0 -0.015523298893666696 -0.00020445815767582208 0 -0.015691101680852259 -0.00014745227000374328 0 -0.015415410741523484 -0.00019060211642750387 0 -0.016591045136830719 0.0031066954900140368 0 -0.016011771422004134 0.0013169155450300592 0 -0.017941309502209849 0.0057582650789778124 0 -0.01859324228881265 0.0037341830274662422 0 -0.019445258525312512 0.0048516027928970249 0 -0.017941309502209849 0.0057582650789778124 0 -0.01859324228881265 0.0037341830274662422 0 -0.016526475271666053 0.0029271590473455029 0 -0.01859324228881265 0.0037341830274662422 0 -0.019445258525312512 0.0048516027928970249 0 -0.021041340342206949 0.0036615748166930369 0 -0.020203519379465767 0.0062449595311061092 0 -0.019445258525312512 0.0048516027928970249 0 -0.021041340342206949 0.0036615748166930369 0 -0.023400386668759827 0.0058615583835403655 0 -0.021909064175492172 0.0063886371950166634 0 -0.021041340342206949 0.0036615748166930369 0 -0.020203519379465767 0.0062449595311061092 0 -0.021909064175492172 0.0063886371950166634 0 -0.021041340342206949 0.0036615748166930369 0 -0.023294355511062789 0.0057589966090449982 0 -0.021625292250060383 0.0044182216273795189 0 -0.023400386668759827 0.0058615583835403655 0 -0.022236230191353613 0.0051399325170813385 0 -0.023582934467191091 0.0049254716883474084 0 -0.023400386668759827 0.0058615583835403655 0 -0.024521495645912907 0.0052545373717371516 0 -0.023582934467191091 0.0049254716883474084 0 -0.023400386668759827 0.0058615583835403655 0 -0.024521495645912907 0.0052545373717371516 0 -0.023777485124989856 0.0073929144649107588 0 -0.023400386668759827 0.0058615583835403655 0 -0.021909064175492172 0.0063886371950166634 0 -0.023777485124989856 0.0073929144649107588 0 -0.021909064175492172 0.0063886371950166634 0 -0.021645340148715015 0.0079629034334636039 0 -0.023777485124989856 0.0073929144649107588 0 -0.020203519379465767 0.0062449595311061092 0 -0.021909064175492172 0.0063886371950166634 0 -0.021645340148715015 0.0079629034334636039 0 -0.026143754616562064 -0.00031542129849521479 0 -0.025533859081803324 -0.00076377701355788863 0 -0.024999979483128001 9.5070390065105469e-05 0 -0.025533859081803324 -0.00076377701355788863 0 -0.024999983813686209 -0.0013452954748252152 0 -0.024999979483128001 9.5070390065105469e-05 0 -0.026143754616562064 -0.00031542129849521479 0 -0.025841750379748233 -0.0014152363783592483 0 -0.025533859081803324 -0.00076377701355788863 0 -0.025416870169226353 0.0028576047371909486 0 -0.024252553050070871 0.0010576338148632028 0 -0.026143754616562064 -0.00031542129849521479 0 -0.025841750379748233 -0.0014152363783592483 0 -0.02663565619994963 -0.001524161413670117 0 -0.025870332008584913 -0.0018049100998289243 0 -0.024999657837517991 -0.0013455606897694644 0 -0.025841750379748233 -0.0014152363783592483 0 -0.025533859081803324 -0.00076377701355788863 0 -0.024999983813686209 -0.0013452954748252152 0 -0.025254279820280039 -0.0020220735047956013 0 -0.024999527733731979 -0.0013470735213639829 0 -0.02499952542263351 -0.002825295125432115 0 -0.025254279820280039 -0.0020220735047956013 0 -0.025208799446229713 -0.0027147735959473893 0 -0.02499952542263351 -0.002825295125432115 0 -0.025254279820280039 -0.0020220735047956013 0 -0.025208799446229713 -0.0027147735959473893 0 -0.025368579899601684 -0.0024346152855210025 0 -0.025870332008584913 -0.0018049100998289243 0 -0.024252553050070871 0.0010576338148632028 0 -0.025208799446229713 -0.0027147735959473893 0 -0.02512259570711442 -0.0031925018946226554 0 -0.02499952542263351 -0.002825295125432115 0 -0.025208799446229713 -0.0027147735959473893 0 -0.02512259570711442 -0.0031925018946226554 0 -0.025115728623979875 -0.0030460644785439365 0 -0.02512259570711442 -0.0031925018946226554 0 -0.025115728623979875 -0.0030460644785439365 0 -0.025006086335811462 -0.0032382090784458754 0 -0.022406686908362686 0.0001332678961293871 0 -0.022642030380331954 0.0003064413696870071 0 -0.02240373148246716 0.00031900771040012539 0 -0.022217030348185722 0.00024011247843311567 0 -0.022406686908362686 0.0001332678961293871 0 -0.02240373148246716 0.00031900771040012539 0 -0.021824339054725601 0.0042730906815933861 0 -0.024252553050070871 0.0010576338148632028 0 -0.025208799446229713 -0.0027147735959473893 0 -0.025368579899601684 -0.0024346152855210025 0 -0.02523599486656852 -0.0028896127359824596 0 -0.022406686908362686 0.0001332678961293871 0 -0.022758449016402432 7.671930588812388e-05 0 -0.022642030380331954 0.0003064413696870071 0 -0.024252553050070871 0.0010576338148632028 0 -0.024010269511042133 -0.001443430392410332 0 -0.024010269511042133 -0.001443430392410332 0 -0.023535624557276511 -0.0019452429820320442 0 -0.025208799446229713 -0.0027147735959473893 0 -0.02523599486656852 -0.0028896127359824596 0 -0.025115728623979875 -0.0030460644785439365 0 -0.02523599486656852 -0.0028896127359824596 0 -0.025115728623979875 -0.0030460644785439365 0 -0.024979317428403296 -0.0031482835218282304 0 -0.025115728623979875 -0.0030460644785439365 0 -0.024979317428403296 -0.0031482835218282304 0 -0.025006086335811462 -0.0032382090784458754 0 -0.024979317428403296 -0.0031482835218282304 0 -0.024770723374743297 -0.0032460201161477963 0 -0.024718892044059852 -0.0032697681046742373 0 -0.02523599486656852 -0.0028896127359824596 0 -0.024979317428403296 -0.0031482835218282304 0 -0.024770723374743297 -0.0032460201161477963 0 -0.024979317428403296 -0.0031482835218282304 0 -0.024718892044059852 -0.0032697681046742373 0 -0.024812483338184459 -0.0032403623721872473 0 -0.024295519288406852 -0.0032227632605170589 0 -0.024082872185352138 -0.0031311288369048913 0 -0.023794045026009941 -0.0030870958812999707 0 -0.022152918144090393 0.0003012088633281129 0 -0.022536451388561245 0.00053321979785859444 0 -0.02240373148246716 0.00031900771040012539 0 -0.023535624557276511 -0.0019452429820320442 0 -0.023603017175335812 -0.00199755614066422 0 -0.021970557409285128 -0.00053202376100758167 0 -0.023535624557276511 -0.0019452429820320442 0 -0.023073571647062106 -0.0030490124780159556 0 -0.024295519288406852 -0.0032227632605170589 0 -0.023794045026009941 -0.0030870958812999707 0 -0.022642030380331954 0.0003064413696870071 0 -0.022536451388561245 0.00053321979785859444 0 -0.02240373148246716 0.00031900771040012539 0 -0.023567418731838354 -0.003012284988913953 0 -0.023794045026009941 -0.0030870958812999707 0 -0.02375533356319701 -0.0030372495591604824 0 -0.023794045026009941 -0.0030870958812999707 0 -0.02375533356319701 -0.0030372495591604824 0 -0.023907708477424794 -0.0030582436638597055 0 -0.024082872185352138 -0.0031311288369048913 0 -0.023794045026009941 -0.0030870958812999707 0 -0.023907708477424794 -0.0030582436638597055 0 -0.023567418731838354 -0.003012284988913953 0 -0.02375533356319701 -0.0030372495591604824 0 -0.023729099928019175 -0.0029712477316277833 0 -0.02375533356319701 -0.0030372495591604824 0 -0.023729099928019175 -0.0029712477316277833 0 -0.023907708477424794 -0.0030582436638597055 0 -0.023729099928019175 -0.0029712477316277833 0 -0.023975707580119493 -0.0030250374945519306 0 -0.02383168702711231 -0.0029098820657676985 0 -0.023975707580119493 -0.0030250374945519306 0 -0.02383168702711231 -0.0029098820657676985 0 -0.024212123208452785 -0.0030791973286400597 0 -0.023729099928019175 -0.0029712477316277833 0 -0.023907708477424794 -0.0030582436638597055 0 -0.023975707580119493 -0.0030250374945519306 0 -0.023907708477424794 -0.0030582436638597055 0 -0.023975707580119493 -0.0030250374945519306 0 -0.024102813986564272 -0.0030955277622925566 0 -0.02383168702711231 -0.0029098820657676985 0 -0.024212123208452785 -0.0030791973286400597 0 -0.024057455511038262 -0.0031215211376908309 0 -0.024212123208452785 -0.0030791973286400597 0 -0.024538251081723857 -0.0032239459018136131 0 -0.024057455511038262 -0.0031215211376908309 0 -0.024212123208452785 -0.0030791973286400597 0 -0.024557129346699777 -0.0031749433373128248 0 -0.024538251081723857 -0.0032239459018136131 0 -0.024212123208452785 -0.0030791973286400597 0 -0.024313646412705982 -0.0031732291852871238 0 -0.024557129346699777 -0.0031749433373128248 0 -0.024212123208452785 -0.0030791973286400597 0 -0.024102813986564272 -0.0030955277622925566 0 -0.024313646412705982 -0.0031732291852871238 0 -0.023975707580119493 -0.0030250374945519306 0 -0.024212123208452785 -0.0030791973286400597 0 -0.024102813986564272 -0.0030955277622925566 0 -0.024082872185352138 -0.0031311288369048913 0 -0.024102813986564272 -0.0030955277622925566 0 -0.024313646412705982 -0.0031732291852871238 0 -0.024082872185352138 -0.0031311288369048913 0 -0.023907708477424794 -0.0030582436638597055 0 -0.024102813986564272 -0.0030955277622925566 0 -0.024295519288406852 -0.0032227632605170589 0 -0.024082872185352138 -0.0031311288369048913 0 -0.024313646412705982 -0.0031732291852871238 0 -0.024313646412705982 -0.0031732291852871238 0 -0.024718892044059852 -0.0032697681046742373 0 -0.024557129346699777 -0.0031749433373128248 0 -0.023535624557276511 -0.0019452429820320442 0 -0.023721200834506396 -0.002318487391750459 0 -0.024487783592378898 -0.0034513592088297931 0 -0.024313646412705982 -0.0031732291852871238 0 -0.024718892044059852 -0.0032697681046742373 0 -0.024718892044059852 -0.0032697681046742373 0 -0.024812483338184459 -0.0032403623721872473 0 -0.024557129346699777 -0.0031749433373128248 0 -0.024812483338184459 -0.0032403623721872473 0 -0.024557129346699777 -0.0031749433373128248 0 -0.024538251081723857 -0.0032239459018136131 0 -0.024979317428403296 -0.0031482835218282304 0 -0.024812483338184459 -0.0032403623721872473 0 -0.025006086335811462 -0.0032382090784458754 0 -0.024812483338184459 -0.0032403623721872473 0 -0.025006086335811462 -0.0032382090784458754 0 -0.024808469794604285 -0.0033327195927628215 0 -0.025006086335811462 -0.0032382090784458754 0 -0.024808469794604285 -0.0033327195927628215 0 -0.024989170504484497 -0.0035027072914732972 0 -0.024808469794604285 -0.0033327195927628215 0 -0.024580566521055607 -0.0034475708976529308 0 -0.024989170504484497 -0.0035027072914732972 0 -0.024808469794604285 -0.0033327195927628215 0 -0.024538251081723857 -0.0032239459018136131 0 -0.024580566521055607 -0.0034475708976529308 0 -0.024812483338184459 -0.0032403623721872473 0 -0.024808469794604285 -0.0033327195927628215 0 -0.024538251081723857 -0.0032239459018136131 0 -0.024538251081723857 -0.0032239459018136131 0 -0.024580566521055607 -0.0034475708976529308 0 -0.024057455511038262 -0.0031215211376908309 0 -0.024580566521055607 -0.0034475708976529308 0 -0.024950188559508944 -0.003883425350631632 0 -0.023981717422737404 -0.0034951900337693428 0 -0.024580566521055607 -0.0034475708976529308 0 -0.024989170504484497 -0.0035027072914732972 0 -0.024950188559508944 -0.003883425350631632 0 -0.024580566521055607 -0.0034475708976529308 0 -0.024057455511038262 -0.0031215211376908309 0 -0.023981717422737404 -0.0034951900337693428 0 -0.024057455511038262 -0.0031215211376908309 0 -0.023981717422737404 -0.0034951900337693428 0 -0.023836660685358096 -0.0032284945883467304 0 -0.024057455511038262 -0.0031215211376908309 0 -0.023836660685358096 -0.0032284945883467304 0 -0.023643588063737106 -0.0027798575330873158 0 -0.02383168702711231 -0.0029098820657676985 0 -0.024057455511038262 -0.0031215211376908309 0 -0.023643588063737106 -0.0027798575330873158 0 -0.02512259570711442 -0.0031925018946226554 0 -0.02499952542263351 -0.002825295125432115 0 -0.02507975284436317 -0.0036455150070421891 0 -0.02499952542263351 -0.002825295125432115 0 -0.02507975284436317 -0.0036455150070421891 0 -0.024999519776536951 -0.0043044558438125541 0 -0.02512259570711442 -0.0031925018946226554 0 -0.02507975284436317 -0.0036455150070421891 0 -0.024989170504484497 -0.0035027072914732972 0 -0.02512259570711442 -0.0031925018946226554 0 -0.025006086335811462 -0.0032382090784458754 0 -0.024989170504484497 -0.0035027072914732972 0 -0.02507975284436317 -0.0036455150070421891 0 -0.024989170504484497 -0.0035027072914732972 0 -0.024950188559508944 -0.003883425350631632 0 -0.02507975284436317 -0.0036455150070421891 0 -0.024950188559508944 -0.003883425350631632 0 -0.024999519776536951 -0.0043044558438125541 0 -0.024999519776536951 -0.0043044558438125541 0 -0.02518670806990226 -0.0050421054950318739 0 -0.024999334816207495 -0.0057841781274638598 0 -0.024950188559508944 -0.003883425350631632 0 -0.02518670806990226 -0.0050421054950318739 0 -0.026140481033788323 -0.0056817308340115389 0 -0.024950188559508944 -0.003883425350631632 0 -0.024999519776536951 -0.0043044558438125541 0 -0.02518670806990226 -0.0050421054950318739 0 -0.025462289726785912 -0.0065307309815468353 0 -0.02518670806990226 -0.0050421054950318739 0 -0.026140481033788323 -0.0056817308340115389 0 -0.025462289726785912 -0.0065307309815468353 0 -0.02518670806990226 -0.0050421054950318739 0 -0.024999334816207495 -0.0057841781274638598 0 -0.023981717422737404 -0.0034951900337693428 0 -0.023862977844447478 -0.0039732257677572713 0 -0.023836660685358096 -0.0032284945883467304 0 -0.024950188559508944 -0.003883425350631632 0 -0.023981717422737404 -0.0034951900337693428 0 -0.02322033848609243 -0.0041422993699597238 0 -0.023981717422737404 -0.0034951900337693428 0 -0.02322033848609243 -0.0041422993699597238 0 -0.023862977844447478 -0.0039732257677572713 0 -0.02489958868749358 -0.0040932906481703311 0 -0.024700305337341362 -0.0050087860255478038 0 -0.023913253658468765 -0.0051528468649545906 0 -0.02322033848609243 -0.0041422993699597238 0 -0.023862977844447478 -0.0039732257677572713 0 -0.023913253658468765 -0.0051528468649545906 0 -0.024600774602532682 -0.0051486344800081687 0 -0.024148726246816146 -0.0039662891184802226 0 -0.023913253658468765 -0.0051528468649545906 0 -0.023862977844447478 -0.0039732257677572713 0 -0.024148726246816146 -0.0039662891184802226 0 -0.023862977844447478 -0.0039732257677572713 0 -0.024148726246816146 -0.0039662891184802226 0 -0.023836660685358096 -0.0032284945883467304 0 -0.024148726246816146 -0.0039662891184802226 0 -0.023836660685358096 -0.0032284945883467304 0 -0.023757627813639937 -0.0028294587815534153 0 -0.024148726246816146 -0.0039662891184802226 0 -0.023757627813639937 -0.0028294587815534153 0 -0.024381615771033933 -0.0033407799917477316 0 -0.023757627813639937 -0.0028294587815534153 0 -0.024381615771033933 -0.0033407799917477316 0 -0.023623629075536137 -0.0020760471330741404 0 -0.024600774602532682 -0.0051486344800081687 0 -0.024148726246816146 -0.0039662891184802226 0 -0.025026381777348596 -0.0045108057052269529 0 -0.024148726246816146 -0.0039662891184802226 0 -0.024381615771033933 -0.0033407799917477316 0 -0.025026381777348596 -0.0045108057052269529 0 -0.026634551376431961 -0.0051630739322435296 0 -0.025026381777348596 -0.0045108057052269529 0 -0.025678556729974811 -0.0039645342848910964 0 -0.024381615771033933 -0.0033407799917477316 0 -0.025026381777348596 -0.0045108057052269529 0 -0.025678556729974811 -0.0039645342848910964 0 -0.026634551376431961 -0.0051630739322435296 0 -0.027072227397716211 -0.0037278966741336279 0 -0.026389897166835246 -0.0036825191368378921 0 -0.015826722552334409 -0.005641882073512231 0 -0.015484596906203765 -0.0057007366254665055 0 -0.015627888368759269 -0.0061139407705892296 0 -0.026634551376431961 -0.0051630739322435296 0 -0.025678556729974811 -0.0039645342848910964 0 -0.026389897166835246 -0.0036825191368378921 0 -0.026634551376431961 -0.0051630739322435296 0 -0.027178467275870897 -0.0035969951684897568 0 -0.027072227397716211 -0.0037278966741336279 0 -0.021576321926671225 -0.0055309915040403284 0 -0.017706253242652195 -0.0036393600439592537 0 -0.027103512005179884 -0.0035318127296083399 0 -0.027072227397716211 -0.0037278966741336279 0 -0.026389897166835246 -0.0036825191368378921 0 -0.027178467275870897 -0.0035969951684897568 0 -0.027071639459573287 -0.0035395261178246713 0 -0.027072227397716211 -0.0037278966741336279 0 -0.02008547126901369 -0.0031233112763442272 0 -0.020529084480730195 -0.003126166527041088 0 -0.025678556729974811 -0.0039645342848910964 0 -0.026389897166835246 -0.0036825191368378921 0 -0.025870282751850618 -0.0028391582545147127 0 -0.027103512005179884 -0.0035318127296083399 0 -0.026389897166835246 -0.0036825191368378921 0 -0.025870282751850618 -0.0028391582545147127 0 -0.02008547126901369 -0.0031233112763442272 0 -0.024358298975256751 -0.0022366164370856436 0 -0.021029586670948619 -0.00058594420909720811 0 -0.021980429972424036 -0.0010129263731208707 0 -0.021407460658601028 -0.0013847743635747804 0 -0.024381615771033933 -0.0033407799917477316 0 -0.025678556729974811 -0.0039645342848910964 0 -0.025870282751850618 -0.0028391582545147127 0 -0.024381615771033933 -0.0033407799917477316 0 -0.025870282751850618 -0.0028391582545147127 0 -0.023623629075536137 -0.0020760471330741404 0 -0.021980429972424036 -0.0010129263731208707 0 -0.023623629075536137 -0.0020760471330741404 0 -0.02166895458767595 -0.00208858565669843 0 -0.023623629075536137 -0.0020760471330741404 0 -0.02166895458767595 -0.00208858565669843 0 -0.022509582602846287 -0.0023247215340725397 0 -0.024358298975256751 -0.0022366164370856436 0 -0.023554754623955287 -0.0019333258837181454 0 -0.021980429972424036 -0.0010129263731208707 0 -0.02166895458767595 -0.00208858565669843 0 -0.021407460658601028 -0.0013847743635747804 0 -0.020936240017309128 -0.0018071612990482053 0 -0.021029586670948619 -0.00058594420909720811 0 -0.021407460658601028 -0.0013847743635747804 0 -0.020936240017309128 -0.0018071612990482053 0 -0.02166895458767595 -0.00208858565669843 0 -0.021407460658601028 -0.0013847743635747804 0 -0.020936240017309128 -0.0018071612990482053 0 -0.02051008177046109 -0.0021591354336421582 0 -0.02166895458767595 -0.00208858565669843 0 -0.02051008177046109 -0.0021591354336421582 0 -0.021270478541314974 -0.0022645409487798674 0 -0.02166895458767595 -0.00208858565669843 0 -0.021270478541314974 -0.0022645409487798674 0 -0.02166895458767595 -0.00208858565669843 0 -0.022509582602846287 -0.0023247215340725397 0 -0.021270478541314974 -0.0022645409487798674 0 -0.022064110067037103 -0.0024319426325373722 0 -0.022509582602846287 -0.0023247215340725397 0 -0.022064110067037103 -0.0024319426325373722 0 -0.022509582602846287 -0.0023247215340725397 0 -0.022827940741615267 -0.0025191257668112049 0 -0.022509582602846287 -0.0023247215340725397 0 -0.022827940741615267 -0.0025191257668112049 0 -0.023351453040651449 -0.0024260067775544853 0 -0.022827940741615267 -0.0025191257668112049 0 -0.023335450655474231 -0.0025927756683901682 0 -0.023351453040651449 -0.0024260067775544853 0 -0.022827940741615267 -0.0025191257668112049 0 -0.023264916464477415 -0.0027009911847844801 0 -0.023335450655474231 -0.0025927756683901682 0 -0.022990854755363263 -0.0027348505563337508 0 -0.022827940741615267 -0.0025191257668112049 0 -0.023264916464477415 -0.0027009911847844801 0 -0.023729099928019175 -0.0029712477316277833 0 -0.02383168702711231 -0.0029098820657676985 0 -0.023493876122567724 -0.0028170080348983426 0 -0.023376350315646284 -0.0028769970514017935 0 -0.023729099928019175 -0.0029712477316277833 0 -0.023493876122567724 -0.0028170080348983426 0 -0.023376350315646284 -0.0028769970514017935 0 -0.023264916464477415 -0.0027009911847844801 0 -0.023493876122567724 -0.0028170080348983426 0 -0.023264916464477415 -0.0027009911847844801 0 -0.023493876122567724 -0.0028170080348983426 0 -0.023541134863144367 -0.002750654048626385 0 -0.02383168702711231 -0.0029098820657676985 0 -0.023541134863144367 -0.002750654048626385 0 -0.023643588063737106 -0.0027798575330873158 0 -0.02383168702711231 -0.0029098820657676985 0 -0.023493876122567724 -0.0028170080348983426 0 -0.023541134863144367 -0.002750654048626385 0 -0.023541134863144367 -0.002750654048626385 0 -0.023335450655474231 -0.0025927756683901682 0 -0.023643588063737106 -0.0027798575330873158 0 -0.023264916464477415 -0.0027009911847844801 0 -0.023541134863144367 -0.002750654048626385 0 -0.023335450655474231 -0.0025927756683901682 0 -0.023757627813639937 -0.0028294587815534153 0 -0.023643588063737106 -0.0027798575330873158 0 -0.023351453040651449 -0.0024260067775544853 0 -0.023335450655474231 -0.0025927756683901682 0 -0.023643588063737106 -0.0027798575330873158 0 -0.023351453040651449 -0.0024260067775544853 0 -0.023836660685358096 -0.0032284945883467304 0 -0.023757627813639937 -0.0028294587815534153 0 -0.023643588063737106 -0.0027798575330873158 0 -0.023623629075536137 -0.0020760471330741404 0 -0.022509582602846287 -0.0023247215340725397 0 -0.023351453040651449 -0.0024260067775544853 0 -0.023757627813639937 -0.0028294587815534153 0 -0.023623629075536137 -0.0020760471330741404 0 -0.023351453040651449 -0.0024260067775544853 0 -0.0077429405735698576 -0.0015320379037944214 0 -0.0079722991562610045 -0.0015024441033606808 0 -0.0077437839786220573 -0.001098427566962525 0 -0.0075433871407389321 -0.0012738600249990418 0 -0.0077429405735698576 -0.0015320379037944214 0 -0.0077437839786220573 -0.001098427566962525 0 -0.0075433871407389321 -0.0012738600249990418 0 -0.0077437839786220573 -0.001098427566962525 0 -0.0074666152150725798 -0.000836005040252358 0 -0.0075433871407389321 -0.0012738600249990418 0 -0.0075771343533536893 -0.0015102697629672871 0 -0.0077429405735698576 -0.0015320379037944214 0 -0.0075771343533536893 -0.0015102697629672871 0 -0.0077429405735698576 -0.0015320379037944214 0 -0.0076198719093153811 -0.0017032012475301705 0 -0.0077429405735698576 -0.0015320379037944214 0 -0.0079010829153455843 -0.0016211090920889687 0 -0.0079722991562610045 -0.0015024441033606808 0 -0.0077429405735698576 -0.0015320379037944214 0 -0.0079010829153455843 -0.0016211090920889687 0 -0.0078317589859005655 -0.0017188660331383344 0 -0.0079722991562610045 -0.0015024441033606808 0 -0.0082830987844855104 -0.0018062022424395613 0 -0.0080059895821999998 -0.0017643910791480806 0 -0.0079722991562610045 -0.0015024441033606808 0 -0.0081296950727519669 -0.0011033491849362709 0 -0.0077437839786220573 -0.001098427566962525 0 -0.0079722991562610045 -0.0015024441033606808 0 -0.0082830987844855104 -0.0018062022424395613 0 -0.0081296950727519669 -0.0011033491849362709 0 -0.0079010829153455843 -0.0016211090920889687 0 -0.0079722991562610045 -0.0015024441033606808 0 -0.0080059895821999998 -0.0017643910791480806 0 -0.0081296950727519669 -0.0011033491849362709 0 -0.0077437839786220573 -0.001098427566962525 0 -0.0077874263023746948 -0.00053150254531136312 0 -0.0077437839786220573 -0.001098427566962525 0 -0.0074666152150725798 -0.000836005040252358 0 -0.0077874263023746948 -0.00053150254531136312 0 -0.0074666152150725798 -0.000836005040252358 0 -0.0070106407141239356 -0.00094738424046276689 0 -0.0073735653144168019 2.8147171279562843e-05 0 -0.0070106407141239356 -0.00094738424046276689 0 -0.0068148675009736754 -0.00014239352070392089 0 -0.0065078800809782152 -0.0011004800082363782 0 -0.0070106407141239356 -0.00094738424046276689 0 -0.0067422436675499018 -0.0015682557014927638 0 -0.0065078800809782152 -0.0011004800082363782 0 -0.0070106407141239356 -0.00094738424046276689 0 -0.0070972579885239398 -0.0014436669352712213 0 -0.0067422436675499018 -0.0015682557014927638 0 -0.0074666152150725798 -0.000836005040252358 0 -0.0070106407141239356 -0.00094738424046276689 0 -0.007302174374491651 -0.0012571283128309423 0 -0.0075433871407389321 -0.0012738600249990418 0 -0.0074666152150725798 -0.000836005040252358 0 -0.007302174374491651 -0.0012571283128309423 0 -0.0070106407141239356 -0.00094738424046276689 0 -0.0070972579885239398 -0.0014436669352712213 0 -0.007302174374491651 -0.0012571283128309423 0 -0.0070972579885239398 -0.0014436669352712213 0 -0.007302174374491651 -0.0012571283128309423 0 -0.0072821952624392587 -0.0014988515655468113 0 -0.0075433871407389321 -0.0012738600249990418 0 -0.007302174374491651 -0.0012571283128309423 0 -0.0074176901247998417 -0.0014872878442637237 0 -0.007302174374491651 -0.0012571283128309423 0 -0.0072821952624392587 -0.0014988515655468113 0 -0.0074176901247998417 -0.0014872878442637237 0 -0.0075433871407389321 -0.0012738600249990418 0 -0.0075771343533536893 -0.0015102697629672871 0 -0.0074176901247998417 -0.0014872878442637237 0 -0.0075771343533536893 -0.0015102697629672871 0 -0.0074176901247998417 -0.0014872878442637237 0 -0.0074791352669260226 -0.0016303324937740242 0 -0.0074791352669260226 -0.0016303324937740242 0 -0.0074196593974761088 -0.0017705776038264688 0 -0.0076198719093153811 -0.0017032012475301705 0 -0.008228273885180817 -0.0020844748683891516 0 -0.008223793159452257 -0.0020928419994628864 0 -0.0083374253037292127 -0.0020989857868320585 0 -0.0086535585535728304 -0.0023860715145475647 0 -0.0086242949922813138 -0.0023417331092249901 0 -0.008570160804397384 -0.0022691712036399382 0 -0.0071318024855365541 -0.0018479529345070795 0 -0.0074196593974761088 -0.0017705776038264688 0 -0.0077739633794888961 -0.0018921394100274401 0 -0.0083951075564678394 -0.0022657774443486417 0 -0.0084701943112189121 -0.0021668918506023167 0 -0.0074176901247998417 -0.0014872878442637237 0 -0.0074791352669260226 -0.0016303324937740242 0 -0.0073660960229038706 -0.0016192624262224089 0 -0.0074962953133133276 -0.002020822002681423 0 -0.0081138460507976917 -0.0019840306507467372 0 -0.0085980004749310109 -0.002301642935524731 0 -0.0086242949922813138 -0.0023417331092249901 0 -0.008570160804397384 -0.0022691712036399382 0 -0.0074791352669260226 -0.0016303324937740242 0 -0.0073660960229038706 -0.0016192624262224089 0 -0.0074196593974761088 -0.0017705776038264688 0 -0.0073660960229038706 -0.0016192624262224089 0 -0.0072273514834811665 -0.0016762276399327682 0 -0.0074196593974761088 -0.0017705776038264688 0 -0.0072821952624392587 -0.0014988515655468113 0 -0.0074176901247998417 -0.0014872878442637237 0 -0.0073660960229038706 -0.0016192624262224089 0 -0.0072821952624392587 -0.0014988515655468113 0 -0.0073660960229038706 -0.0016192624262224089 0 -0.0072273514834811665 -0.0016762276399327682 0 -0.0070972579885239398 -0.0014436669352712213 0 -0.0072821952624392587 -0.0014988515655468113 0 -0.0072273514834811665 -0.0016762276399327682 0 -0.0070972579885239398 -0.0014436669352712213 0 -0.0072273514834811665 -0.0016762276399327682 0 -0.0070517311920799382 -0.0016353241152626164 0 -0.0072273514834811665 -0.0016762276399327682 0 -0.0071318024855365541 -0.0018479529345070795 0 -0.0074196593974761088 -0.0017705776038264688 0 -0.0072273514834811665 -0.0016762276399327682 0 -0.0071318024855365541 -0.0018479529345070795 0 -0.0070517311920799382 -0.0016353241152626164 0 -0.0074962953133133276 -0.002020822002681423 0 -0.0081080815112228293 -0.0016209908026661949 0 -0.008228273885180817 -0.0020844748683891516 0 -0.008223793159452257 -0.0020928419994628864 0 -0.0081659102019320182 -0.0020825580762340286 0 -0.0071318024855365541 -0.0018479529345070795 0 -0.0067422436675499018 -0.0015682557014927638 0 -0.0064026213381109991 -0.0019152593617205919 0 -0.0071318024855365541 -0.0018479529345070795 0 -0.0067422436675499018 -0.0015682557014927638 0 -0.0070517311920799382 -0.0016353241152626164 0 -0.0070972579885239398 -0.0014436669352712213 0 -0.0067422436675499018 -0.0015682557014927638 0 -0.0070517311920799382 -0.0016353241152626164 0 -0.0086535585535728304 -0.0023860715145475647 0 -0.0086748638612262445 -0.0024098833936990268 0 -0.0086821926398238363 -0.0024188809311087339 0 -0.0086535585535728304 -0.0023860715145475647 0 -0.0086695768803944518 -0.0024023924872970644 0 -0.0086748638612262445 -0.0024098833936990268 0 -0.0083951075564678394 -0.0022657774443486417 0 -0.0086350901486299415 -0.0019971859758161925 0 -0.0086779977255081672 -0.0024148054245562967 0 -0.0086695768803944518 -0.0024023924872970644 0 -0.0086748638612262445 -0.0024098833936990268 0 -0.0086779977255081672 -0.0024148054245562967 0 -0.0086695768803944518 -0.0024023924872970644 0 -0.0086789805993950364 -0.0024167450515982349 0 -0.0086695768803944518 -0.0024023924872970644 0 -0.0086615355254989011 -0.002391905608880431 0 -0.0086650680439560347 -0.0023967048986975564 0 -0.0086535585535728304 -0.0023860715145475647 0 -0.0086695768803944518 -0.0024023924872970644 0 -0.0086615355254989011 -0.002391905608880431 0 -0.0086538691971434264 -0.0023806186183705177 0 -0.0086535052434085265 -0.00238232304060665 0 -0.0086650680439560347 -0.0023967048986975564 0 -0.0086615355254989011 -0.002391905608880431 0 -0.0086538691971434264 -0.0023806186183705177 0 -0.0086650680439560347 -0.0023967048986975564 0 -0.0086535585535728304 -0.0023860715145475647 0 -0.0086538691971434264 -0.0023806186183705177 0 -0.0086427455061869468 -0.002367617801029565 0 -0.0086535585535728304 -0.0023860715145475647 0 -0.0086615355254989011 -0.002391905608880431 0 -0.0086538691971434264 -0.0023806186183705177 0 -0.0086538691971434264 -0.0023806186183705177 0 -0.0086535052434085265 -0.00238232304060665 0 -0.0086448164379847228 -0.002368750993244483 0 -0.0086535052434085265 -0.00238232304060665 0 -0.0086502314763598522 -0.0023869129256672236 0 -0.0086694281686578202 -0.0024095303708839429 0 -0.0086535052434085265 -0.00238232304060665 0 -0.0086694281686578202 -0.0024095303708839429 0 -0.0086650680439560347 -0.0023967048986975564 0 -0.0086694281686578202 -0.0024095303708839429 0 -0.0086789805993950364 -0.0024167450515982349 0 -0.0086945045168752653 -0.0024426272954565982 0 -0.0086695768803944518 -0.0024023924872970644 0 -0.0086650680439560347 -0.0023967048986975564 0 -0.0086789805993950364 -0.0024167450515982349 0 -0.0086694281686578202 -0.0024095303708839429 0 -0.0086650680439560347 -0.0023967048986975564 0 -0.0086789805993950364 -0.0024167450515982349 0 -0.008615655288725493 -0.0023263009840626711 0 -0.0086261673338313208 -0.002342818286536953 0 -0.0086205458726203478 -0.0023362814716081587 0 -0.008615655288725493 -0.0023263009840626711 0 -0.0086038272463261015 -0.0023074626590782405 0 -0.0086142601423605074 -0.0023252361694804319 0 -0.008615655288725493 -0.0023263009840626711 0 -0.0086229007566451486 -0.002337924664463063 0 -0.0086261673338313208 -0.002342818286536953 0 -0.008615655288725493 -0.0023263009840626711 0 -0.0086142601423605074 -0.0023252361694804319 0 -0.0086229007566451486 -0.002337924664463063 0 -0.0086038272463261015 -0.0023074626590782405 0 -0.0086077227361927022 -0.0023144117991455637 0 -0.0085939145978468894 -0.0022909598514129006 0 -0.008615655288725493 -0.0023263009840626711 0 -0.0086038272463261015 -0.0023074626590782405 0 -0.0086077227361927022 -0.0023144117991455637 0 -0.0086038272463261015 -0.0023074626590782405 0 -0.0085939145978468894 -0.0022909598514129006 0 -0.0085917314557695055 -0.0022879248531270714 0 -0.0086038272463261015 -0.0023074626590782405 0 -0.0085980004749310109 -0.002301642935524731 0 -0.0086142601423605074 -0.0023252361694804319 0 -0.0086038272463261015 -0.0023074626590782405 0 -0.0085980004749310109 -0.002301642935524731 0 -0.0085917314557695055 -0.0022879248531270714 0 -0.0085980004749310109 -0.002301642935524731 0 -0.0086142601423605074 -0.0023252361694804319 0 -0.0086242949922813138 -0.0023417331092249901 0 -0.0086142601423605074 -0.0023252361694804319 0 -0.0086242949922813138 -0.0023417331092249901 0 -0.0086229007566451486 -0.002337924664463063 0 -0.0086535585535728304 -0.0023860715145475647 0 -0.0086242949922813138 -0.0023417331092249901 0 -0.0086427455061869468 -0.002367617801029565 0 -0.0086242949922813138 -0.0023417331092249901 0 -0.0086346568258635799 -0.0023551973502994581 0 -0.0086427455061869468 -0.002367617801029565 0 -0.0086242949922813138 -0.0023417331092249901 0 -0.0086346568258635799 -0.0023551973502994581 0 -0.0086229007566451486 -0.002337924664463063 0 -0.0086538691971434264 -0.0023806186183705177 0 -0.0086427455061869468 -0.002367617801029565 0 -0.0086448164379847228 -0.002368750993244483 0 -0.0086346568258635799 -0.0023551973502994581 0 -0.0086448164379847228 -0.002368750993244483 0 -0.0086359242816400304 -0.0023574548431030498 0 -0.0086346568258635799 -0.0023551973502994581 0 -0.0086427455061869468 -0.002367617801029565 0 -0.0086448164379847228 -0.002368750993244483 0 -0.0086346568258635799 -0.0023551973502994581 0 -0.0086261673338313208 -0.002342818286536953 0 -0.0086359242816400304 -0.0023574548431030498 0 -0.0086346568258635799 -0.0023551973502994581 0 -0.0086229007566451486 -0.002337924664463063 0 -0.0086261673338313208 -0.002342818286536953 0 -0.0086261673338313208 -0.002342818286536953 0 -0.0086359242816400304 -0.0023574548431030498 0 -0.0086205458726203478 -0.0023362814716081587 0 -0.0086359242816400304 -0.0023574548431030498 0 -0.0086325798415131001 -0.0023609792716939785 0 -0.0086205458726203478 -0.0023362814716081587 0 -0.0086535052434085265 -0.00238232304060665 0 -0.0086502314763598522 -0.0023869129256672236 0 -0.0086359242816400304 -0.0023574548431030498 0 -0.0086535052434085265 -0.00238232304060665 0 -0.0086448164379847228 -0.002368750993244483 0 -0.0086359242816400304 -0.0023574548431030498 0 -0.0086502314763598522 -0.0023869129256672236 0 -0.0086359242816400304 -0.0023574548431030498 0 -0.0086325798415131001 -0.0023609792716939785 0 -0.0086325798415131001 -0.0023609792716939785 0 -0.0086205458726203478 -0.0023362814716081587 0 -0.008617230406339103 -0.0023464747671420737 0 -0.0086205458726203478 -0.0023362814716081587 0 -0.0086050887359390166 -0.0023153198196884119 0 -0.008617230406339103 -0.0023464747671420737 0 -0.0086205458726203478 -0.0023362814716081587 0 -0.0086077227361927022 -0.0023144117991455637 0 -0.0086050887359390166 -0.0023153198196884119 0 -0.008615655288725493 -0.0023263009840626711 0 -0.0086205458726203478 -0.0023362814716081587 0 -0.0086077227361927022 -0.0023144117991455637 0 -0.0086050887359390166 -0.0023153198196884119 0 -0.0085880951742490861 -0.0022875488899664967 0 -0.0085939145978468894 -0.0022909598514129006 0 -0.0086077227361927022 -0.0023144117991455637 0 -0.0086050887359390166 -0.0023153198196884119 0 -0.0085939145978468894 -0.0022909598514129006 0 -0.0086050887359390166 -0.0023153198196884119 0 -0.0085880951742490861 -0.0022875488899664967 0 -0.0085999173420812803 -0.0023198789615016023 0 -0.0085880951742490861 -0.0022875488899664967 0 -0.008568145625772813 -0.0022505315375325997 0 -0.0085777191810814824 -0.0022641710553401441 0 -0.0085777191810814824 -0.0022641710553401441 0 -0.0085592159037321796 -0.0022301940075149557 0 -0.0085777774887581953 -0.0022631388140496168 0 -0.008568145625772813 -0.0022505315375325997 0 -0.0085777191810814824 -0.0022641710553401441 0 -0.0085592159037321796 -0.0022301940075149557 0 -0.0085880951742490861 -0.0022875488899664967 0 -0.0085777191810814824 -0.0022641710553401441 0 -0.0085939145978468894 -0.0022909598514129006 0 -0.0085777191810814824 -0.0022641710553401441 0 -0.0085939145978468894 -0.0022909598514129006 0 -0.0085777774887581953 -0.0022631388140496168 0 -0.008568145625772813 -0.0022505315375325997 0 -0.0085467830930387387 -0.0022049604495859437 0 -0.0085501209339102179 -0.0022111015613547323 0 -0.008568145625772813 -0.0022505315375325997 0 -0.0085467830930387387 -0.0022049604495859437 0 -0.0085592159037321796 -0.0022301940075149557 0 -0.0085467830930387387 -0.0022049604495859437 0 -0.0085592159037321796 -0.0022301940075149557 0 -0.0085407396211555839 -0.002199051360843229 0 -0.0085467830930387387 -0.0022049604495859437 0 -0.0085407396211555839 -0.002199051360843229 0 -0.0085297629619121122 -0.0021744728247101862 0 -0.0085407396211555839 -0.002199051360843229 0 -0.0085545257736297457 -0.0022252983986366273 0 -0.0085337008529273936 -0.0021984599687479237 0 -0.0085407396211555839 -0.002199051360843229 0 -0.0085337008529273936 -0.0021984599687479237 0 -0.0085203550110661257 -0.0021693815227113015 0 -0.0085592159037321796 -0.0022301940075149557 0 -0.0085407396211555839 -0.002199051360843229 0 -0.0085545257736297457 -0.0022252983986366273 0 -0.0085592159037321796 -0.0022301940075149557 0 -0.0085545257736297457 -0.0022252983986366273 0 -0.0085777774887581953 -0.0022631388140496168 0 -0.0085545257736297457 -0.0022252983986366273 0 -0.0085538997521922341 -0.0022316146745314644 0 -0.0085337008529273936 -0.0021984599687479237 0 -0.0085545257736297457 -0.0022252983986366273 0 -0.0085538997521922341 -0.0022316146745314644 0 -0.0085683028140655614 -0.0022503268066896721 0 -0.0085538997521922341 -0.0022316146745314644 0 -0.0085683028140655614 -0.0022503268066896721 0 -0.0085720265034189454 -0.0022606037220245863 0 -0.0085337008529273936 -0.0021984599687479237 0 -0.0085328707055122178 -0.0022054996221345462 0 -0.0085118374969479649 -0.0021685785266780367 0 -0.0085538997521922341 -0.0022316146745314644 0 -0.0085337008529273936 -0.0021984599687479237 0 -0.0085328707055122178 -0.0022054996221345462 0 -0.0085939145978468894 -0.0022909598514129006 0 -0.0085917314557695055 -0.0022879248531270714 0 -0.0085777774887581953 -0.0022631388140496168 0 -0.0085917314557695055 -0.0022879248531270714 0 -0.0085777774887581953 -0.0022631388140496168 0 -0.0085811906033236574 -0.0022718109775996666 0 -0.0085545257736297457 -0.0022252983986366273 0 -0.0085777774887581953 -0.0022631388140496168 0 -0.0085683028140655614 -0.0022503268066896721 0 -0.0085777774887581953 -0.0022631388140496168 0 -0.0085811906033236574 -0.0022718109775996666 0 -0.0085683028140655614 -0.0022503268066896721 0 -0.0085811906033236574 -0.0022718109775996666 0 -0.0085683028140655614 -0.0022503268066896721 0 -0.0085720265034189454 -0.0022606037220245863 0 -0.0085811906033236574 -0.0022718109775996666 0 -0.0085720265034189454 -0.0022606037220245863 0 -0.0085831856558276787 -0.0022798457943060658 0 -0.0085811906033236574 -0.0022718109775996666 0 -0.0085831856558276787 -0.0022798457943060658 0 -0.0085887769409074 -0.0022852331713523822 0 -0.0085980004749310109 -0.002301642935524731 0 -0.0085831856558276787 -0.0022798457943060658 0 -0.0085887769409074 -0.0022852331713523822 0 -0.0085917314557695055 -0.0022879248531270714 0 -0.0085811906033236574 -0.0022718109775996666 0 -0.0085887769409074 -0.0022852331713523822 0 -0.0085980004749310109 -0.002301642935524731 0 -0.0085917314557695055 -0.0022879248531270714 0 -0.0085887769409074 -0.0022852331713523822 0 -0.0074196593974761088 -0.0017705776038264688 0 -0.0077739633794888961 -0.0018921394100274401 0 -0.0076198719093153811 -0.0017032012475301705 0 -0.0085980004749310109 -0.002301642935524731 0 -0.0085831856558276787 -0.0022798457943060658 0 -0.008570160804397384 -0.0022691712036399382 0 -0.008228273885180817 -0.0020844748683891516 0 -0.0083374253037292127 -0.0020989857868320585 0 -0.0083453172774800889 -0.0020906620561884533 0 -0.0085720265034189454 -0.0022606037220245863 0 -0.0085831856558276787 -0.0022798457943060658 0 -0.008570160804397384 -0.0022691712036399382 0 -0.008570160804397384 -0.0022691712036399382 0 -0.0085328707055122178 -0.0022054996221345462 0 -0.0084962873136367641 -0.0021599302080930424 0 -0.0085538997521922341 -0.0022316146745314644 0 -0.0085720265034189454 -0.0022606037220245863 0 -0.008570160804397384 -0.0022691712036399382 0 -0.0085538997521922341 -0.0022316146745314644 0 -0.008570160804397384 -0.0022691712036399382 0 -0.0085328707055122178 -0.0022054996221345462 0 -0.0077739633794888961 -0.0018921394100274401 0 -0.0077366557339446813 -0.0017433288031500722 0 -0.0078317589859005655 -0.0017188660331383344 0 -0.0077739633794888961 -0.0018921394100274401 0 -0.0078317589859005655 -0.0017188660331383344 0 -0.0080059895821999998 -0.0017643910791480806 0 -0.0077429405735698576 -0.0015320379037944214 0 -0.0077366557339446813 -0.0017433288031500722 0 -0.0078317589859005655 -0.0017188660331383344 0 -0.0077429405735698576 -0.0015320379037944214 0 -0.0077366557339446813 -0.0017433288031500722 0 -0.0076198719093153811 -0.0017032012475301705 0 -0.0075771343533536893 -0.0015102697629672871 0 -0.0074791352669260226 -0.0016303324937740242 0 -0.0076198719093153811 -0.0017032012475301705 0 -0.0077739633794888961 -0.0018921394100274401 0 -0.0077366557339446813 -0.0017433288031500722 0 -0.0076198719093153811 -0.0017032012475301705 0 -0.0084701943112189121 -0.0021668918506023167 0 -0.0084116393270136352 -0.002070077682080789 0 -0.0077739633794888961 -0.0018921394100274401 0 -0.0081636664972014397 -0.0019176819836152267 0 -0.0084017826517590877 -0.0020226389076320058 0 -0.0083374253037292127 -0.0020989857868320585 0 -0.0083453172774800889 -0.0020906620561884533 0 -0.0083992258319848297 -0.0020383305124261658 0 -0.0081138460507976917 -0.0019840306507467372 0 -0.0083767184734953922 -0.0020140703711124717 0 -0.0083453172774800889 -0.0020906620561884533 0 -0.0084017826517590877 -0.0020226389076320058 0 -0.0083992258319848297 -0.0020383305124261658 0 -0.0077739633794888961 -0.0018921394100274401 0 -0.0081636664972014397 -0.0019176819836152267 0 -0.0081433526297171408 -0.0018562928726212713 0 -0.008570160804397384 -0.0022691712036399382 0 -0.0084962873136367641 -0.0021599302080930424 0 -0.0083992258319848297 -0.0020383305124261658 0 -0.0082830987844855104 -0.0018062022424395613 0 -0.0081433526297171408 -0.0018562928726212713 0 -0.0080059895821999998 -0.0017643910791480806 0 -0.0081636664972014397 -0.0019176819836152267 0 -0.0081433526297171408 -0.0018562928726212713 0 -0.0083215436203898496 -0.001916598648519087 0 -0.0082830987844855104 -0.0018062022424395613 0 -0.0081433526297171408 -0.0018562928726212713 0 -0.0083215436203898496 -0.001916598648519087 0 -0.0077739633794888961 -0.0018921394100274401 0 -0.0081433526297171408 -0.0018562928726212713 0 -0.0080059895821999998 -0.0017643910791480806 0 -0.0079010829153455843 -0.0016211090920889687 0 -0.0078317589859005655 -0.0017188660331383344 0 -0.0080059895821999998 -0.0017643910791480806 0 -0.0084962873136367641 -0.0021599302080930424 0 -0.0084542430610473097 -0.0020911764850224043 0 -0.0084886687505091735 -0.0021321442165376605 0 -0.0085328707055122178 -0.0022054996221345462 0 -0.0084962873136367641 -0.0021599302080930424 0 -0.0085118374969479649 -0.0021685785266780367 0 -0.0084962873136367641 -0.0021599302080930424 0 -0.0084542430610473097 -0.0020911764850224043 0 -0.0083992258319848297 -0.0020383305124261658 0 -0.0084542430610473097 -0.0020911764850224043 0 -0.0083992258319848297 -0.0020383305124261658 0 -0.0084295949166896325 -0.0020517456212254554 0 -0.0084542430610473097 -0.0020911764850224043 0 -0.0084605124448877012 -0.0020556548277904712 0 -0.0084295949166896325 -0.0020517456212254554 0 -0.0084542430610473097 -0.0020911764850224043 0 -0.0084822267147251478 -0.0021029977331929023 0 -0.0084605124448877012 -0.0020556548277904712 0 -0.0084542430610473097 -0.0020911764850224043 0 -0.0084822267147251478 -0.0021029977331929023 0 -0.0084886687505091735 -0.0021321442165376605 0 -0.0084822267147251478 -0.0021029977331929023 0 -0.0085055578511652394 -0.0021032826373518967 0 -0.0084605124448877012 -0.0020556548277904712 0 -0.0085337008529273936 -0.0021984599687479237 0 -0.0085118374969479649 -0.0021685785266780367 0 -0.0085203550110661257 -0.0021693815227113015 0 -0.0085118374969479649 -0.0021685785266780367 0 -0.0085005446012935779 -0.0021394587243699428 0 -0.0085203550110661257 -0.0021693815227113015 0 -0.0085118374969479649 -0.0021685785266780367 0 -0.0084886687505091735 -0.0021321442165376605 0 -0.0085005446012935779 -0.0021394587243699428 0 -0.0084962873136367641 -0.0021599302080930424 0 -0.0085118374969479649 -0.0021685785266780367 0 -0.0084886687505091735 -0.0021321442165376605 0 -0.0084822267147251478 -0.0021029977331929023 0 -0.0084886687505091735 -0.0021321442165376605 0 -0.0085005446012935779 -0.0021394587243699428 0 -0.0085005446012935779 -0.0021394587243699428 0 -0.0085203550110661257 -0.0021693815227113015 0 -0.0085127363050514337 -0.0021411564528486088 0 -0.0084822267147251478 -0.0021029977331929023 0 -0.0085005446012935779 -0.0021394587243699428 0 -0.0085127363050514337 -0.0021411564528486088 0 -0.0085407396211555839 -0.002199051360843229 0 -0.0085203550110661257 -0.0021693815227113015 0 -0.0085297629619121122 -0.0021744728247101862 0 -0.0085203550110661257 -0.0021693815227113015 0 -0.0085297629619121122 -0.0021744728247101862 0 -0.0085127363050514337 -0.0021411564528486088 0 -0.0085311739756483672 -0.0021631217471748173 0 -0.0085055578511652394 -0.0021032826373518967 0 -0.0085370865137189278 -0.0021522981292970045 0 -0.0085297629619121122 -0.0021744728247101862 0 -0.0085127363050514337 -0.0021411564528486088 0 -0.0085311739756483672 -0.0021631217471748173 0 -0.0085127363050514337 -0.0021411564528486088 0 -0.0085311739756483672 -0.0021631217471748173 0 -0.0085055578511652394 -0.0021032826373518967 0 -0.0085467830930387387 -0.0022049604495859437 0 -0.0085311739756483672 -0.0021631217471748173 0 -0.0085501209339102179 -0.0022111015613547323 0 -0.0085467830930387387 -0.0022049604495859437 0 -0.0085297629619121122 -0.0021744728247101862 0 -0.0085311739756483672 -0.0021631217471748173 0 -0.0085055578511652394 -0.0021032826373518967 0 -0.0084873865948466368 -0.0020517764578192564 0 -0.0084605124448877012 -0.0020556548277904712 0 -0.0084822267147251478 -0.0021029977331929023 0 -0.0085127363050514337 -0.0021411564528486088 0 -0.0085055578511652394 -0.0021032826373518967 0 -0.0085055578511652394 -0.0021032826373518967 0 -0.0084873865948466368 -0.0020517764578192564 0 -0.0085241871890335118 -0.0020627918651989199 0 -0.0084873865948466368 -0.0020517764578192564 0 -0.0084692120279668721 -0.0020028872581058657 0 -0.0085241871890335118 -0.0020627918651989199 0 -0.0084873865948466368 -0.0020517764578192564 0 -0.0084457045561079757 -0.0020191449696117256 0 -0.0084692120279668721 -0.0020028872581058657 0 -0.0084873865948466368 -0.0020517764578192564 0 -0.0084605124448877012 -0.0020556548277904712 0 -0.0084457045561079757 -0.0020191449696117256 0 -0.0084457045561079757 -0.0020191449696117256 0 -0.0083956668209933579 -0.0019800637196570052 0 -0.0084227445066081229 -0.002023567179198479 0 -0.0084605124448877012 -0.0020556548277904712 0 -0.0084295949166896325 -0.0020517456212254554 0 -0.0084227445066081229 -0.002023567179198479 0 -0.0084605124448877012 -0.0020556548277904712 0 -0.0084457045561079757 -0.0020191449696117256 0 -0.0084227445066081229 -0.002023567179198479 0 -0.0084457045561079757 -0.0020191449696117256 0 -0.0083956668209933579 -0.0019800637196570052 0 -0.0084692120279668721 -0.0020028872581058657 0 -0.0083956668209933579 -0.0019800637196570052 0 -0.0084692120279668721 -0.0020028872581058657 0 -0.0083892884178263325 -0.0019630610653745616 0 -0.0084692120279668721 -0.0020028872581058657 0 -0.0083892884178263325 -0.0019630610653745616 0 -0.0085364184015898886 -0.0019579922864643969 0 -0.0083892884178263325 -0.0019630610653745616 0 -0.0083523214135002993 -0.0019467041101186751 0 -0.0085364184015898886 -0.0019579922864643969 0 -0.0083523214135002993 -0.0019467041101186751 0 -0.0081896718886659194 -0.0019104993636801118 0 -0.008038543655339566 -0.0019805876359160544 0 -0.0083956668209933579 -0.0019800637196570052 0 -0.0083892884178263325 -0.0019630610653745616 0 -0.0081896718886659194 -0.0019104993636801118 0 -0.0083892884178263325 -0.0019630610653745616 0 -0.0083523214135002993 -0.0019467041101186751 0 -0.0081896718886659194 -0.0019104993636801118 0 -0.0081896718886659194 -0.0019104993636801118 0 -0.0082551186933950468 -0.0019662466982967616 0 -0.0071549515696170459 -0.0023214240996765078 0 -0.0081896718886659194 -0.0019104993636801118 0 -0.0082551186933950468 -0.0019662466982967616 0 -0.0083906964378088027 -0.0019889852537836351 0 -0.0082551186933950468 -0.0019662466982967616 0 -0.0084110577849436114 -0.0019689056587032469 0 -0.0083906964378088027 -0.0019889852537836351 0 -0.0084110577849436114 -0.0019689056587032469 0 -0.0084017826517590877 -0.0020226389076320058 0 -0.0083906964378088027 -0.0019889852537836351 0 -0.0081636664972014397 -0.0019176819836152267 0 -0.0083215436203898496 -0.001916598648519087 0 -0.0084017826517590877 -0.0020226389076320058 0 -0.0082830987844855104 -0.0018062022424395613 0 -0.0084110577849436114 -0.0019689056587032469 0 -0.0083215436203898496 -0.001916598648519087 0 -0.0084110577849436114 -0.0019689056587032469 0 -0.0083215436203898496 -0.001916598648519087 0 -0.0084017826517590877 -0.0020226389076320058 0 -0.0084017826517590877 -0.0020226389076320058 0 -0.0084115307127974118 -0.0020261013035388609 0 -0.0083906964378088027 -0.0019889852537836351 0 -0.0084017826517590877 -0.0020226389076320058 0 -0.0083992258319848297 -0.0020383305124261658 0 -0.0084115307127974118 -0.0020261013035388609 0 -0.0084295949166896325 -0.0020517456212254554 0 -0.0084227445066081229 -0.002023567179198479 0 -0.0084115307127974118 -0.0020261013035388609 0 -0.0083992258319848297 -0.0020383305124261658 0 -0.0084295949166896325 -0.0020517456212254554 0 -0.0084115307127974118 -0.0020261013035388609 0 -0.0084227445066081229 -0.002023567179198479 0 -0.0084115307127974118 -0.0020261013035388609 0 -0.0083906964378088027 -0.0019889852537836351 0 -0.0083956668209933579 -0.0019800637196570052 0 -0.0084227445066081229 -0.002023567179198479 0 -0.0083906964378088027 -0.0019889852537836351 0 -0.0083956668209933579 -0.0019800637196570052 0 -0.0081896718886659194 -0.0019104993636801118 0 -0.0083906964378088027 -0.0019889852537836351 0 -0.0022466217220955919 0.00040366466390688441 0 -0.0032874146057811785 0.0046925612563774345 0 -0.00074474482981123783 0.0022724187163218148 0 -0.0066321371691901972 -0.00062593350769069207 0 -0.0054425638010209719 0.0020337001124655714 0 -0.0051351018103823693 0.001131226563404929 0 -0.0022466217220955919 0.00040366466390688441 0 -0.0032874146057811785 0.0046925612563774345 0 -0.008038543655339566 -0.0019805876359160544 0 -0.0080161348305700254 -0.001788374114946578 0 -0.0082819515790311399 -0.0018823465158352135 0 -0.0083523214135002993 -0.0019467041101186751 0 -0.008038543655339566 -0.0019805876359160544 0 -0.0082819515790311399 -0.0018823465158352135 0 -0.0051351018103823693 0.001131226563404929 0 -0.0037526163447899118 -0.0016172877255141121 0 -0.0071549515696170459 -0.0023214240996765078 0 -0.0081896718886659194 -0.0019104993636801118 0 -0.008038543655339566 -0.0019805876359160544 0 -0.0071549515696170459 -0.0023214240996765078 0 -0.0066321371691901972 -0.00062593350769069207 0 -0.0071668134449423678 -0.0022162969754659619 0 -0.0022466217220955919 0.00040366466390688441 0 -0.0037526163447899118 -0.0016172877255141121 0 -0.00051014487365849107 -0.0019796811852299456 0 -0.0051351018103823693 0.001131226563404929 0 -0.0022466217220955919 0.00040366466390688441 0 -0.0037526163447899118 -0.0016172877255141121 0 -0.0037526163447899118 -0.0016172877255141121 0 -0.002337271590204827 -0.0034491052896369299 0 -0.0047626106405074106 -0.0041094048503412433 0 -0.0037526163447899118 -0.0016172877255141121 0 -0.0071549515696170459 -0.0023214240996765078 0 -0.0047626106405074106 -0.0041094048503412433 0 -0.0071549515696170459 -0.0023214240996765078 0 -0.0047626106405074106 -0.0041094048503412433 0 -0.0068027014898937484 -0.003907438075516587 0 -0.0047626106405074106 -0.0041094048503412433 0 -0.0068027014898937484 -0.003907438075516587 0 -0.005473349794023084 -0.0056156710072062565 0 -0.002337271590204827 -0.0034491052896369299 0 -0.0047626106405074106 -0.0041094048503412433 0 -0.0021878230044533394 -0.0062592055650730659 0 -0.0046044027396325718 -0.0042728119233603765 0 -0.003061521198751061 -0.0056179318256385832 0 -0.0082830987844855104 -0.0018062022424395613 0 -0.0081296950727519669 -0.0011033491849362709 0 -0.0085801676004697621 -0.0020208135562840811 0 -0.0082830987844855104 -0.0018062022424395613 0 -0.0084110577849436114 -0.0019689056587032469 0 -0.0085801676004697621 -0.0020208135562840811 0 -0.0082551186933950468 -0.0019662466982967616 0 -0.0084110577849436114 -0.0019689056587032469 0 -0.0085801676004697621 -0.0020208135562840811 0 -0.0071549515696170459 -0.0023214240996765078 0 -0.0085801676004697621 -0.0020208135562840811 0 -0.0068027014898937484 -0.003907438075516587 0 -0.0082551186933950468 -0.0019662466982967616 0 -0.0071549515696170459 -0.0023214240996765078 0 -0.0085801676004697621 -0.0020208135562840811 0 -0.0085801676004697621 -0.0020208135562840811 0 -0.0068027014898937484 -0.003907438075516587 0 -0.0077047112664744601 -0.0051611549362787293 0 -0.0085792422025220607 -0.0020778674762364203 0 -0.0082626513412854836 -0.0027250831789809964 0 -0.0081296950727519669 -0.0011033491849362709 0 -0.0085801676004697621 -0.0020208135562840811 0 -0.0089396274477493883 -0.00041214963750834245 0 -0.0081296950727519669 -0.0011033491849362709 0 -0.0089396274477493883 -0.00041214963750834245 0 -0.0082251621358505646 4.2536166172753991e-05 0 -0.0089396274477493883 -0.00041214963750834245 0 -0.0082251621358505646 4.2536166172753991e-05 0 -0.0090003529006804171 0.00065658698264639472 0 -0.0082626513412854836 -0.0027250831789809964 0 -0.008172209324638826 -0.0035954075810478506 0 -0.0077047112664744601 -0.0051611549362787293 0 -0.005473349794023084 -0.0056156710072062565 0 -0.0066864371297084583 -0.0074203779357945553 0 -0.0082251621358505646 4.2536166172753991e-05 0 -0.0080204779210633435 0.00084161432893280967 0 -0.0090003529006804171 0.00065658698264639472 0 -0.005473349794023084 -0.0056156710072062565 0 -0.0039915856238465636 -0.0060288907808118148 0 -0.0039006573458316394 -0.0049392996605907395 0 -0.0047626106405074106 -0.0041094048503412433 0 -0.005473349794023084 -0.0056156710072062565 0 -0.0039006573458316394 -0.0049392996605907395 0 -0.0068027014898937484 -0.003907438075516587 0 -0.0077047112664744601 -0.0051611549362787293 0 -0.005473349794023084 -0.0056156710072062565 0 -0.005473349794023084 -0.0056156710072062565 0 -0.005086232363301307 -0.0070086975643223514 0 -0.0066864371297084583 -0.0074203779357945553 0 -0.005473349794023084 -0.0056156710072062565 0 -0.005086232363301307 -0.0070086975643223514 0 -0.0039915856238465636 -0.0060288907808118148 0 -0.005086232363301307 -0.0070086975643223514 0 -0.0039915856238465636 -0.0060288907808118148 0 -0.0039321268237349667 -0.0070495622594168002 0 -0.005086232363301307 -0.0070086975643223514 0 -0.0050564909181858046 -0.0082266193690781961 0 -0.0039321268237349667 -0.0070495622594168002 0 -0.0011929196678634112 -0.0018419901739861388 0 -0.00094074521040465821 -0.0020135881697001343 0 -0.0008828905354445613 -0.0015058683391597544 0 -0.0031159938423459149 -0.0054015126767838605 0 -0.0024878991143368477 -0.0041121117471349111 0 -0.005086232363301307 -0.0070086975643223514 0 -0.0050564909181858046 -0.0082266193690781961 0 -0.0066864371297084583 -0.0074203779357945553 0 -0.0031159938423459149 -0.0054015126767838605 0 -0.005421808665552157 -0.0025154466620676656 0 -0.0050564909181858046 -0.0082266193690781961 0 -0.0066864371297084583 -0.0074203779357945553 0 -0.0060232709506793779 -0.0092760112818589188 0 -0.0011929196678634112 -0.0018419901739861388 0 -0.0011997255633170775 -0.0021292058577811615 0 -0.0014815814641733992 -0.0021546179194142047 0 -0.008172209324638826 -0.0035954075810478506 0 -0.005421808665552157 -0.0025154466620676656 0 -0.0011929196678634112 -0.0018419901739861388 0 -0.0011997255633170775 -0.0021292058577811615 0 -0.00094074521040465821 -0.0020135881697001343 0 -0.0080204779210633435 0.00084161432893280967 0 -0.0090003529006804171 0.00065658698264639472 0 -0.0086096824223426162 0.0013886202677901203 0 -0.0090003529006804171 0.00065658698264639472 0 -0.0086096824223426162 0.0013886202677901203 0 -0.0092596731142596204 0.001863726217551986 0 -0.0086096824223426162 0.0013886202677901203 0 -0.0092596731142596204 0.001863726217551986 0 -0.0088200713146179693 0.0019693659301866775 0 -0.0086096824223426162 0.0013886202677901203 0 -0.008498422285267461 0.0018503788375830844 0 -0.0088200713146179693 0.0019693659301866775 0 -0.0086096824223426162 0.0013886202677901203 0 -0.008498422285267461 0.0018503788375830844 0 -0.0076199659107856303 0.0018583067059202427 0 -0.0080204779210633435 0.00084161432893280967 0 -0.0086096824223426162 0.0013886202677901203 0 -0.0076199659107856303 0.0018583067059202427 0 -0.0076199659107856303 0.0018583067059202427 0 -0.0075927521930021858 0.0013373686626578364 0 -0.007315921764180661 0.0018313656078377649 0 -0.0080204779210633435 0.00084161432893280967 0 -0.0076199659107856303 0.0018583067059202427 0 -0.0075927521930021858 0.0013373686626578364 0 -0.0075927521930021858 0.0013373686626578364 0 -0.0074378821453595072 0.0012831113989854846 0 -0.007315921764180661 0.0018313656078377649 0 -0.0074378821453595072 0.0012831113989854846 0 -0.0076609551706936594 0.00057943009971839362 0 -0.0074626944668292408 0.00078812684417460413 0 -0.0075927521930021858 0.0013373686626578364 0 -0.0074378821453595072 0.0012831113989854846 0 -0.0076609551706936594 0.00057943009971839362 0 -0.0080204779210633435 0.00084161432893280967 0 -0.0075927521930021858 0.0013373686626578364 0 -0.0076609551706936594 0.00057943009971839362 0 -0.0082251621358505646 4.2536166172753991e-05 0 -0.0080204779210633435 0.00084161432893280967 0 -0.0076609551706936594 0.00057943009971839362 0 -0.0076609551706936594 0.00057943009971839362 0 -0.0077874263023746948 -0.00053150254531136312 0 -0.0073735653144168019 2.8147171279562843e-05 0 -0.0074666152150725798 -0.000836005040252358 0 -0.0077874263023746948 -0.00053150254531136312 0 -0.0073735653144168019 2.8147171279562843e-05 0 -0.0082251621358505646 4.2536166172753991e-05 0 -0.0076609551706936594 0.00057943009971839362 0 -0.0077874263023746948 -0.00053150254531136312 0 -0.0081296950727519669 -0.0011033491849362709 0 -0.0082251621358505646 4.2536166172753991e-05 0 -0.0077874263023746948 -0.00053150254531136312 0 -0.0070106407141239356 -0.00094738424046276689 0 -0.0073735653144168019 2.8147171279562843e-05 0 -0.0068148675009736754 -0.00014239352070392089 0 -0.0076609551706936594 0.00057943009971839362 0 -0.0073735653144168019 2.8147171279562843e-05 0 -0.0074626944668292408 0.00078812684417460413 0 -0.0073735653144168019 2.8147171279562843e-05 0 -0.0075926089474437691 0.00074630077632760895 0 -0.0074626944668292408 0.00078812684417460413 0 -0.0076071871332197118 0.00061829273553972212 0 -0.0076774044632948639 -2.6856617971633716e-05 0 -0.0073735653144168019 2.8147171279562843e-05 0 -0.0075926089474437691 0.00074630077632760895 0 -0.0068148675009736754 -0.00014239352070392089 0 -0.0075926089474437691 0.00074630077632760895 0 -0.0074626944668292408 0.00078812684417460413 0 -0.0074703568316557617 0.0011709360567724839 0 -0.0075926089474437691 0.00074630077632760895 0 -0.0074703568316557617 0.0011709360567724839 0 -0.0075814646256529492 0.0012837000572916634 0 -0.0074378821453595072 0.0012831113989854846 0 -0.0074626944668292408 0.00078812684417460413 0 -0.0074703568316557617 0.0011709360567724839 0 -0.0074378821453595072 0.0012831113989854846 0 -0.0074703568316557617 0.0011709360567724839 0 -0.0073543472165095315 0.0015881097080193017 0 -0.0078031240331683386 0.0010158975410190355 0 -0.0077231522398626216 0.0014124307783426142 0 -0.0075814646256529492 0.0012837000572916634 0 -0.0075926089474437691 0.00074630077632760895 0 -0.0078031240331683386 0.0010158975410190355 0 -0.0075814646256529492 0.0012837000572916634 0 -0.0075926089474437691 0.00074630077632760895 0 -0.0078031240331683386 0.0010158975410190355 0 -0.0080887410148041579 0.00060731030280283154 0 -0.0078031240331683386 0.0010158975410190355 0 -0.0078519007606861913 0.00098029337298208155 0 -0.0080887410148041579 0.00060731030280283154 0 -0.0078031240331683386 0.0010158975410190355 0 -0.0078519007606861913 0.00098029337298208155 0 -0.0077231522398626216 0.0014124307783426142 0 -0.0078519007606861913 0.00098029337298208155 0 -0.0077931005151225894 0.0013513145681323963 0 -0.0077231522398626216 0.0014124307783426142 0 -0.0078519007606861913 0.00098029337298208155 0 -0.0078442544008795242 0.0015166431223452566 0 -0.0077931005151225894 0.0013513145681323963 0 -0.0078908532758548595 0.00098974047298884126 0 -0.0079629258332972602 0.0010440900709176104 0 -0.0078519007606861913 0.00098029337298208155 0 -0.0080207486418005045 0.00048067286105650856 0 -0.0079467366331491384 0.00054937382416232457 0 -0.0078519007606861913 0.00098029337298208155 0 -0.0080207486418005045 0.00048067286105650856 0 -0.0080887410148041579 0.00060731030280283154 0 -0.0080207486418005045 0.00048067286105650856 0 -0.0082410472890434884 0.00015188348918340752 0 -0.0080887410148041579 0.00060731030280283154 0 -0.0080207486418005045 0.00048067286105650856 0 -0.008085257405083578 0.00016245645384450379 0 -0.0082410472890434884 0.00015188348918340752 0 -0.0080207486418005045 0.00048067286105650856 0 -0.008085257405083578 0.00016245645384450379 0 -0.0079467366331491384 0.00054937382416232457 0 -0.008085257405083578 0.00016245645384450379 0 -0.0082410472890434884 0.00015188348918340752 0 -0.0083902840950981147 -0.00031785366926758942 0 -0.008085257405083578 0.00016245645384450379 0 -0.0082022132115679332 -0.00036385679082195124 0 -0.0083902840950981147 -0.00031785366926758942 0 -0.0082410472890434884 0.00015188348918340752 0 -0.0085668363191803553 -0.00021408920392059679 0 -0.0083902840950981147 -0.00031785366926758942 0 -0.0082410472890434884 0.00015188348918340752 0 -0.0080887410148041579 0.00060731030280283154 0 -0.0085668363191803553 -0.00021408920392059679 0 -0.0085488295633353618 0.00019515699620361408 0 -0.0080887410148041579 0.00060731030280283154 0 -0.0085668363191803553 -0.00021408920392059679 0 -0.0075926089474437691 0.00074630077632760895 0 -0.0085488295633353618 0.00019515699620361408 0 -0.0080887410148041579 0.00060731030280283154 0 -0.0090931766028313227 0.0023228865562690895 0 -0.0091728409677875912 0.0021476177780865454 0 -0.0087891282242178823 0.0019239414954480909 0 -0.0097156293246953886 0.0022607305872782567 0 -0.0090599639397453829 0.0026504002044997347 0 -0.0091728409677875912 0.0021476177780865454 0 -0.0088053919629085212 0.0011253038554562775 0 -0.0088837741208397797 0.0022590201387659862 0 -0.0095443594949880528 0.0018165612416685994 0 -0.0091728409677875912 0.0021476177780865454 0 -0.0090657762291476204 0.0016903010690493827 0 -0.0091728409677875912 0.0021476177780865454 0 -0.0087891282242178823 0.0019239414954480909 0 -0.0090657762291476204 0.0016903010690493827 0 -0.0087891282242178823 0.0019239414954480909 0 -0.0083667456757805844 0.0019796390231812773 0 -0.0082771852743373162 0.0014480657801122531 0 -0.0087891282242178823 0.0019239414954480909 0 -0.0090657762291476204 0.0016903010690493827 0 -0.0082771852743373162 0.0014480657801122531 0 -0.0073006232690136629 0.00046755553256258017 0 -0.007705862919266838 0.00047006628907505761 0 -0.0075443016988289537 0.00030872733525780732 0 -0.0088053919629085212 0.0011253038554562775 0 -0.0079219859390941335 0.0012509046927531794 0 -0.0090931766028313227 0.0023228865562690895 0 -0.0087891282242178823 0.0019239414954480909 0 -0.0083667456757805844 0.0019796390231812773 0 -0.0079219859390941335 0.0012509046927531794 0 -0.0079629258332972602 0.0010440900709176104 0 -0.007705862919266838 0.00047006628907505761 0 -0.00786633842200621 0.00030119446641103519 0 -0.0075443016988289537 0.00030872733525780732 0 -0.007705862919266838 0.00047006628907505761 0 -0.0079467366331491384 0.00054937382416232457 0 -0.00786633842200621 0.00030119446641103519 0 -0.0083667456757805844 0.0019796390231812773 0 -0.0078442544008795242 0.0015166431223452566 0 -0.0082771852743373162 0.0014480657801122531 0 -0.0078442544008795242 0.0015166431223452566 0 -0.0077931005151225894 0.0013513145681323963 0 -0.0082771852743373162 0.0014480657801122531 0 -0.008085257405083578 0.00016245645384450379 0 -0.0078111971690900438 -2.1523970266891436e-05 0 -0.00786633842200621 0.00030119446641103519 0 -0.008085257405083578 0.00016245645384450379 0 -0.0079467366331491384 0.00054937382416232457 0 -0.00786633842200621 0.00030119446641103519 0 -0.008085257405083578 0.00016245645384450379 0 -0.0078111971690900438 -2.1523970266891436e-05 0 -0.0082022132115679332 -0.00036385679082195124 0 -0.0078111971690900438 -2.1523970266891436e-05 0 -0.00786633842200621 0.00030119446641103519 0 -0.0075443016988289537 0.00030872733525780732 0 -0.0078111971690900438 -2.1523970266891436e-05 0 -0.0075443016988289537 0.00030872733525780732 0 -0.007345865071232238 7.6576069349834896e-05 0 -0.0078111971690900438 -2.1523970266891436e-05 0 -0.007345865071232238 7.6576069349834896e-05 0 -0.0074309597654605899 -0.00042062840647537293 0 -0.0096436940905414662 9.6577851251082543e-05 0 -0.0095920411292875398 -6.4410745287661055e-05 0 -0.0096783297033795936 -6.3095351876358161e-05 0 -0.008492723914630497 -8.2833269124704765e-05 0 -0.0085204292210292465 -0.00012235977953711267 0 -0.009568657420797988 0.00015831222750944338 0 -0.0096113934047106792 0.00022932821183807757 0 -0.0096436940905414662 9.6577851251082543e-05 0 -0.0088053919629085212 0.0011253038554562775 0 -0.008492723914630497 -8.2833269124704765e-05 0 -0.0073006232690136629 0.00046755553256258017 0 -0.0075443016988289537 0.00030872733525780732 0 -0.007345865071232238 7.6576069349834896e-05 0 -0.0097436568263795115 -0.0013783741764816439 0 -0.010100992763901872 -0.00092805383318586478 0 -0.0098435406373831719 -0.0015074909299099333 0 -0.0099678861726598816 -0.00044881708394729113 0 -0.0089553704271171149 -0.0011069861560379333 0 -0.0095920411292875398 -6.4410745287661055e-05 0 -0.0096783297033795936 -6.3095351876358161e-05 0 -0.0097030016915407684 -0.00025319730483174647 0 -0.010308806745533833 -0.00062469732521236226 0 -0.0097436568263795115 -0.0013783741764816439 0 -0.010100992763901872 -0.00092805383318586478 0 -0.0074309597654605899 -0.00042062840647537293 0 -0.0076432604324436623 -0.0011167539235451408 0 -0.0079322601765955455 -0.00051081932536394697 0 -0.0078111971690900438 -2.1523970266891436e-05 0 -0.0074309597654605899 -0.00042062840647537293 0 -0.0079322601765955455 -0.00051081932536394697 0 -0.0085204292210292465 -0.00012235977953711267 0 -0.0089553704271171149 -0.0011069861560379333 0 -0.0076432604324436623 -0.0011167539235451408 0 -0.0082333181851016336 -0.0010121244607994965 0 -0.0079322601765955455 -0.00051081932536394697 0 -0.0082333181851016336 -0.0010121244607994965 0 -0.0079322601765955455 -0.00051081932536394697 0 -0.0083300831927960953 -0.00080617565204812232 0 -0.0076432604324436623 -0.0011167539235451408 0 -0.0082333181851016336 -0.0010121244607994965 0 -0.0084382921263824254 -0.0014424917717034461 0 -0.0082333181851016336 -0.0010121244607994965 0 -0.0085785615134704608 -0.0012784398335488043 0 -0.0084382921263824254 -0.0014424917717034461 0 -0.0079322601765955455 -0.00051081932536394697 0 -0.0082022132115679332 -0.00036385679082195124 0 -0.0083300831927960953 -0.00080617565204812232 0 -0.0078111971690900438 -2.1523970266891436e-05 0 -0.0079322601765955455 -0.00051081932536394697 0 -0.0082022132115679332 -0.00036385679082195124 0 -0.0082022132115679332 -0.00036385679082195124 0 -0.0083300831927960953 -0.00080617565204812232 0 -0.0085024759963374247 -0.00079588045017697545 0 -0.0083300831927960953 -0.00080617565204812232 0 -0.0085785615134704608 -0.0012784398335488043 0 -0.0085024759963374247 -0.00079588045017697545 0 -0.0082333181851016336 -0.0010121244607994965 0 -0.0083300831927960953 -0.00080617565204812232 0 -0.0085785615134704608 -0.0012784398335488043 0 -0.0085785615134704608 -0.0012784398335488043 0 -0.0087170742335537354 -0.0017152469764721567 0 -0.0088557972534867128 -0.0017919679987023942 0 -0.0085785615134704608 -0.0012784398335488043 0 -0.0087170742335537354 -0.0017152469764721567 0 -0.0084382921263824254 -0.0014424917717034461 0 -0.0088557972534867128 -0.0017919679987023942 0 -0.0089640372486727692 -0.0021132242197811789 0 -0.009107609760356055 -0.002265070751479538 0 -0.0087170742335537354 -0.0017152469764721567 0 -0.0088557972534867128 -0.0017919679987023942 0 -0.0089640372486727692 -0.0021132242197811789 0 -0.0087170742335537354 -0.0017152469764721567 0 -0.0087004933309342558 -0.0018744052511925964 0 -0.0089640372486727692 -0.0021132242197811789 0 -0.0087004933309342558 -0.0018744052511925964 0 -0.0089640372486727692 -0.0021132242197811789 0 -0.0088907140986281448 -0.0021220572097884103 0 -0.0089640372486727692 -0.0021132242197811789 0 -0.0088907140986281448 -0.0021220572097884103 0 -0.0091776859314118605 -0.0023569084073264985 0 -0.0088907140986281448 -0.0021220572097884103 0 -0.0094375772599099086 -0.0024512507280499102 0 -0.0091776859314118605 -0.0023569084073264985 0 -0.0087004933309342558 -0.0018744052511925964 0 -0.0088907140986281448 -0.0021220572097884103 0 -0.0083968167324233577 -0.0017398048702601124 0 -0.0087004933309342558 -0.0018744052511925964 0 -0.0083968167324233577 -0.0017398048702601124 0 -0.0084382921263824254 -0.0014424917717034461 0 -0.0087170742335537354 -0.0017152469764721567 0 -0.0087004933309342558 -0.0018744052511925964 0 -0.0084382921263824254 -0.0014424917717034461 0 -0.0089553704271171149 -0.0011069861560379333 0 -0.0090907563989447958 -0.0019749297717263914 0 -0.0083125065300864477 -0.001620752753774543 0 -0.0083968167324233577 -0.0017398048702601124 0 -0.0083667224399083303 -0.0018461586852008612 0 -0.0076432604324436623 -0.0011167539235451408 0 -0.0083968167324233577 -0.0017398048702601124 0 -0.0084382921263824254 -0.0014424917717034461 0 -0.0098435406373831719 -0.0015074909299099333 0 -0.0096566286264658831 -0.0020004540237868189 0 -0.0094329757036455183 -0.0021070447441487567 0 -0.0089553704271171149 -0.0011069861560379333 0 -0.0081929347355926153 -0.0016256503184908166 0 -0.0090907563989447958 -0.0019749297717263914 0 -0.0093109539861977314 -0.0022910223525882149 0 -0.0088907140986281448 -0.0021220572097884103 0 -0.0083968167324233577 -0.0017398048702601124 0 -0.0083667224399083303 -0.0018461586852008612 0 -0.0088907140986281448 -0.0021220572097884103 0 -0.0083667224399083303 -0.0018461586852008612 0 -0.0094375772599099086 -0.0024512507280499102 0 -0.0096566286264658831 -0.0020004540237868189 0 -0.0094329757036455183 -0.0021070447441487567 0 -0.0094375772599099086 -0.0024512507280499102 0 -0.010371590774639597 -0.002238064311102011 0 -0.010210560868611392 -0.0023767747130379302 0 -0.010274727453319284 -0.0019760202150588993 0 -0.010117617467392056 -0.0022570339508030893 0 -0.010210560868611392 -0.0023767747130379302 0 -0.010114191200462551 -0.0025155570012523748 0 -0.010164235671556077 -0.0018970445146768173 0 -0.010117617467392056 -0.0022570339508030893 0 -0.010274727453319284 -0.0019760202150588993 0 -0.010117617467392056 -0.0022570339508030893 0 -0.010210560868611392 -0.0023767747130379302 0 -0.010274727453319284 -0.0019760202150588993 0 -0.010281354706452335 -0.0016640157801271853 0 -0.010504136636498325 -0.0013196430007219961 0 -0.010274727453319284 -0.0019760202150588993 0 -0.010132569938144046 -0.0013643579035068189 0 -0.0099043746829118352 -0.0021515489737719139 0 -0.010504136636498325 -0.0013196430007219961 0 -0.010371590774639597 -0.002238064311102011 0 -0.010274727453319284 -0.0019760202150588993 0 -0.0097436568263795115 -0.0013783741764816439 0 -0.0098435406373831719 -0.0015074909299099333 0 -0.0094329757036455183 -0.0021070447441487567 0 -0.0086678681767601365 -0.00077250455485177968 0 -0.0088728195875984375 -0.0012074948219242959 0 -0.0089561472004747716 -0.0009715927349823924 0 -0.0085668363191803553 -0.00021408920392059679 0 -0.0086678681767601365 -0.00077250455485177968 0 -0.0089561472004747716 -0.0009715927349823924 0 -0.0090269628398470334 -0.00062021662544095222 0 -0.0085668363191803553 -0.00021408920392059679 0 -0.0089561472004747716 -0.0009715927349823924 0 -0.0085488295633353618 0.00019515699620361408 0 -0.0090269628398470334 -0.00062021662544095222 0 -0.0085668363191803553 -0.00021408920392059679 0 -0.0076774044632948639 -2.6856617971633716e-05 0 -0.0077152249851960408 -0.00087927965239242487 0 -0.0085668363191803553 -0.00021408920392059679 0 -0.0083902840950981147 -0.00031785366926758942 0 -0.0086678681767601365 -0.00077250455485177968 0 -0.0082022132115679332 -0.00036385679082195124 0 -0.0083902840950981147 -0.00031785366926758942 0 -0.0085024759963374247 -0.00079588045017697545 0 -0.0083902840950981147 -0.00031785366926758942 0 -0.0085024759963374247 -0.00079588045017697545 0 -0.0086678681767601365 -0.00077250455485177968 0 -0.0085024759963374247 -0.00079588045017697545 0 -0.0086678681767601365 -0.00077250455485177968 0 -0.0087666008556690281 -0.001246793158362043 0 -0.0085785615134704608 -0.0012784398335488043 0 -0.0085024759963374247 -0.00079588045017697545 0 -0.0087666008556690281 -0.001246793158362043 0 -0.0089189819357538558 -0.0014560222605373339 0 -0.0087666008556690281 -0.001246793158362043 0 -0.0088728195875984375 -0.0012074948219242959 0 -0.0086678681767601365 -0.00077250455485177968 0 -0.0087666008556690281 -0.001246793158362043 0 -0.0088728195875984375 -0.0012074948219242959 0 -0.0089189819357538558 -0.0014560222605373339 0 -0.0089197959240993659 -0.0013994565065580165 0 -0.0088728195875984375 -0.0012074948219242959 0 -0.0085785615134704608 -0.0012784398335488043 0 -0.0088557972534867128 -0.0017919679987023942 0 -0.0087666008556690281 -0.001246793158362043 0 -0.0088557972534867128 -0.0017919679987023942 0 -0.0087666008556690281 -0.001246793158362043 0 -0.0090284216131696141 -0.0019443809968102471 0 -0.0089189819357538558 -0.0014560222605373339 0 -0.0087666008556690281 -0.001246793158362043 0 -0.0090284216131696141 -0.0019443809968102471 0 -0.0088557972534867128 -0.0017919679987023942 0 -0.0090284216131696141 -0.0019443809968102471 0 -0.009107609760356055 -0.002265070751479538 0 -0.00892905772685397 -0.0019145780715956915 0 -0.0091174775731452419 -0.0017872363636811394 0 -0.0089189819357538558 -0.0014560222605373339 0 -0.0090284216131696141 -0.0019443809968102471 0 -0.0089197959240993659 -0.0013994565065580165 0 -0.0090284216131696141 -0.0019443809968102471 0 -0.0091497119996624444 -0.0021742124903748336 0 -0.0091547501005911809 -0.0023939359354924893 0 -0.0091174775731452419 -0.0017872363636811394 0 -0.0086350901486299415 -0.0019971859758161925 0 -0.0091975003027096273 -0.0022889248668902314 0 -0.0091497119996624444 -0.0021742124903748336 0 -0.0092656284010148721 -0.0022230873098124061 0 -0.0089698671828570085 -0.0013042565061120587 0 -0.0089197959240993659 -0.0013994565065580165 0 -0.0090085624247246924 -0.0012941942022219829 0 -0.0091975003027096273 -0.0022889248668902314 0 -0.0091497119996624444 -0.0021742124903748336 0 -0.0091547501005911809 -0.0023939359354924893 0 -0.0089698671828570085 -0.0013042565061120587 0 -0.0089197959240993659 -0.0013994565065580165 0 -0.0088728195875984375 -0.0012074948219242959 0 -0.0089698671828570085 -0.0013042565061120587 0 -0.0089827569882564833 -0.0011769387261642737 0 -0.0088728195875984375 -0.0012074948219242959 0 -0.0089827569882564833 -0.0011769387261642737 0 -0.0088728195875984375 -0.0012074948219242959 0 -0.0089561472004747716 -0.0009715927349823924 0 -0.0077152249851960408 -0.00087927965239242487 0 -0.0081080815112228293 -0.0016209908026661949 0 -0.0067422436675499018 -0.0015682557014927638 0 -0.0065078800809782152 -0.0011004800082363782 0 -0.0064026213381109991 -0.0019152593617205919 0 -0.0090269628398470334 -0.00062021662544095222 0 -0.0089561472004747716 -0.0009715927349823924 0 -0.0091408481876790616 -0.0013097732781774216 0 -0.0090572674942425851 -0.0014088634159825702 0 -0.0081080815112228293 -0.0016209908026661949 0 -0.0089698671828570085 -0.0013042565061120587 0 -0.0089827569882564833 -0.0011769387261642737 0 -0.0091408481876790616 -0.0013097732781774216 0 -0.0089827569882564833 -0.0011769387261642737 0 -0.0089561472004747716 -0.0009715927349823924 0 -0.0091408481876790616 -0.0013097732781774216 0 -0.0086821926398238363 -0.0024188809311087339 0 -0.0086889127124185998 -0.0024299060162226794 0 -0.0087255909488152851 -0.0024780957537697285 0 -0.0086748638612262445 -0.0024098833936990268 0 -0.0086821926398238363 -0.0024188809311087339 0 -0.0086889127124185998 -0.0024299060162226794 0 -0.008223793159452257 -0.0020928419994628864 0 -0.0081659102019320182 -0.0020825580762340286 0 -0.008165259534407757 -0.002090394190301366 0 -0.0091975003027096273 -0.0022889248668902314 0 -0.0092656284010148721 -0.0022230873098124061 0 -0.0091810301145234773 -0.0023803219258511804 0 -0.0086350901486299415 -0.0019971859758161925 0 -0.0089710758763290373 -0.0024738975583194537 0 -0.0086779977255081672 -0.0024148054245562967 0 -0.0086748638612262445 -0.0024098833936990268 0 -0.0086889127124185998 -0.0024299060162226794 0 -0.0089698671828570085 -0.0013042565061120587 0 -0.0090089543870637851 -0.0012830493845615374 0 -0.0090085624247246924 -0.0012941942022219829 0 -0.0081080815112228293 -0.0016209908026661949 0 -0.0086350901486299415 -0.0019971859758161925 0 -0.0086789805993950364 -0.0024167450515982349 0 -0.0086889127124185998 -0.0024299060162226794 0 -0.0086945045168752653 -0.0024426272954565982 0 -0.0086779977255081672 -0.0024148054245562967 0 -0.0086789805993950364 -0.0024167450515982349 0 -0.0086889127124185998 -0.0024299060162226794 0 -0.0086889127124185998 -0.0024299060162226794 0 -0.0086945045168752653 -0.0024426272954565982 0 -0.0087255909488152851 -0.0024780957537697285 0 -0.0086945045168752653 -0.0024426272954565982 0 -0.0087255909488152851 -0.0024780957537697285 0 -0.0087191687556407802 -0.0025004045956331222 0 -0.0089710758763290373 -0.0024738975583194537 0 -0.0089355209007490003 -0.002481432687147424 0 -0.0087608226476585411 -0.0025347291169154768 0 -0.0089274346096068179 -0.0025408705980800813 0 -0.0087191687556407802 -0.0025004045956331222 0 -0.0087255909488152851 -0.0024780957537697285 0 -0.0089274346096068179 -0.0025408705980800813 0 -0.0087191687556407802 -0.0025004045956331222 0 -0.0089274346096068179 -0.0025408705980800813 0 -0.0091547501005911809 -0.0023939359354924893 0 -0.0091185506441159182 -0.0025367299942028617 0 -0.0091975003027096273 -0.0022889248668902314 0 -0.0091810301145234773 -0.0023803219258511804 0 -0.0091547501005911809 -0.0023939359354924893 0 -0.0091810301145234773 -0.0023803219258511804 0 -0.0089274346096068179 -0.0025408705980800813 0 -0.0091547501005911809 -0.0023939359354924893 0 -0.0091547501005911809 -0.0023939359354924893 0 -0.0091858574768176899 -0.0024423136812230556 0 -0.0091185506441159182 -0.0025367299942028617 0 -0.0090284216131696141 -0.0019443809968102471 0 -0.0091547501005911809 -0.0023939359354924893 0 -0.0091858574768176899 -0.0024423136812230556 0 -0.0090284216131696141 -0.0019443809968102471 0 -0.0091858574768176899 -0.0024423136812230556 0 -0.009107609760356055 -0.002265070751479538 0 -0.0091858574768176899 -0.0024423136812230556 0 -0.009107609760356055 -0.002265070751479538 0 -0.0093600184844028975 -0.0025630496040602662 0 -0.0091858574768176899 -0.0024423136812230556 0 -0.0093914048775983194 -0.0026288028342545109 0 -0.0091185506441159182 -0.0025367299942028617 0 -0.0091858574768176899 -0.0024423136812230556 0 -0.0093914048775983194 -0.0026288028342545109 0 -0.0093600184844028975 -0.0025630496040602662 0 -0.0091185506441159182 -0.0025367299942028617 0 -0.0089619630704432223 -0.0025874095231441241 0 -0.0088821583417206876 -0.0026033994156365019 0 -0.0093914048775983194 -0.0026288028342545109 0 -0.0091185506441159182 -0.0025367299942028617 0 -0.0095234323543912352 -0.0027049493591685915 0 -0.0093914048775983194 -0.0026288028342545109 0 -0.0095234323543912352 -0.0027049493591685915 0 -0.0096972571199094044 -0.0028184262321105796 0 -0.0091111908019921306 -0.0026000087895092731 0 -0.0092197330959109119 -0.0026481304291049931 0 -0.0092197330959109119 -0.0026481304291049931 0 -0.0091067816118939188 -0.002891162714004962 0 -0.0088821583417206876 -0.0026033994156365019 0 -0.0088710076884310467 -0.00266790255020219 0 -0.0088146929091587282 -0.0026978359298099447 0 -0.0089619630704432223 -0.0025874095231441241 0 -0.0088710076884310467 -0.00266790255020219 0 -0.0088876751785089934 -0.0026578134600675459 0 -0.0089619630704432223 -0.0025874095231441241 0 -0.0088821583417206876 -0.0026033994156365019 0 -0.0088710076884310467 -0.00266790255020219 0 -0.0089619630704432223 -0.0025874095231441241 0 -0.0088876751785089934 -0.0026578134600675459 0 -0.0088732095990893753 -0.0026027496775987316 0 -0.0088876751785089934 -0.0026578134600675459 0 -0.0088732095990893753 -0.0026027496775987316 0 -0.0088585541978317313 -0.0026679484493966682 0 -0.0088732095990893753 -0.0026027496775987316 0 -0.0087991396952695113 -0.0026680939157057498 0 -0.0088585541978317313 -0.0026679484493966682 0 -0.0088732095990893753 -0.0026027496775987316 0 -0.0087991396952695113 -0.0026680939157057498 0 -0.0087679867990389081 -0.0025798476027149219 0 -0.0087608226476585411 -0.0025347291169154768 0 -0.0089274346096068179 -0.0025408705980800813 0 -0.0087679867990389081 -0.0025798476027149219 0 -0.0089274346096068179 -0.0025408705980800813 0 -0.0088732095990893753 -0.0026027496775987316 0 -0.0087679867990389081 -0.0025798476027149219 0 -0.0089274346096068179 -0.0025408705980800813 0 -0.0089619630704432223 -0.0025874095231441241 0 -0.0088732095990893753 -0.0026027496775987316 0 -0.0089274346096068179 -0.0025408705980800813 0 -0.0091185506441159182 -0.0025367299942028617 0 -0.0089619630704432223 -0.0025874095231441241 0 -0.010102455277711593 -0.0028958025556085911 0 -0.010053772575246296 -0.0027035311273998258 0 -0.010167083229714245 -0.0029625769608418182 0 -0.010102455277711593 -0.0028958025556085911 0 -0.010053772575246296 -0.0027035311273998258 0 -0.010001769743384905 -0.0026015201621042571 0 -0.0098564040119654556 -0.0028105019089283657 0 -0.010102455277711593 -0.0028958025556085911 0 -0.010001769743384905 -0.0026015201621042571 0 -0.010053772575246296 -0.0027035311273998258 0 -0.010114191200462551 -0.0025155570012523748 0 -0.0097776453898596721 -0.0026662952302032796 0 -0.010210560868611392 -0.0023767747130379302 0 -0.010114191200462551 -0.0025155570012523748 0 -0.0097776453898596721 -0.0026662952302032796 0 -0.010053772575246296 -0.0027035311273998258 0 -0.010001769743384905 -0.0026015201621042571 0 -0.010114191200462551 -0.0025155570012523748 0 -0.010012557924189076 -0.002405786069671045 0 -0.010117617467392056 -0.0022570339508030893 0 -0.010114191200462551 -0.0025155570012523748 0 -0.010012557924189076 -0.002405786069671045 0 -0.010001769743384905 -0.0026015201621042571 0 -0.010114191200462551 -0.0025155570012523748 0 -0.010371590774639597 -0.002238064311102011 0 -0.010210560868611392 -0.0023767747130379302 0 -0.0097776453898596721 -0.0026662952302032796 0 -0.0094329757036455183 -0.0021070447441487567 0 -0.0094375772599099086 -0.0024512507280499102 0 -0.0097776453898596721 -0.0026662952302032796 0 -0.0099043746829118352 -0.0021515489737719139 0 -0.0097944102833663546 -0.0025954886478500327 0 -0.010053772575246296 -0.0027035311273998258 0 -0.0097776453898596721 -0.0026662952302032796 0 -0.010167083229714245 -0.0029625769608418182 0 -0.0097776453898596721 -0.0026662952302032796 0 -0.010167083229714245 -0.0029625769608418182 0 -0.0099901460421462883 -0.0029011416397977789 0 -0.0097776453898596721 -0.0026662952302032796 0 -0.0096979551461256613 -0.0027543417418628697 0 -0.0099901460421462883 -0.0029011416397977789 0 -0.0096979551461256613 -0.0027543417418628697 0 -0.0094421587911230828 -0.0025570234201143598 0 -0.0093600184844028975 -0.0025630496040602662 0 -0.0097776453898596721 -0.0026662952302032796 0 -0.0096979551461256613 -0.0027543417418628697 0 -0.0094421587911230828 -0.0025570234201143598 0 -0.0094375772599099086 -0.0024512507280499102 0 -0.0097776453898596721 -0.0026662952302032796 0 -0.0094421587911230828 -0.0025570234201143598 0 -0.0094375772599099086 -0.0024512507280499102 0 -0.0091776859314118605 -0.0023569084073264985 0 -0.0094421587911230828 -0.0025570234201143598 0 -0.0089640372486727692 -0.0021132242197811789 0 -0.0091776859314118605 -0.0023569084073264985 0 -0.0092262262686051526 -0.0024099538304655577 0 -0.0091776859314118605 -0.0023569084073264985 0 -0.0094421587911230828 -0.0025570234201143598 0 -0.0092262262686051526 -0.0024099538304655577 0 -0.0094421587911230828 -0.0025570234201143598 0 -0.0092262262686051526 -0.0024099538304655577 0 -0.0093600184844028975 -0.0025630496040602662 0 -0.0089640372486727692 -0.0021132242197811789 0 -0.0092262262686051526 -0.0024099538304655577 0 -0.009107609760356055 -0.002265070751479538 0 -0.0092262262686051526 -0.0024099538304655577 0 -0.009107609760356055 -0.002265070751479538 0 -0.0093600184844028975 -0.0025630496040602662 0 -0.0096979551461256613 -0.0027543417418628697 0 -0.0093600184844028975 -0.0025630496040602662 0 -0.0096972571199094044 -0.0028184262321105796 0 -0.0093914048775983194 -0.0026288028342545109 0 -0.0093600184844028975 -0.0025630496040602662 0 -0.0096972571199094044 -0.0028184262321105796 0 -0.0095234323543912352 -0.0027049493591685915 0 -0.0096972571199094044 -0.0028184262321105796 0 -0.0098277947624504942 -0.0028800952385517752 0 -0.0096972571199094044 -0.0028184262321105796 0 -0.0098277947624504942 -0.0028800952385517752 0 -0.010114375398249225 -0.0030440771625009988 0 -0.010114375398249225 -0.0030440771625009988 0 -0.010337349798971909 -0.0032104760309876771 0 -0.010652531838879426 -0.0031402036439856606 0 -0.010114375398249225 -0.0030440771625009988 0 -0.0099441442246286215 -0.0029380501558427894 0 -0.010337349798971909 -0.0032104760309876771 0 -0.0096972571199094044 -0.0028184262321105796 0 -0.010114375398249225 -0.0030440771625009988 0 -0.0099441442246286215 -0.0029380501558427894 0 -0.0096979551461256613 -0.0027543417418628697 0 -0.0096972571199094044 -0.0028184262321105796 0 -0.0099441442246286215 -0.0029380501558427894 0 -0.0096979551461256613 -0.0027543417418628697 0 -0.0099441442246286215 -0.0029380501558427894 0 -0.0099901460421462883 -0.0029011416397977789 0 -0.0099441442246286215 -0.0029380501558427894 0 -0.010337349798971909 -0.0032104760309876771 0 -0.0099901460421462883 -0.0029011416397977789 0 -0.010167083229714245 -0.0029625769608418182 0 -0.010337349798971909 -0.0032104760309876771 0 -0.0099901460421462883 -0.0029011416397977789 0 -0.010337349798971909 -0.0032104760309876771 0 -0.010636591982181556 -0.0033931897713428078 0 -0.010652531838879426 -0.0031402036439856606 0 -0.010337349798971909 -0.0032104760309876771 0 -0.010572682810167371 -0.0036420834170011545 0 -0.010636591982181556 -0.0033931897713428078 0 -0.010839083999780619 -0.0036287372357341418 0 -0.010572682810167371 -0.0036420834170011545 0 -0.010636591982181556 -0.0033931897713428078 0 -0.010439953706723799 -0.0035872548332026954 0 -0.010524383535197971 -0.0036123550295078569 0 -0.0098564040119654556 -0.0028105019089283657 0 -0.010102455277711593 -0.0028958025556085911 0 -0.010572682810167371 -0.0036420834170011545 0 -0.010167083229714245 -0.0029625769608418182 0 -0.010337349798971909 -0.0032104760309876771 0 -0.010572682810167371 -0.0036420834170011545 0 -0.010102455277711593 -0.0028958025556085911 0 -0.010167083229714245 -0.0029625769608418182 0 -0.010572682810167371 -0.0036420834170011545 0 -0.01090446193789393 -0.0038397736749259579 0 -0.010972520121930781 -0.0038805029301876483 0 -0.010867962788789867 -0.0043160287940613622 0 -0.01090446193789393 -0.0038397736749259579 0 -0.010972520121930781 -0.0038805029301876483 0 -0.010835158455949422 -0.0036062529160148424 0 -0.0110153447045145 -0.0036732719882655567 0 -0.010839083999780619 -0.0036287372357341418 0 -0.010835158455949422 -0.0036062529160148424 0 -0.010839083999780619 -0.0036287372357341418 0 -0.010835158455949422 -0.0036062529160148424 0 -0.010636591982181556 -0.0033931897713428078 0 -0.010835158455949422 -0.0036062529160148424 0 -0.010636591982181556 -0.0033931897713428078 0 -0.010894224467870105 -0.0035763280834079105 0 -0.010636591982181556 -0.0033931897713428078 0 -0.010652531838879426 -0.0031402036439856606 0 -0.010894224467870105 -0.0035763280834079105 0 -0.010972520121930781 -0.0038805029301876483 0 -0.010894224467870105 -0.0035763280834079105 0 -0.011320038173886491 -0.0039908403681633503 0 -0.010972520121930781 -0.0038805029301876483 0 -0.010835158455949422 -0.0036062529160148424 0 -0.010894224467870105 -0.0035763280834079105 0 -0.010894224467870105 -0.0035763280834079105 0 -0.011320038173886491 -0.0039908403681633503 0 -0.011427467496671654 -0.0035413311813856812 0 -0.012723859335630356 -0.0030638112987230871 0 -0.013843378160753757 -0.0015745549012672337 0 -0.015422640425468344 -0.0029268929287055516 0 -0.012139292541003452 -0.0034404329074672925 0 -0.01125377474136784 -0.0027755450503677594 0 -0.010652531838879426 -0.0031402036439856606 0 -0.010894224467870105 -0.0035763280834079105 0 -0.011427467496671654 -0.0035413311813856812 0 -0.010638403297147015 -0.0031221241913820027 0 -0.01125377474136784 -0.0027755450503677594 0 -0.010114375398249225 -0.0030440771625009988 0 -0.010652531838879426 -0.0031402036439856606 0 -0.010158636070548363 -0.0026829099355850537 0 -0.0098277947624504942 -0.0028800952385517752 0 -0.010114375398249225 -0.0030440771625009988 0 -0.010158636070548363 -0.0026829099355850537 0 -0.0091067816118939188 -0.002891162714004962 0 -0.01125377474136784 -0.0027755450503677594 0 -0.0088146929091587282 -0.0026978359298099447 0 -0.008816911763284363 -0.0027440756154787421 0 -0.0088255438967144145 -0.0027413037779882698 0 -0.008816911763284363 -0.0027440756154787421 0 -0.0088255438967144145 -0.0027413037779882698 0 -0.0088373648119668587 -0.0027677496587643086 0 -0.01125377474136784 -0.0027755450503677594 0 -0.012182084409904244 -0.0026690304960649064 0 -0.015422640425468344 -0.0029268929287055516 0 -0.014476838819936994 -0.0045583312965702489 0 -0.01695958316256517 -0.0043106673339966522 0 -0.012723859335630356 -0.0030638112987230871 0 -0.015422640425468344 -0.0029268929287055516 0 -0.014476838819936994 -0.0045583312965702489 0 -0.014476838819936994 -0.0045583312965702489 0 -0.015475670392700579 -0.0062997221534887154 0 -0.01695958316256517 -0.0043106673339966522 0 -0.014476838819936994 -0.0045583312965702489 0 -0.015475670392700579 -0.0062997221534887154 0 -0.013213994476470125 -0.0060817276356643695 0 -0.014476838819936994 -0.0045583312965702489 0 -0.013213994476470125 -0.0060817276356643695 0 -0.012986925554620603 -0.0045695731905177825 0 -0.013213994476470125 -0.0060817276356643695 0 -0.012986925554620603 -0.0045695731905177825 0 -0.011507601207297588 -0.004572736565157472 0 -0.012723859335630356 -0.0030638112987230871 0 -0.014476838819936994 -0.0045583312965702489 0 -0.012986925554620603 -0.0045695731905177825 0 -0.010972520121930781 -0.0038805029301876483 0 -0.011320038173886491 -0.0039908403681633503 0 -0.011507601207297588 -0.004572736565157472 0 -0.012139292541003452 -0.0034404329074672925 0 -0.011460884339577289 -0.0045233160843777143 0 -0.012723859335630356 -0.0030638112987230871 0 -0.012986925554620603 -0.0045695731905177825 0 -0.011507601207297588 -0.004572736565157472 0 -0.013213994476470125 -0.0060817276356643695 0 -0.011507601207297588 -0.004572736565157472 0 -0.011395427207159544 -0.0062461128765113798 0 -0.011507601207297588 -0.004572736565157472 0 -0.010837767712821926 -0.0051234549265266448 0 -0.011395427207159544 -0.0062461128765113798 0 -0.010615255343792155 -0.0046466918832051892 0 -0.010837767712821926 -0.0051234549265266448 0 -0.010867962788789867 -0.0043160287940613622 0 -0.010972520121930781 -0.0038805029301876483 0 -0.011507601207297588 -0.004572736565157472 0 -0.010867962788789867 -0.0043160287940613622 0 -0.011507601207297588 -0.004572736565157472 0 -0.010837767712821926 -0.0051234549265266448 0 -0.010867962788789867 -0.0043160287940613622 0 -0.0088675893132553075 -0.0028036907097343049 0 -0.0088546435536419645 -0.0027330832263865266 0 -0.0088451429570029477 -0.0027206022940031607 0 -0.0088675893132553075 -0.0028036907097343049 0 -0.0088451429570029477 -0.0027206022940031607 0 -0.008774782952468127 -0.0027926909641727672 0 -0.0088675893132553075 -0.0028036907097343049 0 -0.008774782952468127 -0.0027926909641727672 0 -0.008864966402540057 -0.0030585057751041289 0 -0.0088546435536419645 -0.0027330832263865266 0 -0.0088706933656841503 -0.0027596362468773937 0 -0.0087860124237291223 -0.0027416662436501311 0 -0.0088675893132553075 -0.0028036907097343049 0 -0.0088546435536419645 -0.0027330832263865266 0 -0.0088706933656841503 -0.0027596362468773937 0 -0.0087991396952695113 -0.0026680939157057498 0 -0.0088546435536419645 -0.0027330832263865266 0 -0.0087860124237291223 -0.0027416662436501311 0 -0.0087991396952695113 -0.0026680939157057498 0 -0.0088546435536419645 -0.0027330832263865266 0 -0.0088585541978317313 -0.0026679484493966682 0 -0.0088546435536419645 -0.0027330832263865266 0 -0.0088585541978317313 -0.0026679484493966682 0 -0.0088451429570029477 -0.0027206022940031607 0 -0.0088876751785089934 -0.0026578134600675459 0 -0.0088585541978317313 -0.0026679484493966682 0 -0.0088451429570029477 -0.0027206022940031607 0 -0.0088876751785089934 -0.0026578134600675459 0 -0.0088451429570029477 -0.0027206022940031607 0 -0.0088370334537155697 -0.0027313715917281337 0 -0.0088710076884310467 -0.00266790255020219 0 -0.0088876751785089934 -0.0026578134600675459 0 -0.0088370334537155697 -0.0027313715917281337 0 -0.0088710076884310467 -0.00266790255020219 0 -0.0088146929091587282 -0.0026978359298099447 0 -0.0088370334537155697 -0.0027313715917281337 0 -0.0088146929091587282 -0.0026978359298099447 0 -0.0088255438967144145 -0.0027413037779882698 0 -0.0088370334537155697 -0.0027313715917281337 0 -0.0088255438967144145 -0.0027413037779882698 0 -0.0088373648119668587 -0.0027677496587643086 0 -0.0088249715872172688 -0.0027708987020675082 0 -0.0088255438967144145 -0.0027413037779882698 0 -0.0088370334537155697 -0.0027313715917281337 0 -0.0088249715872172688 -0.0027708987020675082 0 -0.0088370334537155697 -0.0027313715917281337 0 -0.0088249715872172688 -0.0027708987020675082 0 -0.008774782952468127 -0.0027926909641727672 0 -0.0088249715872172688 -0.0027708987020675082 0 -0.008774782952468127 -0.0027926909641727672 0 -0.0088357605994292526 -0.0027670175700877189 0 -0.0088451429570029477 -0.0027206022940031607 0 -0.0088370334537155697 -0.0027313715917281337 0 -0.008774782952468127 -0.0027926909641727672 0 -0.0083911735240257395 -0.0031801925580986182 0 -0.0087753275850522856 -0.0036098195453639218 0 -0.008864966402540057 -0.0030585057751041289 0 -0.0086413785501597215 -0.0023263609943825719 0 -0.010925941348979744 -0.0059198865195952384 0 -0.008774782952468127 -0.0027926909641727672 0 -0.0083911735240257395 -0.0031801925580986182 0 -0.008864966402540057 -0.0030585057751041289 0 -0.0088373648119668587 -0.0027677496587643086 0 -0.0088249715872172688 -0.0027708987020675082 0 -0.0088357605994292526 -0.0027670175700877189 0 -0.012182084409904244 -0.0026690304960649064 0 -0.010925941348979744 -0.0059198865195952384 0 -0.011705794616325871 -0.013805247946267236 0 -0.010999171837466161 -0.014716123790770613 0 -0.011132919734972919 -0.013609986877583156 0 -0.013876088490281567 -0.010532750251429772 0 -0.010925941348979744 -0.0059198865195952384 0 -0.010999171837466161 -0.014716123790770613 0 -0.0099230652965923462 -0.014090736270622945 0 -0.011132919734972919 -0.013609986877583156 0 -0.010925941348979744 -0.0059198865195952384 0 -0.0092874190660815325 -0.0089398534184268828 0 -0.0087753275850522856 -0.0036098195453639218 0 -0.009167235001262224 -0.0036177899134262736 0 -0.008864966402540057 -0.0030585057751041289 0 -0.0087753275850522856 -0.0036098195453639218 0 -0.009167235001262224 -0.0036177899134262736 0 -0.0092089961955068352 -0.0040451721192605629 0 -0.0088720143651400216 -0.0030378368368404775 0 -0.0091230509597174433 -0.002951795828991952 0 -0.009167235001262224 -0.0036177899134262736 0 -0.008864966402540057 -0.0030585057751041289 0 -0.0094759004816078098 -0.0030854126867025278 0 -0.0088675893132553075 -0.0028036907097343049 0 -0.008864966402540057 -0.0030585057751041289 0 -0.0088706933656841503 -0.0027596362468773937 0 -0.009167235001262224 -0.0036177899134262736 0 -0.0094759004816078098 -0.0030854126867025278 0 -0.0095080701988592489 -0.0036094526751630621 0 -0.009167235001262224 -0.0036177899134262736 0 -0.0095080701988592489 -0.0036094526751630621 0 -0.0093202723232437418 -0.0037974528627237629 0 -0.0095080701988592489 -0.0036094526751630621 0 -0.0094689040392424411 -0.0038912357448211798 0 -0.0093202723232437418 -0.0037974528627237629 0 -0.0095080701988592489 -0.0036094526751630621 0 -0.0098918011377352073 -0.003454916548058567 0 -0.0097728799701788591 -0.0038465821922648285 0 -0.0095080701988592489 -0.0036094526751630621 0 -0.0097728799701788591 -0.0038465821922648285 0 -0.0094689040392424411 -0.0038912357448211798 0 -0.0098918011377352073 -0.003454916548058567 0 -0.010179669090679572 -0.0037912801965270214 0 -0.010347415400818646 -0.0033660577976852651 0 -0.0095383450478361189 -0.0052261947409233149 0 -0.009640369499561258 -0.0052561777377635741 0 -0.0098918011377352073 -0.003454916548058567 0 -0.010179669090679572 -0.0037912801965270214 0 -0.0097728799701788591 -0.0038465821922648285 0 -0.0098918011377352073 -0.003454916548058567 0 -0.010347415400818646 -0.0033660577976852651 0 -0.010017946363223718 -0.0030569732311075135 0 -0.0094759004816078098 -0.0030854126867025278 0 -0.0098918011377352073 -0.003454916548058567 0 -0.010017946363223718 -0.0030569732311075135 0 -0.0091230509597174433 -0.002951795828991952 0 -0.0094895058830918901 -0.0027772653624872933 0 -0.0094759004816078098 -0.0030854126867025278 0 -0.0095080701988592489 -0.0036094526751630621 0 -0.0098918011377352073 -0.003454916548058567 0 -0.0093207547741391995 -0.0071449491366145984 0 -0.0098328023691657482 -0.0071525497161109399 0 -0.0096246170715313419 -0.0074977000199964788 0 -0.0093207547741391995 -0.0071449491366145984 0 -0.0096262980214794035 -0.0068346469435046769 0 -0.0098328023691657482 -0.0071525497161109399 0 -0.0098328023691657482 -0.0071525497161109399 0 -0.009980860056748973 -0.0075552412499283331 0 -0.0096246170715313419 -0.0074977000199964788 0 -0.0093207547741391995 -0.0071449491366145984 0 -0.0096246170715313419 -0.0074977000199964788 0 -0.0090381325825323357 -0.0077980594202216322 0 -0.0085905032906622939 -0.0074597880875418238 0 -0.0093207547741391995 -0.0071449491366145984 0 -0.0089638040423691522 -0.0068358994751725145 0 -0.0085905032906622939 -0.0074597880875418238 0 -0.0093207547741391995 -0.0071449491366145984 0 -0.0090381325825323357 -0.0077980594202216322 0 -0.0093207547741391995 -0.0071449491366145984 0 -0.0089638040423691522 -0.0068358994751725145 0 -0.0093882924415280723 -0.0066120592875367583 0 -0.010347415400818646 -0.0033660577976852651 0 -0.010508784802609233 -0.002994530806114466 0 -0.010017946363223718 -0.0030569732311075135 0 -0.009640369499561258 -0.0052561777377635741 0 -0.0090742520406322802 -0.0039224095390188304 0 -0.0089638040423691522 -0.0068358994751725145 0 -0.0093882924415280723 -0.0066120592875367583 0 -0.0092598428161417314 -0.0063036279338071158 0 -0.0093207547741391995 -0.0071449491366145984 0 -0.0093882924415280723 -0.0066120592875367583 0 -0.0096262980214794035 -0.0068346469435046769 0 -0.0093882924415280723 -0.0066120592875367583 0 -0.0096919871506243298 -0.0066316572365602289 0 -0.0095719927223535343 -0.0064963726467761433 0 -0.0093882924415280723 -0.0066120592875367583 0 -0.0095719927223535343 -0.0064963726467761433 0 -0.0094054748668129934 -0.0064241835117891579 0 -0.0096919871506243298 -0.0066316572365602289 0 -0.0096262980214794035 -0.0068346469435046769 0 -0.0098884779308467414 -0.0067537147348033112 0 -0.0096919871506243298 -0.0066316572365602289 0 -0.0095719927223535343 -0.0064963726467761433 0 -0.0099924509777242002 -0.0065274533618768305 0 -0.0093882924415280723 -0.0066120592875367583 0 -0.0096919871506243298 -0.0066316572365602289 0 -0.0096262980214794035 -0.0068346469435046769 0 -0.0096262980214794035 -0.0068346469435046769 0 -0.0098884779308467414 -0.0067537147348033112 0 -0.0098328023691657482 -0.0071525497161109399 0 -0.0095719927223535343 -0.0064963726467761433 0 -0.0094007427884611333 -0.0062830021357137972 0 -0.0099924509777242002 -0.0065274533618768305 0 -0.0085954087207969227 -0.0031351427904167737 0 -0.0085770902419863466 -0.0030076565420632875 0 -0.0086175087972728635 -0.0032858161620639799 0 -0.0084148745942900574 -0.0041933305802989854 0 -0.0089468723709799219 -0.0057154680970020223 0 -0.0066736357879269674 -0.004325459686323788 0 -0.0079939875885093846 -0.004737134018773792 0 -0.0077058339321205357 -0.0041354122852141385 0 -0.0084148745942900574 -0.0041933305802989854 0 -0.0081074284059631553 -0.0037475092078349029 0 -0.0085954087207969227 -0.0031351427904167737 0 -0.0086187089206092981 -0.0032135605394182616 0 -0.0086175087972728635 -0.0032858161620639799 0 -0.0085954087207969227 -0.0031351427904167737 0 -0.0085829813078630579 -0.0030565417528609484 0 -0.0085860168751182332 -0.0030698541331982973 0 -0.0093882924415280723 -0.0066120592875367583 0 -0.0094054748668129934 -0.0064241835117891579 0 -0.0092598428161417314 -0.0063036279338071158 0 -0.0095719927223535343 -0.0064963726467761433 0 -0.0094054748668129934 -0.0064241835117891579 0 -0.0094007427884611333 -0.0062830021357137972 0 -0.0094054748668129934 -0.0064241835117891579 0 -0.0094007427884611333 -0.0062830021357137972 0 -0.0092598428161417314 -0.0063036279338071158 0 -0.0084148745942900574 -0.0041933305802989854 0 -0.0087579098783974064 -0.0037638376190458015 0 -0.0085770902419863466 -0.0030076565420632875 0 -0.0085811715311056493 -0.0029953443079393078 0 -0.0085814218613731418 -0.002972714409927905 0 -0.0085954087207969227 -0.0031351427904167737 0 -0.0085770902419863466 -0.0030076565420632875 0 -0.0085815334899829333 -0.0030382847114029748 0 -0.0085770902419863466 -0.0030076565420632875 0 -0.0085811715311056493 -0.0029953443079393078 0 -0.0085815334899829333 -0.0030382847114029748 0 -0.0085811715311056493 -0.0029953443079393078 0 -0.008579852826532737 -0.0029979682114500126 0 -0.0085813025473846435 -0.0029552070234924121 0 -0.0085811715311056493 -0.0029953443079393078 0 -0.0085815334899829333 -0.0030382847114029748 0 -0.008579852826532737 -0.0029979682114500126 0 -0.0085954087207969227 -0.0031351427904167737 0 -0.0085815334899829333 -0.0030382847114029748 0 -0.0085829813078630579 -0.0030565417528609484 0 -0.0085829813078630579 -0.0030565417528609484 0 -0.008579852826532737 -0.0029979682114500126 0 -0.00857811679287954 -0.0029973092670760428 0 -0.0085815334899829333 -0.0030382847114029748 0 -0.0085829813078630579 -0.0030565417528609484 0 -0.008579852826532737 -0.0029979682114500126 0 -0.008579852826532737 -0.0029979682114500126 0 -0.0085804734829053233 -0.0029318609145691753 0 -0.00857811679287954 -0.0029973092670760428 0 -0.0085578063296142363 -0.0028389105912655617 0 -0.0086002118292566772 -0.0028556323437820131 0 -0.0087211303688992606 -0.0027274547915839948 0 -0.0090742520406322802 -0.0039224095390188304 0 -0.0094895058830918901 -0.0027772653624872933 0 -0.0085804734829053233 -0.0029318609145691753 0 -0.0086002118292566772 -0.0028556323437820131 0 -0.0086080725659641449 -0.0028549994283980857 0 -0.008579852826532737 -0.0029979682114500126 0 -0.0085804734829053233 -0.0029318609145691753 0 -0.0085813025473846435 -0.0029552070234924121 0 -0.0085804734829053233 -0.0029318609145691753 0 -0.0085813025473846435 -0.0029552070234924121 0 -0.0086002118292566772 -0.0028556323437820131 0 -0.0085518459066210722 -0.0028521925451695379 0 -0.0085578063296142363 -0.0028389105912655617 0 -0.0086002118292566772 -0.0028556323437820131 0 -0.0087579098783974064 -0.0037638376190458015 0 -0.0085221450802106559 -0.003360209829862099 0 -0.0085813025473846435 -0.0029552070234924121 0 -0.0085814218613731418 -0.002972714409927905 0 -0.0086002118292566772 -0.0028556323437820131 0 -0.0085811715311056493 -0.0029953443079393078 0 -0.0085813025473846435 -0.0029552070234924121 0 -0.0085814218613731418 -0.002972714409927905 0 -0.0086229967789907651 -0.0041370244210400869 0 -0.0088377935304746417 -0.0042031186984633094 0 -0.0088949926940441858 -0.0040855877539877714 0 -0.0087579098783974064 -0.0037638376190458015 0 -0.0090742520406322802 -0.0039224095390188304 0 -0.0084148745942900574 -0.0041933305802989854 0 -0.0090742520406322802 -0.0039224095390188304 0 -0.0086002118292566772 -0.0028556323437820131 0 -0.0086080725659641449 -0.0028549994283980857 0 -0.0086739301942312334 -0.0027879557572230212 0 -0.0086080725659641449 -0.0028549994283980857 0 -0.008594462971342082 -0.0028388031381387929 0 -0.0086311479848920833 -0.0027811144829297534 0 -0.008594462971342082 -0.0028388031381387929 0 -0.0086311479848920833 -0.0027811144829297534 0 -0.008594618573154595 -0.0027565785185849215 0 -0.008594462971342082 -0.0028388031381387929 0 -0.0085731795442250767 -0.002867677962855079 0 -0.0085798297888695016 -0.0029145698249510173 0 -0.0085731795442250767 -0.002867677962855079 0 -0.0085798297888695016 -0.0029145698249510173 0 -0.0085763908524044211 -0.0029637129499377559 0 -0.008594462971342082 -0.0028388031381387929 0 -0.0085731795442250767 -0.002867677962855079 0 -0.008594618573154595 -0.0027565785185849215 0 -0.0085804734829053233 -0.0029318609145691753 0 -0.0086080725659641449 -0.0028549994283980857 0 -0.0085798297888695016 -0.0029145698249510173 0 -0.0086080725659641449 -0.0028549994283980857 0 -0.008594462971342082 -0.0028388031381387929 0 -0.0085798297888695016 -0.0029145698249510173 0 -0.0085804734829053233 -0.0029318609145691753 0 -0.0085798297888695016 -0.0029145698249510173 0 -0.00857811679287954 -0.0029973092670760428 0 -0.0085829813078630579 -0.0030565417528609484 0 -0.00857811679287954 -0.0029973092670760428 0 -0.0085860168751182332 -0.0030698541331982973 0 -0.0085763908524044211 -0.0029637129499377559 0 -0.0085783638951330999 -0.002953399922391119 0 -0.0085860168751182332 -0.0030698541331982973 0 -0.00857811679287954 -0.0029973092670760428 0 -0.0085763908524044211 -0.0029637129499377559 0 -0.0085860168751182332 -0.0030698541331982973 0 -0.0085798297888695016 -0.0029145698249510173 0 -0.00857811679287954 -0.0029973092670760428 0 -0.0085763908524044211 -0.0029637129499377559 0 -0.0085731795442250767 -0.002867677962855079 0 -0.0085763908524044211 -0.0029637129499377559 0 -0.0085783638951330999 -0.002953399922391119 0 -0.0085731795442250767 -0.002867677962855079 0 -0.0085783638951330999 -0.002953399922391119 0 -0.0085761802376227124 -0.0028580853975520037 0 -0.0085783638951330999 -0.002953399922391119 0 -0.0085950983986573838 -0.0029934052278374921 0 -0.0085761802376227124 -0.0028580853975520037 0 -0.0085950983986573838 -0.0029934052278374921 0 -0.0086133300398982208 -0.0028684366710013919 0 -0.008639402260902632 -0.003129719097133853 0 -0.0085950983986573838 -0.0029934052278374921 0 -0.0085860168751182332 -0.0030698541331982973 0 -0.008639402260902632 -0.003129719097133853 0 -0.0085783638951330999 -0.002953399922391119 0 -0.0085950983986573838 -0.0029934052278374921 0 -0.0085860168751182332 -0.0030698541331982973 0 -0.0085860168751182332 -0.0030698541331982973 0 -0.0086187089206092981 -0.0032135605394182616 0 -0.008639402260902632 -0.003129719097133853 0 -0.0085954087207969227 -0.0031351427904167737 0 -0.0085860168751182332 -0.0030698541331982973 0 -0.0086187089206092981 -0.0032135605394182616 0 -0.0088706933656841503 -0.0027596362468773937 0 -0.0087860124237291223 -0.0027416662436501311 0 -0.0087211303688992606 -0.0027274547915839948 0 -0.0087860124237291223 -0.0027416662436501311 0 -0.0087211303688992606 -0.0027274547915839948 0 -0.0086739301942312334 -0.0027879557572230212 0 -0.0086002118292566772 -0.0028556323437820131 0 -0.0087211303688992606 -0.0027274547915839948 0 -0.0086739301942312334 -0.0027879557572230212 0 -0.0086080725659641449 -0.0028549994283980857 0 -0.0086739301942312334 -0.0027879557572230212 0 -0.0086311479848920833 -0.0027811144829297534 0 -0.0086311479848920833 -0.0027811144829297534 0 -0.0087038615955981995 -0.002731210240462145 0 -0.0086342371732348981 -0.0026876671840213692 0 -0.0086739301942312334 -0.0027879557572230212 0 -0.0086311479848920833 -0.0027811144829297534 0 -0.0087038615955981995 -0.002731210240462145 0 -0.0087860124237291223 -0.0027416662436501311 0 -0.0086739301942312334 -0.0027879557572230212 0 -0.0087038615955981995 -0.002731210240462145 0 -0.0087991396952695113 -0.0026680939157057498 0 -0.0087860124237291223 -0.0027416662436501311 0 -0.0087038615955981995 -0.002731210240462145 0 -0.0087991396952695113 -0.0026680939157057498 0 -0.0087679867990389081 -0.0025798476027149219 0 -0.008710857545151697 -0.0026528352320754687 0 -0.0087991396952695113 -0.0026680939157057498 0 -0.0087038615955981995 -0.002731210240462145 0 -0.008710857545151697 -0.0026528352320754687 0 -0.0087679867990389081 -0.0025798476027149219 0 -0.008710857545151697 -0.0026528352320754687 0 -0.0086494605762088388 -0.0025932526834917696 0 -0.0087679867990389081 -0.0025798476027149219 0 -0.0086683027007598262 -0.0025239385950650522 0 -0.0086494605762088388 -0.0025932526834917696 0 -0.0087608226476585411 -0.0025347291169154768 0 -0.0087679867990389081 -0.0025798476027149219 0 -0.0086683027007598262 -0.0025239385950650522 0 -0.0086202847319966289 -0.0025447538326042515 0 -0.008581279016344083 -0.0025291497897279771 0 -0.0086096050473875221 -0.0024776526259359982 0 -0.0086683027007598262 -0.0025239385950650522 0 -0.0086202847319966289 -0.0025447538326042515 0 -0.0086096050473875221 -0.0024776526259359982 0 -0.0086683027007598262 -0.0025239385950650522 0 -0.0086202847319966289 -0.0025447538326042515 0 -0.0086494605762088388 -0.0025932526834917696 0 -0.0086202847319966289 -0.0025447538326042515 0 -0.0086083217765245031 -0.0026036395166901829 0 -0.008581279016344083 -0.0025291497897279771 0 -0.0086202847319966289 -0.0025447538326042515 0 -0.0086494605762088388 -0.0025932526834917696 0 -0.0086083217765245031 -0.0026036395166901829 0 -0.0086494605762088388 -0.0025932526834917696 0 -0.0086083217765245031 -0.0026036395166901829 0 -0.0086342371732348981 -0.0026876671840213692 0 -0.0086083217765245031 -0.0026036395166901829 0 -0.0086342371732348981 -0.0026876671840213692 0 -0.0085879337052210541 -0.0026600118106105616 0 -0.008710857545151697 -0.0026528352320754687 0 -0.0086494605762088388 -0.0025932526834917696 0 -0.0086342371732348981 -0.0026876671840213692 0 -0.0087038615955981995 -0.002731210240462145 0 -0.008710857545151697 -0.0026528352320754687 0 -0.0086342371732348981 -0.0026876671840213692 0 -0.0086311479848920833 -0.0027811144829297534 0 -0.0086342371732348981 -0.0026876671840213692 0 -0.008594618573154595 -0.0027565785185849215 0 -0.0086342371732348981 -0.0026876671840213692 0 -0.008594618573154595 -0.0027565785185849215 0 -0.0085879337052210541 -0.0026600118106105616 0 -0.008594618573154595 -0.0027565785185849215 0 -0.0085706309622600434 -0.0027399940842686111 0 -0.0085879337052210541 -0.0026600118106105616 0 -0.0085731795442250767 -0.002867677962855079 0 -0.008594618573154595 -0.0027565785185849215 0 -0.0085706309622600434 -0.0027399940842686111 0 -0.0085706309622600434 -0.0027399940842686111 0 -0.0085879337052210541 -0.0026600118106105616 0 -0.0085678709099348809 -0.0026137220893673505 0 -0.0085706309622600434 -0.0027399940842686111 0 -0.0085744825633326475 -0.0026979593859256558 0 -0.0085678709099348809 -0.0026137220893673505 0 -0.0085950983986573838 -0.0029934052278374921 0 -0.0086133300398982208 -0.0028684366710013919 0 -0.0085761802376227124 -0.0028580853975520037 0 -0.0086133300398982208 -0.0028684366710013919 0 -0.0085761802376227124 -0.0028580853975520037 0 -0.0085744825633326475 -0.0026979593859256558 0 -0.0085731795442250767 -0.002867677962855079 0 -0.0085706309622600434 -0.0027399940842686111 0 -0.0085761802376227124 -0.0028580853975520037 0 -0.0085706309622600434 -0.0027399940842686111 0 -0.0085761802376227124 -0.0028580853975520037 0 -0.0085744825633326475 -0.0026979593859256558 0 -0.0086133300398982208 -0.0028684366710013919 0 -0.0085744825633326475 -0.0026979593859256558 0 -0.0086271116095170946 -0.0026352077662785949 0 -0.0085744825633326475 -0.0026979593859256558 0 -0.0085760595522514135 -0.0025666844220793832 0 -0.0086271116095170946 -0.0026352077662785949 0 -0.0085760595522514135 -0.0025666844220793832 0 -0.0085891593088603963 -0.0024332977477681136 0 -0.0086271116095170946 -0.0026352077662785949 0 -0.0085744825633326475 -0.0026979593859256558 0 -0.0085760595522514135 -0.0025666844220793832 0 -0.0085678709099348809 -0.0026137220893673505 0 -0.0085760595522514135 -0.0025666844220793832 0 -0.0085659229255501939 -0.0025022758642311545 0 -0.0085678709099348809 -0.0026137220893673505 0 -0.0085760595522514135 -0.0025666844220793832 0 -0.0085659229255501939 -0.0025022758642311545 0 -0.0085891593088603963 -0.0024332977477681136 0 -0.0085659229255501939 -0.0025022758642311545 0 -0.0085891593088603963 -0.0024332977477681136 0 -0.0085681713141194035 -0.0023190656310210019 0 -0.0086083217765245031 -0.0026036395166901829 0 -0.0085879337052210541 -0.0026600118106105616 0 -0.008581279016344083 -0.0025291497897279771 0 -0.0085879337052210541 -0.0026600118106105616 0 -0.0085678709099348809 -0.0026137220893673505 0 -0.008581279016344083 -0.0025291497897279771 0 -0.0085659229255501939 -0.0025022758642311545 0 -0.0085678709099348809 -0.0026137220893673505 0 -0.008581279016344083 -0.0025291497897279771 0 -0.0085659229255501939 -0.0025022758642311545 0 -0.008581279016344083 -0.0025291497897279771 0 -0.0085651338471931272 -0.0024110326095497106 0 -0.008581279016344083 -0.0025291497897279771 0 -0.0085791626682324464 -0.0024209264570619494 0 -0.0085651338471931272 -0.0024110326095497106 0 -0.008581279016344083 -0.0025291497897279771 0 -0.0085791626682324464 -0.0024209264570619494 0 -0.0086096050473875221 -0.0024776526259359982 0 -0.0085791626682324464 -0.0024209264570619494 0 -0.0085651338471931272 -0.0024110326095497106 0 -0.0085680537968250842 -0.00233950502309803 0 -0.0085680537968250842 -0.00233950502309803 0 -0.0085618518103858302 -0.0022951153960406121 0 -0.0085587483841225113 -0.0022515059757463496 0 -0.0085651338471931272 -0.0024110326095497106 0 -0.0085680537968250842 -0.00233950502309803 0 -0.0085618518103858302 -0.0022951153960406121 0 -0.0085791626682324464 -0.0024209264570619494 0 -0.0085924682611334888 -0.00238413998747216 0 -0.008608263263804844 -0.0024291524115275867 0 -0.0085680537968250842 -0.00233950502309803 0 -0.0085788386607337265 -0.002367994861288181 0 -0.0085769397171374332 -0.002324521074700684 0 -0.0085924682611334888 -0.00238413998747216 0 -0.0085788386607337265 -0.002367994861288181 0 -0.0085769397171374332 -0.002324521074700684 0 -0.0085791626682324464 -0.0024209264570619494 0 -0.0085924682611334888 -0.00238413998747216 0 -0.0085788386607337265 -0.002367994861288181 0 -0.0085791626682324464 -0.0024209264570619494 0 -0.0085680537968250842 -0.00233950502309803 0 -0.0085788386607337265 -0.002367994861288181 0 -0.0085891593088603963 -0.0024332977477681136 0 -0.0085681713141194035 -0.0023190656310210019 0 -0.008595637401751427 -0.0022519206577978502 0 -0.0085659229255501939 -0.0025022758642311545 0 -0.0085651338471931272 -0.0024110326095497106 0 -0.0085681713141194035 -0.0023190656310210019 0 -0.0085651338471931272 -0.0024110326095497106 0 -0.0085681713141194035 -0.0023190656310210019 0 -0.0085618518103858302 -0.0022951153960406121 0 -0.0085681713141194035 -0.0023190656310210019 0 -0.0085618518103858302 -0.0022951153960406121 0 -0.0085569527627552353 -0.0022078787326208268 0 -0.0085681713141194035 -0.0023190656310210019 0 -0.0085718296532938422 -0.0021813634124508369 0 -0.0085569527627552353 -0.0022078787326208268 0 -0.0085681713141194035 -0.0023190656310210019 0 -0.0085718296532938422 -0.0021813634124508369 0 -0.008595637401751427 -0.0022519206577978502 0 -0.0085540275670050979 -0.0021318867269174914 0 -0.0085569527627552353 -0.0022078787326208268 0 -0.0085370865137189278 -0.0021522981292970045 0 -0.0085718296532938422 -0.0021813634124508369 0 -0.0085540275670050979 -0.0021318867269174914 0 -0.0085569527627552353 -0.0022078787326208268 0 -0.0085569527627552353 -0.0022078787326208268 0 -0.0085370865137189278 -0.0021522981292970045 0 -0.0085587483841225113 -0.0022515059757463496 0 -0.0085618518103858302 -0.0022951153960406121 0 -0.0085569527627552353 -0.0022078787326208268 0 -0.0085587483841225113 -0.0022515059757463496 0 -0.0085311739756483672 -0.0021631217471748173 0 -0.0085370865137189278 -0.0021522981292970045 0 -0.0085501209339102179 -0.0022111015613547323 0 -0.0085370865137189278 -0.0021522981292970045 0 -0.0085587483841225113 -0.0022515059757463496 0 -0.0085501209339102179 -0.0022111015613547323 0 -0.0085055578511652394 -0.0021032826373518967 0 -0.0085370865137189278 -0.0021522981292970045 0 -0.0085241871890335118 -0.0020627918651989199 0 -0.0085540275670050979 -0.0021318867269174914 0 -0.0085370865137189278 -0.0021522981292970045 0 -0.0085241871890335118 -0.0020627918651989199 0 -0.0085769397171374332 -0.002324521074700684 0 -0.0085902703686494639 -0.0023213558163851901 0 -0.0086002988798524749 -0.0023623360563060016 0 -0.0085924682611334888 -0.00238413998747216 0 -0.0085769397171374332 -0.002324521074700684 0 -0.0086002988798524749 -0.0023623360563060016 0 -0.0085769397171374332 -0.002324521074700684 0 -0.0085706526432502254 -0.0022706073387701309 0 -0.0085902703686494639 -0.0023213558163851901 0 -0.0085769397171374332 -0.002324521074700684 0 -0.0085587483841225113 -0.0022515059757463496 0 -0.0085706526432502254 -0.0022706073387701309 0 -0.0085680537968250842 -0.00233950502309803 0 -0.0085769397171374332 -0.002324521074700684 0 -0.0085587483841225113 -0.0022515059757463496 0 -0.0085587483841225113 -0.0022515059757463496 0 -0.0085501209339102179 -0.0022111015613547323 0 -0.0085706526432502254 -0.0022706073387701309 0 -0.008568145625772813 -0.0022505315375325997 0 -0.0085501209339102179 -0.0022111015613547323 0 -0.0085706526432502254 -0.0022706073387701309 0 -0.008568145625772813 -0.0022505315375325997 0 -0.0085706526432502254 -0.0022706073387701309 0 -0.0085838853552742747 -0.0022905106812561552 0 -0.0085880951742490861 -0.0022875488899664967 0 -0.008568145625772813 -0.0022505315375325997 0 -0.0085838853552742747 -0.0022905106812561552 0 -0.0085706526432502254 -0.0022706073387701309 0 -0.0085902703686494639 -0.0023213558163851901 0 -0.0085838853552742747 -0.0022905106812561552 0 -0.0085902703686494639 -0.0023213558163851901 0 -0.0085838853552742747 -0.0022905106812561552 0 -0.0085999173420812803 -0.0023198789615016023 0 -0.0085880951742490861 -0.0022875488899664967 0 -0.0085838853552742747 -0.0022905106812561552 0 -0.0085999173420812803 -0.0023198789615016023 0 -0.0086050887359390166 -0.0023153198196884119 0 -0.0085999173420812803 -0.0023198789615016023 0 -0.008617230406339103 -0.0023464747671420737 0 -0.0085999173420812803 -0.0023198789615016023 0 -0.008617230406339103 -0.0023464747671420737 0 -0.0086136936612438517 -0.0023618627185541161 0 -0.0085902703686494639 -0.0023213558163851901 0 -0.0085999173420812803 -0.0023198789615016023 0 -0.0086136936612438517 -0.0023618627185541161 0 -0.0085902703686494639 -0.0023213558163851901 0 -0.0086136936612438517 -0.0023618627185541161 0 -0.0086002988798524749 -0.0023623360563060016 0 -0.0086136936612438517 -0.0023618627185541161 0 -0.0086167608194368424 -0.002400848365795614 0 -0.0086002988798524749 -0.0023623360563060016 0 -0.0085924682611334888 -0.00238413998747216 0 -0.0086167608194368424 -0.002400848365795614 0 -0.0086002988798524749 -0.0023623360563060016 0 -0.0086167608194368424 -0.002400848365795614 0 -0.0086352059567895625 -0.0023888511711510521 0 -0.008643403053948194 -0.0024520130243537741 0 -0.0086136936612438517 -0.0023618627185541161 0 -0.0086167608194368424 -0.002400848365795614 0 -0.0086352059567895625 -0.0023888511711510521 0 -0.0086325798415131001 -0.0023609792716939785 0 -0.008617230406339103 -0.0023464747671420737 0 -0.0086352059567895625 -0.0023888511711510521 0 -0.0086502314763598522 -0.0023869129256672236 0 -0.0086325798415131001 -0.0023609792716939785 0 -0.0086352059567895625 -0.0023888511711510521 0 -0.008617230406339103 -0.0023464747671420737 0 -0.0086136936612438517 -0.0023618627185541161 0 -0.0086352059567895625 -0.0023888511711510521 0 -0.0086727659478545768 -0.0024304139628652864 0 -0.0087191687556407802 -0.0025004045956331222 0 -0.008643403053948194 -0.0024520130243537741 0 -0.0086502314763598522 -0.0023869129256672236 0 -0.0086352059567895625 -0.0023888511711510521 0 -0.0086727659478545768 -0.0024304139628652864 0 -0.0086502314763598522 -0.0023869129256672236 0 -0.0086694281686578202 -0.0024095303708839429 0 -0.0086727659478545768 -0.0024304139628652864 0 -0.0086694281686578202 -0.0024095303708839429 0 -0.0086945045168752653 -0.0024426272954565982 0 -0.0086727659478545768 -0.0024304139628652864 0 -0.0086945045168752653 -0.0024426272954565982 0 -0.0086727659478545768 -0.0024304139628652864 0 -0.0087191687556407802 -0.0025004045956331222 0 -0.0086352059567895625 -0.0023888511711510521 0 -0.0086727659478545768 -0.0024304139628652864 0 -0.008643403053948194 -0.0024520130243537741 0 -0.0086683027007598262 -0.0025239385950650522 0 -0.0087191687556407802 -0.0025004045956331222 0 -0.008643403053948194 -0.0024520130243537741 0 -0.0087608226476585411 -0.0025347291169154768 0 -0.0086683027007598262 -0.0025239385950650522 0 -0.0087191687556407802 -0.0025004045956331222 0 -0.0086096050473875221 -0.0024776526259359982 0 -0.008608263263804844 -0.0024291524115275867 0 -0.008643403053948194 -0.0024520130243537741 0 -0.0086683027007598262 -0.0025239385950650522 0 -0.0086096050473875221 -0.0024776526259359982 0 -0.008643403053948194 -0.0024520130243537741 0 -0.0085791626682324464 -0.0024209264570619494 0 -0.0086096050473875221 -0.0024776526259359982 0 -0.008608263263804844 -0.0024291524115275867 0 -0.0085924682611334888 -0.00238413998747216 0 -0.0086167608194368424 -0.002400848365795614 0 -0.008608263263804844 -0.0024291524115275867 0 -0.0086167608194368424 -0.002400848365795614 0 -0.008608263263804844 -0.0024291524115275867 0 -0.008643403053948194 -0.0024520130243537741 0 -0.0081785943728846806 -0.0014519259775504707 0 -0.0082819515790311399 -0.0018823465158352135 0 -0.0087159750543203702 -0.0017905806002905542 0 -0.0098779217305643482 -0.0018665772264531049 0 -0.0087159750543203702 -0.0017905806002905542 0 -0.0092399281808158446 -0.0021730792468786747 0 -0.0098635789482953949 -0.0021200329834202519 0 -0.0084533182672547249 -0.0015923559095717848 0 -0.0098635789482953949 -0.0021200329834202519 0 -0.0054158391979982892 0.00087295365003064291 0 -0.0081785943728846806 -0.0014519259775504707 0 -0.0080161348305700254 -0.001788374114946578 0 -0.0076934935987008424 -0.0012070003232935414 0 -0.0054425638010209719 0.0020337001124655714 0 -0.0054158391979982892 0.00087295365003064291 0 -0.0081785943728846806 -0.0014519259775504707 0 -0.0080161348305700254 -0.001788374114946578 0 -0.0082819515790311399 -0.0018823465158352135 0 -0.0085364184015898886 -0.0019579922864643969 0 -0.0085950898876808127 -0.0020802843047667743 0 -0.0087159750543203702 -0.0017905806002905542 0 -0.0083523214135002993 -0.0019467041101186751 0 -0.0082819515790311399 -0.0018823465158352135 0 -0.0087159750543203702 -0.0017905806002905542 0 -0.0083523214135002993 -0.0019467041101186751 0 -0.0085364184015898886 -0.0019579922864643969 0 -0.0087159750543203702 -0.0017905806002905542 0 -0.0084692120279668721 -0.0020028872581058657 0 -0.0085241871890335118 -0.0020627918651989199 0 -0.0085364184015898886 -0.0019579922864643969 0 -0.0085540275670050979 -0.0021318867269174914 0 -0.0085241871890335118 -0.0020627918651989199 0 -0.0085950898876808127 -0.0020802843047667743 0 -0.0085718296532938422 -0.0021813634124508369 0 -0.0085540275670050979 -0.0021318867269174914 0 -0.0085950898876808127 -0.0020802843047667743 0 -0.0085241871890335118 -0.0020627918651989199 0 -0.0085364184015898886 -0.0019579922864643969 0 -0.0085950898876808127 -0.0020802843047667743 0 -0.0085950898876808127 -0.0020802843047667743 0 -0.0086832830725647077 -0.0021547008041292296 0 -0.0087159750543203702 -0.0017905806002905542 0 -0.0085950898876808127 -0.0020802843047667743 0 -0.0086832830725647077 -0.0021547008041292296 0 -0.008595637401751427 -0.0022519206577978502 0 -0.0085718296532938422 -0.0021813634124508369 0 -0.0085950898876808127 -0.0020802843047667743 0 -0.008595637401751427 -0.0022519206577978502 0 -0.0086832830725647077 -0.0021547008041292296 0 -0.008595637401751427 -0.0022519206577978502 0 -0.0086792071783592193 -0.0024177299358256765 0 -0.0086832830725647077 -0.0021547008041292296 0 -0.0087159750543203702 -0.0017905806002905542 0 -0.0088634564240301812 -0.0022770399167850695 0 -0.0087159750543203702 -0.0017905806002905542 0 -0.0088634564240301812 -0.0022770399167850695 0 -0.0092399281808158446 -0.0021730792468786747 0 -0.0088634564240301812 -0.0022770399167850695 0 -0.0091573704762892474 -0.002524772275390749 0 -0.0092399281808158446 -0.0021730792468786747 0 -0.0088634564240301812 -0.0022770399167850695 0 -0.0091573704762892474 -0.002524772275390749 0 -0.008844817225916124 -0.0026174694674720965 0 -0.0085891593088603963 -0.0024332977477681136 0 -0.008595637401751427 -0.0022519206577978502 0 -0.0086792071783592193 -0.0024177299358256765 0 -0.0088634564240301812 -0.0022770399167850695 0 -0.0086792071783592193 -0.0024177299358256765 0 -0.008844817225916124 -0.0026174694674720965 0 -0.0086832830725647077 -0.0021547008041292296 0 -0.0088634564240301812 -0.0022770399167850695 0 -0.0086792071783592193 -0.0024177299358256765 0 -0.0085891593088603963 -0.0024332977477681136 0 -0.0086792071783592193 -0.0024177299358256765 0 -0.0086271116095170946 -0.0026352077662785949 0 -0.0086792071783592193 -0.0024177299358256765 0 -0.008844817225916124 -0.0026174694674720965 0 -0.0086271116095170946 -0.0026352077662785949 0 -0.0086133300398982208 -0.0028684366710013919 0 -0.0086271116095170946 -0.0026352077662785949 0 -0.0087529779867597194 -0.0029079957929783397 0 -0.008844817225916124 -0.0026174694674720965 0 -0.0086271116095170946 -0.0026352077662785949 0 -0.0087529779867597194 -0.0029079957929783397 0 -0.0086133300398982208 -0.0028684366710013919 0 -0.0087529779867597194 -0.0029079957929783397 0 -0.008639402260902632 -0.003129719097133853 0 -0.0091573704762892474 -0.002524772275390749 0 -0.0090594167603764743 -0.0028724444475760297 0 -0.0094980774081281083 -0.00286536206556081 0 -0.0091573704762892474 -0.002524772275390749 0 -0.008844817225916124 -0.0026174694674720965 0 -0.0090594167603764743 -0.0028724444475760297 0 -0.008844817225916124 -0.0026174694674720965 0 -0.0087529779867597194 -0.0029079957929783397 0 -0.0090594167603764743 -0.0028724444475760297 0 -0.0090594167603764743 -0.0028724444475760297 0 -0.0093419329499532782 -0.0031951230838225863 0 -0.0088799060838313047 -0.0032828102870039871 0 -0.0087529779867597194 -0.0029079957929783397 0 -0.0090594167603764743 -0.0028724444475760297 0 -0.0088799060838313047 -0.0032828102870039871 0 -0.0090594167603764743 -0.0028724444475760297 0 -0.0093419329499532782 -0.0031951230838225863 0 -0.0094980774081281083 -0.00286536206556081 0 -0.0093419329499532782 -0.0031951230838225863 0 -0.0094980774081281083 -0.00286536206556081 0 -0.0098673102394432576 -0.0033072722674272006 0 -0.010094982712039298 -0.0028568913854017889 0 -0.010321141224288474 -0.0032325529094288426 0 -0.0098673102394432576 -0.0033072722674272006 0 -0.0094980774081281083 -0.00286536206556081 0 -0.010094982712039298 -0.0028568913854017889 0 -0.0098673102394432576 -0.0033072722674272006 0 -0.0094980774081281083 -0.00286536206556081 0 -0.0096151021219063274 -0.002485072014348293 0 -0.010094982712039298 -0.0028568913854017889 0 -0.0091573704762892474 -0.002524772275390749 0 -0.0094980774081281083 -0.00286536206556081 0 -0.0096151021219063274 -0.002485072014348293 0 -0.0096151021219063274 -0.002485072014348293 0 -0.010165047168264375 -0.0024048411429354053 0 -0.010094982712039298 -0.0028568913854017889 0 -0.0098779217305643482 -0.0018665772264531049 0 -0.0096151021219063274 -0.002485072014348293 0 -0.0092399281808158446 -0.0021730792468786747 0 -0.0098779217305643482 -0.0018665772264531049 0 -0.0096151021219063274 -0.002485072014348293 0 -0.010165047168264375 -0.0024048411429354053 0 -0.0091573704762892474 -0.002524772275390749 0 -0.0096151021219063274 -0.002485072014348293 0 -0.0092399281808158446 -0.0021730792468786747 0 -0.0098779217305643482 -0.0018665772264531049 0 -0.010165047168264375 -0.0024048411429354053 0 -0.010793794833349748 -0.0021550282556809007 0 -0.010165047168264375 -0.0024048411429354053 0 -0.010666895298562955 -0.0026442455681862432 0 -0.010094982712039298 -0.0028568913854017889 0 -0.010165047168264375 -0.0024048411429354053 0 -0.010666895298562955 -0.0026442455681862432 0 -0.010793794833349748 -0.0021550282556809007 0 -0.010666895298562955 -0.0026442455681862432 0 -0.010548242760342778 -0.0030114486124173056 0 -0.010816479419311261 -0.0031137591552125618 0 -0.010666895298562955 -0.0026442455681862432 0 -0.010094982712039298 -0.0028568913854017889 0 -0.010548242760342778 -0.0030114486124173056 0 -0.010094982712039298 -0.0028568913854017889 0 -0.010321141224288474 -0.0032325529094288426 0 -0.010548242760342778 -0.0030114486124173056 0 -0.010548242760342778 -0.0030114486124173056 0 -0.010672845139828671 -0.0033802765766608677 0 -0.010816479419311261 -0.0031137591552125618 0 -0.010321141224288474 -0.0032325529094288426 0 -0.010548242760342778 -0.0030114486124173056 0 -0.010672845139828671 -0.0033802765766608677 0 -0.010672845139828671 -0.0033802765766608677 0 -0.010730701345298061 -0.0037376425675982061 0 -0.01106845649576119 -0.0037295900669635511 0 -0.010672845139828671 -0.0033802765766608677 0 -0.010816479419311261 -0.0031137591552125618 0 -0.01106845649576119 -0.0037295900669635511 0 -0.010672845139828671 -0.0033802765766608677 0 -0.010730701345298061 -0.0037376425675982061 0 -0.010425504223961558 -0.0036507648759055021 0 -0.010730701345298061 -0.0037376425675982061 0 -0.010738675182225885 -0.004251760005563902 0 -0.01106845649576119 -0.0037295900669635511 0 -0.010730701345298061 -0.0037376425675982061 0 -0.010425504223961558 -0.0036507648759055021 0 -0.010738675182225885 -0.004251760005563902 0 -0.010425504223961558 -0.0036507648759055021 0 -0.010034138117143201 -0.0039305736680837122 0 -0.010738675182225885 -0.004251760005563902 0 -0.010321141224288474 -0.0032325529094288426 0 -0.010672845139828671 -0.0033802765766608677 0 -0.010425504223961558 -0.0036507648759055021 0 -0.010321141224288474 -0.0032325529094288426 0 -0.010425504223961558 -0.0036507648759055021 0 -0.0098673102394432576 -0.0033072722674272006 0 -0.010425504223961558 -0.0036507648759055021 0 -0.0098673102394432576 -0.0033072722674272006 0 -0.010034138117143201 -0.0039305736680837122 0 -0.0093419329499532782 -0.0031951230838225863 0 -0.0098673102394432576 -0.0033072722674272006 0 -0.0094157616443701735 -0.0036626868896572091 0 -0.010034138117143201 -0.0039305736680837122 0 -0.0095688798779857438 -0.0042754543743319818 0 -0.0094157616443701735 -0.0036626868896572091 0 -0.0098673102394432576 -0.0033072722674272006 0 -0.010034138117143201 -0.0039305736680837122 0 -0.0094157616443701735 -0.0036626868896572091 0 -0.010034138117143201 -0.0039305736680837122 0 -0.0095688798779857438 -0.0042754543743319818 0 -0.010273526288119054 -0.0047678759899360242 0 -0.0095688798779857438 -0.0042754543743319818 0 -0.010273526288119054 -0.0047678759899360242 0 -0.009288751041197205 -0.0052929743640346485 0 -0.0099296732778688494 -0.007180486972585878 0 -0.01012678906644064 -0.0073523820692127165 0 -0.0097390218668306043 -0.0069781964854599195 0 -0.0099296732778688494 -0.007180486972585878 0 -0.0096349355418899815 -0.0068790602139468925 0 -0.0097390218668306043 -0.0069781964854599195 0 -0.011108049063075649 -0.0051771084728964231 0 -0.010738675182225885 -0.004251760005563902 0 -0.01106845649576119 -0.0037295900669635511 0 -0.010451970044675385 -0.0062489738533068866 0 -0.010916024148533855 -0.0051643313884296464 0 -0.0029870110790208974 -0.0059326161966064455 0 -0.002815700359633278 -0.0066494132301196636 0 -0.010273526288119054 -0.0047678759899360242 0 -0.011108049063075649 -0.0051771084728964231 0 -0.010738675182225885 -0.004251760005563902 0 -0.010034138117143201 -0.0039305736680837122 0 -0.010273526288119054 -0.0047678759899360242 0 -0.010738675182225885 -0.004251760005563902 0 -0.0086187089206092981 -0.0032135605394182616 0 -0.008639402260902632 -0.003129719097133853 0 -0.0086827325071933571 -0.0033783647467409135 0 -0.0087529779867597194 -0.0029079957929783397 0 -0.008639402260902632 -0.003129719097133853 0 -0.0088799060838313047 -0.0032828102870039871 0 -0.008639402260902632 -0.003129719097133853 0 -0.0086827325071933571 -0.0033783647467409135 0 -0.0088799060838313047 -0.0032828102870039871 0 -0.0086827325071933571 -0.0033783647467409135 0 -0.0088799060838313047 -0.0032828102870039871 0 -0.0088455605647234075 -0.0038648166747469364 0 -0.0088799060838313047 -0.0032828102870039871 0 -0.0094157616443701735 -0.0036626868896572091 0 -0.0088455605647234075 -0.0038648166747469364 0 -0.0093419329499532782 -0.0031951230838225863 0 -0.0088799060838313047 -0.0032828102870039871 0 -0.0094157616443701735 -0.0036626868896572091 0 -0.0088455605647234075 -0.0038648166747469364 0 -0.0079939875885093846 -0.004737134018773792 0 -0.009288751041197205 -0.0052929743640346485 0 -0.0095688798779857438 -0.0042754543743319818 0 -0.0088455605647234075 -0.0038648166747469364 0 -0.009288751041197205 -0.0052929743640346485 0 -0.0095688798779857438 -0.0042754543743319818 0 -0.0094157616443701735 -0.0036626868896572091 0 -0.0088455605647234075 -0.0038648166747469364 0 -0.0088455605647234075 -0.0038648166747469364 0 -0.0079939875885093846 -0.004737134018773792 0 -0.0077058339321205357 -0.0041354122852141385 0 -0.0086827325071933571 -0.0033783647467409135 0 -0.0088455605647234075 -0.0038648166747469364 0 -0.0086175087972728635 -0.0032858161620639799 0 -0.0088389876742765734 -0.0037699944966709358 0 -0.0081074284059631553 -0.0037475092078349029 0 -0.0086187089206092981 -0.0032135605394182616 0 -0.0086827325071933571 -0.0033783647467409135 0 -0.0086175087972728635 -0.0032858161620639799 0 -0.0098884779308467414 -0.0067537147348033112 0 -0.01010098951795547 -0.0068963419037351226 0 -0.0098328023691657482 -0.0071525497161109399 0 -0.0096919871506243298 -0.0066316572365602289 0 -0.0099924509777242002 -0.0065274533618768305 0 -0.0098884779308467414 -0.0067537147348033112 0 -0.0099924509777242002 -0.0065274533618768305 0 -0.0098884779308467414 -0.0067537147348033112 0 -0.01010098951795547 -0.0068963419037351226 0 -0.0089468723709799219 -0.0057154680970020223 0 -0.0099066002671890693 -0.0059489205489437003 0 -0.01010098951795547 -0.0068963419037351226 0 -0.010391842160770121 -0.0066301489822530755 0 -0.010337822413363139 -0.0070641394627675366 0 -0.0099924509777242002 -0.0065274533618768305 0 -0.01010098951795547 -0.0068963419037351226 0 -0.010391842160770121 -0.0066301489822530755 0 -0.010391842160770121 -0.0066301489822530755 0 -0.010337822413363139 -0.0070641394627675366 0 -0.010546906575592589 -0.0068894799100911617 0 -0.01010098951795547 -0.0068963419037351226 0 -0.010337822413363139 -0.0070641394627675366 0 -0.010194020794781591 -0.0074097219764912084 0 -0.010337822413363139 -0.0070641394627675366 0 -0.010463073612467119 -0.0072790109738116084 0 -0.010353158127106857 -0.0074519508613023668 0 -0.010337822413363139 -0.0070641394627675366 0 -0.010194020794781591 -0.0074097219764912084 0 -0.010353158127106857 -0.0074519508613023668 0 -0.01010098951795547 -0.0068963419037351226 0 -0.010194020794781591 -0.0074097219764912084 0 -0.0098328023691657482 -0.0071525497161109399 0 -0.010194020794781591 -0.0074097219764912084 0 -0.0098328023691657482 -0.0071525497161109399 0 -0.009980860056748973 -0.0075552412499283331 0 -0.011108049063075649 -0.0051771084728964231 0 -0.010875605534205 -0.0061559449021287701 0 -0.010950687480339453 -0.00701953838483497 0 -0.010451970044675385 -0.0062489738533068866 0 -0.010583599007401655 -0.0072059136908551522 0 -0.0099296732778688494 -0.007180486972585878 0 -0.01012678906644064 -0.0073523820692127165 0 -0.010244162983307761 -0.0074824240739806295 0 -0.010273526288119054 -0.0047678759899360242 0 -0.011108049063075649 -0.0051771084728964231 0 -0.010875605534205 -0.0061559449021287701 0 -0.010273526288119054 -0.0047678759899360242 0 -0.009288751041197205 -0.0052929743640346485 0 -0.010875605534205 -0.0061559449021287701 0 -0.0099066002671890693 -0.0059489205489437003 0 -0.010849455924603528 -0.006174820563949952 0 -0.010391842160770121 -0.0066301489822530755 0 -0.010875605534205 -0.0061559449021287701 0 -0.010546906575592589 -0.0068894799100911617 0 -0.010875605534205 -0.0061559449021287701 0 -0.010546906575592589 -0.0068894799100911617 0 -0.010950687480339453 -0.00701953838483497 0 -0.010634182556722039 -0.0073042124786487578 0 -0.010950687480339453 -0.00701953838483497 0 -0.01055104729822497 -0.0077877356907033856 0 -0.010546906575592589 -0.0068894799100911617 0 -0.010634182556722039 -0.0073042124786487578 0 -0.010950687480339453 -0.00701953838483497 0 -0.010337822413363139 -0.0070641394627675366 0 -0.010546906575592589 -0.0068894799100911617 0 -0.010463073612467119 -0.0072790109738116084 0 -0.010546906575592589 -0.0068894799100911617 0 -0.010463073612467119 -0.0072790109738116084 0 -0.010634182556722039 -0.0073042124786487578 0 -0.010463073612467119 -0.0072790109738116084 0 -0.010634182556722039 -0.0073042124786487578 0 -0.010529983616928496 -0.007536074762377983 0 -0.0029870110790208974 -0.0059326161966064455 0 -0.0034103727557149564 -0.0057836186748396095 0 -0.01012678906644064 -0.0073523820692127165 0 -0.010244162983307761 -0.0074824240739806295 0 -0.010536779606452773 -0.0077317651403973333 0 0.0041224663844746301 -0.0046312574821893862 0 0.0043024172520514719 -0.0040069004664606894 0 0.0037549700951362204 -0.0036322321668603749 0 0.0043024172520514719 -0.0040069004664606894 0 0.0037549700951362204 -0.0036322321668603749 0 0.0042242448703242903 -0.0035631146425032338 0 0.0042242448703242903 -0.0035631146425032338 0 0.0040831735316899679 -0.0032965759947253411 0 0.004447175099149288 -0.0032302812647815758 0 0.0037549700951362204 -0.0036322321668603749 0 0.0042242448703242903 -0.0035631146425032338 0 0.0040831735316899679 -0.0032965759947253411 0 -0.010244162983307761 -0.0074824240739806295 0 -0.010536779606452773 -0.0077317651403973333 0 -0.01055104729822497 -0.0077877356907033856 0 -0.010583599007401655 -0.0072059136908551522 0 -0.010545932505003361 -0.0077231715330658753 0 -0.010529983616928496 -0.007536074762377983 0 -0.01055104729822497 -0.0077877356907033856 0 -0.010432961409455942 -0.0076992315863434408 0 -0.010463073612467119 -0.0072790109738116084 0 -0.010529983616928496 -0.007536074762377983 0 -0.010432961409455942 -0.0076992315863434408 0 -0.010634182556722039 -0.0073042124786487578 0 -0.010529983616928496 -0.007536074762377983 0 -0.01055104729822497 -0.0077877356907033856 0 -0.01055104729822497 -0.0077877356907033856 0 -0.010438467678479659 -0.0079625553285950727 0 -0.010432961409455942 -0.0076992315863434408 0 -0.0034103727557149564 -0.0057836186748396095 0 -0.0032443703526176789 -0.0048614716019125988 0 -0.01055104729822497 -0.0077877356907033856 0 -0.01048396348232142 -0.0080938679400564626 0 -0.010438467678479659 -0.0079625553285950727 0 -0.010536779606452773 -0.0077317651403973333 0 -0.01055104729822497 -0.0077877356907033856 0 -0.01048396348232142 -0.0080938679400564626 0 0.0037549700951362204 -0.0036322321668603749 0 0.0040831735316899679 -0.0032965759947253411 0 0.003966601873300858 -0.0028246691097211247 0 0.0037549700951362204 -0.0036322321668603749 0 0.003966601873300858 -0.0028246691097211247 0 0.0033004965273951007 -0.0025055886687273062 0 0.0040831735316899679 -0.0032965759947253411 0 0.003966601873300858 -0.0028246691097211247 0 0.004447175099149288 -0.0032302812647815758 0 0.003966601873300858 -0.0028246691097211247 0 0.0042737094391968296 -0.0022407191118783442 0 0.0033004965273951007 -0.0025055886687273062 0 0.003966601873300858 -0.0028246691097211247 0 0.0042737094391968296 -0.0022407191118783442 0 0.0045934833358881929 -0.0027519632902357791 0 0.0042737094391968296 -0.0022407191118783442 0 0.0033004965273951007 -0.0025055886687273062 0 0.0038834824628922286 -0.0014824892869122908 0 -0.01048396348232142 -0.0080938679400564626 0 -0.010396970221708445 -0.0081943307325646458 0 -0.010366820307552245 -0.0081433958051443274 0 0.0033004965273951007 -0.0025055886687273062 0 0.0028389463592421397 -0.0012613636214495155 0 0.0038834824628922286 -0.0014824892869122908 0 -0.0032443703526176789 -0.0048614716019125988 0 -0.0066920238611624279 -0.0069867996719959529 0 -0.01069661927350646 -0.010583314783013184 0 -0.011936996006727698 -0.010223840930871517 0 -0.011218593938762369 -0.011678473558269609 0 -0.011936996006727698 -0.010223840930871517 0 -0.012088965852482337 -0.011908917613519195 0 -0.011218593938762369 -0.011678473558269609 0 -0.01069661927350646 -0.010583314783013184 0 -0.010205940996081467 -0.011317273506389738 0 -0.011218593938762369 -0.011678473558269609 0 -0.0066920238611624279 -0.0069867996719959529 0 -0.01207888148680516 -0.0099801171721407081 0 -0.012958396210745878 -0.011511610532635067 0 -0.011936996006727698 -0.010223840930871517 0 -0.012088965852482337 -0.011908917613519195 0 -0.01048396348232142 -0.0080938679400564626 0 -0.010366820307552245 -0.0081433958051443274 0 -0.010363340838945544 -0.0081558931761520591 0 -0.01069661927350646 -0.010583314783013184 0 -0.011936996006727698 -0.010223840930871517 0 -0.010734568593009929 -0.0096724197332391845 0 -0.010366820307552245 -0.0081433958051443274 0 -0.010342893287053621 -0.0085103218412968182 0 -0.010363340838945544 -0.0081558931761520591 0 -0.011936996006727698 -0.010223840930871517 0 -0.010734568593009929 -0.0096724197332391845 0 -0.010342893287053621 -0.0085103218412968182 0 -0.01207888148680516 -0.0099801171721407081 0 -0.01004078504517473 -0.0081687871830739087 0 -0.010734568593009929 -0.0096724197332391845 0 -0.010342893287053621 -0.0085103218412968182 0 -0.010252980361738624 -0.008954383411831926 0 -0.010342893287053621 -0.0085103218412968182 0 -0.01034117435647622 -0.008189776486767086 0 -0.010363340838945544 -0.0081558931761520591 0 -0.01034117435647622 -0.008189776486767086 0 -0.010260016635443289 -0.008179234535671499 0 -0.010320291687475053 -0.0079779639689603523 0 -0.010342893287053621 -0.0085103218412968182 0 -0.01034117435647622 -0.008189776486767086 0 -0.010260016635443289 -0.008179234535671499 0 -0.010342893287053621 -0.0085103218412968182 0 -0.010260016635443289 -0.008179234535671499 0 -0.009878091083003724 -0.0080116706086593749 0 -0.01048396348232142 -0.0080938679400564626 0 -0.010363340838945544 -0.0081558931761520591 0 -0.010438467678479659 -0.0079625553285950727 0 -0.01034117435647622 -0.008189776486767086 0 -0.010363340838945544 -0.0081558931761520591 0 -0.010374440243481916 -0.008028744550380381 0 -0.010374440243481916 -0.008028744550380381 0 -0.010382792526202301 -0.0078616892715565653 0 -0.010320291687475053 -0.0079779639689603523 0 -0.01034117435647622 -0.008189776486767086 0 -0.010374440243481916 -0.008028744550380381 0 -0.010320291687475053 -0.0079779639689603523 0 -0.010374440243481916 -0.008028744550380381 0 -0.010438467678479659 -0.0079625553285950727 0 -0.010382792526202301 -0.0078616892715565653 0 -0.010363340838945544 -0.0081558931761520591 0 -0.010374440243481916 -0.008028744550380381 0 -0.010438467678479659 -0.0079625553285950727 0 -0.010438467678479659 -0.0079625553285950727 0 -0.010432961409455942 -0.0076992315863434408 0 -0.010382792526202301 -0.0078616892715565653 0 -0.010432961409455942 -0.0076992315863434408 0 -0.010382792526202301 -0.0078616892715565653 0 -0.010310637842052243 -0.0077333389848631695 0 -0.010382792526202301 -0.0078616892715565653 0 -0.010310637842052243 -0.0077333389848631695 0 -0.010320291687475053 -0.0079779639689603523 0 -0.010194020794781591 -0.0074097219764912084 0 -0.010310637842052243 -0.0077333389848631695 0 -0.010353158127106857 -0.0074519508613023668 0 -0.010463073612467119 -0.0072790109738116084 0 -0.010432961409455942 -0.0076992315863434408 0 -0.010353158127106857 -0.0074519508613023668 0 -0.010432961409455942 -0.0076992315863434408 0 -0.010310637842052243 -0.0077333389848631695 0 -0.010353158127106857 -0.0074519508613023668 0 -0.010224425627588983 -0.0079006930963356897 0 -0.009980860056748973 -0.0075552412499283331 0 -0.009878091083003724 -0.0080116706086593749 0 -0.010260016635443289 -0.008179234535671499 0 -0.010224425627588983 -0.0079006930963356897 0 -0.009878091083003724 -0.0080116706086593749 0 -0.010310637842052243 -0.0077333389848631695 0 -0.010224425627588983 -0.0079006930963356897 0 -0.010187569006757817 -0.0076543366505308725 0 -0.010260016635443289 -0.008179234535671499 0 -0.010224425627588983 -0.0079006930963356897 0 -0.010320291687475053 -0.0079779639689603523 0 -0.010310637842052243 -0.0077333389848631695 0 -0.010224425627588983 -0.0079006930963356897 0 -0.010320291687475053 -0.0079779639689603523 0 -0.010194020794781591 -0.0074097219764912084 0 -0.010310637842052243 -0.0077333389848631695 0 -0.010187569006757817 -0.0076543366505308725 0 -0.010194020794781591 -0.0074097219764912084 0 -0.010187569006757817 -0.0076543366505308725 0 -0.009980860056748973 -0.0075552412499283331 0 -0.010224425627588983 -0.0079006930963356897 0 -0.010187569006757817 -0.0076543366505308725 0 -0.009980860056748973 -0.0075552412499283331 0 -0.009980860056748973 -0.0075552412499283331 0 -0.009878091083003724 -0.0080116706086593749 0 -0.0096246170715313419 -0.0074977000199964788 0 -0.009878091083003724 -0.0080116706086593749 0 -0.0096246170715313419 -0.0074977000199964788 0 -0.0090381325825323357 -0.0077980594202216322 0 -0.009878091083003724 -0.0080116706086593749 0 -0.0090381325825323357 -0.0077980594202216322 0 -0.0090337330904193113 -0.0084567783501993902 0 -0.0090381325825323357 -0.0077980594202216322 0 -0.0090337330904193113 -0.0084567783501993902 0 -0.0082055448692237992 -0.0081862487479184461 0 -0.009878091083003724 -0.0080116706086593749 0 -0.0090337330904193113 -0.0084567783501993902 0 -0.010252980361738624 -0.008954383411831926 0 -0.0092635670452130073 -0.0092299032622879147 0 -0.010252980361738624 -0.008954383411831926 0 -0.0099699768569695355 -0.0097874703007754006 0 -0.0090831727842813955 -0.0088301928998961183 0 -0.010248019108010658 -0.0089922343777780189 0 -0.010342893287053621 -0.0085103218412968182 0 -0.009878091083003724 -0.0080116706086593749 0 -0.010252980361738624 -0.008954383411831926 0 -0.0085134214221319459 -0.0083116749211409602 0 -0.0087636478544001056 -0.0084784737192859887 0 -0.0095960511594068518 -0.0041424643780836453 0 -0.0097728799701788591 -0.0038465821922648285 0 -0.0099786342171425957 -0.0042570872696948339 0 -0.0095960511594068518 -0.0041424643780836453 0 -0.0097728799701788591 -0.0038465821922648285 0 -0.0094689040392424411 -0.0038912357448211798 0 -0.0085905032906622939 -0.0074597880875418238 0 -0.0090381325825323357 -0.0077980594202216322 0 -0.0082055448692237992 -0.0081862487479184461 0 -0.0095383450478361189 -0.0052261947409233149 0 -0.0087636478544001056 -0.0084784737192859887 0 -0.010179669090679572 -0.0037912801965270214 0 -0.0097728799701788591 -0.0038465821922648285 0 -0.0099786342171425957 -0.0042570872696948339 0 -0.0092635670452130073 -0.0092299032622879147 0 -0.0081752506943982457 -0.0090641847158092013 0 -0.0085875051588283451 -0.0099481207499864145 0 -0.0090831727842813955 -0.0088301928998961183 0 -0.0087636478544001056 -0.0084784737192859887 0 -0.0081752506943982457 -0.0090641847158092013 0 -0.0078172645190378431 -0.0099253902317823009 0 -0.0085875051588283451 -0.0099481207499864145 0 -0.0076163015882576186 -0.012497981092134033 0 -0.006787792245557131 -0.012218186908379442 0 -0.0073305816649528429 -0.012000836694349254 0 -0.006787792245557131 -0.012218186908379442 0 -0.0073305816649528429 -0.012000836694349254 0 -0.0071967023327693651 -0.011450798220923503 0 -0.0087636478544001056 -0.0084784737192859887 0 -0.0073549744504213775 -0.011091884419695599 0 -0.0071967023327693651 -0.011450798220923503 0 -0.0077179367917228139 -0.011861547233991696 0 -0.0077474013220194503 -0.0113206944954393 0 -0.0073305816649528429 -0.012000836694349254 0 -0.0071967023327693651 -0.011450798220923503 0 -0.0077179367917228139 -0.011861547233991696 0 -0.0076163015882576186 -0.012497981092134033 0 -0.0073305816649528429 -0.012000836694349254 0 -0.0077179367917228139 -0.011861547233991696 0 -0.0073549744504213775 -0.011091884419695599 0 -0.0076751393618918308 -0.010728758178273311 0 -0.0071967023327693651 -0.011450798220923503 0 -0.0076841379516014302 -0.010915395843178756 0 -0.0077474013220194503 -0.0113206944954393 0 -0.0078172645190378431 -0.0099253902317823009 0 -0.0081217131250254301 -0.010717502964467697 0 -0.0076841379516014302 -0.010915395843178756 0 -0.0078172645190378431 -0.0099253902317823009 0 -0.0085875051588283451 -0.0099481207499864145 0 -0.0081217131250254301 -0.010717502964467697 0 -0.0085875051588283451 -0.0099481207499864145 0 -0.0087758065155253903 -0.010668692102132249 0 -0.0081217131250254301 -0.010717502964467697 0 -0.0087758065155253903 -0.010668692102132249 0 -0.0084895453736240131 -0.011419146300184565 0 -0.0091406839525191019 -0.011666856867545572 0 -0.0084895453736240131 -0.011419146300184565 0 -0.0081217131250254301 -0.010717502964467697 0 -0.0076083380629525443 -0.011343111735585297 0 -0.0087758065155253903 -0.010668692102132249 0 -0.0084895453736240131 -0.011419146300184565 0 -0.0081217131250254301 -0.010717502964467697 0 -0.0076083380629525443 -0.011343111735585297 0 -0.0076841379516014302 -0.010915395843178756 0 -0.008008114062753504 -0.010834224352868991 0 -0.0081217131250254301 -0.010717502964467697 0 -0.0076083380629525443 -0.011343111735585297 0 -0.0076841379516014302 -0.010915395843178756 0 -0.0099699768569695355 -0.0097874703007754006 0 -0.0093534012640692291 -0.010137509712375162 0 -0.0099597578992664561 -0.010580802529384705 0 -0.01069661927350646 -0.010583314783013184 0 -0.0099699768569695355 -0.0097874703007754006 0 -0.0099597578992664561 -0.010580802529384705 0 -0.01069661927350646 -0.010583314783013184 0 -0.010734568593009929 -0.0096724197332391845 0 -0.0099699768569695355 -0.0097874703007754006 0 -0.010734568593009929 -0.0096724197332391845 0 -0.010252980361738624 -0.008954383411831926 0 -0.0099699768569695355 -0.0097874703007754006 0 -0.0092635670452130073 -0.0092299032622879147 0 -0.0099699768569695355 -0.0097874703007754006 0 -0.0093534012640692291 -0.010137509712375162 0 -0.0092635670452130073 -0.0092299032622879147 0 -0.0085875051588283451 -0.0099481207499864145 0 -0.0093534012640692291 -0.010137509712375162 0 -0.0085875051588283451 -0.0099481207499864145 0 -0.0087758065155253903 -0.010668692102132249 0 -0.0093534012640692291 -0.010137509712375162 0 -0.0093534012640692291 -0.010137509712375162 0 -0.0095419020114120255 -0.011052706099873215 0 -0.0099597578992664561 -0.010580802529384705 0 -0.0087758065155253903 -0.010668692102132249 0 -0.0095419020114120255 -0.011052706099873215 0 -0.0091406839525191019 -0.011666856867545572 0 -0.0087758065155253903 -0.010668692102132249 0 -0.0093534012640692291 -0.010137509712375162 0 -0.0095419020114120255 -0.011052706099873215 0 -0.0095419020114120255 -0.011052706099873215 0 -0.0097989746522533609 -0.011990699587316304 0 -0.0091406839525191019 -0.011666856867545572 0 -0.0095419020114120255 -0.011052706099873215 0 -0.010205940996081467 -0.011317273506389738 0 -0.0097989746522533609 -0.011990699587316304 0 -0.0095419020114120255 -0.011052706099873215 0 -0.010205940996081467 -0.011317273506389738 0 -0.0099597578992664561 -0.010580802529384705 0 -0.01069661927350646 -0.010583314783013184 0 -0.010205940996081467 -0.011317273506389738 0 -0.0099597578992664561 -0.010580802529384705 0 -0.010205940996081467 -0.011317273506389738 0 -0.010509028854786738 -0.012169738222156567 0 -0.011218593938762369 -0.011678473558269609 0 -0.010509028854786738 -0.012169738222156567 0 -0.0097989746522533609 -0.011990699587316304 0 -0.010094457849560125 -0.012895440913118214 0 -0.010205940996081467 -0.011317273506389738 0 -0.010509028854786738 -0.012169738222156567 0 -0.0097989746522533609 -0.011990699587316304 0 -0.0097989746522533609 -0.011990699587316304 0 -0.010094457849560125 -0.012895440913118214 0 -0.0090661958533838644 -0.01311049497596832 0 -0.0097989746522533609 -0.011990699587316304 0 -0.0091406839525191019 -0.011666856867545572 0 -0.0090661958533838644 -0.01311049497596832 0 -0.0090661958533838644 -0.01311049497596832 0 -0.0091637524611157886 -0.013978931063073652 0 -0.0097775287242406837 -0.013900260188396416 0 -0.010094457849560125 -0.012895440913118214 0 -0.0090661958533838644 -0.01311049497596832 0 -0.0097775287242406837 -0.013900260188396416 0 -0.010094457849560125 -0.012895440913118214 0 -0.010454627227232687 -0.013674644523783846 0 -0.011144583739968813 -0.013083500089171089 0 -0.010509028854786738 -0.012169738222156567 0 -0.010094457849560125 -0.012895440913118214 0 -0.011144583739968813 -0.013083500089171089 0 -0.010094457849560125 -0.012895440913118214 0 -0.010454627227232687 -0.013674644523783846 0 -0.0097775287242406837 -0.013900260188396416 0 -0.009140260934415027 -0.013159552400907814 0 -0.0089200883407222001 -0.013330779509092146 0 -0.0096893320530933493 -0.012801428512727336 0 -0.0084352273034979993 -0.012272041715482006 0 -0.0090349195999629654 -0.013057899777797581 0 -0.0084895453736240131 -0.011419146300184565 0 -0.0076083380629525443 -0.011343111735585297 0 -0.0090661958533838644 -0.01311049497596832 0 -0.009140260934415027 -0.013159552400907814 0 -0.0090661958533838644 -0.01311049497596832 0 -0.0089200883407222001 -0.013330779509092146 0 -0.0084895453736240131 -0.011419146300184565 0 -0.0091406839525191019 -0.011666856867545572 0 -0.0090661958533838644 -0.01311049497596832 0 -0.0090661958533838644 -0.01311049497596832 0 -0.0089200883407222001 -0.013330779509092146 0 -0.0091637524611157886 -0.013978931063073652 0 -0.0089200883407222001 -0.013330779509092146 0 -0.0087737365585081016 -0.014164707899491496 0 -0.0083326985924167818 -0.013996493744046573 0 -0.0089566951813845972 -0.01333329784353574 0 -0.0090613881715429952 -0.013365979967763545 0 -0.0087737365585081016 -0.014164707899491496 0 -0.0083326985924167818 -0.013996493744046573 0 -0.008457114642802771 -0.014638638756451905 0 -0.0087737365585081016 -0.014164707899491496 0 -0.0091637524611157886 -0.013978931063073652 0 -0.0090927493128240885 -0.014916807851393604 0 -0.0089200883407222001 -0.013330779509092146 0 -0.0087737365585081016 -0.014164707899491496 0 -0.0091637524611157886 -0.013978931063073652 0 -0.0091637524611157886 -0.013978931063073652 0 -0.0090927493128240885 -0.014916807851393604 0 -0.0096501715667977953 -0.014657428755834166 0 -0.0090927493128240885 -0.014916807851393604 0 -0.008457114642802771 -0.014638638756451905 0 -0.0086222392172125902 -0.015420447090240385 0 -0.0087737365585081016 -0.014164707899491496 0 -0.0090927493128240885 -0.014916807851393604 0 -0.008457114642802771 -0.014638638756451905 0 -0.010454627227232687 -0.013674644523783846 0 -0.010347597411764439 -0.014691977516683922 0 -0.010970455674544131 -0.014100523818291881 0 -0.010454627227232687 -0.013674644523783846 0 -0.0097775287242406837 -0.013900260188396416 0 -0.010347597411764439 -0.014691977516683922 0 -0.0091637524611157886 -0.013978931063073652 0 -0.0097775287242406837 -0.013900260188396416 0 -0.0096501715667977953 -0.014657428755834166 0 -0.0097775287242406837 -0.013900260188396416 0 -0.0096501715667977953 -0.014657428755834166 0 -0.010347597411764439 -0.014691977516683922 0 -0.0090927493128240885 -0.014916807851393604 0 -0.0096501715667977953 -0.014657428755834166 0 -0.009680589345318619 -0.015560935167097743 0 -0.0096501715667977953 -0.014657428755834166 0 -0.010347597411764439 -0.014691977516683922 0 -0.009680589345318619 -0.015560935167097743 0 -0.010347597411764439 -0.014691977516683922 0 -0.01104404377017623 -0.014896913459279753 0 -0.01044244048342699 -0.015555154592175238 0 -0.010347597411764439 -0.014691977516683922 0 -0.01044244048342699 -0.015555154592175238 0 -0.009680589345318619 -0.015560935167097743 0 -0.01104404377017623 -0.014896913459279753 0 -0.010970455674544131 -0.014100523818291881 0 -0.0118895353539177 -0.014321042294418449 0 -0.01104404377017623 -0.014896913459279753 0 -0.0118895353539177 -0.014321042294418449 0 -0.011547827198628104 -0.015980020697812077 0 -0.010347597411764439 -0.014691977516683922 0 -0.01104404377017623 -0.014896913459279753 0 -0.010970455674544131 -0.014100523818291881 0 -0.010970455674544131 -0.014100523818291881 0 -0.0118895353539177 -0.014321042294418449 0 -0.011144583739968813 -0.013083500089171089 0 -0.010454627227232687 -0.013674644523783846 0 -0.010970455674544131 -0.014100523818291881 0 -0.011144583739968813 -0.013083500089171089 0 0.0015947430208016315 -0.0041879903830154214 0 0.00025573893507243678 -0.003606505660981944 0 0.00039700954623445598 -0.0024103959409838421 0 -0.0049511271337525633 -0.0091149323189651486 0 -0.0077659601645391442 -0.0087688889085088123 0 0.0015947430208016315 -0.0041879903830154214 0 0.0002295160116879145 -0.00512106958510889 0 0.00025573893507243678 -0.003606505660981944 0 0.0015947430208016315 -0.0041879903830154214 0 0.0002295160116879145 -0.00512106958510889 0 0.00032453384164000222 -0.0087135917244051606 0 -0.0049511271337525633 -0.0091149323189651486 0 -0.0046199166477676502 -0.01372601399561529 0 0.0015947430208016315 -0.0041879903830154214 0 0.00032453384164000222 -0.0087135917244051606 0 0.0024665889413570774 -0.011547590138350185 0 -0.00072777910555396077 -0.0046692730567024993 0 -0.001297330634921972 -0.0045170868635624056 0 0.00032453384164000222 -0.0087135917244051606 0 -0.0012283578067157637 -0.0034702471261422963 0 0.0003100073508402748 -0.0090186404010882768 0 -0.0037424990906830425 -0.0081225992743474904 0 -0.0022829265458378513 -0.010255216554871462 0 0.00032453384164000222 -0.0087135917244051606 0 0.0002295160116879145 -0.00512106958510889 0 -0.00072777910555396077 -0.0046692730567024993 0 0.00032453384164000222 -0.0087135917244051606 0 -0.0010181834992572729 -0.0036715128715214254 0 -0.0012283578067157637 -0.0034702471261422963 0 -0.00047527584605251531 -0.0039609462234783156 0 -0.0004439677572076247 -0.0039182800162456729 0 -8.4387323593516718e-05 -0.0031516821094128254 0 -0.00072777910555396077 -0.0046692730567024993 0 -0.00047527584605251531 -0.0039609462234783156 0 -0.0004439677572076247 -0.0039182800162456729 0 -0.00072777910555396077 -0.0046692730567024993 0 -0.0004439677572076247 -0.0039182800162456729 0 -0.00028722656370509998 -0.0040190110249281284 0 0.0002295160116879145 -0.00512106958510889 0 -0.00072777910555396077 -0.0046692730567024993 0 -0.00028722656370509998 -0.0040190110249281284 0 -0.0012283578067157637 -0.0034702471261422963 0 0.0013336310317560375 -0.00058632553605360098 0 -0.0012283578067157637 -0.0034702471261422963 0 -0.0033650145404966847 -0.0034685816010722407 0 -0.0037424990906830425 -0.0081225992743474904 0 -0.0056063685833056221 -0.010570075490813322 0 -0.008000807402075049 -0.0099272891433469287 0 -4.1858228447073349e-05 0.0014899189102492712 0 0.0017301926394144589 0.00071127805581129946 0 0.0023163683207635777 0.0021384564620299932 0 -0.00047527584605251531 -0.0039609462234783156 0 -8.4387323593516718e-05 -0.0031516821094128254 0 0.00056661539698279161 -0.0021114385081302547 0 -8.4387323593516718e-05 -0.0031516821094128254 0 -0.00016668512393806624 -0.003254678401988394 0 0.00051694278604720264 -0.0024348904760246306 0 -0.00016668512393806624 -0.003254678401988394 0 -2.4458324101531303e-05 -0.002865728440914565 0 0.00051694278604720264 -0.0024348904760246306 0 -8.4387323593516718e-05 -0.0031516821094128254 0 0.00051694278604720264 -0.0024348904760246306 0 0.00056661539698279161 -0.0021114385081302547 0 -8.4387323593516718e-05 -0.0031516821094128254 0 -0.0002846777895532889 -0.0035742412791018845 0 -0.00016668512393806624 -0.003254678401988394 0 0.0002295160116879145 -0.00512106958510889 0 0.00025573893507243678 -0.003606505660981944 0 -0.00028722656370509998 -0.0040190110249281284 0 0.00025573893507243678 -0.003606505660981944 0 -0.00028722656370509998 -0.0040190110249281284 0 -0.00016668512393806624 -0.003254678401988394 0 -0.0004439677572076247 -0.0039182800162456729 0 -0.00028722656370509998 -0.0040190110249281284 0 -0.0002846777895532889 -0.0035742412791018845 0 -0.0004439677572076247 -0.0039182800162456729 0 -8.4387323593516718e-05 -0.0031516821094128254 0 -0.0002846777895532889 -0.0035742412791018845 0 -0.00028722656370509998 -0.0040190110249281284 0 -0.0002846777895532889 -0.0035742412791018845 0 -0.00016668512393806624 -0.003254678401988394 0 0.00025573893507243678 -0.003606505660981944 0 -0.00016668512393806624 -0.003254678401988394 0 -2.4458324101531303e-05 -0.002865728440914565 0 -2.4458324101531303e-05 -0.002865728440914565 0 5.3183354001107496e-06 -0.0027661050125083061 0 0.00039700954623445598 -0.0024103959409838421 0 0.00025573893507243678 -0.003606505660981944 0 -2.4458324101531303e-05 -0.002865728440914565 0 0.00039700954623445598 -0.0024103959409838421 0 0.00016008129709394402 -0.0026446477604868284 0 0.0013219093780623774 -0.0026351908727064144 0 0.00051694278604720264 -0.0024348904760246306 0 0.00024701081922779143 -0.0029248537823874038 0 0.0012427219988762259 -0.0030185522686426592 0 -2.4458324101531303e-05 -0.002865728440914565 0 0.00051694278604720264 -0.0024348904760246306 0 5.3183354001107496e-06 -0.0027661050125083061 0 0.0038834824628922286 -0.0014824892869122908 0 0.0034433626099596606 -0.00055174027406974943 0 0.0046359076115751333 -0.00077700773237727354 0 0.0013219093780623774 -0.0026351908727064144 0 0.0030355972484503663 -0.0017995331571106937 0 -0.0047934497231590396 -0.0079891060234989885 0 -0.002638474800170269 -0.0055210243104072895 0 -0.0057049122915513355 -0.0048605447230551267 0 0.0013219093780623774 -0.0026351908727064144 0 -0.0077659601645391442 -0.0087688889085088123 0 0.0028389463592421397 -0.0012613636214495155 0 0.0038834824628922286 -0.0014824892869122908 0 0.0034433626099596606 -0.00055174027406974943 0 -0.0066920238611624279 -0.0069867996719959529 0 -0.0077659601645391442 -0.0087688889085088123 0 -0.0066920238611624279 -0.0069867996719959529 0 0.0013219093780623774 -0.0026351908727064144 0 -0.012088965852482337 -0.011908917613519195 0 -0.011144583739968813 -0.013083500089171089 0 -0.012608993251486787 -0.012697880564866808 0 -0.012958396210745878 -0.011511610532635067 0 -0.012088965852482337 -0.011908917613519195 0 -0.012608993251486787 -0.012697880564866808 0 -0.012088965852482337 -0.011908917613519195 0 -0.011218593938762369 -0.011678473558269609 0 -0.011144583739968813 -0.013083500089171089 0 -0.010509028854786738 -0.012169738222156567 0 -0.011218593938762369 -0.011678473558269609 0 -0.011144583739968813 -0.013083500089171089 0 -0.0118895353539177 -0.014321042294418449 0 -0.011144583739968813 -0.013083500089171089 0 -0.012289687294969664 -0.012778659210081774 0 -0.012868896064818133 -0.013562205631658638 0 -0.0077659601645391442 -0.0087688889085088123 0 -0.02072523497064524 -0.019333682322047258 0 -0.019236649990585861 -0.019901735380566655 0 -0.020162752925754184 -0.017988635384806811 0 -0.019236649990585861 -0.019901735380566655 0 -0.020162752925754184 -0.017988635384806811 0 -0.018436030881558898 -0.018118289000909695 0 -0.019236649990585861 -0.019901735380566655 0 -0.018436030881558898 -0.018118289000909695 0 -0.01578264220950587 -0.019739405855982523 0 -0.016997989192395674 -0.017359868983848548 0 -0.013688885885154815 -0.01637963949168298 0 -0.018436030881558898 -0.018118289000909695 0 -0.01578264220950587 -0.019739405855982523 0 -0.017287715106070939 -0.016501439435729289 0 -0.011090202663625485 -0.013265759829386711 0 -0.0075959444031590091 -0.012481388954392094 0 -0.0095074330508133596 -0.011150927654945898 0 -0.011333994895441532 -0.015027094374572813 0 -0.011090202663625485 -0.013265759829386711 0 -0.0075959444031590091 -0.012481388954392094 0 -0.013688885885154815 -0.01637963949168298 0 -0.0098972633380694768 -0.012688196402711632 0 -0.012018037329761418 -0.013808061614292762 0 -0.013829350168028654 -0.014120818701583538 0 -0.013546308940924673 -0.013152273804726503 0 -0.013829350168028654 -0.014120818701583538 0 -0.015570892269889452 -0.014467900217014738 0 -0.013546308940924673 -0.013152273804726503 0 -0.0075959444031590091 -0.012481388954392094 0 -0.0066422393727592196 -0.0077056755823847415 0 -0.0095074330508133596 -0.011150927654945898 0 -0.0066422393727592196 -0.0077056755823847415 0 -0.0095074330508133596 -0.011150927654945898 0 -0.011457836934779064 -0.0088234751863385755 0 -0.010837767712821926 -0.0051234549265266448 0 -0.010400335541079581 -0.0061059576310478446 0 -0.011395427207159544 -0.0062461128765113798 0 -0.0079258315400741516 -0.006889831971619808 0 -0.011768039575548443 -0.0087453629924323512 0 -0.010400335541079581 -0.0061059576310478446 0 -0.011395427207159544 -0.0062461128765113798 0 -0.011457836934779064 -0.0088234751863385755 0 -0.011395427207159544 -0.0062461128765113798 0 -0.011457836934779064 -0.0088234751863385755 0 -0.01251946209666469 -0.0073885550815406898 0 -0.013213994476470125 -0.0060817276356643695 0 -0.011395427207159544 -0.0062461128765113798 0 -0.01251946209666469 -0.0073885550815406898 0 -0.011090202663625485 -0.013265759829386711 0 -0.0095074330508133596 -0.011150927654945898 0 -0.011457836934779064 -0.0088234751863385755 0 -0.011196183573344816 -0.013206719579749879 0 -0.0129245000262039 -0.011093075290809851 0 -0.011090202663625485 -0.013265759829386711 0 -0.011457836934779064 -0.0088234751863385755 0 -0.014186553176220681 -0.0086826083572652431 0 -0.011939821827736832 -0.013470358817947756 0 -0.012064475784401861 -0.013633990727823748 0 -0.011821551471912752 -0.013809787454436548 0 -0.011090202663625485 -0.013265759829386711 0 -0.011939821827736832 -0.013470358817947756 0 -0.011821551471912752 -0.013809787454436548 0 -0.013213994476470125 -0.0060817276356643695 0 -0.014186553176220681 -0.0086826083572652431 0 -0.01251946209666469 -0.0073885550815406898 0 -0.011457836934779064 -0.0088234751863385755 0 -0.014186553176220681 -0.0086826083572652431 0 -0.01251946209666469 -0.0073885550815406898 0 -0.015475670392700579 -0.0062997221534887154 0 -0.013213994476470125 -0.0060817276356643695 0 -0.014186553176220681 -0.0086826083572652431 0 -0.011705794616325871 -0.013805247946267236 0 -0.011939821827736832 -0.013470358817947756 0 -0.011715068885716551 -0.013478210530683429 0 -0.013876088490281567 -0.010532750251429772 0 -0.0129245000262039 -0.011093075290809851 0 -0.011801453108771041 -0.013612445168088787 0 -0.012059233303554193 -0.013607416315404961 0 -0.011715068885716551 -0.013478210530683429 0 -0.012064475784401861 -0.013633990727823748 0 -0.01268546838000959 -0.014027056468027845 0 -0.011939821827736832 -0.013470358817947756 0 -0.011715068885716551 -0.013478210530683429 0 -0.012064475784401861 -0.013633990727823748 0 -0.011367009479084112 -0.013249232293995857 0 -0.011303266544548685 -0.01290470518406359 0 -0.011166728175533719 -0.013156117265238855 0 -0.01268546838000959 -0.014027056468027845 0 -0.012196076418274112 -0.014430079942715815 0 -0.013105638621039282 -0.015770520411670159 0 -0.012059233303554193 -0.013607416315404961 0 -0.010848757023006824 -0.014933144718533117 0 -0.012064475784401861 -0.013633990727823748 0 -0.012196076418274112 -0.014430079942715815 0 -0.011821551471912752 -0.013809787454436548 0 -0.012064475784401861 -0.013633990727823748 0 -0.01268546838000959 -0.014027056468027845 0 -0.012196076418274112 -0.014430079942715815 0 -0.011090202663625485 -0.013265759829386711 0 -0.011821551471912752 -0.013809787454436548 0 -0.011578534097050987 -0.014368964949223864 0 -0.011333994895441532 -0.015027094374572813 0 -0.011090202663625485 -0.013265759829386711 0 -0.011578534097050987 -0.014368964949223864 0 -0.012196076418274112 -0.014430079942715815 0 -0.011821551471912752 -0.013809787454436548 0 -0.011578534097050987 -0.014368964949223864 0 -0.012196076418274112 -0.014430079942715815 0 -0.011578534097050987 -0.014368964949223864 0 -0.011892660299648219 -0.015576030120587619 0 -0.013688885885154815 -0.01637963949168298 0 -0.012706224367557176 -0.017816788861646383 0 -0.013688885885154815 -0.01637963949168298 0 -0.011374451098286959 -0.016584839819177622 0 -0.01578264220950587 -0.019739405855982523 0 -0.012202250568169346 -0.017382067623893944 0 -0.0143521683791709 -0.016877002455834633 0 -0.011333994895441532 -0.015027094374572813 0 -0.011892660299648219 -0.015576030120587619 0 -0.012021260345181136 -0.016800686104732281 0 -0.011969613972573557 -0.017320991454856358 0 -0.012202250568169346 -0.017382067623893944 0 -0.012021260345181136 -0.016800686104732281 0 -0.011333994895441532 -0.015027094374572813 0 -0.011578534097050987 -0.014368964949223864 0 -0.011892660299648219 -0.015576030120587619 0 -0.012202250568169346 -0.017382067623893944 0 -0.012021260345181136 -0.016800686104732281 0 -0.011769668252746422 -0.016970512981036214 0 -0.012009037682609591 -0.01737415611971517 0 -0.012021260345181136 -0.016800686104732281 0 -0.011769668252746422 -0.016970512981036214 0 -0.011892660299648219 -0.015576030120587619 0 -0.012009037682609591 -0.01737415611971517 0 -0.012021260345181136 -0.016800686104732281 0 -0.012385069429568418 -0.015979761049437449 0 -0.010848757023006824 -0.014933144718533117 0 -0.012196076418274112 -0.014430079942715815 0 -0.011892660299648219 -0.015576030120587619 0 -0.013105638621039282 -0.015770520411670159 0 -0.011303266544548685 -0.01290470518406359 0 -0.01087747746123552 -0.013146576951133452 0 -0.011166728175533719 -0.013156117265238855 0 -0.010848757023006824 -0.014933144718533117 0 -0.009108026763422988 -0.013226985541381329 0 -0.011303266544548685 -0.01290470518406359 0 -0.01087747746123552 -0.013146576951133452 0 -0.010608569068089392 -0.012758789056487247 0 -0.01087747746123552 -0.013146576951133452 0 -0.010382326567421067 -0.013236437239670121 0 -0.010608569068089392 -0.012758789056487247 0 -0.01087747746123552 -0.013146576951133452 0 -0.010564453146929529 -0.0135535186307921 0 -0.010382326567421067 -0.013236437239670121 0 -0.01087747746123552 -0.013146576951133452 0 -0.011135060106093967 -0.013354818112295665 0 -0.010564453146929529 -0.0135535186307921 0 -0.01087747746123552 -0.013146576951133452 0 -0.011166728175533719 -0.013156117265238855 0 -0.011135060106093967 -0.013354818112295665 0 -0.011367009479084112 -0.013249232293995857 0 -0.011166728175533719 -0.013156117265238855 0 -0.011135060106093967 -0.013354818112295665 0 -0.011715068885716551 -0.013478210530683429 0 -0.011135060106093967 -0.013354818112295665 0 -0.011132919734972919 -0.013609986877583156 0 -0.011715068885716551 -0.013478210530683429 0 -0.011367009479084112 -0.013249232293995857 0 -0.011135060106093967 -0.013354818112295665 0 -0.011705794616325871 -0.013805247946267236 0 -0.011715068885716551 -0.013478210530683429 0 -0.011132919734972919 -0.013609986877583156 0 -0.0099230652965923462 -0.014090736270622945 0 -0.011132919734972919 -0.013609986877583156 0 -0.010016373753630218 -0.01313337639756604 0 -0.011132919734972919 -0.013609986877583156 0 -0.010016373753630218 -0.01313337639756604 0 -0.0096746265811222584 -0.011953571944614829 0 -0.011058904994208446 -0.01355007706294933 0 -0.010104142663282217 -0.012766146810279502 0 -0.011135060106093967 -0.013354818112295665 0 -0.011132919734972919 -0.013609986877583156 0 -0.010564453146929529 -0.0135535186307921 0 -0.0096746265811222584 -0.011953571944614829 0 -0.008320084632669247 -0.011870473696804518 0 -0.008008114062753504 -0.010834224352868991 0 -0.0096746265811222584 -0.011953571944614829 0 -0.0089595686488370425 -0.012372933164349896 0 -0.008320084632669247 -0.011870473696804518 0 -0.0089595686488370425 -0.012372933164349896 0 -0.0085210825443098066 -0.012501045624798153 0 -0.008320084632669247 -0.011870473696804518 0 -0.0096746265811222584 -0.011953571944614829 0 -0.0089595686488370425 -0.012372933164349896 0 -0.0093971110322348429 -0.01273127053199284 0 -0.0099230652965923462 -0.014090736270622945 0 -0.0089987016468429191 -0.013159614621150943 0 -0.008529315725843244 -0.013056290095681119 0 -0.010016373753630218 -0.01313337639756604 0 -0.0096746265811222584 -0.011953571944614829 0 -0.0093971110322348429 -0.01273127053199284 0 -0.010016373753630218 -0.01313337639756604 0 -0.0093971110322348429 -0.01273127053199284 0 -0.0089987016468429191 -0.013159614621150943 0 -0.0092874190660815325 -0.0089398534184268828 0 -0.0084826931138451116 -0.010377051967821316 0 -0.0089595686488370425 -0.012372933164349896 0 -0.0093971110322348429 -0.01273127053199284 0 -0.0088843816136345583 -0.012749914447474506 0 -0.0089595686488370425 -0.012372933164349896 0 -0.0088843816136345583 -0.012749914447474506 0 -0.0085210825443098066 -0.012501045624798153 0 -0.0088843816136345583 -0.012749914447474506 0 -0.0085374309064699758 -0.013003745364038869 0 -0.0085210825443098066 -0.012501045624798153 0 -0.0088843816136345583 -0.012749914447474506 0 -0.0089987016468429191 -0.013159614621150943 0 -0.0085374309064699758 -0.013003745364038869 0 -0.0090479110390951946 -0.011311611399361501 0 -0.0084826931138451116 -0.010377051967821316 0 -0.0093971110322348429 -0.01273127053199284 0 -0.0088843816136345583 -0.012749914447474506 0 -0.0089987016468429191 -0.013159614621150943 0 -0.0099230652965923462 -0.014090736270622945 0 -0.010016373753630218 -0.01313337639756604 0 -0.0089987016468429191 -0.013159614621150943 0 -0.0095960511594068518 -0.0041424643780836453 0 -0.0094689040392424411 -0.0038912357448211798 0 -0.0092089961955068352 -0.0040451721192605629 0 -0.0085134214221319459 -0.0083116749211409602 0 -0.0084826931138451116 -0.010377051967821316 0 -0.0076163015882576186 -0.012497981092134033 0 -0.0084244550688137385 -0.012769780412864308 0 -0.0080910735963251653 -0.012476954030551112 0 -0.0094689040392424411 -0.0038912357448211798 0 -0.0093202723232437418 -0.0037974528627237629 0 -0.0092089961955068352 -0.0040451721192605629 0 -0.009167235001262224 -0.0036177899134262736 0 -0.0093202723232437418 -0.0037974528627237629 0 -0.0092089961955068352 -0.0040451721192605629 0 -0.0085374309064699758 -0.013003745364038869 0 -0.0085210825443098066 -0.012501045624798153 0 -0.0080910735963251653 -0.012476954030551112 0 -0.0084826931138451116 -0.010377051967821316 0 -0.00883315581243929 -0.011967718028757941 0 -0.0076163015882576186 -0.012497981092134033 0 -0.0080910735963251653 -0.012476954030551112 0 -0.0077179367917228139 -0.011861547233991696 0 -0.0080910735963251653 -0.012476954030551112 0 -0.008320084632669247 -0.011870473696804518 0 -0.0077179367917228139 -0.011861547233991696 0 -0.0085210825443098066 -0.012501045624798153 0 -0.0080910735963251653 -0.012476954030551112 0 -0.008320084632669247 -0.011870473696804518 0 -0.008320084632669247 -0.011870473696804518 0 -0.0077179367917228139 -0.011861547233991696 0 -0.0077474013220194503 -0.0113206944954393 0 -0.008320084632669247 -0.011870473696804518 0 -0.0077474013220194503 -0.0113206944954393 0 -0.008008114062753504 -0.010834224352868991 0 -0.0076841379516014302 -0.010915395843178756 0 -0.0077474013220194503 -0.0113206944954393 0 -0.008008114062753504 -0.010834224352868991 0 -0.010104142663282217 -0.012766146810279502 0 -0.0089249799654603588 -0.012120108127768359 0 -0.010564453146929529 -0.0135535186307921 0 -0.0098276160821229083 -0.013360109229486147 0 -0.010382326567421067 -0.013236437239670121 0 -0.0098276160821229083 -0.013360109229486147 0 -0.010382326567421067 -0.013236437239670121 0 -0.010009041183269155 -0.013062908816095451 0 -0.010382326567421067 -0.013236437239670121 0 -0.010009041183269155 -0.013062908816095451 0 -0.010608569068089392 -0.012758789056487247 0 -0.009140260934415027 -0.013159552400907814 0 -0.0098276160821229083 -0.013360109229486147 0 -0.0096648829798415322 -0.013095491227305099 0 -0.0098276160821229083 -0.013360109229486147 0 -0.010009041183269155 -0.013062908816095451 0 -0.0096648829798415322 -0.013095491227305099 0 -0.0084352273034979993 -0.012272041715482006 0 -0.0089249799654603588 -0.012120108127768359 0 -0.009140260934415027 -0.013159552400907814 0 -0.0096648829798415322 -0.013095491227305099 0 -0.0096893320530933493 -0.012801428512727336 0 -0.010009041183269155 -0.013062908816095451 0 -0.0096648829798415322 -0.013095491227305099 0 -0.0096893320530933493 -0.012801428512727336 0 -0.0081920254989921153 -0.013803743168846756 0 -0.0080628027144180204 -0.014022342319730723 0 -0.0080895893488747792 -0.014120707623068449 0 -0.0090613881715429952 -0.013365979967763545 0 -0.009108026763422988 -0.013226985541381329 0 -0.010009041183269155 -0.013062908816095451 0 -0.0096893320530933493 -0.012801428512727336 0 -0.010608569068089392 -0.012758789056487247 0 -0.0081920254989921153 -0.013803743168846756 0 -0.0080628027144180204 -0.014022342319730723 0 -0.0083326985924167818 -0.013996493744046573 0 -0.0089200883407222001 -0.013330779509092146 0 -0.0081920254989921153 -0.013803743168846756 0 -0.0083326985924167818 -0.013996493744046573 0 -0.0083326985924167818 -0.013996493744046573 0 -0.008457114642802771 -0.014638638756451905 0 -0.0080422776595827535 -0.014428565859460809 0 -0.008457114642802771 -0.014638638756451905 0 -0.0081917203975072211 -0.015243303238969113 0 -0.0086222392172125902 -0.015420447090240385 0 -0.008457114642802771 -0.014638638756451905 0 -0.0080422776595827535 -0.014428565859460809 0 -0.0081917203975072211 -0.015243303238969113 0 -0.0080422776595827535 -0.014428565859460809 0 -0.0079517960787800143 -0.015318639156691722 0 -0.0081917203975072211 -0.015243303238969113 0 -0.0080628027144180204 -0.014022342319730723 0 -0.0083326985924167818 -0.013996493744046573 0 -0.0080422776595827535 -0.014428565859460809 0 -0.0080628027144180204 -0.014022342319730723 0 -0.0080422776595827535 -0.014428565859460809 0 -0.0080177314624808246 -0.01410853830603487 0 -0.0080422776595827535 -0.014428565859460809 0 -0.0080177314624808246 -0.01410853830603487 0 -0.0078346385529206534 -0.014440112126397082 0 -0.0080422776595827535 -0.014428565859460809 0 -0.0078346385529206534 -0.014440112126397082 0 -0.0079517960787800143 -0.015318639156691722 0 -0.0078346385529206534 -0.014440112126397082 0 -0.007763969813667144 -0.014367837338322831 0 -0.0072080176552492461 -0.014744822357825371 0 -0.0080177314624808246 -0.01410853830603487 0 -0.0078346385529206534 -0.014440112126397082 0 -0.0080688618639852671 -0.01407259985663408 0 -0.007763969813667144 -0.014367837338322831 0 -0.0080688618639852671 -0.01407259985663408 0 -0.0081551700867031913 -0.014034029289713063 0 -0.0078346385529206534 -0.014440112126397082 0 -0.007763969813667144 -0.014367837338322831 0 -0.0080688618639852671 -0.01407259985663408 0 -0.0080177314624808246 -0.01410853830603487 0 -0.0080688618639852671 -0.01407259985663408 0 -0.0081730654019377211 -0.014003915035252477 0 -0.0080688618639852671 -0.01407259985663408 0 -0.0085729246375508463 -0.013856740760863823 0 -0.0081551700867031913 -0.014034029289713063 0 -0.0080688618639852671 -0.01407259985663408 0 -0.0081730654019377211 -0.014003915035252477 0 -0.0085729246375508463 -0.013856740760863823 0 -0.0081548215330231131 -0.014078010901952102 0 -0.0081730654019377211 -0.014003915035252477 0 -0.0085729246375508463 -0.013856740760863823 0 -0.0081548215330231131 -0.014078010901952102 0 -0.0083683545386110461 -0.014166895566017792 0 -0.0085729246375508463 -0.013856740760863823 0 -0.0080177314624808246 -0.01410853830603487 0 -0.0081548215330231131 -0.014078010901952102 0 -0.0081730654019377211 -0.014003915035252477 0 -0.0080628027144180204 -0.014022342319730723 0 -0.0080177314624808246 -0.01410853830603487 0 -0.0081548215330231131 -0.014078010901952102 0 -0.0080628027144180204 -0.014022342319730723 0 -0.0081548215330231131 -0.014078010901952102 0 -0.0080895893488747792 -0.014120707623068449 0 -0.0083878571237522778 -0.014325193679715091 0 -0.0080895893488747792 -0.014120707623068449 0 -0.0083683545386110461 -0.014166895566017792 0 -0.0081548215330231131 -0.014078010901952102 0 -0.0080895893488747792 -0.014120707623068449 0 -0.0083683545386110461 -0.014166895566017792 0 -0.010848757023006824 -0.014933144718533117 0 -0.0093329900618261408 -0.014988607254515795 0 -0.012009037682609591 -0.01737415611971517 0 -0.010307893316534169 -0.015821725459672694 0 -0.011769668252746422 -0.016970512981036214 0 -0.011984725991702952 -0.016292494540474402 0 -0.013155940512294852 -0.015043327670797279 0 -0.010984054968489016 -0.015122651818740715 0 -0.011984725991702952 -0.016292494540474402 0 -0.010307893316534169 -0.015821725459672694 0 -0.010984054968489016 -0.015122651818740715 0 -0.012202250568169346 -0.017382067623893944 0 -0.011984725991702952 -0.016292494540474402 0 -0.011769668252746422 -0.016970512981036214 0 -0.011984725991702952 -0.016292494540474402 0 -0.010307893316534169 -0.015821725459672694 0 -0.011769668252746422 -0.016970512981036214 0 -0.012202250568169346 -0.017382067623893944 0 -0.011984725991702952 -0.016292494540474402 0 -0.0143521683791709 -0.016877002455834633 0 -0.0143521683791709 -0.016877002455834633 0 -0.013155940512294852 -0.015043327670797279 0 -0.017287715106070939 -0.016501439435729289 0 -0.011984725991702952 -0.016292494540474402 0 -0.0143521683791709 -0.016877002455834633 0 -0.013155940512294852 -0.015043327670797279 0 -0.013155940512294852 -0.015043327670797279 0 -0.015191027574979825 -0.012070943748804 0 -0.017287715106070939 -0.016501439435729289 0 -0.013155940512294852 -0.015043327670797279 0 -0.012274236355941107 -0.013117866982861269 0 -0.011452880461228665 -0.014264301667213269 0 -0.013155940512294852 -0.015043327670797279 0 -0.012274236355941107 -0.013117866982861269 0 -0.015191027574979825 -0.012070943748804 0 -0.0093329900618261408 -0.014988607254515795 0 -0.0087900477583724487 -0.013793979192790082 0 -0.012274236355941107 -0.013117866982861269 0 -0.011452880461228665 -0.014264301667213269 0 -0.0094542132971166572 -0.013998751542422761 0 -0.010307893316534169 -0.015821725459672694 0 -0.0094542132971166572 -0.013998751542422761 0 -0.0085729246375508463 -0.013856740760863823 0 -0.012274236355941107 -0.013117866982861269 0 -0.0094542132971166572 -0.013998751542422761 0 -0.011691205076486418 -0.010270464710492228 0 -0.013155940512294852 -0.015043327670797279 0 -0.010984054968489016 -0.015122651818740715 0 -0.011452880461228665 -0.014264301667213269 0 -0.010984054968489016 -0.015122651818740715 0 -0.011452880461228665 -0.014264301667213269 0 -0.0094542132971166572 -0.013998751542422761 0 -0.010307893316534169 -0.015821725459672694 0 -0.010984054968489016 -0.015122651818740715 0 -0.0094542132971166572 -0.013998751542422761 0 -0.0094542132971166572 -0.013998751542422761 0 -0.0085729246375508463 -0.013856740760863823 0 -0.0081551700867031913 -0.014034029289713063 0 -0.0094542132971166572 -0.013998751542422761 0 -0.0078565567138741688 -0.014087346295338159 0 -0.0081551700867031913 -0.014034029289713063 0 -0.0092985331986865909 -0.013832743730256468 0 -0.0098865729083284799 -0.012246174997110419 0 -0.0078565567138741688 -0.014087346295338159 0 -0.0081551700867031913 -0.014034029289713063 0 -0.0076947704393577065 -0.01444296165265184 0 -0.007763969813667144 -0.014367837338322831 0 -0.0076947704393577065 -0.01444296165265184 0 -0.0072080176552492461 -0.014744822357825371 0 -0.007763969813667144 -0.014367837338322831 0 -0.0081551700867031913 -0.014034029289713063 0 -0.0076947704393577065 -0.01444296165265184 0 -0.0078565567138741688 -0.014087346295338159 0 -0.0076947704393577065 -0.01444296165265184 0 -0.0075959419139021685 -0.014418903803761686 0 -0.018073946439354577 -0.013981915848086604 0 -0.018687943920294731 -0.014136261267545915 0 -0.018651161260265534 -0.013762491843659854 0 -0.018073946439354577 -0.013981915848086604 0 -0.018651161260265534 -0.013762491843659854 0 -0.018480458158943679 -0.013304380455926674 0 -0.012656195438258648 -0.012736707871248004 0 -0.013631177864337011 -0.017169314919365616 0 -0.012656195438258648 -0.012736707871248004 0 -0.0068580670679386823 -0.014679568449737175 0 -0.0076947704393577065 -0.01444296165265184 0 -0.0075959419139021685 -0.014418903803761686 0 -0.0076309121942742574 -0.01447985507166898 0 -0.0098865729083284799 -0.012246174997110419 0 -0.012656195438258648 -0.012736707871248004 0 -0.012656195438258648 -0.012736707871248004 0 -0.016993610343202056 -0.013419463913285612 0 -0.011691205076486418 -0.010270464710492228 0 -0.013473156935975217 -0.0072602968384400442 0 -0.015191027574979825 -0.012070943748804 0 -0.012274236355941107 -0.013117866982861269 0 -0.011691205076486418 -0.010270464710492228 0 -0.015191027574979825 -0.012070943748804 0 -0.018073946439354577 -0.013981915848086604 0 -0.01827732766446017 -0.015238117500970948 0 -0.018687943920294731 -0.014136261267545915 0 -0.01827732766446017 -0.015238117500970948 0 -0.018984759835459684 -0.01471409790553333 0 -0.018687943920294731 -0.014136261267545915 0 -0.01827732766446017 -0.015238117500970948 0 -0.018984759835459684 -0.01471409790553333 0 -0.019122181982717139 -0.015475153693384713 0 -0.018984759835459684 -0.01471409790553333 0 -0.019702617611383009 -0.014686974040501675 0 -0.019122181982717139 -0.015475153693384713 0 -0.018984759835459684 -0.01471409790553333 0 -0.019579054646569186 -0.014188062017142192 0 -0.019702617611383009 -0.014686974040501675 0 -0.018984759835459684 -0.01471409790553333 0 -0.018687943920294731 -0.014136261267545915 0 -0.019095839778105955 -0.014075918083320078 0 -0.018687943920294731 -0.014136261267545915 0 -0.019095839778105955 -0.014075918083320078 0 -0.018651161260265534 -0.013762491843659854 0 -0.018984759835459684 -0.01471409790553333 0 -0.019095839778105955 -0.014075918083320078 0 -0.019579054646569186 -0.014188062017142192 0 -0.019579054646569186 -0.014188062017142192 0 -0.019410318320625987 -0.013923399366625783 0 -0.019671751194459311 -0.014093039989165074 0 -0.019095839778105955 -0.014075918083320078 0 -0.019579054646569186 -0.014188062017142192 0 -0.019410318320625987 -0.013923399366625783 0 -0.019410318320625987 -0.013923399366625783 0 -0.019111071507522674 -0.013671398547150066 0 -0.020007855119358198 -0.013416385688344442 0 -0.019095839778105955 -0.014075918083320078 0 -0.019410318320625987 -0.013923399366625783 0 -0.019111071507522674 -0.013671398547150066 0 -0.019111071507522674 -0.013671398547150066 0 -0.018651161260265534 -0.013762491843659854 0 -0.018480458158943679 -0.013304380455926674 0 -0.019095839778105955 -0.014075918083320078 0 -0.019111071507522674 -0.013671398547150066 0 -0.018651161260265534 -0.013762491843659854 0 -0.02010944450092135 -0.013882863680831739 0 -0.019579054646569186 -0.014188062017142192 0 -0.019671751194459311 -0.014093039989165074 0 -0.019562941699109701 -0.016909033621681301 0 -0.020182672382996657 -0.013454573623503926 0 -0.021221650342638867 -0.015059212658108077 0 -0.019579054646569186 -0.014188062017142192 0 -0.020745385395228029 -0.014793644313980982 0 -0.02010944450092135 -0.013882863680831739 0 -0.019671751194459311 -0.014093039989165074 0 -0.019778843735847512 -0.013885474129999869 0 -0.019579054646569186 -0.014188062017142192 0 -0.020745385395228029 -0.014793644313980982 0 -0.020189816422197165 -0.014544823234936681 0 -0.019410318320625987 -0.013923399366625783 0 -0.019671751194459311 -0.014093039989165074 0 -0.020007855119358198 -0.013416385688344442 0 -0.020496148278447042 -0.013115354291958377 0 -0.01856823986039691 -0.019219037669321294 0 -0.020745385395228029 -0.014793644313980982 0 -0.020581135561384353 -0.014659346040418301 0 -0.020189816422197165 -0.014544823234936681 0 -0.020581135561384353 -0.014659346040418301 0 -0.019702617611383009 -0.014686974040501675 0 -0.020189816422197165 -0.014544823234936681 0 -0.019579054646569186 -0.014188062017142192 0 -0.019702617611383009 -0.014686974040501675 0 -0.020189816422197165 -0.014544823234936681 0 -0.020581135561384353 -0.014659346040418301 0 -0.019702617611383009 -0.014686974040501675 0 -0.019122181982717139 -0.015475153693384713 0 -0.021213247145949233 -0.01434621484851243 0 -0.020628747677577067 -0.014570464289647598 0 -0.020469418185733609 -0.016291251049057588 0 -0.020581135561384353 -0.014659346040418301 0 -0.019122181982717139 -0.015475153693384713 0 -0.020469418185733609 -0.016291251049057588 0 -0.019122181982717139 -0.015475153693384713 0 -0.019141791872874309 -0.016740996319660587 0 -0.01827732766446017 -0.015238117500970948 0 -0.019122181982717139 -0.015475153693384713 0 -0.017287715106070939 -0.016501439435729289 0 -0.016993610343202056 -0.013419463913285612 0 -0.017311906873517947 -0.016516924866876444 0 -0.019122181982717139 -0.015475153693384713 0 -0.017287715106070939 -0.016501439435729289 0 -0.019141791872874309 -0.016740996319660587 0 -0.01578264220950587 -0.019739405855982523 0 -0.0143521683791709 -0.016877002455834633 0 -0.017287715106070939 -0.016501439435729289 0 -0.018436030881558898 -0.018118289000909695 0 -0.017287715106070939 -0.016501439435729289 0 -0.019141791872874309 -0.016740996319660587 0 -0.020162752925754184 -0.017988635384806811 0 -0.018436030881558898 -0.018118289000909695 0 -0.019141791872874309 -0.016740996319660587 0 -0.020469418185733609 -0.016291251049057588 0 -0.020162752925754184 -0.017988635384806811 0 -0.019141791872874309 -0.016740996319660587 0 -0.016107176412784533 -0.024450423063107619 0 -0.016071999804778424 -0.024473788482124986 0 -0.016067737347254703 -0.024215972253390849 0 -0.0094998997223805295 -0.025981181225043195 0 -0.0094822547455210814 -0.025973908811383388 0 -0.0094719915979870079 -0.025940084910416796 0 -0.015968051169902343 -0.024452196042560544 0 -0.016071999804778424 -0.024473788482124986 0 -0.016089129075379474 -0.024211543408945005 0 -0.013402278656890037 -0.025670883207308731 0 -0.012914422624703837 -0.025324581666854147 0 -0.0095434087921910347 -0.025977264934263781 0 -0.0094998997223805295 -0.025981181225043195 0 -0.009508454948449931 -0.025981909411451135 0 -0.015984458589408126 -0.02469801368217801 0 -0.015994265112319009 -0.024573250512062925 0 -0.016107176412784533 -0.024450423063107619 0 -0.015994265112319009 -0.024573250512062925 0 -0.016107176412784533 -0.024450423063107619 0 -0.016071999804778424 -0.024473788482124986 0 -0.0094998997223805295 -0.025981181225043195 0 -0.0094878929321396827 -0.025984045415622329 0 -0.0094822547455210814 -0.025973908811383388 0 -0.0094998997223805295 -0.025981181225043195 0 -0.0094878929321396827 -0.025984045415622329 0 -0.009508454948449931 -0.025981909411451135 0 -0.0094878929321396827 -0.025984045415622329 0 -0.0094703768187154192 -0.02598263811657266 0 -0.0094719718423337245 -0.02599605400866134 0 -0.0094703768187154192 -0.02598263811657266 0 -0.0094822547455210814 -0.025973908811383388 0 -0.0094719915979870079 -0.025940084910416796 0 -0.0076982898752994472 -0.02126635616303009 0 -0.0063464622222475326 -0.022702740779217627 0 -0.0094878929321396827 -0.025984045415622329 0 -0.0094703768187154192 -0.02598263811657266 0 -0.0094822547455210814 -0.025973908811383388 0 -0.0094703768187154192 -0.02598263811657266 0 -0.0094432101275842319 -0.026003225073407975 0 -0.0094719718423337245 -0.02599605400866134 0 -0.0094703768187154192 -0.02598263811657266 0 -0.0094719915979870079 -0.025940084910416796 0 -0.0094432101275842319 -0.026003225073407975 0 -0.0076982898752994472 -0.02126635616303009 0 -0.0044503642967937034 -0.018498989261732237 0 -0.0026746760205709312 -0.017872034138963769 0 -0.0030846007512912122 -0.01709832445336034 0 -0.0035659570078128977 -0.018000654780012951 0 -0.0024843343993535788 -0.017982070456909822 0 -0.0020638666917655742 -0.017544054828056294 0 -0.0030846007512912122 -0.01709832445336034 0 -0.0076982898752994472 -0.02126635616303009 0 -0.013493014229890427 -0.022066296678359174 0 -0.016071999804778424 -0.024473788482124986 0 -0.016515379618332052 -0.023809254670274796 0 -0.016089129075379474 -0.024211543408945005 0 -0.016515379618332052 -0.023809254670274796 0 -0.0160733654394099 -0.024022834906958109 0 -0.016200332973597013 -0.023771900218455124 0 -0.016593376947364898 -0.024856520323117727 0 -0.013493014229890427 -0.022066296678359174 0 -0.016107176412784533 -0.024450423063107619 0 -0.01610417978291567 -0.024260466799105301 0 -0.016067737347254703 -0.024215972253390849 0 -0.012914422624703837 -0.025324581666854147 0 -0.0076982898752994472 -0.02126635616303009 0 -0.016515379618332052 -0.023809254670274796 0 -0.016089129075379474 -0.024211543408945005 0 -0.0160733654394099 -0.024022834906958109 0 -0.015939031483913728 -0.024257990374403276 0 -0.016089129075379474 -0.024211543408945005 0 -0.0160733654394099 -0.024022834906958109 0 -0.015975448066505284 -0.023920604208756954 0 -0.016200332973597013 -0.023771900218455124 0 -0.016220608637723104 -0.023476530763830671 0 -0.015975448066505284 -0.023920604208756954 0 -0.0160733654394099 -0.024022834906958109 0 -0.016200332973597013 -0.023771900218455124 0 -0.015854717308722149 -0.023542896546307659 0 -0.016220608637723104 -0.023476530763830671 0 -0.016389100130832942 -0.02305267698241199 0 -0.015854717308722149 -0.023542896546307659 0 -0.015975448066505284 -0.023920604208756954 0 -0.016220608637723104 -0.023476530763830671 0 -0.016464595633080194 -0.023725870704160695 0 -0.016220608637723104 -0.023476530763830671 0 -0.016461118845255928 -0.023369132945415271 0 -0.016515379618332052 -0.023809254670274796 0 -0.016200332973597013 -0.023771900218455124 0 -0.016220608637723104 -0.023476530763830671 0 -0.013493014229890427 -0.022066296678359174 0 -0.016482895950351927 -0.02415633052486801 0 -0.016220608637723104 -0.023476530763830671 0 -0.016461118845255928 -0.023369132945415271 0 -0.016389100130832942 -0.02305267698241199 0 -0.015968773465974025 -0.024675649415237762 0 -0.01856823986039691 -0.019219037669321294 0 -0.015854717308722149 -0.023542896546307659 0 -0.016389100130832942 -0.02305267698241199 0 -0.016218913894977347 -0.022632078596846714 0 -0.019562941699109701 -0.016909033621681301 0 -0.01856823986039691 -0.019219037669321294 0 -0.016389100130832942 -0.02305267698241199 0 -0.016766597092010983 -0.023200630948754575 0 -0.017059148070424322 -0.022630848925194645 0 -0.019111071507522674 -0.013671398547150066 0 -0.020007855119358198 -0.013416385688344442 0 -0.018480458158943679 -0.013304380455926674 0 -0.016389100130832942 -0.02305267698241199 0 -0.016218913894977347 -0.022632078596846714 0 -0.017059148070424322 -0.022630848925194645 0 -0.01856823986039691 -0.019219037669321294 0 -0.013631177864337011 -0.017169314919365616 0 -0.0094946913481738903 -0.020169236772183036 0 -0.013631177864337011 -0.017169314919365616 0 -0.0028345719477295339 -0.016051465264449886 0 -0.0030846007512912122 -0.01709832445336034 0 -0.0039811193427750392 -0.015888110351555355 0 -0.016461118845255928 -0.023369132945415271 0 -0.016389100130832942 -0.02305267698241199 0 -0.016766597092010983 -0.023200630948754575 0 -0.016464595633080194 -0.023725870704160695 0 -0.016461118845255928 -0.023369132945415271 0 -0.016766597092010983 -0.023200630948754575 0 -0.013493014229890427 -0.022066296678359174 0 -0.0094946913481738903 -0.020169236772183036 0 -0.0020638666917655742 -0.017544054828056294 0 -0.0028345719477295339 -0.016051465264449886 0 -0.0030846007512912122 -0.01709832445336034 0 -0.0030846007512912122 -0.01709832445336034 0 -0.0039999735283394629 -0.017107512574366594 0 -0.0039811193427750392 -0.015888110351555355 0 -0.0039999735283394629 -0.017107512574366594 0 -0.0039811193427750392 -0.015888110351555355 0 -0.0053235411582671496 -0.016182153422059992 0 -0.0039811193427750392 -0.015888110351555355 0 -0.004730788454461861 -0.01459695711910354 0 -0.0036795676108296502 -0.014586721028172921 0 -0.0039811193427750392 -0.015888110351555355 0 -0.004730788454461861 -0.01459695711910354 0 -0.0053235411582671496 -0.016182153422059992 0 -0.0028345719477295339 -0.016051465264449886 0 -0.0039811193427750392 -0.015888110351555355 0 -0.0036795676108296502 -0.014586721028172921 0 -0.011241059998583693 -0.014864478574746008 0 -0.011318742090679942 -0.015139564109406093 0 -0.011091019727893966 -0.015138679677505512 0 -0.0068580670679386823 -0.014679568449737175 0 -0.013631177864337011 -0.017169314919365616 0 -0.0076947704393577065 -0.01444296165265184 0 -0.0076309121942742574 -0.01447985507166898 0 -0.0072080176552492461 -0.014744822357825371 0 -0.0068580670679386823 -0.014679568449737175 0 -0.0069031691120344666 -0.014662271897692338 0 -0.0048369173097712551 -0.014525311979726892 0 -0.0053235411582671496 -0.016182153422059992 0 -0.0072080176552492461 -0.014744822357825371 0 -0.0068580670679386823 -0.014679568449737175 0 -0.0051113583135975436 -0.015796501742139157 0 -0.0053235411582671496 -0.016182153422059992 0 -0.0041817630106684286 -0.018227503006942637 0 -0.0068604691981936292 -0.017210435114657793 0 -0.004268540604703424 -0.018170105115789485 0 -0.005779462532019804 -0.017577826087380212 0 -0.0041817630106684286 -0.018227503006942637 0 -0.0044861404793677733 -0.019010430728891102 0 -0.0048143297581061629 -0.017982100208400537 0 -0.0039999735283394629 -0.017107512574366594 0 -0.0053235411582671496 -0.016182153422059992 0 -0.0041817630106684286 -0.018227503006942637 0 -0.0026746760205709312 -0.017872034138963769 0 -0.0035659570078128977 -0.018000654780012951 0 -0.0038255251046124231 -0.019257179127538795 0 -0.0039999735283394629 -0.017107512574366594 0 -0.0035659570078128977 -0.018000654780012951 0 -0.0041817630106684286 -0.018227503006942637 0 -0.0030846007512912122 -0.01709832445336034 0 -0.0039999735283394629 -0.017107512574366594 0 -0.0035659570078128977 -0.018000654780012951 0 -0.0035659570078128977 -0.018000654780012951 0 -0.0041817630106684286 -0.018227503006942637 0 -0.0038255251046124231 -0.019257179127538795 0 -0.0041817630106684286 -0.018227503006942637 0 -0.0038255251046124231 -0.019257179127538795 0 -0.0044861404793677733 -0.019010430728891102 0 -0.0044861404793677733 -0.019010430728891102 0 -0.0055254170000747114 -0.019135490838010971 0 -0.0048143297581061629 -0.017982100208400537 0 -0.0055254170000747114 -0.019135490838010971 0 -0.0048143297581061629 -0.017982100208400537 0 -0.0061512020930706715 -0.017229820382267762 0 -0.005779462532019804 -0.017577826087380212 0 -0.0071148187075361739 -0.016756716721918169 0 -0.0053235411582671496 -0.016182153422059992 0 -0.0068604691981936292 -0.017210435114657793 0 -0.0075301700265113444 -0.015840058728788704 0 -0.0053235411582671496 -0.016182153422059992 0 -0.0075301700265113444 -0.015840058728788704 0 -0.0072080176552492461 -0.014744822357825371 0 -0.0078346385529206534 -0.014440112126397082 0 -0.0072080176552492461 -0.014744822357825371 0 -0.0079517960787800143 -0.015318639156691722 0 -0.0075301700265113444 -0.015840058728788704 0 -0.0072080176552492461 -0.014744822357825371 0 -0.0079517960787800143 -0.015318639156691722 0 -0.0068604691981936292 -0.017210435114657793 0 -0.0075301700265113444 -0.015840058728788704 0 -0.0080283142168171145 -0.016211484761241332 0 -0.0075301700265113444 -0.015840058728788704 0 -0.0079517960787800143 -0.015318639156691722 0 -0.0080283142168171145 -0.016211484761241332 0 -0.0071148187075361739 -0.016756716721918169 0 -0.0080669342363005499 -0.016362119512939068 0 -0.0079517960787800143 -0.015318639156691722 0 -0.0080283142168171145 -0.016211484761241332 0 -0.0080879590432599239 -0.016339966773815218 0 -0.0079517960787800143 -0.015318639156691722 0 -0.0081917203975072211 -0.015243303238969113 0 -0.0080879590432599239 -0.016339966773815218 0 -0.0081917203975072211 -0.015243303238969113 0 -0.0080879590432599239 -0.016339966773815218 0 -0.0086222392172125902 -0.015420447090240385 0 -0.0080879590432599239 -0.016339966773815218 0 -0.0070161206235360646 -0.018335876211093383 0 -0.008462859319668295 -0.01867605044225279 0 -0.0055254170000747114 -0.019135490838010971 0 -0.0061512020930706715 -0.017229820382267762 0 -0.0070161206235360646 -0.018335876211093383 0 -0.0061512020930706715 -0.017229820382267762 0 -0.0080879590432599239 -0.016339966773815218 0 -0.0070161206235360646 -0.018335876211093383 0 -0.0055254170000747114 -0.019135490838010971 0 -0.0070161206235360646 -0.018335876211093383 0 -0.0068776815032271284 -0.019996823269602879 0 -0.0070161206235360646 -0.018335876211093383 0 -0.0068776815032271284 -0.019996823269602879 0 -0.008462859319668295 -0.01867605044225279 0 -0.007334269137126973 -0.024999962001391544 0 -0.0093203027492129702 -0.025707542604661029 0 -0.011379956274344273 -0.024999660218250407 0 -0.0068776815032271284 -0.019996823269602879 0 -0.008115740703628747 -0.020825830634057092 0 -0.008462859319668295 -0.01867605044225279 0 -0.0068776815032271284 -0.019996823269602879 0 -0.0069803955510052773 -0.022573786755856542 0 -0.0056712172692933186 -0.020969247303621538 0 -0.0068776815032271284 -0.019996823269602879 0 -0.008115740703628747 -0.020825830634057092 0 -0.0069803955510052773 -0.022573786755856542 0 -0.008115740703628747 -0.020825830634057092 0 -0.0069803955510052773 -0.022573786755856542 0 -0.0087227331287614476 -0.022567642700723589 0 -0.0065074238696683157 -0.024999982259338013 0 -0.0069803955510052773 -0.022573786755856542 0 -0.0087227331287614476 -0.022567642700723589 0 -0.0065074238696683157 -0.024999982259338013 0 -0.0073259420763768348 -0.024998298228793431 0 -0.0069803955510052773 -0.022573786755856542 0 -0.0073259420763768348 -0.024998298228793431 0 -0.0069803955510052773 -0.022573786755856542 0 -0.0052767569207235604 -0.022766622748106043 0 -0.007334269137126973 -0.024999962001391544 0 -0.0084774311993090577 -0.025898075544640378 0 -0.0093203027492129702 -0.025707542604661029 0 -0.0069803955510052773 -0.022573786755856542 0 -0.0052767569207235604 -0.022766622748106043 0 -0.0056712172692933186 -0.020969247303621538 0 -0.0073339396330569144 -0.024999863950530356 0 -0.0068915056420168182 -0.024307836017217491 0 -0.0084774311993090577 -0.025898075544640378 0 -0.0093203027492129702 -0.025707542604661029 0 -0.0092844328856123461 -0.026117823487623017 0 -0.0052767569207235604 -0.022766622748106043 0 -0.0056712172692933186 -0.020969247303621538 0 -0.0042885304611909392 -0.020716722425904839 0 -0.0068915056420168182 -0.024307836017217491 0 -0.0068434205005750729 -0.023442848061322758 0 -0.0055254170000747114 -0.019135490838010971 0 -0.0068776815032271284 -0.019996823269602879 0 -0.0056712172692933186 -0.020969247303621538 0 -0.0055254170000747114 -0.019135490838010971 0 -0.0056712172692933186 -0.020969247303621538 0 -0.0042885304611909392 -0.020716722425904839 0 -0.0044861404793677733 -0.019010430728891102 0 -0.0055254170000747114 -0.019135490838010971 0 -0.0042885304611909392 -0.020716722425904839 0 -0.0094432101275842319 -0.026003225073407975 0 -0.009452418162823913 -0.026015478542926625 0 -0.0092844328856123461 -0.026117823487623017 0 -0.0038255251046124231 -0.019257179127538795 0 -0.0044861404793677733 -0.019010430728891102 0 -0.0042885304611909392 -0.020716722425904839 0 -0.0063464622222475326 -0.022702740779217627 0 -0.0068434205005750729 -0.023442848061322758 0 -0.0094432101275842319 -0.026003225073407975 0 -0.009452418162823913 -0.026015478542926625 0 -0.0094719718423337245 -0.02599605400866134 0 -0.009452418162823913 -0.026015478542926625 0 -0.0092844328856123461 -0.026117823487623017 0 -0.0094756608572740143 -0.02593178747747588 0 -0.009452418162823913 -0.026015478542926625 0 -0.0094756608572740143 -0.02593178747747588 0 -0.0094993868683672916 -0.0259834751191685 0 -0.009326891900687204 -0.025732356087780735 0 -0.01002097447885238 -0.026164199889216175 0 -0.0093203027492129702 -0.025707542604661029 0 -0.0092844328856123461 -0.026117823487623017 0 -0.0094756608572740143 -0.02593178747747588 0 -0.0093203027492129702 -0.025707542604661029 0 -0.010462086850242221 -0.02641654786201807 0 -0.011379956274344273 -0.024999660218250407 0 -0.010462086850242221 -0.02641654786201807 0 -0.011379956274344273 -0.024999660218250407 0 -0.011621668117980981 -0.027067493154958537 0 -0.01299839526702711 -0.025728833141119178 0 -0.011379956274344273 -0.024999660218250407 0 -0.011621668117980981 -0.027067493154958537 0 -0.012818131881727151 -0.026888874641635967 0 -0.01299839526702711 -0.025728833141119178 0 -0.011621668117980981 -0.027067493154958537 0 -0.012931845844308631 -0.027886277300569008 0 -0.012818131881727151 -0.026888874641635967 0 -0.011621668117980981 -0.027067493154958537 0 -0.01002097447885238 -0.026164199889216175 0 -0.010213669102761249 -0.026604213116162147 0 -0.009452418162823913 -0.026015478542926625 0 -0.0094993868683672916 -0.0259834751191685 0 -0.0094719718423337245 -0.02599605400866134 0 -0.0094993868683672916 -0.0259834751191685 0 -0.0094719718423337245 -0.02599605400866134 0 -0.0095046554503340468 -0.025984569921866485 0 -0.0094878929321396827 -0.025984045415622329 0 -0.0094719718423337245 -0.02599605400866134 0 -0.0095046554503340468 -0.025984569921866485 0 -0.0095434087921910347 -0.025977264934263781 0 -0.0094993868683672916 -0.0259834751191685 0 -0.0095046554503340468 -0.025984569921866485 0 -0.0094878929321396827 -0.025984045415622329 0 -0.009508454948449931 -0.025981909411451135 0 -0.0095046554503340468 -0.025984569921866485 0 -0.013402278656890037 -0.025670883207308731 0 -0.010213669102761249 -0.026604213116162147 0 -0.0095434087921910347 -0.025977264934263781 0 -0.009508454948449931 -0.025981909411451135 0 -0.0095046554503340468 -0.025984569921866485 0 0.0020606829433912678 -0.017457977810973122 0 -0.00075601496812034111 -0.019439865135831406 0 -0.0010133084027195518 -0.015027088293767478 0 -0.00075601496812034111 -0.019439865135831406 0 -0.0029349760422346712 -0.017716797290738127 0 -0.0010133084027195518 -0.015027088293767478 0 0.0020606829433912678 -0.017457977810973122 0 -0.00075601496812034111 -0.019439865135831406 0 0.00085743548839561944 -0.022072155312901999 0 -0.0044362269967503686 -0.01788569773643597 0 -0.0041345753158738138 -0.021968809359894106 0 -0.0028969838577189455 -0.020423713674894775 0 -0.0053812148694025964 -0.018305144536418381 0 -0.0029349760422346712 -0.017716797290738127 0 -0.00075601496812034111 -0.019439865135831406 0 -0.0028969838577189455 -0.020423713674894775 0 -0.0029349760422346712 -0.017716797290738127 0 -0.0028969838577189455 -0.020423713674894775 0 -0.0053812148694025964 -0.018305144536418381 0 -0.0054437827618921512 -0.020671000225949622 0 -0.0053812148694025964 -0.018305144536418381 0 -0.0046498136274994223 -0.014961100855470644 0 -0.0074738039222199491 -0.016376398474732625 0 -0.0053812148694025964 -0.018305144536418381 0 -0.0029349760422346712 -0.017716797290738127 0 -0.0046498136274994223 -0.014961100855470644 0 -0.0029349760422346712 -0.017716797290738127 0 -0.0046498136274994223 -0.014961100855470644 0 -0.0010133084027195518 -0.015027088293767478 0 -0.0046498136274994223 -0.014961100855470644 0 -0.002974307171342519 -0.012382043217524442 0 -0.0010133084027195518 -0.015027088293767478 0 -0.002974307171342519 -0.012382043217524442 0 -0.00072408400803184434 -0.01168952973326403 0 -0.0010133084027195518 -0.015027088293767478 0 -0.0046498136274994223 -0.014961100855470644 0 -0.0050306211938626801 -0.01253587581519874 0 -0.007345584584206903 -0.01313222501130067 0 -0.0046498136274994223 -0.014961100855470644 0 -0.0050306211938626801 -0.01253587581519874 0 -0.002974307171342519 -0.012382043217524442 0 -0.0050306211938626801 -0.01253587581519874 0 -0.0056063685833056221 -0.010570075490813322 0 -0.007345584584206903 -0.01313222501130067 0 -0.0050306211938626801 -0.01253587581519874 0 -0.0056063685833056221 -0.010570075490813322 0 -0.0039180911042750984 -0.010608675886242787 0 -0.0037424990906830425 -0.0081225992743474904 0 -0.0056063685833056221 -0.010570075490813322 0 -0.0039180911042750984 -0.010608675886242787 0 -0.002974307171342519 -0.012382043217524442 0 -0.0022829265458378513 -0.010255216554871462 0 -0.00072408400803184434 -0.01168952973326403 0 -0.002974307171342519 -0.012382043217524442 0 -0.0039180911042750984 -0.010608675886242787 0 -0.0022829265458378513 -0.010255216554871462 0 -0.0050306211938626801 -0.01253587581519874 0 -0.002974307171342519 -0.012382043217524442 0 -0.0039180911042750984 -0.010608675886242787 0 -0.0037424990906830425 -0.0081225992743474904 0 -0.0039180911042750984 -0.010608675886242787 0 -0.0022829265458378513 -0.010255216554871462 0 0.00032453384164000222 -0.0087135917244051606 0 -0.00072408400803184434 -0.01168952973326403 0 0.0024665889413570774 -0.011547590138350185 0 -0.0022829265458378513 -0.010255216554871462 0 0.00032453384164000222 -0.0087135917244051606 0 -0.00072408400803184434 -0.01168952973326403 0 -0.00072408400803184434 -0.01168952973326403 0 -0.0010133084027195518 -0.015027088293767478 0 0.0024665889413570774 -0.011547590138350185 0 0.0020606829433912678 -0.017457977810973122 0 -0.0010133084027195518 -0.015027088293767478 0 0.0024665889413570774 -0.011547590138350185 0 -0.010929401662506119 -0.01853890903633592 0 -0.011547827198628104 -0.015980020697812077 0 -0.0095916978463258563 -0.016618364904284116 0 -0.0044362269967503686 -0.01788569773643597 0 -0.0046199166477676502 -0.01372601399561529 0 -0.01104404377017623 -0.014896913459279753 0 -0.011547827198628104 -0.015980020697812077 0 -0.01044244048342699 -0.015555154592175238 0 -0.011547827198628104 -0.015980020697812077 0 -0.01044244048342699 -0.015555154592175238 0 -0.0095916978463258563 -0.016618364904284116 0 -0.01044244048342699 -0.015555154592175238 0 -0.009680589345318619 -0.015560935167097743 0 -0.0095916978463258563 -0.016618364904284116 0 -0.009680589345318619 -0.015560935167097743 0 -0.0095916978463258563 -0.016618364904284116 0 -0.0092511063288527855 -0.016285758781245909 0 -0.0095916978463258563 -0.016618364904284116 0 -0.0092511063288527855 -0.016285758781245909 0 -0.010068448196065817 -0.017866246571187998 0 -0.0090927493128240885 -0.014916807851393604 0 -0.0086222392172125902 -0.015420447090240385 0 -0.0092511063288527855 -0.016285758781245909 0 -0.0090927493128240885 -0.014916807851393604 0 -0.009680589345318619 -0.015560935167097743 0 -0.0092511063288527855 -0.016285758781245909 0 -0.0080879590432599239 -0.016339966773815218 0 -0.0092511063288527855 -0.016285758781245909 0 -0.0090317738792205816 -0.017296664739315945 0 -0.0080879590432599239 -0.016339966773815218 0 -0.0086222392172125902 -0.015420447090240385 0 -0.0092511063288527855 -0.016285758781245909 0 -0.0080879590432599239 -0.016339966773815218 0 -0.0090317738792205816 -0.017296664739315945 0 -0.008462859319668295 -0.01867605044225279 0 -0.0092511063288527855 -0.016285758781245909 0 -0.0090317738792205816 -0.017296664739315945 0 -0.010068448196065817 -0.017866246571187998 0 -0.0090317738792205816 -0.017296664739315945 0 -0.008462859319668295 -0.01867605044225279 0 -0.010068448196065817 -0.017866246571187998 0 -0.0084492218552026724 -0.018869036902792256 0 -0.0074271507115315901 -0.021579825648527326 0 -0.008462859319668295 -0.01867605044225279 0 -0.010068448196065817 -0.017866246571187998 0 -0.0097042822896408233 -0.020139750603405122 0 -0.010929401662506119 -0.01853890903633592 0 -0.0095916978463258563 -0.016618364904284116 0 -0.0068300929606713943 -0.019759604438860327 0 -0.010929401662506119 -0.01853890903633592 0 -0.0068300929606713943 -0.019759604438860327 0 -0.0090205847341232638 -0.022183852767483976 0 -0.0094881716142010547 -0.016800569529894348 0 -0.0084492218552026724 -0.018869036902792256 0 -0.0068300929606713943 -0.019759604438860327 0 -0.0090205847341232638 -0.022183852767483976 0 -0.0051199062742791077 -0.023004284407817672 0 -0.0090205847341232638 -0.022183852767483976 0 -0.0051199062742791077 -0.023004284407817672 0 -0.0069054916696718316 -0.024766099697304218 0 0.00085743548839561944 -0.022072155312901999 0 -0.0013065333964043494 -0.024724589469049516 0 -0.001691138266470173 -0.024871202027246683 0 -0.0051199062742791077 -0.023004284407817672 0 -0.0053584723216668333 -0.025072647494251487 0 -0.0069054916696718316 -0.024766099697304218 0 -0.0041345753158738138 -0.021968809359894106 0 -0.0041432629343820188 -0.024444128888951682 0 -0.008115740703628747 -0.020825830634057092 0 -0.008462859319668295 -0.01867605044225279 0 -0.0097042822896408233 -0.020139750603405122 0 -0.0051199062742791077 -0.023004284407817672 0 -0.0050806884911234439 -0.024997300953227185 0 -0.0053584723216668333 -0.025072647494251487 0 -0.008115740703628747 -0.020825830634057092 0 -0.0097042822896408233 -0.020139750603405122 0 -0.0087227331287614476 -0.022567642700723589 0 -0.0074271507115315901 -0.021579825648527326 0 -0.0069244694036312594 -0.023675142616985608 0 -0.0050806884911234439 -0.024997300953227185 0 -0.0053584723216668333 -0.025072647494251487 0 -0.0053208660699254617 -0.02499950345220233 0 -0.0053584723216668333 -0.025072647494251487 0 -0.0053208660699254617 -0.02499950345220233 0 -0.0041484772147865031 -0.025000665947806935 0 -0.0064976700554068697 -0.024999852588111101 0 -0.0050806884911234439 -0.024997300953227185 0 -0.0053208660699254617 -0.02499950345220233 0 -0.0064989485323546656 -0.024999471429119617 0 -0.0069244694036312594 -0.023675142616985608 0 -0.0053584723216668333 -0.025072647494251487 0 -0.0069054916696718316 -0.024766099697304218 0 -0.0041484772147865031 -0.025000665947806935 0 -0.0041432629343820188 -0.024444128888951682 0 -0.0041446513115357998 -0.024999185580383054 0 -0.0013065333964043494 -0.024724589469049516 0 -0.0041414972426739088 -0.024999384625971913 0 -0.0028503714183428707 -0.024999647334102718 0 -0.0028503714183428707 -0.024999647334102718 0 -0.001691138266470173 -0.024871202027246683 0 -0.0015593465556948247 -0.024999867798171132 0 -0.001691138266470173 -0.024871202027246683 0 -0.0020543701253791626 -0.02493367099304554 0 -0.0015593465556948247 -0.024999867798171132 0 -0.0013065333964043494 -0.024724589469049516 0 -0.0028503714183428707 -0.024999647334102718 0 -0.001691138266470173 -0.024871202027246683 0 0.00085743548839561944 -0.022072155312901999 0 -0.001691138266470173 -0.024871202027246683 0 -0.001445000602281652 -0.022621924880980734 0 -0.001691138266470173 -0.024871202027246683 0 -0.001445000602281652 -0.022621924880980734 0 -0.0020543701253791626 -0.02493367099304554 0 -0.00075601496812034111 -0.019439865135831406 0 -0.0028969838577189455 -0.020423713674894775 0 -0.001445000602281652 -0.022621924880980734 0 -0.00075601496812034111 -0.019439865135831406 0 0.00085743548839561944 -0.022072155312901999 0 -0.001445000602281652 -0.022621924880980734 0 -0.0054437827618921512 -0.020671000225949622 0 -0.0039090911570536825 -0.022492028359249572 0 -0.0062815712795401572 -0.022428343481666075 0 -0.0028969838577189455 -0.020423713674894775 0 -0.0054437827618921512 -0.020671000225949622 0 -0.0039090911570536825 -0.022492028359249572 0 -0.0028969838577189455 -0.020423713674894775 0 -0.001445000602281652 -0.022621924880980734 0 -0.0039090911570536825 -0.022492028359249572 0 -0.0039090911570536825 -0.022492028359249572 0 -0.0054108020556728736 -0.0238639369859719 0 -0.0020543701253791626 -0.02493367099304554 0 -0.001445000602281652 -0.022621924880980734 0 -0.0039090911570536825 -0.022492028359249572 0 -0.0020543701253791626 -0.02493367099304554 0 -0.0039090911570536825 -0.022492028359249572 0 -0.0054108020556728736 -0.0238639369859719 0 -0.0062815712795401572 -0.022428343481666075 0 -0.00040692337194392396 -0.025977399761148729 0 -0.00094812647230938212 -0.025194846967956749 0 -0.0020543701253791626 -0.02493367099304554 0 -0.00040692337194392396 -0.025977399761148729 0 -0.00094812647230938212 -0.025194846967956749 0 0.00042771137185715309 -0.025558675390290986 0 -0.0027956489512315826 -0.024848809144387425 0 -0.0020517365831140845 -0.02497330964115814 0 -0.00094812647230938212 -0.025194846967956749 0 -0.0020543701253791626 -0.02493367099304554 0 -0.0015593465556948247 -0.024999867798171132 0 -0.00094812647230938212 -0.025194846967956749 0 -0.0015593465556948247 -0.024999867798171132 0 -0.00026639774996714403 -0.024999450485764275 0 -0.00094812647230938212 -0.025194846967956749 0 -0.00026639774996714403 -0.024999450485764275 0 0.00042771137185715309 -0.025558675390290986 0 -0.00026639774996714403 -0.024999450485764275 0 0.00042771137185715309 -0.025558675390290986 0 0.0010267068250500392 -0.02499985563171327 0 0.00042771137185715309 -0.025558675390290986 0 0.0010267068250500392 -0.02499985563171327 0 0.0017928631586675862 -0.025915604645386944 0 0.0004691517334243138 -0.02559484116881509 0 0.0012901677713819512 -0.02580716622392186 0 0.00042771137185715309 -0.025558675390290986 0 0.00074407547417096006 -0.025722503457750272 0 0.00052001696472115712 -0.025995368133796069 0 -0.00040692337194392396 -0.025977399761148729 0 0.00042771137185715309 -0.025558675390290986 0 0.00052001696472115712 -0.025995368133796069 0 0.0023198954919724786 -0.024999996192639585 0 0.0017928631586675862 -0.025915604645386944 0 0.0030065184804333451 -0.026113736575521188 0 0.0023198954919724786 -0.024999996192639585 0 0.0030065184804333451 -0.026113736575521188 0 0.0036125979442322652 -0.024999987567608729 0 0.0010267068250500392 -0.02499985563171327 0 0.0023198954919724786 -0.024999996192639585 0 0.0017928631586675862 -0.025915604645386944 0 0.00074407547417096006 -0.025722503457750272 0 0.00080458615079795012 -0.02593904215302504 0 0.00052001696472115712 -0.025995368133796069 0 0.00074407547417096006 -0.025722503457750272 0 0.00096311006675871031 -0.025772077440396484 0 0.00080458615079795012 -0.02593904215302504 0 0.0012901677713819512 -0.02580716622392186 0 0.0018283464524808701 -0.025922538506960042 0 -0.005516751591453063 -0.022137399844367633 0 -0.0051768543119054969 -0.022937936330107961 0 -0.0037810714480923133 -0.022244987453313398 0 -0.0022487958312528808 -0.024080659068267601 0 -0.0017965971439509649 -0.023911836514833709 0 0.00096311006675871031 -0.025772077440396484 0 0.00080458615079795012 -0.02593904215302504 0 0.0010285487129449494 -0.025946588417111897 0 -0.0022487958312528808 -0.024080659068267601 0 -0.0029673022327191246 -0.02427458303881554 0 -0.005516751591453063 -0.022137399844367633 0 -0.0051768543119054969 -0.022937936330107961 0 -0.006353052139906429 -0.022349533927504512 0 -0.0061895552152150925 -0.021938470185394507 0 -0.0059595591469735337 -0.021552251743515546 0 -0.006353052139906429 -0.022349533927504512 0 -0.0054255068606949451 -0.02229813295000568 0 -0.0062904730468137365 -0.022308822149501216 0 -0.0061895552152150925 -0.021938470185394507 0 -0.0059595591469735337 -0.021552251743515546 0 -0.0061187051131081577 -0.021857521163325171 0 -0.0059595591469735337 -0.021552251743515546 0 -0.0056257247890690778 -0.021561364607842463 0 -0.005136118206764512 -0.021146642515912389 0 -0.0027956489512315826 -0.024848809144387425 0 -0.0029673022327191246 -0.02427458303881554 0 -0.0054108020556728736 -0.0238639369859719 0 -0.0063967577990520046 -0.022406750959438608 0 -0.0065060310089223713 -0.022452643883461108 0 -0.0054108020556728736 -0.0238639369859719 0 -0.0062815712795401572 -0.022428343481666075 0 -0.0063967577990520046 -0.022406750959438608 0 -0.005516751591453063 -0.022137399844367633 0 -0.0065060310089223713 -0.022452643883461108 0 -0.006353052139906429 -0.022349533927504512 0 -0.0063967577990520046 -0.022406750959438608 0 -0.0065060310089223713 -0.022452643883461108 0 -0.006353052139906429 -0.022349533927504512 0 -0.0063967577990520046 -0.022406750959438608 0 -0.006353052139906429 -0.022349533927504512 0 -0.0062687076504576392 -0.022119758740883916 0 -0.0061895552152150925 -0.021938470185394507 0 -0.006353052139906429 -0.022349533927504512 0 -0.0062687076504576392 -0.022119758740883916 0 -0.0061895552152150925 -0.021938470185394507 0 -0.0062687076504576392 -0.022119758740883916 0 -0.0061187051131081577 -0.021857521163325171 0 -0.0063921536968849528 -0.022402240115723903 0 -0.0073450577664350087 -0.020215394491941888 0 -0.0054437827618921512 -0.020671000225949622 0 -0.0062815712795401572 -0.022428343481666075 0 -0.0086324732381823591 -0.019197464060699238 0 -0.0062815712795401572 -0.022428343481666075 0 -0.0063967577990520046 -0.022406750959438608 0 -0.0062687076504576392 -0.022119758740883916 0 -0.0062815712795401572 -0.022428343481666075 0 -0.0062687076504576392 -0.022119758740883916 0 -0.006153361600273858 -0.021907108027915092 0 -0.0053812148694025964 -0.018305144536418381 0 -0.0054437827618921512 -0.020671000225949622 0 -0.0086324732381823591 -0.019197464060699238 0 -0.0053812148694025964 -0.018305144536418381 0 -0.0074738039222199491 -0.016376398474732625 0 -0.0086324732381823591 -0.019197464060699238 0 -0.0073450577664350087 -0.020215394491941888 0 -0.0090007500453175848 -0.020141972086300843 0 -0.0074738039222199491 -0.016376398474732625 0 -0.0086324732381823591 -0.019197464060699238 0 -0.01055723021334444 -0.015253345858861267 0 -0.006153361600273858 -0.021907108027915092 0 -0.0061187051131081577 -0.021857521163325171 0 -0.0060944435919003948 -0.021849260417497084 0 -0.0062687076504576392 -0.022119758740883916 0 -0.006153361600273858 -0.021907108027915092 0 -0.0061187051131081577 -0.021857521163325171 0 -0.0059595591469735337 -0.021552251743515546 0 -0.0061187051131081577 -0.021857521163325171 0 -0.005869401354685993 -0.021746668559014054 0 -0.0061187051131081577 -0.021857521163325171 0 -0.005869401354685993 -0.021746668559014054 0 -0.0059709149094038325 -0.021878798028160836 0 -0.0056257247890690778 -0.021561364607842463 0 -0.005869401354685993 -0.021746668559014054 0 -0.0056796976970335498 -0.021888128904546254 0 -0.0059595591469735337 -0.021552251743515546 0 -0.0056257247890690778 -0.021561364607842463 0 -0.005869401354685993 -0.021746668559014054 0 -0.0056796976970335498 -0.021888128904546254 0 -0.0059709149094038325 -0.021878798028160836 0 -0.0058349332300300172 -0.022009208701966099 0 -0.005869401354685993 -0.021746668559014054 0 -0.0056796976970335498 -0.021888128904546254 0 -0.0059709149094038325 -0.021878798028160836 0 -0.0056796976970335498 -0.021888128904546254 0 -0.0055811055029723984 -0.022087812955723578 0 -0.005330408608036922 -0.022104160355232577 0 -0.0061187051131081577 -0.021857521163325171 0 -0.0059709149094038325 -0.021878798028160836 0 -0.0060944435919003948 -0.021849260417497084 0 -0.0058349332300300172 -0.022009208701966099 0 -0.0059449059172407351 -0.022001516311825318 0 -0.0060944435919003948 -0.021849260417497084 0 -0.0059709149094038325 -0.021878798028160836 0 -0.0058349332300300172 -0.022009208701966099 0 -0.0060944435919003948 -0.021849260417497084 0 -0.0014751154526258848 -0.0076219909815522851 0 -0.0090007500453175848 -0.020141972086300843 0 -0.0058349332300300172 -0.022009208701966099 0 -0.0055811055029723984 -0.022087812955723578 0 -0.0054633370165864592 -0.022294406659737396 0 -0.0056796976970335498 -0.021888128904546254 0 -0.0058349332300300172 -0.022009208701966099 0 -0.0055811055029723984 -0.022087812955723578 0 -0.0014751154526258848 -0.0076219909815522851 0 0.0026744396705647177 -0.008625776627232816 0 0.0074395977469653421 0.0021820239156616901 0 0.0066409752885272493 0.0020147572991256841 0 0.0072536006241161683 0.0017560962549343923 0 -0.0058349332300300172 -0.022009208701966099 0 -0.0059449059172407351 -0.022001516311825318 0 -0.0054633370165864592 -0.022294406659737396 0 0.0074395977469653421 0.0021820239156616901 0 0.0066409752885272493 0.0020147572991256841 0 0.0077483311317833323 0.0023143742737038696 0 0.0074395977469653421 0.0021820239156616901 0 0.0076882771744276671 0.0019191676030044509 0 0.0078518397847340445 0.0023865680933207855 0 0.0090131070320507226 -0.0017327307469487243 0 0.0026744396705647177 -0.008625776627232816 0 0.0074395977469653421 0.0021820239156616901 0 0.0076882771744276671 0.0019191676030044509 0 0.0072536006241161683 0.0017560962549343923 0 -0.0014751154526258848 -0.0076219909815522851 0 -0.0033650145404966847 -0.0034685816010722407 0 -0.012095416522756516 -0.011387377076808508 0 -0.0095092782142009447 -0.01242881946095036 0 -0.008000807402075049 -0.0099272891433469287 0 -0.0095092782142009447 -0.01242881946095036 0 -0.007345584584206903 -0.01313222501130067 0 -0.008000807402075049 -0.0099272891433469287 0 -0.0056063685833056221 -0.010570075490813322 0 -0.007345584584206903 -0.01313222501130067 0 -0.008000807402075049 -0.0099272891433469287 0 -0.0046498136274994223 -0.014961100855470644 0 -0.0074738039222199491 -0.016376398474732625 0 -0.007345584584206903 -0.01313222501130067 0 -0.0074738039222199491 -0.016376398474732625 0 -0.007345584584206903 -0.01313222501130067 0 -0.01055723021334444 -0.015253345858861267 0 -0.012095416522756516 -0.011387377076808508 0 -0.0095092782142009447 -0.01242881946095036 0 -0.01055723021334444 -0.015253345858861267 0 -0.0095092782142009447 -0.01242881946095036 0 -0.007345584584206903 -0.01313222501130067 0 -0.01055723021334444 -0.015253345858861267 0 0.0071199794862347367 -0.0051259607922876796 0 0.0070398799454472151 -0.0043095488434615843 0 0.0099785084539748513 0.0022110801829063808 0 0.0095320742047880144 0.0023344341613841029 0 0.0092398698949320672 0.0025444888806186385 0 0.00054865529511107978 -0.017002342881759704 0 -0.0018923112377616967 -0.018361130453794484 0 0.0098055908633362977 0.0022450281760148841 0 0.0099785084539748513 0.0022110801829063808 0 0.0095320742047880144 0.0023344341613841029 0 -0.0037134074954526027 -0.022425591942852298 0 -0.0047967531063057541 -0.022449050262852155 0 -0.0041510246831738921 -0.021909855610940363 0 0.0041957142364162821 -0.011881992327391613 0 0.0047064020134683455 -0.012112865956099542 0 0.0035564124187650119 -0.012254524864258367 0 0.0099785084539748513 0.0022110801829063808 0 0.0099682568099293302 0.0021462691331963022 0 0.010003844328921065 0.0020494998222212201 0 0.0099682568099293302 0.0021462691331963022 0 0.0099901553965580769 0.0020774684688578036 0 0.010003844328921065 0.0020494998222212201 0 0.0098055908633362977 0.0022450281760148841 0 0.0099785084539748513 0.0022110801829063808 0 0.0099682568099293302 0.0021462691331963022 0 0.0098055908633362977 0.0022450281760148841 0 0.0099565526698154813 0.0021534668591633929 0 0.010285432036179119 0.0022484057507134486 0 0.0099219746638926961 0.0022309369894289231 0 0.010183771098995008 0.0021576953256839913 0 0.0099565526698154813 0.0021534668591633929 0 0.010285432036179119 0.0022484057507134486 0 0.010109285602091124 0.0020870164385720057 0 0.0098055908633362977 0.0022450281760148841 0 0.0099489001116011833 0.002090202397314739 0 0.0099743069458440598 0.002024039969107065 0 0.0098055908633362977 0.0022450281760148841 0 0.0099682568099293302 0.0021462691331963022 0 0.0099489001116011833 0.002090202397314739 0 0.0099901553965580769 0.0020774684688578036 0 0.0099661406111693808 0.0020647225105448843 0 0.010013368548415211 0.0020303692651081552 0 0.0099682568099293302 0.0021462691331963022 0 0.0099901553965580769 0.0020774684688578036 0 0.0099489001116011833 0.002090202397314739 0 0.0099901553965580769 0.0020774684688578036 0 0.0099489001116011833 0.002090202397314739 0 0.0099661406111693808 0.0020647225105448843 0 0.010158660566028523 0.0021635324862684896 0 0.010183771098995008 0.0021576953256839913 0 0.010183771098995008 0.0021576953256839913 0 0.010571502127281245 0.0019899679439357785 0 0.010308347876760963 0.0021659892196829018 0 0.010453809804738165 0.0019733797051828422 0 0.010604168928594329 0.0020072697354945445 0 0.010285432036179119 0.0022484057507134486 0 0.010400197944827777 0.0020542056169010319 0 0.010583907602664987 0.0020332011484048879 0 0.010183771098995008 0.0021576953256839913 0 0.010656764977166781 0.0021013524923331225 0 0.010285432036179119 0.0022484057507134486 0 0.010400197944827777 0.0020542056169010319 0 0.01028254748766993 0.0020168728945280834 0 0.01028254748766993 0.0020168728945280834 0 0.010472411687086116 0.0019236368774235512 0 0.010279726172554791 0.0018409911692178287 0 0.010400197944827777 0.0020542056169010319 0 0.01028254748766993 0.0020168728945280834 0 0.010472411687086116 0.0019236368774235512 0 0.010400197944827777 0.0020542056169010319 0 0.010583907602664987 0.0020332011484048879 0 0.010472411687086116 0.0019236368774235512 0 0.0099565526698154813 0.0021534668591633929 0 0.0099539903338616981 0.0020484106358852664 0 0.010109285602091124 0.0020870164385720057 0 0.010285432036179119 0.0022484057507134486 0 0.01028254748766993 0.0020168728945280834 0 0.010109285602091124 0.0020870164385720057 0 0.01028254748766993 0.0020168728945280834 0 0.010109285602091124 0.0020870164385720057 0 0.01011020777420624 0.0019372230046510602 0 0.01028254748766993 0.0020168728945280834 0 0.01011020777420624 0.0019372230046510602 0 0.010279726172554791 0.0018409911692178287 0 0.0099539903338616981 0.0020484106358852664 0 0.010109285602091124 0.0020870164385720057 0 0.01011020777420624 0.0019372230046510602 0 0.0099539903338616981 0.0020484106358852664 0 0.01011020777420624 0.0019372230046510602 0 0.0098734719308613394 0.0019075549247065571 0 0.0098734719308613394 0.0019075549247065571 0 0.0097276397625144645 0.0021043629773399536 0 0.0096205139296870763 0.001873068493609326 0 0.0099539903338616981 0.0020484106358852664 0 0.0098734719308613394 0.0019075549247065571 0 0.0097276397625144645 0.0021043629773399536 0 0.0099565526698154813 0.0021534668591633929 0 0.0099539903338616981 0.0020484106358852664 0 0.0097276397625144645 0.0021043629773399536 0 0.0098055908633362977 0.0022450281760148841 0 0.0097276397625144645 0.0021043629773399536 0 0.0095320742047880144 0.0023344341613841029 0 0.0098055908633362977 0.0022450281760148841 0 0.0099565526698154813 0.0021534668591633929 0 0.0097276397625144645 0.0021043629773399536 0 0.0097276397625144645 0.0021043629773399536 0 0.0092237872327032098 0.0019289007032043948 0 0.0096205139296870763 0.001873068493609326 0 0.0097276397625144645 0.0021043629773399536 0 0.0095320742047880144 0.0023344341613841029 0 0.0092237872327032098 0.0019289007032043948 0 0.0092237872327032098 0.0019289007032043948 0 0.0086468541173086479 0.002084207543487857 0 0.0092398698949320672 0.0025444888806186385 0 0.0095320742047880144 0.0023344341613841029 0 0.0092237872327032098 0.0019289007032043948 0 0.0092398698949320672 0.0025444888806186385 0 0.0092237872327032098 0.0019289007032043948 0 0.0086468541173086479 0.002084207543487857 0 0.008664391191504018 0.0017106397481929238 0 0.0086468541173086479 0.002084207543487857 0 0.0078518397847340445 0.0023865680933207855 0 0.0092398698949320672 0.0025444888806186385 0 0.0076882771744276671 0.0019191676030044509 0 0.0078518397847340445 0.0023865680933207855 0 0.0081819708549362262 0.0018440872368403367 0 0.0086468541173086479 0.002084207543487857 0 0.0078518397847340445 0.0023865680933207855 0 0.0081819708549362262 0.0018440872368403367 0 0.0086468541173086479 0.002084207543487857 0 0.0081819708549362262 0.0018440872368403367 0 0.008664391191504018 0.0017106397481929238 0 0.0026744396705647177 -0.008625776627232816 0 0.0070398799454472151 -0.0043095488434615843 0 -0.0054633370165864592 -0.022294406659737396 0 -0.005330408608036922 -0.022104160355232577 0 -0.0047967531063057541 -0.022449050262852155 0 -0.0055811055029723984 -0.022087812955723578 0 -0.0054633370165864592 -0.022294406659737396 0 -0.005330408608036922 -0.022104160355232577 0 0.0026744396705647177 -0.008625776627232816 0 -0.0018923112377616967 -0.018361130453794484 0 0.0041957142364162821 -0.011881992327391613 0 0.0033309732364835577 -0.012141553192212143 0 0.0035564124187650119 -0.012254524864258367 0 0.002546208862590237 -0.012273668624321946 0 0.0033309732364835577 -0.012141553192212143 0 0.0035564124187650119 -0.012254524864258367 0 -0.0047967531063057541 -0.022449050262852155 0 -0.0047077908828621921 -0.021770058916110859 0 -0.0041510246831738921 -0.021909855610940363 0 -0.005330408608036922 -0.022104160355232577 0 -0.0047967531063057541 -0.022449050262852155 0 -0.0047077908828621921 -0.021770058916110859 0 -0.0056796976970335498 -0.021888128904546254 0 -0.005330408608036922 -0.022104160355232577 0 -0.0053246883404027921 -0.021715957240840605 0 -0.005330408608036922 -0.022104160355232577 0 -0.0047077908828621921 -0.021770058916110859 0 -0.0053246883404027921 -0.021715957240840605 0 -0.0056257247890690778 -0.021561364607842463 0 -0.0053246883404027921 -0.021715957240840605 0 -0.005136118206764512 -0.021146642515912389 0 -0.0056257247890690778 -0.021561364607842463 0 -0.0056796976970335498 -0.021888128904546254 0 -0.0053246883404027921 -0.021715957240840605 0 -0.0047077908828621921 -0.021770058916110859 0 -0.0053246883404027921 -0.021715957240840605 0 -0.005136118206764512 -0.021146642515912389 0 -0.0047077908828621921 -0.021770058916110859 0 -0.0039660480401109352 -0.021058433787259148 0 -0.005136118206764512 -0.021146642515912389 0 -0.0047077908828621921 -0.021770058916110859 0 -0.0039660480401109352 -0.021058433787259148 0 -0.0041510246831738921 -0.021909855610940363 0 -0.0039660480401109352 -0.021058433787259148 0 -0.0041510246831738921 -0.021909855610940363 0 -0.003361862013675782 -0.021666299898926523 0 -0.0008105097806749077 -0.02358164138168883 0 -0.0040869174855671046 -0.02033903794280318 0 -0.0037134074954526027 -0.022425591942852298 0 -0.0041510246831738921 -0.021909855610940363 0 -0.003361862013675782 -0.021666299898926523 0 0.0041957142364162821 -0.011881992327391613 0 0.0047064020134683455 -0.012112865956099542 0 0.0051510078636616717 -0.011526572903721779 0 0.00054865529511107978 -0.017002342881759704 0 0.0015118802004659541 -0.016399097117542755 0 -0.0037134074954526027 -0.022425591942852298 0 -0.003361862013675782 -0.021666299898926523 0 -0.0017768030606565596 -0.021987780211885223 0 -0.003361862013675782 -0.021666299898926523 0 -0.0019142984501778133 -0.020553509324836797 0 -0.0017768030606565596 -0.021987780211885223 0 -0.0040017925277045447 -0.020133314030682012 0 -0.003361862013675782 -0.021666299898926523 0 -0.0019142984501778133 -0.020553509324836797 0 0.0048540120032545325 -0.028021412022672561 0 0.0060702070712907478 -0.028286666273595395 0 0.0053712821253252751 -0.027508767170272379 0 -0.0008105097806749077 -0.02358164138168883 0 0.0022096587920036703 -0.024862412937965876 0 0.0060702070712907478 -0.028286666273595395 0 0.0060077578837806475 -0.027264401230049036 0 0.0053712821253252751 -0.027508767170272379 0 0.0060077578837806475 -0.027264401230049036 0 0.0053712821253252751 -0.027508767170272379 0 0.0054165254859586199 -0.02680358651816683 0 0.0048540120032545325 -0.028021412022672561 0 0.0047925218575631708 -0.027105012853514149 0 0.0044081474973237111 -0.027045957657881963 0 -0.0008105097806749077 -0.02358164138168883 0 0.0016151745389587141 -0.025792941758568652 0 0.0048540120032545325 -0.028021412022672561 0 0.0053712821253252751 -0.027508767170272379 0 0.0047925218575631708 -0.027105012853514149 0 0.0053712821253252751 -0.027508767170272379 0 0.0047925218575631708 -0.027105012853514149 0 0.0054165254859586199 -0.02680358651816683 0 0.0047925218575631708 -0.027105012853514149 0 0.0046674921672566864 -0.026593051341908522 0 0.0054165254859586199 -0.02680358651816683 0 0.0047925218575631708 -0.027105012853514149 0 0.0046674921672566864 -0.026593051341908522 0 0.0043954557105969228 -0.027055457728475646 0 0.0043246997762554085 -0.026509790410199654 0 0.0016151745389587141 -0.025792941758568652 0 0.0046674921672566864 -0.026593051341908522 0 0.0054165254859586199 -0.02680358651816683 0 0.0050087276447077717 -0.0261695190736323 0 0.0061394696997546811 -0.026439534073355361 0 0.0054165254859586199 -0.02680358651816683 0 0.0050087276447077717 -0.0261695190736323 0 0.0060077578837806475 -0.027264401230049036 0 0.0061394696997546811 -0.026439534073355361 0 0.0054165254859586199 -0.02680358651816683 0 -0.0054255068606949451 -0.02229813295000568 0 -0.0045404742866173723 -0.022176704716178643 0 -0.0051768543119054969 -0.022937936330107961 0 -0.0032111282873342646 -0.023521055755033542 0 -0.0037810714480923133 -0.022244987453313398 0 -0.0010819859616549056 -0.024046135956096632 0 -0.0032111282873342646 -0.023521055755033542 0 -0.0017970478891348558 -0.022505730716322933 0 -0.0008105097806749077 -0.02358164138168883 0 -0.0045404742866173723 -0.022176704716178643 0 -0.0032111282873342646 -0.023521055755033542 0 -0.0017970478891348558 -0.022505730716322933 0 -0.0037810714480923133 -0.022244987453313398 0 0.0012698380922418857 -0.025976922335642992 0 0.0010285487129449494 -0.025946588417111897 0 0.0011904241148269919 -0.025799673778384682 0 0.0016151745389587141 -0.025792941758568652 0 0.0034263152702451146 -0.026115292053706409 0 0.0046674921672566864 -0.026593051341908522 0 0.0043954557105969228 -0.027055457728475646 0 0.0038985990321072561 -0.025996310862361198 0 0.0016151745389587141 -0.025792941758568652 0 -0.0017965971439509649 -0.023911836514833709 0 0.00096311006675871031 -0.025772077440396484 0 0.0010285487129449494 -0.025946588417111897 0 0.0011904241148269919 -0.025799673778384682 0 0.0018283464524808701 -0.025922538506960042 0 0.0034263152702451146 -0.026115292053706409 0 0.0030065184804333451 -0.026113736575521188 0 0.0041747007835300836 -0.026286947522025209 0 0.0036125979442322652 -0.024999987567608729 0 0.003612758312105249 -0.02499998389877979 0 0.0047908887228343021 -0.025707888137168785 0 0.0049833518499930972 -0.024999963058224228 0 0.0034263152702451146 -0.026115292053706409 0 0.0036135118336517069 -0.025000789638129732 0 0.0042434993849936571 -0.026264469423323063 0 0.003612758312105249 -0.02499998389877979 0 0.0047908887228343021 -0.025707888137168785 0 0.0059864517401431103 -0.026413512377267887 0 0.0052511302943884335 -0.026294241277008943 0 0.0061394696997546811 -0.026439534073355361 0 0.0057271108009577651 -0.025737072463698527 0 0.00522131646713487 -0.026377825036965216 0 0.0057271108009577651 -0.025737072463698527 0 0.00522131646713487 -0.026377825036965216 0 0.0047908887228343021 -0.025707888137168785 0 0.0042434993849936571 -0.026264469423323063 0 0.00522131646713487 -0.026377825036965216 0 0.0047908887228343021 -0.025707888137168785 0 0.0034263152702451146 -0.026115292053706409 0 0.0052511302943884335 -0.026294241277008943 0 0.0046674921672566864 -0.026593051341908522 0 0.0038985990321072561 -0.025996310862361198 0 0.0050087276447077717 -0.0261695190736323 0 0.0057271108009577651 -0.025737072463698527 0 0.0047908887228343021 -0.025707888137168785 0 0.0049833518499930972 -0.024999963058224228 0 0.0057271108009577651 -0.025737072463698527 0 0.0049833518499930972 -0.024999963058224228 0 0.006353941158549036 -0.024999946427715049 0 0.006353941158549036 -0.024999946427715049 0 0.0068092908786674747 -0.02580158682578227 0 0.0077245549825768955 -0.024999942764499159 0 0.0057271108009577651 -0.025737072463698527 0 0.006353941158549036 -0.024999946427715049 0 0.0068092908786674747 -0.02580158682578227 0 0.0061394696997546811 -0.026439534073355361 0 0.0057271108009577651 -0.025737072463698527 0 0.0068092908786674747 -0.02580158682578227 0 0.0061394696997546811 -0.026439534073355361 0 0.0068092908786674747 -0.02580158682578227 0 0.0068859450700495912 -0.026740808630406718 0 0.0068092908786674747 -0.02580158682578227 0 0.0076948666297565801 -0.026061139482624781 0 0.0068859450700495912 -0.026740808630406718 0 0.0068092908786674747 -0.02580158682578227 0 0.0076948666297565801 -0.026061139482624781 0 0.0077245549825768955 -0.024999942764499159 0 0.0076948666297565801 -0.026061139482624781 0 0.0077245549825768955 -0.024999942764499159 0 0.0083857068873413095 -0.025632269672107407 0 0.0077245549825768955 -0.024999942764499159 0 0.0083857068873413095 -0.025632269672107407 0 0.0090951727965093831 -0.024999956518687142 0 0.0083857068873413095 -0.025632269672107407 0 0.0090951727965093831 -0.024999956518687142 0 0.0095747168616793759 -0.025762739338566792 0 0.0087854610345147813 -0.026382726166351959 0 0.009672402372273313 -0.02568055352804385 0 0.0083857068873413095 -0.025632269672107407 0 0.0086760221333996822 -0.026481454486859297 0 0.0095747168616793759 -0.025762739338566792 0 0.0076948666297565801 -0.026061139482624781 0 0.0083857068873413095 -0.025632269672107407 0 0.0086760221333996822 -0.026481454486859297 0 0.0076948666297565801 -0.026061139482624781 0 0.0086760221333996822 -0.026481454486859297 0 0.0076299684017648271 -0.02671405175681555 0 0.0086760221333996822 -0.026481454486859297 0 0.007846041072997946 -0.027133211437547877 0 0.0076299684017648271 -0.02671405175681555 0 0.0089291665516653962 -0.026253731548239914 0 0.0088113542942723552 -0.027153619492573826 0 0.007846041072997946 -0.027133211437547877 0 0.0087854610345147813 -0.026382726166351959 0 0.0079218369905590807 -0.027087626084210139 0 0.0093994967203439236 -0.026840901952720906 0 0.0089291665516653962 -0.026253731548239914 0 0.010026894213975051 -0.026506675761162904 0 0.0093994967203439236 -0.026840901952720906 0 0.0089291665516653962 -0.026253731548239914 0 0.0088113542942723552 -0.027153619492573826 0 0.0088113542942723552 -0.027153619492573826 0 0.0096986070955648301 -0.027447057131259448 0 0.0088619265979903768 -0.027939337958937587 0 0.0093994967203439236 -0.026840901952720906 0 0.0088113542942723552 -0.027153619492573826 0 0.0096986070955648301 -0.027447057131259448 0 0.0096111949391270608 -0.027504070102505048 0 0.009016123908358575 -0.02775721729765648 0 0.0088113542942723552 -0.027153619492573826 0 0.007846041072997946 -0.027133211437547877 0 0.0081993467583633267 -0.027652885420856754 0 0.007846041072997946 -0.027133211437547877 0 0.0081993467583633267 -0.027652885420856754 0 0.0075178957802567907 -0.02756991343338553 0 0.0088113542942723552 -0.027153619492573826 0 0.0081993467583633267 -0.027652885420856754 0 0.0088619265979903768 -0.027939337958937587 0 0.0081993467583633267 -0.027652885420856754 0 0.0075178957802567907 -0.02756991343338553 0 0.0080103671991868033 -0.028338620724223898 0 0.0073566091273986143 -0.02715002852813907 0 0.0069344709142182609 -0.027651440459193339 0 0.0068859450700495912 -0.026740808630406718 0 0.007846041072997946 -0.027133211437547877 0 0.0075178957802567907 -0.02756991343338553 0 0.0073566091273986143 -0.02715002852813907 0 0.0075178957802567907 -0.02756991343338553 0 0.0073566091273986143 -0.02715002852813907 0 0.0069344709142182609 -0.027651440459193339 0 0.0075178957802567907 -0.02756991343338553 0 0.0069344709142182609 -0.027651440459193339 0 0.0074071128614439409 -0.027995885136225536 0 0.0060702070712907478 -0.028286666273595395 0 0.0060077578837806475 -0.027264401230049036 0 0.0069344709142182609 -0.027651440459193339 0 0.0060077578837806475 -0.027264401230049036 0 0.0069344709142182609 -0.027651440459193339 0 0.0068859450700495912 -0.026740808630406718 0 0.0060077578837806475 -0.027264401230049036 0 0.0061394696997546811 -0.026439534073355361 0 0.0068859450700495912 -0.026740808630406718 0 0.0076948666297565801 -0.026061139482624781 0 0.0068859450700495912 -0.026740808630406718 0 0.0076299684017648271 -0.02671405175681555 0 0.007846041072997946 -0.027133211437547877 0 0.0073566091273986143 -0.02715002852813907 0 0.0076299684017648271 -0.02671405175681555 0 0.0073566091273986143 -0.02715002852813907 0 0.0068859450700495912 -0.026740808630406718 0 0.0076299684017648271 -0.02671405175681555 0 0.01180686928558573 -0.026356503002027978 0 0.011320119697680679 -0.025543204491466614 0 0.012523180328404757 -0.025693905367461165 0 0.011929368152123575 -0.024999978384048337 0 0.011320119697680679 -0.025543204491466614 0 0.012523180328404757 -0.025693905367461165 0 0.011929368152123575 -0.024999978384048337 0 0.011320119697680679 -0.025543204491466614 0 0.010633788173022542 -0.024999979496549474 0 0.01180686928558573 -0.026356503002027978 0 0.011320119697680679 -0.025543204491466614 0 0.010838279271343928 -0.02612171494257105 0 0.010714618052106979 -0.025997293089753303 0 0.010344696821509734 -0.025532561021505661 0 0.010026894213975051 -0.026506675761162904 0 0.011320119697680679 -0.025543204491466614 0 0.010838279271343928 -0.02612171494257105 0 0.010633788173022542 -0.024999979496549474 0 0.010714618052106979 -0.025997293089753303 0 0.010633259046405474 -0.025000024333023854 0 0.010344696821509734 -0.025532561021505661 0 0.010774511007796099 -0.026050653711787306 0 0.010633621747663491 -0.025000197547499037 0 0.010633259046405474 -0.025000024333023854 0 0.010466228223289072 -0.024999922168119807 0 0.010344696821509734 -0.025532561021505661 0 0.010466228223289072 -0.024999922168119807 0 0.010344696821509734 -0.025532561021505661 0 0.0097740245847045652 -0.025611800736539347 0 0.010465697081665455 -0.025000141494320196 0 0.009672402372273313 -0.02568055352804385 0 0.0090951727965093831 -0.024999956518687142 0 0.010465847786755892 -0.025000005024961275 0 0.0095747168616793759 -0.025762739338566792 0 0.010344696821509734 -0.025532561021505661 0 0.0097740245847045652 -0.025611800736539347 0 0.010026894213975051 -0.026506675761162904 0 0.0089291665516653962 -0.026253731548239914 0 0.0097740245847045652 -0.025611800736539347 0 0.010026894213975051 -0.026506675761162904 0 0.0093994967203439236 -0.026840901952720906 0 0.010026894213975051 -0.026506675761162904 0 0.0096986070955648301 -0.027447057131259448 0 0.010026894213975051 -0.026506675761162904 0 0.0096986070955648301 -0.027447057131259448 0 0.010341648871065976 -0.027414849501021032 0 0.0096986070955648301 -0.027447057131259448 0 0.010341648871065976 -0.027414849501021032 0 0.010214962112731558 -0.027924979605613284 0 0.010026894213975051 -0.026506675761162904 0 0.010827928173435215 -0.027060762255192869 0 0.010341648871065976 -0.027414849501021032 0 0.010827928173435215 -0.027060762255192869 0 0.010341648871065976 -0.027414849501021032 0 0.010981989341446719 -0.02809109782511901 0 0.010897880800798156 -0.027115439981141135 0 0.010973828359443032 -0.028036788557667371 0 0.010714618052106979 -0.025997293089753303 0 0.010026894213975051 -0.026506675761162904 0 0.010827928173435215 -0.027060762255192869 0 0.010774511007796099 -0.026050653711787306 0 0.010897880800798156 -0.027115439981141135 0 0.01180686928558573 -0.026356503002027978 0 0.010972705629495724 -0.027138148186898123 0 0.011995049748392137 -0.02701718343476241 0 0.01180686928558573 -0.026356503002027978 0 0.010838279271343928 -0.02612171494257105 0 0.010972705629495724 -0.027138148186898123 0 0.010972705629495724 -0.027138148186898123 0 0.011384428257668324 -0.02774749985095374 0 0.010981989341446719 -0.02809109782511901 0 0.010972705629495724 -0.027138148186898123 0 0.011753217833712208 -0.027540979251555603 0 0.011384428257668324 -0.02774749985095374 0 0.010972705629495724 -0.027138148186898123 0 0.011753217833712208 -0.027540979251555603 0 0.011995049748392137 -0.02701718343476241 0 0.011753217833712208 -0.027540979251555603 0 0.011995049748392137 -0.02701718343476241 0 0.012473564041875445 -0.027420643440781888 0 0.01180686928558573 -0.026356503002027978 0 0.011995049748392137 -0.02701718343476241 0 0.01325524964450548 -0.026555392813145878 0 0.018922676181607027 -0.023943374942764922 0 0.018904041260446217 -0.0238336659893549 0 0.018782822789611676 -0.023845935926553759 0 0.012431278422518423 -0.0286032695556784 0 0.012771115923105045 -0.027798178705401008 0 0.011867028609954439 -0.028255812611274387 0 0.012771115923105045 -0.027798178705401008 0 0.011867028609954439 -0.028255812611274387 0 0.012831827969899394 -0.027170778767901634 0 0.011911668305998992 -0.028212296043898414 0 0.012641106530211905 -0.027317196249691561 0 0.011753217833712208 -0.027540979251555603 0 0.011867028609954439 -0.028255812611274387 0 0.012473564041875445 -0.027420643440781888 0 0.011753217833712208 -0.027540979251555603 0 0.011867028609954439 -0.028255812611274387 0 0.011384428257668324 -0.02774749985095374 0 0.011867028609954439 -0.028255812611274387 0 0.011384428257668324 -0.02774749985095374 0 0.010981989341446719 -0.02809109782511901 0 0.015627574593533929 -0.027090630850106462 0 0.014042346455853189 -0.019792602358238386 0 0.012431278422518423 -0.0286032695556784 0 0.011867028609954439 -0.028255812611274387 0 0.011180380743372832 -0.02895681401118317 0 0.011867028609954439 -0.028255812611274387 0 0.011180380743372832 -0.02895681401118317 0 0.010981989341446719 -0.02809109782511901 0 0.018922676181607027 -0.023943374942764922 0 0.018847939737385251 -0.023780116628720076 0 0.018904041260446217 -0.0238336659893549 0 0.011180380743372832 -0.02895681401118317 0 0.010538264916486283 -0.028336712663626619 0 0.010204231727253205 -0.028660540984588478 0 0.014042346455853189 -0.019792602358238386 0 0.011146929043607291 -0.022205931113204992 0 0.011180380743372832 -0.02895681401118317 0 0.010538264916486283 -0.028336712663626619 0 0.010981989341446719 -0.02809109782511901 0 0.010538264916486283 -0.028336712663626619 0 0.010981989341446719 -0.02809109782511901 0 0.010214962112731558 -0.027924979605613284 0 0.010341648871065976 -0.027414849501021032 0 0.010981989341446719 -0.02809109782511901 0 0.010214962112731558 -0.027924979605613284 0 0.010538264916486283 -0.028336712663626619 0 0.010214962112731558 -0.027924979605613284 0 0.0097443885887450281 -0.028277716251398684 0 0.0096986070955648301 -0.027447057131259448 0 0.010214962112731558 -0.027924979605613284 0 0.0095937799216721277 -0.027856120623424512 0 0.010214962112731558 -0.027924979605613284 0 0.0097443885887450281 -0.028277716251398684 0 0.0095937799216721277 -0.027856120623424512 0 0.012484747167534609 -0.015316902525443815 0 0.013198050768089187 -0.014701613690685627 0 0.013887787271367896 -0.015677011834283487 0 0.010538264916486283 -0.028336712663626619 0 0.0097443885887450281 -0.028277716251398684 0 0.010204231727253205 -0.028660540984588478 0 0.011146929043607291 -0.022205931113204992 0 0.010363292570859578 -0.020716305429995138 0 0.0097443885887450281 -0.028277716251398684 0 0.010204231727253205 -0.028660540984588478 0 0.0092952042335852081 -0.028331687176908711 0 0.013919750747746847 -0.01264201090604735 0 0.01472741749029601 -0.0047862437614443875 0 0.016692052517042723 -0.0050069439751103248 0 0.01472741749029601 -0.0047862437614443875 0 0.013198050768089187 -0.014701613690685627 0 0.012329867515911018 -0.014478298312185191 0 0.01354990372748485 -0.013825061801543961 0 0.015783481309541832 -0.010639199687485742 0 0.015743581991019804 -0.010671502117708198 0 0.015877591843736268 -0.01039653519168938 0 0.012484747167534609 -0.015316902525443815 0 0.013198050768089187 -0.014701613690685627 0 0.012329867515911018 -0.014478298312185191 0 0.015386048368282428 -0.002151769868178912 0 0.015375285184460356 -0.00090548912508265419 0 0.014813621434539456 -0.0011689059236646016 0 0.017281512221382467 -0.0012495974678019802 0 0.017250479758386963 -0.0012636930788138111 0 0.017268125385034843 -0.0012342411333777575 0 0.01472741749029601 -0.0047862437614443875 0 0.016056396111366916 -0.00098753086248814571 0 0.017281478888866674 -0.0012206094797156198 0 0.017281512221382467 -0.0012495974678019802 0 0.017268125385034843 -0.0012342411333777575 0 0.017281478888866674 -0.0012206094797156198 0 0.017281512221382467 -0.0012495974678019802 0 0.017301501763511713 -0.0012100767035940721 0 0.014042346455853189 -0.019792602358238386 0 0.013919750747746847 -0.01264201090604735 0 0.011179668871586106 -0.015035302385652736 0 0.012484747167534609 -0.015316902525443815 0 0.012329867515911018 -0.014478298312185191 0 0.015707726045102954 -0.010801616528283139 0 0.015783481309541832 -0.010639199687485742 0 0.015743581991019804 -0.010671502117708198 0 0.017281512221382467 -0.0012495974678019802 0 0.017301501763511713 -0.0012100767035940721 0 0.017309888062063759 -0.0012658292417850494 0 0.014042346455853189 -0.019792602358238386 0 0.01823329909745618 -0.014591872068676903 0 0.015707726045102954 -0.010801616528283139 0 0.015743581991019804 -0.010671502117708198 0 0.015665684360213379 -0.010853968387169781 0 0.016692052517042723 -0.0050069439751103248 0 0.01823329909745618 -0.014591872068676903 0 0.017301501763511713 -0.0012100767035940721 0 0.017302368237110944 -0.0011904816742570885 0 0.017304696141079066 -0.0011284144192241386 0 0.017302368237110944 -0.0011904816742570885 0 0.017309888062063759 -0.0012658292417850494 0 0.017295284034970888 -0.0011776259091018906 0 0.01823329909745618 -0.014591872068676903 0 0.019063355994484898 -0.023935612936507825 0 0.017301501763511713 -0.0012100767035940721 0 0.017302368237110944 -0.0011904816742570885 0 0.017309888062063759 -0.0012658292417850494 0 0.01823329909745618 -0.014591872068676903 0 0.018254367179114592 -0.011566848751871597 0 0.0059994346599233561 -0.011893827941432884 0 0.0061893366576883787 -0.011123148190244823 0 0.0071887883893504883 -0.011356996665042194 0 0.0047064020134683455 -0.012112865956099542 0 0.0059994346599233561 -0.011893827941432884 0 0.0051510078636616717 -0.011526572903721779 0 0.0059994346599233561 -0.011893827941432884 0 0.0051510078636616717 -0.011526572903721779 0 0.0061893366576883787 -0.011123148190244823 0 0.0015118802004659541 -0.016399097117542755 0 0.0051249582012322208 -0.020450223805346581 0 0.0022096587920036703 -0.024862412937965876 0 0.0051249582012322208 -0.020450223805346581 0 -0.0019142984501778133 -0.020553509324836797 0 -0.0017768030606565596 -0.021987780211885223 0 0.00049841565231843808 -0.021051645850726081 0 0.0060702070712907478 -0.028286666273595395 0 0.0069344709142182609 -0.027651440459193339 0 0.0072565553035139653 -0.028525123566786208 0 0.0069344709142182609 -0.027651440459193339 0 0.0072565553035139653 -0.028525123566786208 0 0.0074071128614439409 -0.027995885136225536 0 0.0051249582012322208 -0.020450223805346581 0 0.0079101791005897031 -0.026753812270150293 0 0.0075178957802567907 -0.02756991343338553 0 0.0074071128614439409 -0.027995885136225536 0 0.0079058981518697127 -0.028231648259599878 0 0.0078202580799838356 -0.027989662102731645 0 0.0079101791005897031 -0.026753812270150293 0 0.0072565553035139653 -0.028525123566786208 0 0.0074071128614439409 -0.027995885136225536 0 0.0079058981518697127 -0.028231648259599878 0 0.0051249582012322208 -0.020450223805346581 0 0.0084180121991501346 -0.019023713113727688 0 0.0065305769119659712 -0.02152042776164707 0 0.0073731631354907604 -0.021154909250232525 0 0.0077862806169755319 -0.021807213933925641 0 0.0087479725982319775 -0.027844275874723257 0 0.0091214595274622338 -0.027942286086672711 0 0.0092249041067808853 -0.027652613218563386 0 0.0081993467583633267 -0.027652885420856754 0 0.0080103671991868033 -0.028338620724223898 0 0.0088619265979903768 -0.027939337958937587 0 0.0079101791005897031 -0.026753812270150293 0 0.009016123908358575 -0.02775721729765648 0 0.0091214595274622338 -0.027942286086672711 0 0.00933206217505393 -0.028139200785977949 0 0.0089585014802915659 -0.02816630238873984 0 0.0087479725982319775 -0.027844275874723257 0 0.0091214595274622338 -0.027942286086672711 0 0.0089585014802915659 -0.02816630238873984 0 0.0079101791005897031 -0.026753812270150293 0 0.0084180121991501346 -0.019023713113727688 0 0.0096986070955648301 -0.027447057131259448 0 0.0095937799216721277 -0.027856120623424512 0 0.0092249041067808853 -0.027652613218563386 0 0.0095937799216721277 -0.027856120623424512 0 0.0092249041067808853 -0.027652613218563386 0 0.0093173835073316388 -0.027898105314855003 0 0.0091214595274622338 -0.027942286086672711 0 0.0092249041067808853 -0.027652613218563386 0 0.0093173835073316388 -0.027898105314855003 0 0.0091214595274622338 -0.027942286086672711 0 0.00933206217505393 -0.028139200785977949 0 0.0093173835073316388 -0.027898105314855003 0 0.0097443885887450281 -0.028277716251398684 0 0.0095937799216721277 -0.027856120623424512 0 0.00933206217505393 -0.028139200785977949 0 0.0095937799216721277 -0.027856120623424512 0 0.00933206217505393 -0.028139200785977949 0 0.0093173835073316388 -0.027898105314855003 0 0.0097444826262084311 -0.013425759755324281 0 0.012810696804071943 -0.012615945130604378 0 0.0089220632032240513 -0.0061713796560838403 0 0.010363292570859578 -0.020716305429995138 0 0.011925523409653789 -0.0045048441942157694 0 0.0097443885887450281 -0.028277716251398684 0 0.00933206217505393 -0.028139200785977949 0 0.0093547519429613302 -0.028313280663480184 0 0.0086472799824950791 -0.02603056389876747 0 0.010363292570859578 -0.020716305429995138 0 0.010363292570859578 -0.020716305429995138 0 0.0085186321961425622 -0.00996468708562997 0 0.00933206217505393 -0.028139200785977949 0 0.0093490338722030056 -0.028262599426247276 0 0.0089585014802915659 -0.02816630238873984 0 0.010363292570859578 -0.020716305429995138 0 0.0084180121991501346 -0.019023713113727688 0 0.010478390990332632 -0.024964930233721344 0 0.010363292570859578 -0.020716305429995138 0 0.0081615563540241628 -0.0043393042526441404 0 0.0085186321961425622 -0.00996468708562997 0 0.0099911044242361347 0.0018516440102175397 0 0.0098794854416620354 0.0016550654407656313 0 0.0099410284022986382 0.0018296966409582459 0 0.0059994346599233561 -0.011893827941432884 0 0.0071887883893504883 -0.011356996665042194 0 0.0073557331433446683 -0.011612926898256659 0 0.0099308002550654705 -0.018065156818351129 0 0.0074109869117880917 -0.017463034163218132 0 0.0080718432819437309 -0.018533735155578886 0 0.0084180121991501346 -0.019023713113727688 0 0.0085186321961425622 -0.00996468708562997 0 0.0099000009580736108 0.0018205109402656199 0 0.009852640544628961 0.0018134530073078536 0 0.0099403953419075711 0.0019072258688428113 0 0.0098794854416620354 0.0016550654407656313 0 0.0099410284022986382 0.0018296966409582459 0 0.0099000009580736108 0.0018205109402656199 0 0.0099410284022986382 0.0018296966409582459 0 0.0099000009580736108 0.0018205109402656199 0 0.0099615520828279722 0.0019233061329528055 0 0.0098794854416620354 0.0016550654407656313 0 0.0099000009580736108 0.0018205109402656199 0 0.0098434919350089013 0.0017784872569163311 0 0.013198050768089187 -0.014701613690685627 0 0.013887787271367896 -0.015677011834283487 0 0.013746753488552784 -0.014156629917818858 0 0.0085186321961425622 -0.00996468708562997 0 0.011925523409653789 -0.0045048441942157694 0 0.0099000009580736108 0.0018205109402656199 0 0.0098434919350089013 0.0017784872569163311 0 0.009852640544628961 0.0018134530073078536 0 0.013198050768089187 -0.014701613690685627 0 0.013746753488552784 -0.014156629917818858 0 0.01354990372748485 -0.013825061801543961 0 0.0098434919350089013 0.0017784872569163311 0 0.0098451749070116931 0.0018048717854872451 0 0.009852640544628961 0.0018134530073078536 0 0.011925523409653789 -0.0045048441942157694 0 0.013219636361765912 -0.0024903810096184088 0 0.012407376693349294 -0.0043125385228751515 0 0.012361722648039924 -0.0038798047020921402 0 0.012160434684092804 -0.0038959032162312768 0 0.011925523409653789 -0.0045048441942157694 0 0.01472741749029601 -0.0047862437614443875 0 0.013219636361765912 -0.0024903810096184088 0 0.012410228497212681 -0.0013624171337930234 0 0.013219636361765912 -0.0024903810096184088 0 0.01472741749029601 -0.0047862437614443875 0 0.015511010198140459 -0.0021421250372922964 0 0.015386048368282428 -0.002151769868178912 0 0.015375285184460356 -0.00090548912508265419 0 0.012679274108549167 -9.2766704094982973e-05 0 0.012605870029284393 -0.00012126763531516143 0 0.012787139326861204 -0.00093177837286837178 0 0.013219636361765912 -0.0024903810096184088 0 0.013806621677779908 -1.0981890422846271e-05 0 0.012605870029284393 -0.00012126763531516143 0 0.012276991546533922 -0.00024825225413011031 0 0.012787139326861204 -0.00093177837286837178 0 0.012410228497212681 -0.0013624171337930234 0 0.012589229568694616 -0.00066667298127179959 0 0.012410228497212681 -0.0013624171337930234 0 0.010861733731965553 0.0012159972213916098 0 0.010861733731965553 0.0012159972213916098 0 0.013806621677779908 -1.0981890422846271e-05 0 0.011812599927288238 -0.00028638329249123888 0 0.012276991546533922 -0.00024825225413011031 0 0.012787139326861204 -0.00093177837286837178 0 0.012605028598473846 -0.00012221454350013852 0 0.011812599927288238 -0.00028638329249123888 0 0.012276991546533922 -0.00024825225413011031 0 0.0099000009580736108 0.0018205109402656199 0 0.0099403953419075711 0.0019072258688428113 0 0.0099615520828279722 0.0019233061329528055 0 0.010861733731965553 0.0012159972213916098 0 0.010040026012564682 0.0018054347836720865 0 0.009950943102948669 0.0019315084045239982 0 0.0099906233720749756 0.0019721803281311295 0 0.0099615520828279722 0.0019233061329528055 0 0.009950943102948669 0.0019315084045239982 0 0.0099906233720749756 0.0019721803281311295 0 0.010013368548415211 0.0020303692651081552 0 0.010861733731965553 0.0012159972213916098 0 0.010571502127281245 0.0019899679439357785 0 0.011890135074023811 0.0019112571752120848 0 0.010615563889972326 0.0016292281653625699 0 0.011417287304994013 0.0011990458928396652 0 0.0099410284022986382 0.0018296966409582459 0 0.0099615520828279722 0.0019233061329528055 0 0.0099826653504703419 0.0019215863722798847 0 0.0099906233720749756 0.0019721803281311295 0 0.0099615520828279722 0.0019233061329528055 0 0.0099826653504703419 0.0019215863722798847 0 0.0099911044242361347 0.0018516440102175397 0 0.0099410284022986382 0.0018296966409582459 0 0.0099826653504703419 0.0019215863722798847 0 0.0071199794862347367 -0.0051259607922876796 0 0.0081615563540241628 -0.0043393042526441404 0 0.0099785084539748513 0.0022110801829063808 0 0.0099911044242361347 0.0018516440102175397 0 0.010003844328921065 0.0020494998222212201 0 0.0099911044242361347 0.0018516440102175397 0 0.0099826653504703419 0.0019215863722798847 0 0.010003844328921065 0.0020494998222212201 0 0.0099906233720749756 0.0019721803281311295 0 0.0099826653504703419 0.0019215863722798847 0 0.010003844328921065 0.0020494998222212201 0 0.0099901553965580769 0.0020774684688578036 0 0.010003844328921065 0.0020494998222212201 0 0.010013368548415211 0.0020303692651081552 0 0.0099906233720749756 0.0019721803281311295 0 0.010003844328921065 0.0020494998222212201 0 0.010013368548415211 0.0020303692651081552 0 0.010656764977166781 0.0021013524923331225 0 0.010571502127281245 0.0019899679439357785 0 0.011181714367074975 0.0023122933047066722 0 0.011474947306683707 0.0016439035108641224 0 0.011785850930800498 0.0019935926331833558 0 0.010583907602664987 0.0020332011484048879 0 0.011323874775862929 0.0014135644461828077 0 0.010585855067439968 0.0016062273359259147 0 0.010993167486873852 0.0022692537663925572 0 0.011181714367074975 0.0023122933047066722 0 0.011474947306683707 0.0016439035108641224 0 0.010571502127281245 0.0019899679439357785 0 0.011656020200729193 0.0015794804859928702 0 0.010776294517366839 0.0012406028885877684 0 0.011323874775862929 0.0014135644461828077 0 0.010585855067439968 0.0016062273359259147 0 0.010656764977166781 0.0021013524923331225 0 0.01143172869077674 0.0014468938982315817 0 0.011323874775862929 0.0014135644461828077 0 0.011265642792876257 0.00079675695956079424 0 0.011655611218805673 0.00078249890871083094 0 0.010776294517366839 0.0012406028885877684 0 0.011323874775862929 0.0014135644461828077 0 0.01097406949798811 0.00097330809084916444 0 0.011323874775862929 0.0014135644461828077 0 0.01097406949798811 0.00097330809084916444 0 0.011265642792876257 0.00079675695956079424 0 0.01143172869077674 0.0014468938982315817 0 0.01202393031198988 0.0014167925144909453 0 0.011474947306683707 0.0016439035108641224 0 0.011974426753057328 0.0015294937151135348 0 0.011950995894511294 0.0010243874979765863 0 0.011323874775862929 0.0014135644461828077 0 0.011655611218805673 0.00078249890871083094 0 0.011928315941726492 0.00087398303276075488 0 0.011474947306683707 0.0016439035108641224 0 0.011974426753057328 0.0015294937151135348 0 0.011785850930800498 0.0019935926331833558 0 0.011656020200729193 0.0015794804859928702 0 0.012282224072573176 0.0011788021877004117 0 0.011890135074023811 0.0019112571752120848 0 0.011417287304994013 0.0011990458928396652 0 0.012222136585518597 0.00077317678249960329 0 0.011890135074023811 0.0019112571752120848 0 0.012222136585518597 0.00077317678249960329 0 0.012986580563894368 0.0011844240107745966 0 0.011974426753057328 0.0015294937151135348 0 0.011785850930800498 0.0019935926331833558 0 0.012385820265051768 0.0016784105465063575 0 0.012222136585518597 0.00077317678249960329 0 0.012986580563894368 0.0011844240107745966 0 0.013020375840856637 0.0003593994050346948 0 0.013806621677779908 -1.0981890422846271e-05 0 0.013707844340458197 0.0018335964460042312 0 0.012986580563894368 0.0011844240107745966 0 0.013020375840856637 0.0003593994050346948 0 0.013083758460554698 0.00038032771405898286 0 0.012385820265051768 0.0016784105465063575 0 0.012988364396495818 0.0013638626179342109 0 0.012467828399931264 0.0011930186328939336 0 0.013381220198237473 0.0017212415134696341 0 0.012630306749771267 0.0019969842962119389 0 0.013622460543179652 0.0030949764887218444 0 0.01275344445983896 0.0028172110567336369 0 0.013378352478507948 0.0026953702964797261 0 0.012282224072573176 0.0011788021877004117 0 0.013381220198237473 0.0017212415134696341 0 0.013731290848283211 0.0028879408797980672 0 0.013622460543179652 0.0030949764887218444 0 0.013378352478507948 0.0026953702964797261 0 0.013731290848283211 0.0028879408797980672 0 0.013622460543179652 0.0030949764887218444 0 0.01370243007094708 0.0031201923446039529 0 0.013666327771369101 0.0023919023114580681 0 0.013707844340458197 0.0018335964460042312 0 0.013381220198237473 0.0017212415134696341 0 0.013707844340458197 0.0018335964460042312 0 0.011974426753057328 0.0015294937151135348 0 0.012467828399931264 0.0011930186328939336 0 0.011950995894511294 0.0010243874979765863 0 0.011974426753057328 0.0015294937151135348 0 0.012385820265051768 0.0016784105465063575 0 0.012467828399931264 0.0011930186328939336 0 0.01275344445983896 0.0028172110567336369 0 0.012640760998506312 0.0015188478584205742 0 0.011890340041828911 0.0025277703585576709 0 0.01275344445983896 0.0028172110567336369 0 0.013268372778120579 0.0022434486823044953 0 0.012640760998506312 0.0015188478584205742 0 0.012662579578093908 0.0010711992508714316 0 0.01202393031198988 0.0014167925144909453 0 0.012630306749771267 0.0019969842962119389 0 0.01202393031198988 0.0014167925144909453 0 0.012669058500126486 0.0005416134218028467 0 0.011967931693501896 0.00058622774022477561 0 0.012049288348537508 0.00095054351152583328 0 0.013730751003632028 0.0024786489534268283 0 0.013378352478507948 0.0026953702964797261 0 0.013268372778120579 0.0022434486823044953 0 0.013731290848283211 0.0028879408797980672 0 0.013730751003632028 0.0024786489534268283 0 0.013378352478507948 0.0026953702964797261 0 0.01275344445983896 0.0028172110567336369 0 0.013378352478507948 0.0026953702964797261 0 0.013268372778120579 0.0022434486823044953 0 0.013730751003632028 0.0024786489534268283 0 0.013268372778120579 0.0022434486823044953 0 0.013873491158200859 0.0017135074793071486 0 0.013268372778120579 0.0022434486823044953 0 0.012640760998506312 0.0015188478584205742 0 0.013873491158200859 0.0017135074793071486 0 0.012640760998506312 0.0015188478584205742 0 0.013873491158200859 0.0017135074793071486 0 0.013399163070579805 0.0004367066766031319 0 0.012669058500126486 0.0005416134218028467 0 0.01213750488332957 0.00032073762367677199 0 0.012359996422777181 4.3802018751748489e-06 0 0.012669058500126486 0.0005416134218028467 0 0.01213750488332957 0.00032073762367677199 0 0.011967931693501896 0.00058622774022477561 0 0.01213750488332957 0.00032073762367677199 0 0.011967931693501896 0.00058622774022477561 0 0.01170951682988609 0.00034888318935351179 0 0.011967931693501896 0.00058622774022477561 0 0.01170951682988609 0.00034888318935351179 0 0.011525174772613224 0.00056973943318731999 0 0.01170951682988609 0.00034888318935351179 0 0.011404299684028568 5.9528111921423013e-05 0 0.011898943577712399 8.4679288217491845e-05 0 0.01213750488332957 0.00032073762367677199 0 0.01170951682988609 0.00034888318935351179 0 0.011898943577712399 8.4679288217491845e-05 0 0.011404299684028568 5.9528111921423013e-05 0 0.011225015579350744 0.00040066146012764862 0 0.010810492859000102 5.3426711321849418e-05 0 0.011404299684028568 5.9528111921423013e-05 0 0.011026342209907954 -0.00037087278980982541 0 0.010810492859000102 5.3426711321849418e-05 0 0.011225015579350744 0.00040066146012764862 0 0.010864070614407131 0.00036186622293735637 0 0.010810492859000102 5.3426711321849418e-05 0 0.01170951682988609 0.00034888318935351179 0 0.011404299684028568 5.9528111921423013e-05 0 0.011225015579350744 0.00040066146012764862 0 0.01170951682988609 0.00034888318935351179 0 0.011225015579350744 0.00040066146012764862 0 0.011525174772613224 0.00056973943318731999 0 0.011225015579350744 0.00040066146012764862 0 0.011525174772613224 0.00056973943318731999 0 0.011265642792876257 0.00079675695956079424 0 0.011525174772613224 0.00056973943318731999 0 0.011265642792876257 0.00079675695956079424 0 0.011655611218805673 0.00078249890871083094 0 0.011225015579350744 0.00040066146012764862 0 0.010889003084921306 0.00062460354880110715 0 0.010864070614407131 0.00036186622293735637 0 0.011225015579350744 0.00040066146012764862 0 0.011265642792876257 0.00079675695956079424 0 0.010889003084921306 0.00062460354880110715 0 0.01097406949798811 0.00097330809084916444 0 0.011265642792876257 0.00079675695956079424 0 0.010889003084921306 0.00062460354880110715 0 0.011678895685480155 0.0010116598657815661 0 0.01202393031198988 0.0014167925144909453 0 0.011967931693501896 0.00058622774022477561 0 0.011655611218805673 0.00078249890871083094 0 0.012049288348537508 0.00095054351152583328 0 0.011967931693501896 0.00058622774022477561 0 0.011525174772613224 0.00056973943318731999 0 0.011655611218805673 0.00078249890871083094 0 0.017196060479170897 0.00071997847278058771 0 0.017126764205774175 0.00075221345891757891 0 0.017106262600205296 0.00072327927967887539 0 0.017196060479170897 0.00071997847278058771 0 0.017106262600205296 0.00072327927967887539 0 0.017031629311074801 0.00074568239540851128 0 0.017301501763511713 -0.0012100767035940721 0 0.017293228555372658 -0.00120140677838004 0 0.017304696141079066 -0.0011284144192241386 0 0.017461102255350577 -0.00026651030599772745 0 0.01725499290726077 -0.00024459522803824477 0 0.017196060479170897 0.00071997847278058771 0 0.017126764205774175 0.00075221345891757891 0 0.017333509721984813 0.00067817938705740739 0 0.017281478888866674 -0.0012206094797156198 0 0.017301501763511713 -0.0012100767035940721 0 0.017293228555372658 -0.00120140677838004 0 0.017126764205774175 0.00075221345891757891 0 0.017101467197249812 0.00072870355253635253 0 0.017082631761656038 0.00073317278533251737 0 0.017126764205774175 0.00075221345891757891 0 0.017101467197249812 0.00072870355253635253 0 0.017106262600205296 0.00072327927967887539 0 0.017106262600205296 0.00072327927967887539 0 0.017097039522905616 0.000719845097658047 0 0.017031629311074801 0.00074568239540851128 0 0.017101467197249812 0.00072870355253635253 0 0.017106262600205296 0.00072327927967887539 0 0.017097039522905616 0.000719845097658047 0 0.017101467197249812 0.00072870355253635253 0 0.017097039522905616 0.000719845097658047 0 0.017082631761656038 0.00073317278533251737 0 0.016899659634267688 0.00086790497046182827 0 0.016713645065838216 0.00098308270376149345 0 0.01687875970287657 0.00075961565006257359 0 0.017126764205774175 0.00075221345891757891 0 0.017035228392974298 0.00073965049146401847 0 0.017082631761656038 0.00073317278533251737 0 0.014778319566858201 0.0027242855227971197 0 0.014799117755575438 0.0030720278144137224 0 0.01529509138015058 0.0023609968796951294 0 0.015975404041721427 0.0011902904201869526 0 0.016011811174739217 0.0017072964773461772 0 0.017110466168214732 0.00070279201122213362 0 0.015975404041721427 0.0011902904201869526 0 0.017097039522905616 0.000719845097658047 0 0.017046003779935537 0.00073252136299500089 0 0.017082631761656038 0.00073317278533251737 0 0.014778319566858201 0.0027242855227971197 0 0.014799117755575438 0.0030720278144137224 0 0.014546154346411565 0.00292500348438953 0 0.017046003779935537 0.00073252136299500089 0 0.017035228392974298 0.00073965049146401847 0 0.017082631761656038 0.00073317278533251737 0 0.014799117755575438 0.0030720278144137224 0 0.014692306360824303 0.003136625016694579 0 0.014546154346411565 0.00292500348438953 0 0.015975404041721427 0.0011902904201869526 0 0.0158830338143694 0.0003882368547295948 0 0.017281478888866674 -0.0012206094797156198 0 0.017269083645075251 -0.0012147527541701906 0 0.017268125385034843 -0.0012342411333777575 0 0.017461102255350577 -0.00026651030599772745 0 0.0158830338143694 0.0003882368547295948 0 0.017281478888866674 -0.0012206094797156198 0 0.017293228555372658 -0.00120140677838004 0 0.017269083645075251 -0.0012147527541701906 0 0.013806621677779908 -1.0981890422846271e-05 0 0.0158830338143694 0.0003882368547295948 0 0.0158830338143694 0.0003882368547295948 0 0.016056396111366916 -0.00098753086248814571 0 0.015375285184460356 -0.00090548912508265419 0 0.014326394064078745 -0.00018327449565141356 0 0.014813621434539456 -0.0011689059236646016 0 0.014327797333628798 0.0009309073690954786 0 0.014382095469238807 0.0004951378465710164 0 0.014799221076237559 0.00062587551429604447 0 0.013707844340458197 0.0018335964460042312 0 0.0158830338143694 0.0003882368547295948 0 0.014020645398072773 0.0029083093253962208 0 0.01444322301481543 0.0027836686350595115 0 0.014777241125382493 0.0024587206825713026 0 0.013707844340458197 0.0018335964460042312 0 0.014648151100254631 0.0027544278698522838 0 0.014020645398072773 0.0029083093253962208 0 0.014692306360824303 0.003136625016694579 0 0.014546154346411565 0.00292500348438953 0 0.014778319566858201 0.0027242855227971197 0 0.01444322301481543 0.0027836686350595115 0 0.014546154346411565 0.00292500348438953 0 0.014020645398072773 0.0029083093253962208 0 0.01444322301481543 0.0027836686350595115 0 0.014546154346411565 0.00292500348438953 0 0.013731290848283211 0.0028879408797980672 0 0.013705152483073756 0.0031230846727065245 0 0.014032756381018563 0.0026640585692839659 0 0.013705152483073756 0.0031230846727065245 0 0.014032756381018563 0.0026640585692839659 0 0.014777241125382493 0.0024587206825713026 0 0.013730751003632028 0.0024786489534268283 0 0.014032756381018563 0.0026640585692839659 0 0.014195862564667048 0.0022563126315145753 0 0.013731290848283211 0.0028879408797980672 0 0.013730751003632028 0.0024786489534268283 0 0.014032756381018563 0.0026640585692839659 0 0.014032756381018563 0.0026640585692839659 0 0.014195862564667048 0.0022563126315145753 0 0.014777241125382493 0.0024587206825713026 0 0.014195862564667048 0.0022563126315145753 0 0.014544313507567382 0.0019683568871316976 0 0.014777241125382493 0.0024587206825713026 0 0.014195862564667048 0.0022563126315145753 0 0.014544313507567382 0.0019683568871316976 0 0.013873491158200859 0.0017135074793071486 0 0.013730751003632028 0.0024786489534268283 0 0.014195862564667048 0.0022563126315145753 0 0.013873491158200859 0.0017135074793071486 0 0.014544313507567382 0.0019683568871316976 0 0.013873491158200859 0.0017135074793071486 0 0.014845410669772758 0.0014345427258081883 0 0.013873491158200859 0.0017135074793071486 0 0.014845410669772758 0.0014345427258081883 0 0.014405750963877891 0.00062009131525733632 0 0.014544313507567382 0.0019683568871316976 0 0.014845410669772758 0.0014345427258081883 0 0.015064394086482788 0.0019570482857613433 0 0.014845410669772758 0.0014345427258081883 0 0.015064394086482788 0.0019570482857613433 0 0.015878812025548982 0.0015428745559375012 0 0.015064394086482788 0.0019570482857613433 0 0.014777241125382493 0.0024587206825713026 0 0.01529509138015058 0.0023609968796951294 0 0.014544313507567382 0.0019683568871316976 0 0.015064394086482788 0.0019570482857613433 0 0.014777241125382493 0.0024587206825713026 0 0.014778319566858201 0.0027242855227971197 0 0.014777241125382493 0.0024587206825713026 0 0.01529509138015058 0.0023609968796951294 0 0.014778319566858201 0.0027242855227971197 0 0.01444322301481543 0.0027836686350595115 0 0.014777241125382493 0.0024587206825713026 0 0.01687875970287657 0.00075961565006257359 0 0.017031629311074801 0.00074568239540851128 0 0.016879445311506702 0.00068360563756062788 0 0.017110466168214732 0.00070279201122213362 0 0.016992261221925722 0.00078072835290075317 0 0.016899659634267688 0.00086790497046182827 0 0.01687875970287657 0.00075961565006257359 0 0.017031629311074801 0.00074568239540851128 0 0.016011811174739217 0.0017072964773461772 0 0.01639492825820801 0.0010564527766510567 0 0.015064394086482788 0.0019570482857613433 0 0.01529509138015058 0.0023609968796951294 0 0.015878812025548982 0.0015428745559375012 0 0.016879445311506702 0.00068360563756062788 0 0.017038490835425742 0.00070577766418340943 0 0.016906662307775093 0.000664149707891179 0 0.016879445311506702 0.00068360563756062788 0 0.017038490835425742 0.00070577766418340943 0 0.01707968100790638 0.00073090082228260478 0 0.017031629311074801 0.00074568239540851128 0 0.016879445311506702 0.00068360563756062788 0 0.01707968100790638 0.00073090082228260478 0 0.017196060479170897 0.00071997847278058771 0 0.01707968100790638 0.00073090082228260478 0 0.017220458124110615 0.00074175551912971413 0 0.017196060479170897 0.00071997847278058771 0 0.017031629311074801 0.00074568239540851128 0 0.01707968100790638 0.00073090082228260478 0 0.01656159020452207 0.00063655762692751364 0 0.015975283993688551 7.1266486077175572e-05 0 0.016929377431485374 0.00016327773938151042 0 0.016879445311506702 0.00068360563756062788 0 0.01656159020452207 0.00063655762692751364 0 0.016906662307775093 0.000664149707891179 0 0.015878812025548982 0.0015428745559375012 0 0.01656159020452207 0.00063655762692751364 0 0.015401341735854739 0.00067201799617756374 0 0.01639492825820801 0.0010564527766510567 0 0.016568993677553972 0.00067376247883986246 0 0.01656159020452207 0.00063655762692751364 0 0.015401341735854739 0.00067201799617756374 0 0.015975283993688551 7.1266486077175572e-05 0 0.015401341735854739 0.00067201799617756374 0 0.015975283993688551 7.1266486077175572e-05 0 0.014891510031636461 -0.00012149960762162799 0 0.015401341735854739 0.00067201799617756374 0 0.014405750963877891 0.00062009131525733632 0 0.014891510031636461 -0.00012149960762162799 0 0.014845410669772758 0.0014345427258081883 0 0.015878812025548982 0.0015428745559375012 0 0.015401341735854739 0.00067201799617756374 0 0.014845410669772758 0.0014345427258081883 0 0.015401341735854739 0.00067201799617756374 0 0.014405750963877891 0.00062009131525733632 0 0.013873491158200859 0.0017135074793071486 0 0.014405750963877891 0.00062009131525733632 0 0.013399163070579805 0.0004367066766031319 0 0.014405750963877891 0.00062009131525733632 0 0.013991131299755327 -7.5799330523408987e-05 0 0.014891510031636461 -0.00012149960762162799 0 0.014405750963877891 0.00062009131525733632 0 0.013991131299755327 -7.5799330523408987e-05 0 0.013399163070579805 0.0004367066766031319 0 0.013991131299755327 -7.5799330523408987e-05 0 0.01409695801743583 -0.00059391823432319521 0 0.014891510031636461 -0.00012149960762162799 0 0.01409695801743583 -0.00059391823432319521 0 0.01342984095852991 -0.00091929414187111791 0 0.014197193793189218 -0.0010410317470551285 0 0.01409695801743583 -0.00059391823432319521 0 0.015411311573928718 -0.00058043366305950551 0 0.014197193793189218 -0.0010410317470551285 0 0.01409695801743583 -0.00059391823432319521 0 0.014891510031636461 -0.00012149960762162799 0 0.015411311573928718 -0.00058043366305950551 0 0.015975283993688551 7.1266486077175572e-05 0 0.014891510031636461 -0.00012149960762162799 0 0.015411311573928718 -0.00058043366305950551 0 0.015975283993688551 7.1266486077175572e-05 0 0.015411311573928718 -0.00058043366305950551 0 0.016456106510383175 -0.00029273028033445703 0 0.015411311573928718 -0.00058043366305950551 0 0.016456106510383175 -0.00029273028033445703 0 0.016494804505521071 -0.00087883699937495782 0 0.015975283993688551 7.1266486077175572e-05 0 0.016456106510383175 -0.00029273028033445703 0 0.016929377431485374 0.00016327773938151042 0 0.012359996422777181 4.3802018751748489e-06 0 0.01263096771780846 -0.00042677156520044487 0 0.01203925765631225 -0.00080601162192948624 0 0.011731743489195111 -0.00028266054498544448 0 0.012359996422777181 4.3802018751748489e-06 0 0.01203925765631225 -0.00080601162192948624 0 0.011306260300910548 -0.00068887982654133016 0 0.011731743489195111 -0.00028266054498544448 0 0.01203925765631225 -0.00080601162192948624 0 0.011306260300910548 -0.00068887982654133016 0 0.01203925765631225 -0.00080601162192948624 0 0.011469292838903118 -0.0010750708418995421 0 0.011404299684028568 5.9528111921423013e-05 0 0.011731743489195111 -0.00028266054498544448 0 0.011026342209907954 -0.00037087278980982541 0 0.011306260300910548 -0.00068887982654133016 0 0.011731743489195111 -0.00028266054498544448 0 0.011026342209907954 -0.00037087278980982541 0 0.011404299684028568 5.9528111921423013e-05 0 0.011731743489195111 -0.00028266054498544448 0 0.011898943577712399 8.4679288217491845e-05 0 0.011731743489195111 -0.00028266054498544448 0 0.011898943577712399 8.4679288217491845e-05 0 0.012359996422777181 4.3802018751748489e-06 0 0.01213750488332957 0.00032073762367677199 0 0.011898943577712399 8.4679288217491845e-05 0 0.012359996422777181 4.3802018751748489e-06 0 0.012669058500126486 0.0005416134218028467 0 0.012359996422777181 4.3802018751748489e-06 0 0.013399163070579805 0.0004367066766031319 0 0.012662579578093908 0.0010711992508714316 0 0.013350218820968696 0.00040711056424457177 0 0.013991131299755327 -7.5799330523408987e-05 0 0.013399163070579805 0.0004367066766031319 0 0.013243165133458112 -0.00055586881543218873 0 0.013399163070579805 0.0004367066766031319 0 0.01263096771780846 -0.00042677156520044487 0 0.013243165133458112 -0.00055586881543218873 0 0.012359996422777181 4.3802018751748489e-06 0 0.013399163070579805 0.0004367066766031319 0 0.01263096771780846 -0.00042677156520044487 0 0.01263096771780846 -0.00042677156520044487 0 0.013243165133458112 -0.00055586881543218873 0 0.01257282426868311 -0.00098116193793664711 0 0.013991131299755327 -7.5799330523408987e-05 0 0.01409695801743583 -0.00059391823432319521 0 0.013243165133458112 -0.00055586881543218873 0 0.01409695801743583 -0.00059391823432319521 0 0.013243165133458112 -0.00055586881543218873 0 0.01342984095852991 -0.00091929414187111791 0 0.01342984095852991 -0.00091929414187111791 0 0.01257282426868311 -0.00098116193793664711 0 0.012920233139585076 -0.0011653624436960908 0 0.013243165133458112 -0.00055586881543218873 0 0.01342984095852991 -0.00091929414187111791 0 0.01257282426868311 -0.00098116193793664711 0 0.01257282426868311 -0.00098116193793664711 0 0.011581526019846543 -0.0013693209075387395 0 0.012292571087679637 -0.0012967035652153207 0 0.01257282426868311 -0.00098116193793664711 0 0.01203925765631225 -0.00080601162192948624 0 0.011581526019846543 -0.0013693209075387395 0 0.01263096771780846 -0.00042677156520044487 0 0.01257282426868311 -0.00098116193793664711 0 0.01203925765631225 -0.00080601162192948624 0 0.01203925765631225 -0.00080601162192948624 0 0.011469292838903118 -0.0010750708418995421 0 0.011581526019846543 -0.0013693209075387395 0 0.011581526019846543 -0.0013693209075387395 0 0.010882064847743999 -0.0020061154099026367 0 0.01131282909953105 -0.0015416019298245202 0 0.011581526019846543 -0.0013693209075387395 0 0.010882064847743999 -0.0020061154099026367 0 0.01095350365963807 -0.0013387108586078976 0 0.010882064847743999 -0.0020061154099026367 0 0.0095128007272831158 -0.0023881299700772795 0 0.010016929135711247 -0.0035495489877427205 0 0.010882064847743999 -0.0020061154099026367 0 0.010092889932818507 -0.0017310489423295198 0 0.0095128007272831158 -0.0023881299700772795 0 0.010882064847743999 -0.0020061154099026367 0 0.010092889932818507 -0.0017310489423295198 0 0.01095350365963807 -0.0013387108586078976 0 0.010092889932818507 -0.0017310489423295198 0 0.01095350365963807 -0.0013387108586078976 0 0.010155468429701827 -0.0013201826073440288 0 0.010092889932818507 -0.0017310489423295198 0 0.010155468429701827 -0.0013201826073440288 0 0.0093625568927087656 -0.0015662328298944662 0 0.011469292838903118 -0.0010750708418995421 0 0.011581526019846543 -0.0013693209075387395 0 0.01095350365963807 -0.0013387108586078976 0 0.011306260300910548 -0.00068887982654133016 0 0.011469292838903118 -0.0010750708418995421 0 0.01095350365963807 -0.0013387108586078976 0 0.011306260300910548 -0.00068887982654133016 0 0.010574753355327768 -0.00089635330032791847 0 0.011026342209907954 -0.00037087278980982541 0 0.011306260300910548 -0.00068887982654133016 0 0.01095350365963807 -0.0013387108586078976 0 0.010574753355327768 -0.00089635330032791847 0 0.010574753355327768 -0.00089635330032791847 0 0.010155468429701827 -0.0013201826073440288 0 0.0095944803413856774 -0.0011459716672304018 0 0.01095350365963807 -0.0013387108586078976 0 0.010574753355327768 -0.00089635330032791847 0 0.010155468429701827 -0.0013201826073440288 0 0.010574753355327768 -0.00089635330032791847 0 0.01024002989354297 -0.00050519797831857836 0 0.0095944803413856774 -0.0011459716672304018 0 0.01024002989354297 -0.00050519797831857836 0 0.009531739740980651 -0.00072615324905259614 0 0.0095944803413856774 -0.0011459716672304018 0 0.01024002989354297 -0.00050519797831857836 0 0.009531739740980651 -0.00072615324905259614 0 0.0097404329650079488 -0.00037388537472897736 0 0.01024002989354297 -0.00050519797831857836 0 0.011026342209907954 -0.00037087278980982541 0 0.010810492859000102 5.3426711321849418e-05 0 0.010574753355327768 -0.00089635330032791847 0 0.01024002989354297 -0.00050519797831857836 0 0.011026342209907954 -0.00037087278980982541 0 0.0078428159151137777 -0.0014068429753319928 0 0.008853913753846655 -0.001029194662514095 0 0.0086412048404267555 -0.0014682245551176031 0 0.0078428159151137777 -0.0014068429753319928 0 0.008853913753846655 -0.001029194662514095 0 0.0083416341586185355 -0.00083027718623465078 0 0.008853913753846655 -0.001029194662514095 0 0.0095944803413856774 -0.0011459716672304018 0 0.0086412048404267555 -0.0014682245551176031 0 0.008853913753846655 -0.001029194662514095 0 0.00910717510868524 -0.00055423527428950878 0 0.0083416341586185355 -0.00083027718623465078 0 0.008853913753846655 -0.001029194662514095 0 0.009531739740980651 -0.00072615324905259614 0 0.00910717510868524 -0.00055423527428950878 0 0.008853913753846655 -0.001029194662514095 0 0.009531739740980651 -0.00072615324905259614 0 0.0095944803413856774 -0.0011459716672304018 0 0.0095944803413856774 -0.0011459716672304018 0 0.0093625568927087656 -0.0015662328298944662 0 0.0086412048404267555 -0.0014682245551176031 0 0.010155468429701827 -0.0013201826073440288 0 0.0095944803413856774 -0.0011459716672304018 0 0.0093625568927087656 -0.0015662328298944662 0 0.0093625568927087656 -0.0015662328298944662 0 0.0086412048404267555 -0.0014682245551176031 0 0.008509157085017512 -0.0018804074783124319 0 0.008509157085017512 -0.0018804074783124319 0 0.0078642313295887965 -0.0021661928984731235 0 0.0077670958930996115 -0.0017638324924799153 0 0.0086412048404267555 -0.0014682245551176031 0 0.008509157085017512 -0.0018804074783124319 0 0.0077670958930996115 -0.0017638324924799153 0 0.0078428159151137777 -0.0014068429753319928 0 0.0086412048404267555 -0.0014682245551176031 0 0.0077670958930996115 -0.0017638324924799153 0 0.008509157085017512 -0.0018804074783124319 0 0.0087264707660682332 -0.0023006859533469385 0 0.0078642313295887965 -0.0021661928984731235 0 0.008509157085017512 -0.0018804074783124319 0 0.0087264707660682332 -0.0023006859533469385 0 0.0091609074725254487 -0.001997025464163321 0 0.010092889932818507 -0.0017310489423295198 0 0.0093625568927087656 -0.0015662328298944662 0 0.0091609074725254487 -0.001997025464163321 0 0.0093625568927087656 -0.0015662328298944662 0 0.008509157085017512 -0.0018804074783124319 0 0.0091609074725254487 -0.001997025464163321 0 0.010092889932818507 -0.0017310489423295198 0 0.0091609074725254487 -0.001997025464163321 0 0.0095128007272831158 -0.0023881299700772795 0 0.0087264707660682332 -0.0023006859533469385 0 0.0091609074725254487 -0.001997025464163321 0 0.0095128007272831158 -0.0023881299700772795 0 0.0087264707660682332 -0.0023006859533469385 0 0.0095128007272831158 -0.0023881299700772795 0 0.0085799983742199312 -0.0030836486978866829 0 0.0087264707660682332 -0.0023006859533469385 0 0.0078642313295887965 -0.0021661928984731235 0 0.0085799983742199312 -0.0030836486978866829 0 0.0072934588575218184 -0.0025168048461023797 0 0.007579883761220923 -0.0034866541702964693 0 0.0066368885520441514 -0.0032841977902165688 0 0.0068152058567160865 -0.0030533110729283413 0 0.00676286702860054 -0.0033707099002377814 0 0.0058868290531697851 -0.0038529531901887511 0 0.0060758696771898695 -0.0032816404889137595 0 0.0056472614184376671 -0.0035702879382747744 0 0.0060758696771898695 -0.0032816404889137595 0 0.0056472614184376671 -0.0035702879382747744 0 0.0055982457558860152 -0.0031328481179650237 0 0.0066368885520441514 -0.0032841977902165688 0 0.0058868290531697851 -0.0038529531901887511 0 0.0060758696771898695 -0.0032816404889137595 0 0.0066368885520441514 -0.0032841977902165688 0 0.0060758696771898695 -0.0032816404889137595 0 0.0064006970566793534 -0.0028270902964546685 0 0.0060758696771898695 -0.0032816404889137595 0 0.006011786725388716 -0.0028951286851618451 0 0.0064006970566793534 -0.0028270902964546685 0 0.0060758696771898695 -0.0032816404889137595 0 0.006011786725388716 -0.0028951286851618451 0 0.0055982457558860152 -0.0031328481179650237 0 0.006011786725388716 -0.0028951286851618451 0 0.0064006970566793534 -0.0028270902964546685 0 0.0061518499972756449 -0.0023474229548404923 0 0.0066368885520441514 -0.0032841977902165688 0 0.0064006970566793534 -0.0028270902964546685 0 0.0068152058567160865 -0.0030533110729283413 0 0.0042242448703242903 -0.0035631146425032338 0 0.0046053668872647838 -0.0036085458948820676 0 0.004447175099149288 -0.0032302812647815758 0 0.0043024172520514719 -0.0040069004664606894 0 0.0046053668872647838 -0.0036085458948820676 0 0.0047899797790783268 -0.0039433431016646118 0 0.0043024172520514719 -0.0040069004664606894 0 0.0042242448703242903 -0.0035631146425032338 0 0.0046053668872647838 -0.0036085458948820676 0 0.0046053668872647838 -0.0036085458948820676 0 0.0049976809742827023 -0.0034144351733664639 0 0.0047899797790783268 -0.0039433431016646118 0 0.0046053668872647838 -0.0036085458948820676 0 0.0049976809742827023 -0.0034144351733664639 0 0.004447175099149288 -0.0032302812647815758 0 0.0049976809742827023 -0.0034144351733664639 0 0.0056472614184376671 -0.0035702879382747744 0 0.005334258911806989 -0.0039368265446359327 0 0.0049976809742827023 -0.0034144351733664639 0 0.005334258911806989 -0.0039368265446359327 0 0.0047899797790783268 -0.0039433431016646118 0 0.0058868290531697851 -0.0038529531901887511 0 0.0056472614184376671 -0.0035702879382747744 0 0.005334258911806989 -0.0039368265446359327 0 0.0049976809742827023 -0.0034144351733664639 0 0.0056472614184376671 -0.0035702879382747744 0 0.0055982457558860152 -0.0031328481179650237 0 0.0055982457558860152 -0.0031328481179650237 0 0.0051658703030650855 -0.0029023402226033617 0 0.0056229112527737693 -0.0026143654075746936 0 0.006011786725388716 -0.0028951286851618451 0 0.0055982457558860152 -0.0031328481179650237 0 0.0056229112527737693 -0.0026143654075746936 0 0.0049976809742827023 -0.0034144351733664639 0 0.0055982457558860152 -0.0031328481179650237 0 0.0051658703030650855 -0.0029023402226033617 0 0.0049976809742827023 -0.0034144351733664639 0 0.0048011368455905135 -0.0030771170464277617 0 0.004447175099149288 -0.0032302812647815758 0 0.0049976809742827023 -0.0034144351733664639 0 0.0051658703030650855 -0.0029023402226033617 0 0.0048011368455905135 -0.0030771170464277617 0 0.0051658703030650855 -0.0029023402226033617 0 0.0045934833358881929 -0.0027519632902357791 0 0.0050688168488317873 -0.0023815173834285715 0 0.0051658703030650855 -0.0029023402226033617 0 0.0048011368455905135 -0.0030771170464277617 0 0.0045934833358881929 -0.0027519632902357791 0 0.003966601873300858 -0.0028246691097211247 0 0.0045934833358881929 -0.0027519632902357791 0 0.004447175099149288 -0.0032302812647815758 0 0.0048011368455905135 -0.0030771170464277617 0 0.0045934833358881929 -0.0027519632902357791 0 0.004447175099149288 -0.0032302812647815758 0 0.0042737094391968296 -0.0022407191118783442 0 0.0045934833358881929 -0.0027519632902357791 0 0.0050688168488317873 -0.0023815173834285715 0 0.0042737094391968296 -0.0022407191118783442 0 0.0050688168488317873 -0.0023815173834285715 0 0.004947647230367236 -0.0016647795707210927 0 0.0050688168488317873 -0.0023815173834285715 0 0.0057250150328330271 -0.0019970542848715654 0 0.004947647230367236 -0.0016647795707210927 0 0.0051658703030650855 -0.0029023402226033617 0 0.0050688168488317873 -0.0023815173834285715 0 0.0056229112527737693 -0.0026143654075746936 0 0.0050688168488317873 -0.0023815173834285715 0 0.0056229112527737693 -0.0026143654075746936 0 0.0057250150328330271 -0.0019970542848715654 0 0.0056229112527737693 -0.0026143654075746936 0 0.0057250150328330271 -0.0019970542848715654 0 0.0061518499972756449 -0.0023474229548404923 0 0.0057250150328330271 -0.0019970542848715654 0 0.004947647230367236 -0.0016647795707210927 0 0.0058805773562304415 -0.0010659993486906391 0 0.0042737094391968296 -0.0022407191118783442 0 0.0038834824628922286 -0.0014824892869122908 0 0.004947647230367236 -0.0016647795707210927 0 0.0038834824628922286 -0.0014824892869122908 0 0.004947647230367236 -0.0016647795707210927 0 0.0046359076115751333 -0.00077700773237727354 0 0.0077670958930996115 -0.0017638324924799153 0 0.0066644422599505503 -0.0018388392559729465 0 0.0072696060192444095 -0.0016543328711649836 0 0.0072934588575218184 -0.0025168048461023797 0 0.0066998372386063336 -0.0018252789520482446 0 0.0064006970566793534 -0.0028270902964546685 0 0.0068152058567160865 -0.0030533110729283413 0 0.0066644422599505503 -0.0018388392559729465 0 0.0078642313295887965 -0.0021661928984731235 0 0.0077670958930996115 -0.0017638324924799153 0 0.0066644422599505503 -0.0018388392559729465 0 0.0057250150328330271 -0.0019970542848715654 0 0.0061518499972756449 -0.0023474229548404923 0 0.0066644422599505503 -0.0018388392559729465 0 0.0064006970566793534 -0.0028270902964546685 0 0.0061518499972756449 -0.0023474229548404923 0 0.0066644422599505503 -0.0018388392559729465 0 0.006011786725388716 -0.0028951286851618451 0 0.0056229112527737693 -0.0026143654075746936 0 0.0061518499972756449 -0.0023474229548404923 0 0.0066644422599505503 -0.0018388392559729465 0 0.0068868846753515197 -0.0016123548286883871 0 0.0058805773562304415 -0.0010659993486906391 0 0.0057250150328330271 -0.0019970542848715654 0 0.0066644422599505503 -0.0018388392559729465 0 0.0058805773562304415 -0.0010659993486906391 0 0.0066644422599505503 -0.0018388392559729465 0 0.0068868846753515197 -0.0016123548286883871 0 0.0072696060192444095 -0.0016543328711649836 0 0.0078428159151137777 -0.0014068429753319928 0 0.0077670958930996115 -0.0017638324924799153 0 0.0072696060192444095 -0.0016543328711649836 0 0.0078428159151137777 -0.0014068429753319928 0 0.0068868846753515197 -0.0016123548286883871 0 0.0072696060192444095 -0.0016543328711649836 0 0.0078428159151137777 -0.0014068429753319928 0 0.0068868846753515197 -0.0016123548286883871 0 0.0073247600764724044 -0.00079134978777947848 0 0.0068868846753515197 -0.0016123548286883871 0 0.0073247600764724044 -0.00079134978777947848 0 0.0057497092446186122 -0.0013038555988972506 0 0.0068868846753515197 -0.0016123548286883871 0 0.0057497092446186122 -0.0013038555988972506 0 0.0038213363756979535 -0.0028606012306381851 0 0.0066050608994708123 -0.001726170254903658 0 0.0047932072948149961 -0.0018989138806651408 0 0.0057497092446186122 -0.0013038555988972506 0 0.0038213363756979535 -0.0028606012306381851 0 0.0034323805783098888 -0.0017072832121196432 0 0.0052597813033865536 -0.00064738725475021075 0 0.0034323805783098888 -0.0017072832121196432 0 0.0025903933163684044 -0.0010954668316640686 0 0.0057497092446186122 -0.0013038555988972506 0 0.0052597813033865536 -0.00064738725475021075 0 0.0034323805783098888 -0.0017072832121196432 0 0.0051000145968935675 -0.00078896169288909465 0 0.0031451924427480888 -0.00060687906323203739 0 0.0052597813033865536 -0.00064738725475021075 0 0.0060861613104860064 -7.6948608834817843e-05 0 0.0047815305184729529 0.00039055256808375127 0 0.0072320643852129534 -0.00070912857788374157 0 0.0067822839860093454 -6.4208879418552512e-05 0 0.0073247600764724044 -0.00079134978777947848 0 0.0072368293113171268 0.00055364022913923796 0 0.0078585920199605308 0.00020880091979996228 0 0.0057497092446186122 -0.0013038555988972506 0 0.0052597813033865536 -0.00064738725475021075 0 0.0060861613104860064 -7.6948608834817843e-05 0 0.0073247600764724044 -0.00079134978777947848 0 0.0057497092446186122 -0.0013038555988972506 0 0.0060861613104860064 -7.6948608834817843e-05 0 0.0072368293113171268 0.00055364022913923796 0 0.0078440126946641483 0.00068522283391922922 0 0.0078585920199605308 0.00020880091979996228 0 0.0012427219988762259 -0.0030185522686426592 0 0.0038213363756979535 -0.0028606012306381851 0 0.0034323805783098888 -0.0017072832121196432 0 0.004947647230367236 -0.0016647795707210927 0 0.0046359076115751333 -0.00077700773237727354 0 0.0058805773562304415 -0.0010659993486906391 0 0.0030355972484503663 -0.0017995331571106937 0 0.0047932072948149961 -0.0018989138806651408 0 0.0034323805783098888 -0.0017072832121196432 0 0.0016406117217161865 -0.0020808036582997524 0 0.0025903933163684044 -0.0010954668316640686 0 0.0012427219988762259 -0.0030185522686426592 0 0.0034323805783098888 -0.0017072832121196432 0 0.0016406117217161865 -0.0020808036582997524 0 0.00051694278604720264 -0.0024348904760246306 0 0.0012427219988762259 -0.0030185522686426592 0 0.0016406117217161865 -0.0020808036582997524 0 0.0016406117217161865 -0.0020808036582997524 0 0.00056661539698279161 -0.0021114385081302547 0 0.0025903933163684044 -0.0010954668316640686 0 0.0017301926394144589 0.00071127805581129946 0 0.0034841826852847883 5.9362683855512154e-06 0 0.002837452859001686 0.0010594362004722275 0 0.0013336310317560375 -0.00058632553605360098 0 0.0031451924427480888 -0.00060687906323203739 0 0.00051694278604720264 -0.0024348904760246306 0 0.0016406117217161865 -0.0020808036582997524 0 0.00056661539698279161 -0.0021114385081302547 0 0.0034841826852847883 5.9362683855512154e-06 0 0.002837452859001686 0.0010594362004722275 0 0.0038041214178879284 0.0013990636281626565 0 0.0034841826852847883 5.9362683855512154e-06 0 0.0038041214178879284 0.0013990636281626565 0 0.0047815305184729529 0.00039055256808375127 0 0.0045621504901817564 0.0026724798740963441 0 0.0038041214178879284 0.0013990636281626565 0 0.0023163683207635777 0.0021384564620299932 0 0.002837452859001686 0.0010594362004722275 0 0.0038041214178879284 0.0013990636281626565 0 0.0023163683207635777 0.0021384564620299932 0 0.0017301926394144589 0.00071127805581129946 0 0.002837452859001686 0.0010594362004722275 0 0.0023163683207635777 0.0021384564620299932 0 0.0067822839860093454 -6.4208879418552512e-05 0 0.0061491014308072585 0.0026464933300023533 0 0.0072368293113171268 0.00055364022913923796 0 0.0076645411459645213 0.0010259951669456533 0 0.0070025176289829263 0.0013097284556782636 0 0.0072368293113171268 0.00055364022913923796 0 0.0076645411459645213 0.0010259951669456533 0 0.0078440126946641483 0.00068522283391922922 0 0.0060861613104860064 -7.6948608834817843e-05 0 0.0047815305184729529 0.00039055256808375127 0 0.0052735815487550313 0.0012575428875190771 0 0.0052597813033865536 -0.00064738725475021075 0 0.0034841826852847883 5.9362683855512154e-06 0 0.0047815305184729529 0.00039055256808375127 0 0.0038041214178879284 0.0013990636281626565 0 0.0047815305184729529 0.00039055256808375127 0 0.0052735815487550313 0.0012575428875190771 0 0.0066409752885272493 0.0020147572991256841 0 0.0070025176289829263 0.0013097284556782636 0 0.0072536006241161683 0.0017560962549343923 0 0.0045621504901817564 0.0026724798740963441 0 0.0038041214178879284 0.0013990636281626565 0 0.0052735815487550313 0.0012575428875190771 0 -0.0014751154526258848 -0.0076219909815522851 0 0.0061491014308072585 0.0026464933300023533 0 0.0070025176289829263 0.0013097284556782636 0 0.0072536006241161683 0.0017560962549343923 0 0.0077282792489998383 0.0015364650425920326 0 0.0076645411459645213 0.0010259951669456533 0 0.0070025176289829263 0.0013097284556782636 0 0.0077282792489998383 0.0015364650425920326 0 0.0076882771744276671 0.0019191676030044509 0 0.0072536006241161683 0.0017560962549343923 0 0.0077282792489998383 0.0015364650425920326 0 0.0076882771744276671 0.0019191676030044509 0 0.0077282792489998383 0.0015364650425920326 0 0.0081819708549362262 0.0018440872368403367 0 0.0077282792489998383 0.0015364650425920326 0 0.0081819708549362262 0.0018440872368403367 0 0.0083793852194523812 0.0012811563997219355 0 0.0081819708549362262 0.0018440872368403367 0 0.0083793852194523812 0.0012811563997219355 0 0.008664391191504018 0.0017106397481929238 0 0.0076645411459645213 0.0010259951669456533 0 0.0077282792489998383 0.0015364650425920326 0 0.0083793852194523812 0.0012811563997219355 0 0.0076645411459645213 0.0010259951669456533 0 0.0083793852194523812 0.0012811563997219355 0 0.0083165178769328951 0.00084663623128568505 0 0.0083793852194523812 0.0012811563997219355 0 0.0083165178769328951 0.00084663623128568505 0 0.0089357481178106938 0.0011258554863771617 0 0.0083165178769328951 0.00084663623128568505 0 0.0078440126946641483 0.00068522283391922922 0 0.008401382297066308 0.00043479496999101813 0 0.0083165178769328951 0.00084663623128568505 0 0.0088996502659775007 0.00070562125538755488 0 0.008401382297066308 0.00043479496999101813 0 0.0076645411459645213 0.0010259951669456533 0 0.0083165178769328951 0.00084663623128568505 0 0.0078440126946641483 0.00068522283391922922 0 0.0093322541497156859 0.00090575873059600849 0 0.0088996502659775007 0.00070562125538755488 0 0.0094248058837453665 0.00056840039393718544 0 0.0093322541497156859 0.00090575873059600849 0 0.0088996502659775007 0.00070562125538755488 0 0.0089357481178106938 0.0011258554863771617 0 0.0083165178769328951 0.00084663623128568505 0 0.0088996502659775007 0.00070562125538755488 0 0.0089357481178106938 0.0011258554863771617 0 0.0093322541497156859 0.00090575873059600849 0 0.0089357481178106938 0.0011258554863771617 0 0.0095114482663441417 0.0011929819443753018 0 0.0089357481178106938 0.0011258554863771617 0 0.0092751338521666424 0.0014511765941770628 0 0.0095114482663441417 0.0011929819443753018 0 0.0089357481178106938 0.0011258554863771617 0 0.0092751338521666424 0.0014511765941770628 0 0.0089013612830170976 0.0015055405838901048 0 0.0083793852194523812 0.0012811563997219355 0 0.0089013612830170976 0.0015055405838901048 0 0.008664391191504018 0.0017106397481929238 0 0.0083793852194523812 0.0012811563997219355 0 0.0089357481178106938 0.0011258554863771617 0 0.0089013612830170976 0.0015055405838901048 0 0.0092237872327032098 0.0019289007032043948 0 0.0089013612830170976 0.0015055405838901048 0 0.008664391191504018 0.0017106397481929238 0 0.0092237872327032098 0.0019289007032043948 0 0.0092751338521666424 0.0014511765941770628 0 0.0089013612830170976 0.0015055405838901048 0 0.0092237872327032098 0.0019289007032043948 0 0.0092751338521666424 0.0014511765941770628 0 0.0095030246619251003 0.0017062281793461978 0 0.0092237872327032098 0.0019289007032043948 0 0.0095030246619251003 0.0017062281793461978 0 0.0096205139296870763 0.001873068493609326 0 0.0095030246619251003 0.0017062281793461978 0 0.0097674123420594255 0.0017090878156181078 0 0.0096473362433115526 0.0014903041317960882 0 0.0095030246619251003 0.0017062281793461978 0 0.0096205139296870763 0.001873068493609326 0 0.0097674123420594255 0.0017090878156181078 0 0.0098734719308613394 0.0019075549247065571 0 0.0096205139296870763 0.001873068493609326 0 0.0097674123420594255 0.0017090878156181078 0 0.0098734719308613394 0.0019075549247065571 0 0.0097674123420594255 0.0017090878156181078 0 0.010074251742725578 0.0017235866311125954 0 0.0097674123420594255 0.0017090878156181078 0 0.0099281005943242448 0.0015473250026480684 0 0.010074251742725578 0.0017235866311125954 0 0.0099281005943242448 0.0015473250026480684 0 0.010242425321013948 0.0014755181110521526 0 0.0099229387695121719 0.0012881785624731471 0 0.0097674123420594255 0.0017090878156181078 0 0.0099281005943242448 0.0015473250026480684 0 0.0096473362433115526 0.0014903041317960882 0 0.0099281005943242448 0.0015473250026480684 0 0.0096473362433115526 0.0014903041317960882 0 0.0099229387695121719 0.0012881785624731471 0 0.0092751338521666424 0.0014511765941770628 0 0.0095030246619251003 0.0017062281793461978 0 0.0096473362433115526 0.0014903041317960882 0 0.0092751338521666424 0.0014511765941770628 0 0.0096473362433115526 0.0014903041317960882 0 0.0095114482663441417 0.0011929819443753018 0 0.010583907602664987 0.0020332011484048879 0 0.010472411687086116 0.0019236368774235512 0 0.010585855067439968 0.0016062273359259147 0 0.010472411687086116 0.0019236368774235512 0 0.010413024271356732 0.0017707518371914645 0 0.010585855067439968 0.0016062273359259147 0 0.010472411687086116 0.0019236368774235512 0 0.010413024271356732 0.0017707518371914645 0 0.010279726172554791 0.0018409911692178287 0 0.010413024271356732 0.0017707518371914645 0 0.01033233018850843 0.0016697949617391549 0 0.010585855067439968 0.0016062273359259147 0 0.010413024271356732 0.0017707518371914645 0 0.01033233018850843 0.0016697949617391549 0 0.010279726172554791 0.0018409911692178287 0 0.01033233018850843 0.0016697949617391549 0 0.010279726172554791 0.0018409911692178287 0 0.010074251742725578 0.0017235866311125954 0 0.01011020777420624 0.0019372230046510602 0 0.010279726172554791 0.0018409911692178287 0 0.010074251742725578 0.0017235866311125954 0 0.01011020777420624 0.0019372230046510602 0 0.0098734719308613394 0.0019075549247065571 0 0.010074251742725578 0.0017235866311125954 0 0.0099281005943242448 0.0015473250026480684 0 0.010074251742725578 0.0017235866311125954 0 0.010242425321013948 0.0014755181110521526 0 0.01033233018850843 0.0016697949617391549 0 0.010074251742725578 0.0017235866311125954 0 0.010242425321013948 0.0014755181110521526 0 0.010776294517366839 0.0012406028885877684 0 0.010585855067439968 0.0016062273359259147 0 0.010480620311983073 0.0013713760240153044 0 0.01033233018850843 0.0016697949617391549 0 0.010242425321013948 0.0014755181110521526 0 0.010585855067439968 0.0016062273359259147 0 0.010242425321013948 0.0014755181110521526 0 0.010585855067439968 0.0016062273359259147 0 0.010480620311983073 0.0013713760240153044 0 0.010776294517366839 0.0012406028885877684 0 0.010480620311983073 0.0013713760240153044 0 0.010313945266567353 0.0011584916858513113 0 0.010242425321013948 0.0014755181110521526 0 0.010313945266567353 0.0011584916858513113 0 0.0099229387695121719 0.0012881785624731471 0 0.010242425321013948 0.0014755181110521526 0 0.010480620311983073 0.0013713760240153044 0 0.010313945266567353 0.0011584916858513113 0 0.010313945266567353 0.0011584916858513113 0 0.0099184269579122106 0.00088387891308691646 0 0.010524948764521433 0.00084366033272399341 0 0.010776294517366839 0.0012406028885877684 0 0.010313945266567353 0.0011584916858513113 0 0.010524948764521433 0.00084366033272399341 0 0.010776294517366839 0.0012406028885877684 0 0.01097406949798811 0.00097330809084916444 0 0.010524948764521433 0.00084366033272399341 0 0.0096473362433115526 0.0014903041317960882 0 0.0095114482663441417 0.0011929819443753018 0 0.0099229387695121719 0.0012881785624731471 0 0.010313945266567353 0.0011584916858513113 0 0.0099229387695121719 0.0012881785624731471 0 0.0099184269579122106 0.00088387891308691646 0 0.0095114482663441417 0.0011929819443753018 0 0.0099229387695121719 0.0012881785624731471 0 0.0099184269579122106 0.00088387891308691646 0 0.0093322541497156859 0.00090575873059600849 0 0.0099184269579122106 0.00088387891308691646 0 0.0094248058837453665 0.00056840039393718544 0 0.0093322541497156859 0.00090575873059600849 0 0.0095114482663441417 0.0011929819443753018 0 0.0099184269579122106 0.00088387891308691646 0 0.0099184269579122106 0.00088387891308691646 0 0.0094248058837453665 0.00056840039393718544 0 0.0098263010528937076 0.00046118040039970401 0 0.0099184269579122106 0.00088387891308691646 0 0.0098263010528937076 0.00046118040039970401 0 0.0102026496031266 0.00058405689232492815 0 0.0098263010528937076 0.00046118040039970401 0 0.010118969732814913 0.00026799843428645188 0 0.0102026496031266 0.00058405689232492815 0 0.0098263010528937076 0.00046118040039970401 0 0.010118969732814913 0.00026799843428645188 0 0.0094917770791104195 4.5658559626164239e-05 0 0.0094248058837453665 0.00056840039393718544 0 0.0098263010528937076 0.00046118040039970401 0 0.0094917770791104195 4.5658559626164239e-05 0 0.010524948764521433 0.00084366033272399341 0 0.010534286481170947 0.00038388877881276713 0 0.010889003084921306 0.00062460354880110715 0 0.01097406949798811 0.00097330809084916444 0 0.010524948764521433 0.00084366033272399341 0 0.010889003084921306 0.00062460354880110715 0 0.010524948764521433 0.00084366033272399341 0 0.0102026496031266 0.00058405689232492815 0 0.010534286481170947 0.00038388877881276713 0 0.0099184269579122106 0.00088387891308691646 0 0.010524948764521433 0.00084366033272399341 0 0.0102026496031266 0.00058405689232492815 0 0.010118969732814913 0.00026799843428645188 0 0.0102026496031266 0.00058405689232492815 0 0.010534286481170947 0.00038388877881276713 0 0.010534286481170947 0.00038388877881276713 0 0.010889003084921306 0.00062460354880110715 0 0.010864070614407131 0.00036186622293735637 0 0.010534286481170947 0.00038388877881276713 0 0.010864070614407131 0.00036186622293735637 0 0.010810492859000102 5.3426711321849418e-05 0 0.010534286481170947 0.00038388877881276713 0 0.010810492859000102 5.3426711321849418e-05 0 0.010176174793950591 -7.6131147313274108e-05 0 0.010118969732814913 0.00026799843428645188 0 0.010534286481170947 0.00038388877881276713 0 0.010176174793950591 -7.6131147313274108e-05 0 0.01024002989354297 -0.00050519797831857836 0 0.010810492859000102 5.3426711321849418e-05 0 0.010176174793950591 -7.6131147313274108e-05 0 0.0094917770791104195 4.5658559626164239e-05 0 0.010176174793950591 -7.6131147313274108e-05 0 0.0097404329650079488 -0.00037388537472897736 0 0.010118969732814913 0.00026799843428645188 0 0.0094917770791104195 4.5658559626164239e-05 0 0.010176174793950591 -7.6131147313274108e-05 0 0.01024002989354297 -0.00050519797831857836 0 0.010176174793950591 -7.6131147313274108e-05 0 0.0097404329650079488 -0.00037388537472897736 0 0.0094917770791104195 4.5658559626164239e-05 0 0.0097404329650079488 -0.00037388537472897736 0 0.00910717510868524 -0.00055423527428950878 0 0.0094917770791104195 4.5658559626164239e-05 0 0.00910717510868524 -0.00055423527428950878 0 0.0083957526738239543 -0.00026971259441568282 0 0.009531739740980651 -0.00072615324905259614 0 0.0097404329650079488 -0.00037388537472897736 0 0.00910717510868524 -0.00055423527428950878 0 0.00910717510868524 -0.00055423527428950878 0 0.0083416341586185355 -0.00083027718623465078 0 0.0083957526738239543 -0.00026971259441568282 0 0.0078428159151137777 -0.0014068429753319928 0 0.0073247600764724044 -0.00079134978777947848 0 0.0083416341586185355 -0.00083027718623465078 0 0.0073247600764724044 -0.00079134978777947848 0 0.0083416341586185355 -0.00083027718623465078 0 0.0083957526738239543 -0.00026971259441568282 0 0.0083957526738239543 -0.00026971259441568282 0 0.0078585920199605308 0.00020880091979996228 0 0.008401382297066308 0.00043479496999101813 0 0.0073247600764724044 -0.00079134978777947848 0 0.0083957526738239543 -0.00026971259441568282 0 0.0078585920199605308 0.00020880091979996228 0 0.0078440126946641483 0.00068522283391922922 0 0.0078585920199605308 0.00020880091979996228 0 0.008401382297066308 0.00043479496999101813 0 0.0088996502659775007 0.00070562125538755488 0 0.008401382297066308 0.00043479496999101813 0 0.0089333700952680534 0.00032670333258396386 0 0.0094917770791104195 4.5658559626164239e-05 0 0.0083957526738239543 -0.00026971259441568282 0 0.0089333700952680534 0.00032670333258396386 0 0.0088996502659775007 0.00070562125538755488 0 0.0094248058837453665 0.00056840039393718544 0 0.0089333700952680534 0.00032670333258396386 0 0.0094248058837453665 0.00056840039393718544 0 0.0094917770791104195 4.5658559626164239e-05 0 0.0089333700952680534 0.00032670333258396386 0 0.0083957526738239543 -0.00026971259441568282 0 0.008401382297066308 0.00043479496999101813 0 0.0089333700952680534 0.00032670333258396386 0 0.025780891708514289 -0.020283709901006822 0 0.024998504654002298 -0.021714609335587744 0 0.025000042576113157 -0.017640877223596512 0 0.025780891708514289 -0.020283709901006822 0 0.026096913772181773 -0.01898834130306809 0 0.025000042576113157 -0.017640877223596512 0 0.026096913772181773 -0.01898834130306809 0 0.026846809355502873 -0.019761957426425662 0 0.02697539346459495 -0.018620819488010368 0 0.026846809355502873 -0.019761957426425662 0 0.028008094562332213 -0.018977254782862975 0 0.02697539346459495 -0.018620819488010368 0 0.026846809355502873 -0.019761957426425662 0 0.027303076182391472 -0.020438448888927704 0 0.027886678001715522 -0.019968651708260159 0 0.025780891708514289 -0.020283709901006822 0 0.026096913772181773 -0.01898834130306809 0 0.026846809355502873 -0.019761957426425662 0 0.025780891708514289 -0.020283709901006822 0 0.026846809355502873 -0.019761957426425662 0 0.026729125613903382 -0.021074208738252664 0 0.0255936619488655 -0.020273298824117963 0 0.026791382224081849 -0.021290560261746957 0 0.025780891708514289 -0.020283709901006822 0 0.026007252779682511 -0.021432775173614936 0 0.025477105523595282 -0.02182693850857733 0 0.026846809355502873 -0.019761957426425662 0 0.026729125613903382 -0.021074208738252664 0 0.027303076182391472 -0.020438448888927704 0 0.026729125613903382 -0.021074208738252664 0 0.027303076182391472 -0.020438448888927704 0 0.027747080278064582 -0.020949820723621553 0 0.026007252779682511 -0.021432775173614936 0 0.025685510281202049 -0.022532546324544791 0 0.026494063424204711 -0.022336701410758185 0 0.026791382224081849 -0.021290560261746957 0 0.024711599204169314 -0.022345081635157894 0 0.026729125613903382 -0.021074208738252664 0 0.027603438615385018 -0.021890924973587175 0 0.027747080278064582 -0.020949820723621553 0 0.026007252779682511 -0.021432775173614936 0 0.025477105523595282 -0.02182693850857733 0 0.025685510281202049 -0.022532546324544791 0 0.025780891708514289 -0.020283709901006822 0 0.025477105523595282 -0.02182693850857733 0 0.024998504654002298 -0.021714609335587744 0 0.024998504654002298 -0.021714609335587744 0 0.024965456737149345 -0.02323472013472544 0 0.024998535554916133 -0.024999040677220769 0 0.025477105523595282 -0.02182693850857733 0 0.024998504654002298 -0.021714609335587744 0 0.024965456737149345 -0.02323472013472544 0 0.024965456737149345 -0.02323472013472544 0 0.024998535554916133 -0.024999040677220769 0 0.024467668376478822 -0.024277817202643895 0 0.024998535554916133 -0.024999040677220769 0 0.024467668376478822 -0.024277817202643895 0 0.022978912962399609 -0.025014740912119599 0 0.024998535554916133 -0.024999040677220769 0 0.022098209699186425 -0.024998819699083182 0 0.022978912962399609 -0.025014740912119599 0 0.022098209699186425 -0.024998819699083182 0 0.02207521760629038 -0.025916442969972048 0 0.022403531391620542 -0.025976972899843281 0 0.022092497806468263 -0.024999873091241374 0 0.021842451121547618 -0.025943285474404439 0 0.022098209699186425 -0.024998819699083182 0 0.022978912962399609 -0.025014740912119599 0 0.022403531391620542 -0.025976972899843281 0 0.023236672164291615 -0.025021082146937119 0 0.023854356970945369 -0.024958692157487077 0 0.022978912962399609 -0.025014740912119599 0 0.024282564717804503 -0.024398445202236316 0 0.02527322034647167 -0.02427981887635881 0 0.024467668376478822 -0.024277817202643895 0 0.022978912962399609 -0.025014740912119599 0 0.024282564717804503 -0.024398445202236316 0 0.024282564717804503 -0.024398445202236316 0 0.024776796541270293 -0.024031020451751359 0 0.02527322034647167 -0.02427981887635881 0 0.024467668376478822 -0.024277817202643895 0 0.024282564717804503 -0.024398445202236316 0 0.024776796541270293 -0.024031020451751359 0 0.024467668376478822 -0.024277817202643895 0 0.024776796541270293 -0.024031020451751359 0 0.025237235591621533 -0.023443367192495398 0 0.024776796541270293 -0.024031020451751359 0 0.02527322034647167 -0.02427981887635881 0 0.025237235591621533 -0.023443367192495398 0 0.021842451121547618 -0.025943285474404439 0 0.023195444089980092 -0.025079083964448686 0 0.023854356970945369 -0.024958692157487077 0 0.023195444089980092 -0.025079083964448686 0 0.02527322034647167 -0.02427981887635881 0 0.025237235591621533 -0.023443367192495398 0 0.026183712855842627 -0.023339129993513084 0 0.02207521760629038 -0.025916442969972048 0 0.022403531391620542 -0.025976972899843281 0 0.022005657990195614 -0.026665181787384633 0 0.025237235591621533 -0.023443367192495398 0 0.025685510281202049 -0.022532546324544791 0 0.026183712855842627 -0.023339129993513084 0 0.024965456737149345 -0.02323472013472544 0 0.024467668376478822 -0.024277817202643895 0 0.025237235591621533 -0.023443367192495398 0 0.024965456737149345 -0.02323472013472544 0 0.025237235591621533 -0.023443367192495398 0 0.025685510281202049 -0.022532546324544791 0 0.025477105523595282 -0.02182693850857733 0 0.024965456737149345 -0.02323472013472544 0 0.025685510281202049 -0.022532546324544791 0 0.025685510281202049 -0.022532546324544791 0 0.026494063424204711 -0.022336701410758185 0 0.026183712855842627 -0.023339129993513084 0 0.023171444035528368 -0.022999106626366166 0 0.023680568739673117 -0.023470392439435259 0 0.022944872388078796 -0.024839549912622209 0 0.019529988726433949 -0.022165324413957032 0 0.019688334047875556 -0.022317412173009317 0 0.019693600264105434 -0.021932797315373825 0 0.024711599204169314 -0.022345081635157894 0 0.023195444089980092 -0.025079083964448686 0 0.024711599204169314 -0.022345081635157894 0 0.020813746460024572 -0.02386737021704527 0 0.018740087616599527 -0.023986009477041728 0 0.019826645768672962 -0.023807030426106643 0 0.019436699672253775 -0.022604618193299987 0 0.018740087616599527 -0.023986009477041728 0 0.019826645768672962 -0.023807030426106643 0 0.019570318855509465 -0.024736429822538739 0 0.020813746460024572 -0.02386737021704527 0 0.020270807616795387 -0.025444579818147628 0 0.019826645768672962 -0.023807030426106643 0 0.019570318855509465 -0.024736429822538739 0 0.020325356319356763 -0.024563547118815414 0 0.020894784298596768 -0.026055644183131135 0 0.021221898011765033 -0.025739266084791809 0 0.020833001991923054 -0.02561969336554986 0 0.020270807616795387 -0.025444579818147628 0 0.020451825041655693 -0.025464182387523106 0 0.020894784298596768 -0.026055644183131135 0 0.020833001991923054 -0.02561969336554986 0 0.020508486760026541 -0.02545892605115907 0 0.020813746460024572 -0.02386737021704527 0 0.023195444089980092 -0.025079083964448686 0 0.021291945024524059 -0.02640278994021741 0 0.021232755601457428 -0.026071871764505219 0 0.021553213785789522 -0.025970776461017964 0 0.021291945024524059 -0.02640278994021741 0 0.020894784298596768 -0.026055644183131135 0 0.021232755601457428 -0.026071871764505219 0 0.021232755601457428 -0.026071871764505219 0 0.021553213785789522 -0.025970776461017964 0 0.021221898011765033 -0.025739266084791809 0 0.020894784298596768 -0.026055644183131135 0 0.021232755601457428 -0.026071871764505219 0 0.021221898011765033 -0.025739266084791809 0 0.021221898011765033 -0.025739266084791809 0 0.020979918514976426 -0.025486549358498183 0 0.021400663346478995 -0.025372689474867361 0 0.021702506309333153 -0.025542909520530455 0 0.021553213785789522 -0.025970776461017964 0 0.021221898011765033 -0.025739266084791809 0 0.021702506309333153 -0.025542909520530455 0 0.021221898011765033 -0.025739266084791809 0 0.021400663346478995 -0.025372689474867361 0 0.021221898011765033 -0.025739266084791809 0 0.020833001991923054 -0.02561969336554986 0 0.020979918514976426 -0.025486549358498183 0 0.020833001991923054 -0.02561969336554986 0 0.020652493394213167 -0.025490243711542238 0 0.020508486760026541 -0.02545892605115907 0 0.020833001991923054 -0.02561969336554986 0 0.020652493394213167 -0.025490243711542238 0 0.020979918514976426 -0.025486549358498183 0 0.020979918514976426 -0.025486549358498183 0 0.020546157765936299 -0.02500027662805096 0 0.021318798590263085 -0.024999755203323926 0 0.020652493394213167 -0.025490243711542238 0 0.020979918514976426 -0.025486549358498183 0 0.020546157765936299 -0.02500027662805096 0 0.020979918514976426 -0.025486549358498183 0 0.021318798590263085 -0.024999755203323926 0 0.021400663346478995 -0.025372689474867361 0 0.022092122642864895 -0.025000010499645633 0 0.021702506309333153 -0.025542909520530455 0 0.021400663346478995 -0.025372689474867361 0 0.022092122642864895 -0.025000010499645633 0 0.021318798590263085 -0.024999755203323926 0 0.021400663346478995 -0.025372689474867361 0 0.019476781478649542 -0.024999962667478896 0 0.01959461693706133 -0.025830119746453686 0 0.018845936072937927 -0.025847742498776378 0 0.019476781478649542 -0.024999962667478896 0 0.018845936072937927 -0.025847742498776378 0 0.018408487016431371 -0.025000011279784618 0 0.020652493394213167 -0.025490243711542238 0 0.020546157765936299 -0.02500027662805096 0 0.020677109825852302 -0.025660159469029026 0 0.02054540136770365 -0.025000010670365336 0 0.019476781478649542 -0.024999962667478896 0 0.01959461693706133 -0.025830119746453686 0 0.020545496745726619 -0.025000072888165251 0 0.020110846567820684 -0.025733801302652137 0 0.020677109825852302 -0.025660159469029026 0 0.020508486760026541 -0.02545892605115907 0 0.020949721006558304 -0.024874490768889541 0 0.020652493394213167 -0.025490243711542238 0 0.020677109825852302 -0.025660159469029026 0 0.020508486760026541 -0.02545892605115907 0 0.01959461693706133 -0.025830119746453686 0 0.018845936072937927 -0.025847742498776378 0 0.018719834259306459 -0.026554562461640667 0 0.020677109825852302 -0.025660159469029026 0 0.020949721006558304 -0.024874490768889541 0 0.021777333636850166 -0.025027930720621334 0 0.020110846567820684 -0.025733801302652137 0 0.020556964392933762 -0.025644941967361064 0 0.020949721006558304 -0.024874490768889541 0 0.021679926837100943 -0.023888608929834472 0 0.021777333636850166 -0.025027930720621334 0 0.020949721006558304 -0.024874490768889541 0 0.020325356319356763 -0.024563547118815414 0 0.020713278016757822 -0.023914530659220928 0 0.019570318855509465 -0.024736429822538739 0 0.020508486760026541 -0.02545892605115907 0 0.020325356319356763 -0.024563547118815414 0 0.020508486760026541 -0.02545892605115907 0 0.020949721006558304 -0.024874490768889541 0 0.020325356319356763 -0.024563547118815414 0 0.019826645768672962 -0.023807030426106643 0 0.020325356319356763 -0.024563547118815414 0 0.020713278016757822 -0.023914530659220928 0 0.019826645768672962 -0.023807030426106643 0 0.020713278016757822 -0.023914530659220928 0 0.020298277677083702 -0.023157059253843319 0 0.020949721006558304 -0.024874490768889541 0 0.020713278016757822 -0.023914530659220928 0 0.021679926837100943 -0.023888608929834472 0 0.020713278016757822 -0.023914530659220928 0 0.021679926837100943 -0.023888608929834472 0 0.021026594753883208 -0.023064804602465221 0 0.021679926837100943 -0.023888608929834472 0 0.021026594753883208 -0.023064804602465221 0 0.021783673687524537 -0.022757567476216631 0 0.021026594753883208 -0.023064804602465221 0 0.021783673687524537 -0.022757567476216631 0 0.021078043917357611 -0.022285112709755393 0 0.021783673687524537 -0.022757567476216631 0 0.021078043917357611 -0.022285112709755393 0 0.021856071691308494 -0.02174697941129158 0 0.021078043917357611 -0.022285112709755393 0 0.020274770481858863 -0.021408881265412794 0 0.021856071691308494 -0.02174697941129158 0 0.020055306137822766 -0.021473706958061188 0 0.022117677356873963 -0.021263860215865824 0 0.021078043917357611 -0.022285112709755393 0 0.020376986288032944 -0.022418043170610715 0 0.020274770481858863 -0.021408881265412794 0 0.020376986288032944 -0.022418043170610715 0 0.020298277677083702 -0.023157059253843319 0 0.019436699672253775 -0.022604618193299987 0 0.021026594753883208 -0.023064804602465221 0 0.020376986288032944 -0.022418043170610715 0 0.020298277677083702 -0.023157059253843319 0 0.021026594753883208 -0.023064804602465221 0 0.021078043917357611 -0.022285112709755393 0 0.020376986288032944 -0.022418043170610715 0 0.020713278016757822 -0.023914530659220928 0 0.021026594753883208 -0.023064804602465221 0 0.020298277677083702 -0.023157059253843319 0 0.019826645768672962 -0.023807030426106643 0 0.020298277677083702 -0.023157059253843319 0 0.019436699672253775 -0.022604618193299987 0 0.019529988726433949 -0.022165324413957032 0 0.019693600264105434 -0.021932797315373825 0 0.019562989395374757 -0.021593872248150407 0 0.019969739561562207 -0.021709729763217389 0 0.019693600264105434 -0.021932797315373825 0 0.019562989395374757 -0.021593872248150407 0 0.019688334047875556 -0.022317412173009317 0 0.019969739561562207 -0.021709729763217389 0 0.019693600264105434 -0.021932797315373825 0 0.024711599204169314 -0.022345081635157894 0 0.023584229127988656 -0.021108438891445314 0 0.020813746460024572 -0.02386737021704527 0 0.01952180251179975 -0.022076100803966704 0 0.019562989395374757 -0.021593872248150407 0 0.019765491117358817 -0.021377115377998118 0 0.01952801959480616 -0.020977144356064258 0 0.023584229127988656 -0.021108438891445314 0 0.023668823621782284 -0.021036853781579937 0 0.027303076182391472 -0.020438448888927704 0 0.027747080278064582 -0.020949820723621553 0 0.027886678001715522 -0.019968651708260159 0 0.019969739561562207 -0.021709729763217389 0 0.019562989395374757 -0.021593872248150407 0 0.019765491117358817 -0.021377115377998118 0 0.019436699672253775 -0.022604618193299987 0 0.020251086004580796 -0.021122064955721463 0 0.020274770481858863 -0.021408881265412794 0 0.01952180251179975 -0.022076100803966704 0 0.020263904358637664 -0.021196091733519089 0 0.020376986288032944 -0.022418043170610715 0 0.019436699672253775 -0.022604618193299987 0 0.020274770481858863 -0.021408881265412794 0 0.019969739561562207 -0.021709729763217389 0 0.019953028110726356 -0.021318266280933151 0 0.020251086004580796 -0.021122064955721463 0 0.019969739561562207 -0.021709729763217389 0 0.019765491117358817 -0.021377115377998118 0 0.019953028110726356 -0.021318266280933151 0 0.019765491117358817 -0.021377115377998118 0 0.019953028110726356 -0.021318266280933151 0 0.019843822565529978 -0.021126994828384652 0 0.019953028110726356 -0.021318266280933151 0 0.020121451905756763 -0.021004122120188512 0 0.020251086004580796 -0.021122064955721463 0 0.019821926472668505 -0.020885619507798412 0 0.020121451905756763 -0.021004122120188512 0 0.020501008519720896 -0.02057699904887272 0 0.019953028110726356 -0.021318266280933151 0 0.019843822565529978 -0.021126994828384652 0 0.020121451905756763 -0.021004122120188512 0 0.019843822565529978 -0.021126994828384652 0 0.019821926472668505 -0.020885619507798412 0 0.020121451905756763 -0.021004122120188512 0 0.019765491117358817 -0.021377115377998118 0 0.019843822565529978 -0.021126994828384652 0 0.01952801959480616 -0.020977144356064258 0 0.019821926472668505 -0.020885619507798412 0 0.01952801959480616 -0.020977144356064258 0 0.019841341169410831 -0.020380306581976593 0 0.019843822565529978 -0.021126994828384652 0 0.019821926472668505 -0.020885619507798412 0 0.01952801959480616 -0.020977144356064258 0 0.01952801959480616 -0.020977144356064258 0 0.019592017512582705 -0.019832827702879637 0 0.019841341169410831 -0.020380306581976593 0 0.026846809355502873 -0.019761957426425662 0 0.027886678001715522 -0.019968651708260159 0 0.028008094562332213 -0.018977254782862975 0 0.023668823621782284 -0.021036853781579937 0 0.023817873176154757 -0.016558748238130871 0 0.019511950776424983 -0.021558440130131102 0 0.0213693644611548 -0.017975684110777844 0 0.019821926472668505 -0.020885619507798412 0 0.02038629999368383 -0.020052798419534237 0 0.021221058298887492 -0.02029191652267014 0 0.019821926472668505 -0.020885619507798412 0 0.019841341169410831 -0.020380306581976593 0 0.02038629999368383 -0.020052798419534237 0 0.023817873176154757 -0.016558748238130871 0 0.019821370536054241 -0.014969708998847928 0 0.019592017512582705 -0.019832827702879637 0 0.019841341169410831 -0.020380306581976593 0 0.02038629999368383 -0.020052798419534237 0 0.022450429325016511 -0.010658209140305533 0 0.023016733606918301 -0.0094852361090262127 0 0.021970456064775299 -0.0088847678684789017 0 0.019821370536054241 -0.014969708998847928 0 0.0213693644611548 -0.017975684110777844 0 0.020784786565299113 -0.010158368443149299 0 0.022450429325016511 -0.010658209140305533 0 0.021970456064775299 -0.0088847678684789017 0 0.0213693644611548 -0.017975684110777844 0 0.022504437418208151 -0.015169787404378243 0 0.022450429325016511 -0.010658209140305533 0 0.024139471706102891 -0.0099167066325529518 0 0.023016733606918301 -0.0094852361090262127 0 0.021036595858408502 -0.020341248243564421 0 0.021009380531881377 -0.020717888697737191 0 0.021330668690439314 -0.020521152321005907 0 0.020501008519720896 -0.02057699904887272 0 0.021036595858408502 -0.020341248243564421 0 0.021009380531881377 -0.020717888697737191 0 0.020501008519720896 -0.02057699904887272 0 0.021009380531881377 -0.020717888697737191 0 0.020767267692112935 -0.020994358923802726 0 0.021009380531881377 -0.020717888697737191 0 0.021330668690439314 -0.020521152321005907 0 0.021230552031965656 -0.02126811518935711 0 0.021009380531881377 -0.020717888697737191 0 0.020767267692112935 -0.020994358923802726 0 0.021230552031965656 -0.02126811518935711 0 0.020767267692112935 -0.020994358923802726 0 0.020274770481858863 -0.021408881265412794 0 0.021230552031965656 -0.02126811518935711 0 0.020767267692112935 -0.020994358923802726 0 0.020274770481858863 -0.021408881265412794 0 0.020375093369385033 -0.020990834017836059 0 0.020121451905756763 -0.021004122120188512 0 0.020251086004580796 -0.021122064955721463 0 0.020375093369385033 -0.020990834017836059 0 0.020251086004580796 -0.021122064955721463 0 0.020274770481858863 -0.021408881265412794 0 0.020375093369385033 -0.020990834017836059 0 0.020121451905756763 -0.021004122120188512 0 0.020501008519720896 -0.02057699904887272 0 0.020375093369385033 -0.020990834017836059 0 0.020501008519720896 -0.02057699904887272 0 0.020767267692112935 -0.020994358923802726 0 0.020375093369385033 -0.020990834017836059 0 0.021410166643970732 -0.020488872058974084 0 0.02146972295322001 -0.020546295154546056 0 0.021520657042504211 -0.020348638659530967 0 0.021759074463738773 -0.020867600722361785 0 0.022099753510044669 -0.021314799190270545 0 0.021230552031965656 -0.02126811518935711 0 0.021611816077752394 -0.020866442654036945 0 0.018884081020888784 -0.02327013868457253 0 0.021759074463738773 -0.020867600722361785 0 0.022133266875489672 -0.021172045397731137 0 0.022099753510044669 -0.021314799190270545 0 0.021759074463738773 -0.020867600722361785 0 0.021330668690439314 -0.020521152321005907 0 0.021230552031965656 -0.02126811518935711 0 0.021410166643970732 -0.020488872058974084 0 0.021330668690439314 -0.020521152321005907 0 0.021418571555965455 -0.02040896063515435 0 0.021611816077752394 -0.020866442654036945 0 0.021321727683673738 -0.020514976184932518 0 0.022504437418208151 -0.015169787404378243 0 0.024206078612468405 -0.012271164742019686 0 0.021036595858408502 -0.020341248243564421 0 0.021330668690439314 -0.020521152321005907 0 0.021375297876151906 -0.020268914313697525 0 0.021330668690439314 -0.020521152321005907 0 0.021418571555965455 -0.02040896063515435 0 0.021375297876151906 -0.020268914313697525 0 0.021418571555965455 -0.02040896063515435 0 0.021520657042504211 -0.020348638659530967 0 0.021375297876151906 -0.020268914313697525 0 0.021410166643970732 -0.020488872058974084 0 0.021418571555965455 -0.02040896063515435 0 0.021520657042504211 -0.020348638659530967 0 0.01709220037946033 -0.014154828981932563 0 0.024206078612468405 -0.012271164742019686 0 0.01709220037946033 -0.014154828981932563 0 0.015383772476706107 -0.010525827110019198 0 0.013580730807848282 -0.021083972449369017 0 0.015472644233234415 -0.021598562069871059 0 0.014431358727119226 -0.022493517837524245 0 0.015825173672391901 -0.00030391190127709541 0 0.0164893851862477 -0.0003700761245594739 0 0.016006614786584786 -9.835229067844305e-05 0 0.0164893851862477 -0.0003700761245594739 0 0.016220564829703701 -6.9122207860138979e-05 0 0.016006614786584786 -9.835229067844305e-05 0 0.0164893851862477 -0.0003700761245594739 0 0.016220564829703701 -6.9122207860138979e-05 0 0.016405241107576587 -7.5757931460956543e-05 0 0.015472644233234415 -0.021598562069871059 0 0.014431358727119226 -0.022493517837524245 0 0.015980213130221368 -0.023080130281557504 0 0.014431358727119226 -0.022493517837524245 0 0.01362125861529323 -0.023467276176009841 0 0.015009971995452218 -0.023602632826421978 0 0.014431358727119226 -0.022493517837524245 0 0.015009971995452218 -0.023602632826421978 0 0.015980213130221368 -0.023080130281557504 0 0.018884081020888784 -0.02327013868457253 0 0.01709220037946033 -0.014154828981932563 0 0.013106355597339886 -0.023072876023744103 0 0.014431358727119226 -0.022493517837524245 0 0.01362125861529323 -0.023467276176009841 0 0.013106355597339886 -0.023072876023744103 0 0.013580730807848282 -0.021083972449369017 0 0.014431358727119226 -0.022493517837524245 0 0.015574798559568167 -0.023798306592768225 0 0.020176879863005363 -0.023452112392857792 0 0.016781120974881034 -0.026525168430896664 0 0.016631984414361634 -0.026368569108895235 0 0.016725489389067785 -0.026395619528618661 0 0.015574798559568167 -0.023798306592768225 0 0.014165564724010232 -0.023533377714462324 0 0.015574798559568167 -0.023798306592768225 0 0.015858737195790736 -0.025629478385885009 0 0.016781120974881034 -0.026525168430896664 0 0.016843284169965458 -0.026443263229995625 0 0.016725489389067785 -0.026395619528618661 0 0.018884081020888784 -0.02327013868457253 0 0.015574798559568167 -0.023798306592768225 0 0.018476443172150216 -0.024443777941361662 0 0.017124894152302908 -0.023458515754643215 0 0.018697556727527796 -0.023553538027733158 0 0.016781120974881034 -0.026525168430896664 0 0.016843284169965458 -0.026443263229995625 0 0.016877305935256517 -0.026539679232781402 0 0.013549620461831908 -0.023515687309595943 0 0.015009971995452218 -0.023602632826421978 0 0.01498036783731627 -0.024633283983994 0 0.015009971995452218 -0.023602632826421978 0 0.01498036783731627 -0.024633283983994 0 0.015742522079361033 -0.024016235484584193 0 0.016631984414361634 -0.026368569108895235 0 0.0166722070004428 -0.026342109715617866 0 0.016725489389067785 -0.026395619528618661 0 0.016631984414361634 -0.026368569108895235 0 0.0166722070004428 -0.026342109715617866 0 0.016645477081286515 -0.026202072743075781 0 0.016843284169965458 -0.026443263229995625 0 0.016725489389067785 -0.026395619528618661 0 0.016978466659993932 -0.026346730904586509 0 0.023129364917816152 -0.022934993869290224 0 0.022420949771321835 -0.023255377537460546 0 0.022870198707247723 -0.024024429422474926 0 0.016725489389067785 -0.026395619528618661 0 0.016978466659993932 -0.026346730904586509 0 0.017073950446057078 -0.02602247574421384 0 0.016161735748772724 -0.026683844438316749 0 0.01868684858114163 -0.025862666198244764 0 0.023129364917816152 -0.022934993869290224 0 0.022541913528157351 -0.022537173430922319 0 0.022420949771321835 -0.023255377537460546 0 0.020111382432887109 -0.024584517757090207 0 0.020176879863005363 -0.023452112392857792 0 0.023129364917816152 -0.022934993869290224 0 0.023358738751706416 -0.021909720246136574 0 0.022541913528157351 -0.022537173430922319 0 0.016843284169965458 -0.026443263229995625 0 0.016978466659993932 -0.026346730904586509 0 0.016877305935256517 -0.026539679232781402 0 0.018884081020888784 -0.02327013868457253 0 0.020176879863005363 -0.023452112392857792 0 0.020176879863005363 -0.023452112392857792 0 0.022117677356873963 -0.021263860215865824 0 0.021783673687524537 -0.022757567476216631 0 0.021856071691308494 -0.02174697941129158 0 0.022541913528157351 -0.022537173430922319 0 0.023358738751706416 -0.021909720246136574 0 0.021856071691308494 -0.02174697941129158 0 0.022541913528157351 -0.022537173430922319 0 0.021679926837100943 -0.023888608929834472 0 0.021783673687524537 -0.022757567476216631 0 0.022420949771321835 -0.023255377537460546 0 0.021783673687524537 -0.022757567476216631 0 0.022541913528157351 -0.022537173430922319 0 0.022420949771321835 -0.023255377537460546 0 0.021679926837100943 -0.023888608929834472 0 0.022870198707247723 -0.024024429422474926 0 0.021777333636850166 -0.025027930720621334 0 0.021679926837100943 -0.023888608929834472 0 0.022420949771321835 -0.023255377537460546 0 0.022870198707247723 -0.024024429422474926 0 0.020111382432887109 -0.024584517757090207 0 0.01868684858114163 -0.025862666198244764 0 0.01708995098070399 -0.026641617523401284 0 0.017069308566882883 -0.026327743524159751 0 0.017729606642556506 -0.026063385202663641 0 0.01868684858114163 -0.025862666198244764 0 0.017810568035299252 -0.026335734978416736 0 0.01708995098070399 -0.026641617523401284 0 0.017069308566882883 -0.026327743524159751 0 0.016710115109747646 -0.026573070997807605 0 0.018006121843380674 -0.027202823234667529 0 0.018719834259306459 -0.026554562461640667 0 0.018223004082541447 -0.02620172091151712 0 0.01868684858114163 -0.025862666198244764 0 0.020556964392933762 -0.025644941967361064 0 0.018845936072937927 -0.025847742498776378 0 0.018719834259306459 -0.026554562461640667 0 0.018223004082541447 -0.02620172091151712 0 0.017069308566882883 -0.026327743524159751 0 0.017729606642556506 -0.026063385202663641 0 0.016737969662935111 -0.025935964406903326 0 0.017729606642556506 -0.026063385202663641 0 0.017112421323432971 -0.024999979185088037 0 0.016737969662935111 -0.025935964406903326 0 0.017729606642556506 -0.026063385202663641 0 0.018407752659635696 -0.024999869641388121 0 0.017112421323432971 -0.024999979185088037 0 0.017810568035299252 -0.026335734978416736 0 0.018408368293087358 -0.024999716817520157 0 0.018845936072937927 -0.025847742498776378 0 0.018223004082541447 -0.02620172091151712 0 0.018408487016431371 -0.025000011279784618 0 0.015816747848926158 -0.024999840233735825 0 0.016023190049852403 -0.025615725466722306 0 0.017112421323432971 -0.024999979185088037 0 0.016023190049852403 -0.025615725466722306 0 0.017112421323432971 -0.024999979185088037 0 0.016737969662935111 -0.025935964406903326 0 0.016737969662935111 -0.025935964406903326 0 0.016072461086831469 -0.026089072561470965 0 0.016536241673322447 -0.026294570038981301 0 0.016023190049852403 -0.025615725466722306 0 0.016737969662935111 -0.025935964406903326 0 0.016072461086831469 -0.026089072561470965 0 0.016023190049852403 -0.025615725466722306 0 0.016072461086831469 -0.026089072561470965 0 0.015399857298194375 -0.026044044616836331 0 0.016072461086831469 -0.026089072561470965 0 0.01590580237616171 -0.026509873717215242 0 0.015399857298194375 -0.026044044616836331 0 0.01590580237616171 -0.026509873717215242 0 0.016536241673322447 -0.026294570038981301 0 0.016710115109747646 -0.026573070997807605 0 0.016072461086831469 -0.026089072561470965 0 0.01590580237616171 -0.026509873717215242 0 0.016536241673322447 -0.026294570038981301 0 0.017069308566882883 -0.026327743524159751 0 0.016536241673322447 -0.026294570038981301 0 0.016710115109747646 -0.026573070997807605 0 0.017069308566882883 -0.026327743524159751 0 0.016737969662935111 -0.025935964406903326 0 0.016536241673322447 -0.026294570038981301 0 0.016725489389067785 -0.026395619528618661 0 0.01708995098070399 -0.026641617523401284 0 0.016710115109747646 -0.026573070997807605 0 0.0166722070004428 -0.026342109715617866 0 0.016725489389067785 -0.026395619528618661 0 0.016710115109747646 -0.026573070997807605 0 0.01590580237616171 -0.026509873717215242 0 0.016710115109747646 -0.026573070997807605 0 0.015860424240526274 -0.027068792412934303 0 0.016540986996630706 -0.026615724456428246 0 0.016445690832698878 -0.026705419008631034 0 0.0166722070004428 -0.026342109715617866 0 0.016710115109747646 -0.026573070997807605 0 0.016594507638333436 -0.026337555978270751 0 0.01590580237616171 -0.026509873717215242 0 0.015860424240526274 -0.027068792412934303 0 0.015373433382631259 -0.027224109751069717 0 0.0166722070004428 -0.026342109715617866 0 0.016645477081286515 -0.026202072743075781 0 0.016594507638333436 -0.026337555978270751 0 0.016594507638333436 -0.026337555978270751 0 0.016902759742004735 -0.025652672041569551 0 0.016730278128117625 -0.025825156463916716 0 0.016921219720173547 -0.026786129738299368 0 0.01629142119770256 -0.026934272970141376 0 0.015430926573205267 -0.027454170064286704 0 0.016445690832698878 -0.026705419008631034 0 0.016215316694068786 -0.026541052483061319 0 0.016645477081286515 -0.026202072743075781 0 0.016594507638333436 -0.026337555978270751 0 0.016730278128117625 -0.025825156463916716 0 0.015373433382631259 -0.027224109751069717 0 0.01483443955897641 -0.027007236953282183 0 0.015111065841748258 -0.026581559574856937 0 0.016445690832698878 -0.026705419008631034 0 0.015824772418600013 -0.027041608148686464 0 0.015824772418600013 -0.027041608148686464 0 0.014297132727455893 -0.027448364007856732 0 0.01629142119770256 -0.026934272970141376 0 0.014524769913122394 -0.027350138874245825 0 0.015430926573205267 -0.027454170064286704 0 0.015373433382631259 -0.027224109751069717 0 0.01483443955897641 -0.027007236953282183 0 0.014098026215141637 -0.027530052088128185 0 0.01483443955897641 -0.027007236953282183 0 0.014229023134124281 -0.027055569019969264 0 0.014098026215141637 -0.027530052088128185 0 0.01483443955897641 -0.027007236953282183 0 0.014359076743335471 -0.026661375593512372 0 0.014229023134124281 -0.027055569019969264 0 0.014359076743335471 -0.026661375593512372 0 0.015111065841748258 -0.026581559574856937 0 0.014598639651312943 -0.02610944789266632 0 0.01483443955897641 -0.027007236953282183 0 0.014359076743335471 -0.026661375593512372 0 0.015111065841748258 -0.026581559574856937 0 0.01590580237616171 -0.026509873717215242 0 0.015111065841748258 -0.026581559574856937 0 0.015399857298194375 -0.026044044616836331 0 0.015111065841748258 -0.026581559574856937 0 0.015399857298194375 -0.026044044616836331 0 0.014598639651312943 -0.02610944789266632 0 0.01590580237616171 -0.026509873717215242 0 0.015373433382631259 -0.027224109751069717 0 0.015111065841748258 -0.026581559574856937 0 0.015399857298194375 -0.026044044616836331 0 0.014598639651312943 -0.02610944789266632 0 0.015061700127797539 -0.02554153858532868 0 0.016023190049852403 -0.025615725466722306 0 0.015399857298194375 -0.026044044616836331 0 0.015061700127797539 -0.02554153858532868 0 0.014598639651312943 -0.02610944789266632 0 0.014184274454159819 -0.025505226517351026 0 0.015061700127797539 -0.02554153858532868 0 0.01452109975537696 -0.024999913719674215 0 0.014184274454159819 -0.025505226517351026 0 0.015061700127797539 -0.02554153858532868 0 0.015816747848926158 -0.024999840233735825 0 0.01452109975537696 -0.024999913719674215 0 0.015061700127797539 -0.02554153858532868 0 0.015816747848926158 -0.024999840233735825 0 0.016023190049852403 -0.025615725466722306 0 0.015061700127797539 -0.02554153858532868 0 0.011929368152123575 -0.024999978384048337 0 0.012523180328404757 -0.025693905367461165 0 0.013225127883505215 -0.024999910447411407 0 0.012523180328404757 -0.025693905367461165 0 0.013225127883505215 -0.024999910447411407 0 0.013288760471350847 -0.02568648716356808 0 0.014184274454159819 -0.025505226517351026 0 0.013225127883505215 -0.024999910447411407 0 0.013288760471350847 -0.02568648716356808 0 0.01452109975537696 -0.024999913719674215 0 0.014184274454159819 -0.025505226517351026 0 0.013225127883505215 -0.024999910447411407 0 0.014141878849835131 -0.025547052572321829 0 0.013444547870240041 -0.026403427056146317 0 0.014184274454159819 -0.025505226517351026 0 0.013288760471350847 -0.02568648716356808 0 0.01325524964450548 -0.026555392813145878 0 0.014598639651312943 -0.02610944789266632 0 0.014184274454159819 -0.025505226517351026 0 0.013612911236343414 -0.026292741077441197 0 0.012523180328404757 -0.025693905367461165 0 0.013288760471350847 -0.02568648716356808 0 0.01325524964450548 -0.026555392813145878 0 0.01180686928558573 -0.026356503002027978 0 0.012523180328404757 -0.025693905367461165 0 0.01325524964450548 -0.026555392813145878 0 0.011995049748392137 -0.02701718343476241 0 0.01325524964450548 -0.026555392813145878 0 0.012473564041875445 -0.027420643440781888 0 0.013444547870240041 -0.026403427056146317 0 0.012641106530211905 -0.027317196249691561 0 0.013612911236343414 -0.026292741077441197 0 0.013629357537601007 -0.027027608251578118 0 0.012831827969899394 -0.027170778767901634 0 0.014359076743335471 -0.026661375593512372 0 0.014598639651312943 -0.02610944789266632 0 0.013612911236343414 -0.026292741077441197 0 0.014359076743335471 -0.026661375593512372 0 0.013612911236343414 -0.026292741077441197 0 0.013629357537601007 -0.027027608251578118 0 0.014359076743335471 -0.026661375593512372 0 0.014229023134124281 -0.027055569019969264 0 0.013629357537601007 -0.027027608251578118 0 0.014229023134124281 -0.027055569019969264 0 0.013629357537601007 -0.027027608251578118 0 0.014098026215141637 -0.027530052088128185 0 0.012771115923105045 -0.027798178705401008 0 0.013629357537601007 -0.027027608251578118 0 0.014098026215141637 -0.027530052088128185 0 0.012771115923105045 -0.027798178705401008 0 0.013629357537601007 -0.027027608251578118 0 0.012831827969899394 -0.027170778767901634 0 0.012431278422518423 -0.0286032695556784 0 0.012771115923105045 -0.027798178705401008 0 0.013920994122329505 -0.028082240879501313 0 0.012771115923105045 -0.027798178705401008 0 0.014524769913122394 -0.027350138874245825 0 0.013920994122329505 -0.028082240879501313 0 0.012849405266515006 -0.027778228470803277 0 0.014297132727455893 -0.027448364007856732 0 0.018782822789611676 -0.023845935926553759 0 0.018641784575040628 -0.024057045212282819 0 0.018139114611840344 -0.023759359492244416 0 0.019063355994484898 -0.023935612936507825 0 0.01823268356173411 -0.023712000130454453 0 0.018922676181607027 -0.023943374942764922 0 0.018782822789611676 -0.023845935926553759 0 0.018641784575040628 -0.024057045212282819 0 0.015627574593533929 -0.027090630850106462 0 0.016192937127782463 -0.026233484746175987 0 0.018922676181607027 -0.023943374942764922 0 0.018641784575040628 -0.024057045212282819 0 0.018489746696980652 -0.024563485378215379 0 0.018139114611840344 -0.023759359492244416 0 0.018489746696980652 -0.024563485378215379 0 0.01738978217292627 -0.024372949684207841 0 0.018641784575040628 -0.024057045212282819 0 0.018139114611840344 -0.023759359492244416 0 0.018489746696980652 -0.024563485378215379 0 0.018489746696980652 -0.024563485378215379 0 0.01735625231072721 -0.024913266437178463 0 0.01738978217292627 -0.024372949684207841 0 0.016192937127782463 -0.026233484746175987 0 0.016215316694068786 -0.026541052483061319 0 0.014524769913122394 -0.027350138874245825 0 0.013920994122329505 -0.028082240879501313 0 0.015430926573205267 -0.027454170064286704 0 0.018489746696980652 -0.024563485378215379 0 0.016902759742004735 -0.025652672041569551 0 0.01735625231072721 -0.024913266437178463 0 0.016902759742004735 -0.025652672041569551 0 0.016730278128117625 -0.025825156463916716 0 0.016702474646843178 -0.025057601759599597 0 0.016902759742004735 -0.025652672041569551 0 0.01735625231072721 -0.024913266437178463 0 0.016702474646843178 -0.025057601759599597 0 0.01735625231072721 -0.024913266437178463 0 0.016702474646843178 -0.025057601759599597 0 0.01738978217292627 -0.024372949684207841 0 0.015858737195790736 -0.025629478385885009 0 0.016639590046998751 -0.025819219043477729 0 0.01498036783731627 -0.024633283983994 0 0.016730278128117625 -0.025825156463916716 0 0.016151666873155009 -0.024726333917822481 0 0.016631984414361634 -0.026368569108895235 0 0.016645477081286515 -0.026202072743075781 0 0.016730278128117625 -0.025825156463916716 0 0.016730278128117625 -0.025825156463916716 0 0.016702474646843178 -0.025057601759599597 0 0.016151666873155009 -0.024726333917822481 0 0.016702474646843178 -0.025057601759599597 0 0.016151666873155009 -0.024726333917822481 0 0.016535703441539484 -0.024096067505415805 0 0.01498036783731627 -0.024633283983994 0 0.016151666873155009 -0.024726333917822481 0 0.015742522079361033 -0.024016235484584193 0 0.016151666873155009 -0.024726333917822481 0 0.015742522079361033 -0.024016235484584193 0 0.016535703441539484 -0.024096067505415805 0 0.016535703441539484 -0.024096067505415805 0 0.017080215437100033 -0.023497292796757059 0 0.015980213130221368 -0.023080130281557504 0 0.015742522079361033 -0.024016235484584193 0 0.016535703441539484 -0.024096067505415805 0 0.015980213130221368 -0.023080130281557504 0 0.015009971995452218 -0.023602632826421978 0 0.015742522079361033 -0.024016235484584193 0 0.015980213130221368 -0.023080130281557504 0 0.018139114611840344 -0.023759359492244416 0 0.01738978217292627 -0.024372949684207841 0 0.017080215437100033 -0.023497292796757059 0 0.016702474646843178 -0.025057601759599597 0 0.016535703441539484 -0.024096067505415805 0 0.01738978217292627 -0.024372949684207841 0 0.016535703441539484 -0.024096067505415805 0 0.01738978217292627 -0.024372949684207841 0 0.017080215437100033 -0.023497292796757059 0 0.017080215437100033 -0.023497292796757059 0 0.017301436668137566 -0.022138648785542777 0 0.015980213130221368 -0.023080130281557504 0 0.018139114611840344 -0.023759359492244416 0 0.017080215437100033 -0.023497292796757059 0 0.017301436668137566 -0.022138648785542777 0 0.015472644233234415 -0.021598562069871059 0 0.017301436668137566 -0.022138648785542777 0 0.015980213130221368 -0.023080130281557504 0 0.015383772476706107 -0.010525827110019198 0 0.017340672683029714 -0.01161963243571484 0 0.0164893851862477 -0.0003700761245594739 0 0.017111440587013724 -0.00091064774282229196 0 0.016850892189748761 -0.00059400402663282862 0 0.0164893851862477 -0.0003700761245594739 0 0.016850892189748761 -0.00059400402663282862 0 0.01665658434880116 -0.00012830105042753451 0 0.016850892189748761 -0.00059400402663282862 0 0.01665658434880116 -0.00012830105042753451 0 0.017026821179515195 5.9190867686537591e-05 0 0.0164893851862477 -0.0003700761245594739 0 0.01665658434880116 -0.00012830105042753451 0 0.016405241107576587 -7.5757931460956543e-05 0 0.016850892189748761 -0.00059400402663282862 0 0.017026821179515195 5.9190867686537591e-05 0 0.017438625814786043 0.00025703673910065891 0 0.017111440587013724 -0.00091064774282229196 0 0.016850892189748761 -0.00059400402663282862 0 0.017239845909320459 -0.00097748977330231867 0 0.016823317210915126 -0.00058939325818252962 0 0.017283128894239216 -0.00037338369163069166 0 0.017111440587013724 -0.00091064774282229196 0 0.017239845909320459 -0.00097748977330231867 0 0.017295284034970888 -0.0011776259091018906 0 0.017239845909320459 -0.00097748977330231867 0 0.017295284034970888 -0.0011776259091018906 0 0.017304696141079066 -0.0011284144192241386 0 0.017302368237110944 -0.0011904816742570885 0 0.017295284034970888 -0.0011776259091018906 0 0.017304696141079066 -0.0011284144192241386 0 0.017283128894239216 -0.00037338369163069166 0 0.01725499290726077 -0.00024459522803824477 0 0.020646374728555898 -0.022861234360585958 0 0.019451783076484111 -0.023261615303918667 0 0.019055902792456527 -0.022578655791354083 0 0.019451783076484111 -0.023261615303918667 0 0.018139114611840344 -0.023759359492244416 0 0.019055902792456527 -0.022578655791354083 0 0.017340672683029714 -0.01161963243571484 0 0.018254367179114592 -0.011566848751871597 0 0.018139114611840344 -0.023759359492244416 0 0.017301436668137566 -0.022138648785542777 0 0.019055902792456527 -0.022578655791354083 0 0.017403136175448249 0.00072957126906317358 0 0.017342164778205754 0.00070539186872501129 0 0.017381146462528373 0.00063943174339163794 0 0.017403136175448249 0.00072957126906317358 0 0.017465909915702665 0.00076493860194849328 0 0.017366142543971407 0.00075236130409886794 0 0.017403136175448249 0.00072957126906317358 0 0.017342164778205754 0.00070539186872501129 0 0.017366142543971407 0.00075236130409886794 0 0.017196060479170897 0.00071997847278058771 0 0.017342164778205754 0.00070539186872501129 0 0.017333509721984813 0.00067817938705740739 0 0.017196060479170897 0.00071997847278058771 0 0.017342164778205754 0.00070539186872501129 0 0.017220458124110615 0.00074175551912971413 0 0.017438625814786043 0.00025703673910065891 0 0.017333509721984813 0.00067817938705740739 0 0.017391783743032199 0.0005744507084364562 0 0.017342164778205754 0.00070539186872501129 0 0.017333509721984813 0.00067817938705740739 0 0.017391783743032199 0.0005744507084364562 0 0.017342164778205754 0.00070539186872501129 0 0.017391783743032199 0.0005744507084364562 0 0.017381146462528373 0.00063943174339163794 0 0.017403136175448249 0.00072957126906317358 0 0.017335653963300428 0.00050040526123290704 0 0.017381146462528373 0.00063943174339163794 0 0.017391783743032199 0.0005744507084364562 0 0.017335653963300428 0.00050040526123290704 0 0.017381146462528373 0.00063943174339163794 0 0.017438625814786043 0.00025703673910065891 0 0.017391783743032199 0.0005744507084364562 0 0.017335653963300428 0.00050040526123290704 0 0.017026821179515195 5.9190867686537591e-05 0 0.017438625814786043 0.00025703673910065891 0 0.017335653963300428 0.00050040526123290704 0 0.017026821179515195 5.9190867686537591e-05 0 0.017335653963300428 0.00050040526123290704 0 0.016981992022605228 0.00029606044924265719 0 0.017026821179515195 5.9190867686537591e-05 0 0.016981992022605228 0.00029606044924265719 0 0.016764636007729067 0.00013782552944027396 0 0.017335653963300428 0.00050040526123290704 0 0.016981992022605228 0.00029606044924265719 0 0.016982539160650168 0.00048878649715118746 0 0.017369642555641909 0.00049995599111377759 0 0.017237949024452554 0.00063879448956973841 0 0.01665658434880116 -0.00012830105042753451 0 0.016558565071305775 6.1131667713867509e-05 0 0.016405241107576587 -7.5757931460956543e-05 0 0.016558565071305775 6.1131667713867509e-05 0 0.016590506699826611 0.00023701167872680186 0 0.016415256294217848 0.00015821790876408687 0 0.01665658434880116 -0.00012830105042753451 0 0.016558565071305775 6.1131667713867509e-05 0 0.016764636007729067 0.00013782552944027396 0 0.016558565071305775 6.1131667713867509e-05 0 0.016764636007729067 0.00013782552944027396 0 0.016590506699826611 0.00023701167872680186 0 0.01665658434880116 -0.00012830105042753451 0 0.017026821179515195 5.9190867686537591e-05 0 0.016764636007729067 0.00013782552944027396 0 0.016981992022605228 0.00029606044924265719 0 0.016739647613334917 0.0004558981557561391 0 0.016982539160650168 0.00048878649715118746 0 0.016981992022605228 0.00029606044924265719 0 0.016764636007729067 0.00013782552944027396 0 0.016739647613334917 0.0004558981557561391 0 0.016764636007729067 0.00013782552944027396 0 0.016590506699826611 0.00023701167872680186 0 0.016739647613334917 0.0004558981557561391 0 0.016590506699826611 0.00023701167872680186 0 0.016739647613334917 0.0004558981557561391 0 0.016482024801198928 0.00038197081681885087 0 0.016589728861512398 0.00053310613308394088 0 0.016739647613334917 0.0004558981557561391 0 0.016648340351210898 0.00067439555956648359 0 0.016589728861512398 0.00053310613308394088 0 0.016739647613334917 0.0004558981557561391 0 0.016482024801198928 0.00038197081681885087 0 0.016589728861512398 0.00053310613308394088 0 0.016475701420326741 0.00061370501399401524 0 0.016482024801198928 0.00038197081681885087 0 0.017518418696770132 0.00098906483440266892 0 0.017237949024452554 0.00063879448956973841 0 0.016739647613334917 0.0004558981557561391 0 0.016648340351210898 0.00067439555956648359 0 0.016982539160650168 0.00048878649715118746 0 0.017637434446210343 0.00082017220878344093 0 0.017675278175760173 0.00084042981705743198 0 0.017468322064312564 0.00077656040989736998 0 0.017585840731653462 0.00095872401074202597 0 0.017518418696770132 0.00098906483440266892 0 0.017637434446210343 0.00082017220878344093 0 0.017735483752094005 0.00086964126627065103 0 0.017738937874311651 0.00080440673525320708 0 0.017518418696770132 0.00098906483440266892 0 0.018872112074841695 0.0010942177251771301 0 0.017735483752094005 0.00086964126627065103 0 0.017738937874311651 0.00080440673525320708 0 0.017810565853953728 0.0008348510034586746 0 0.017518418696770132 0.00098906483440266892 0 0.017897302516879845 0.0010397081535380899 0 0.018041790780359179 0.0011124006716620204 0 0.01821561536383379 0.0011825215900654229 0 0.018226282054967353 0.00099208329827487349 0 0.016589728861512398 0.00053310613308394088 0 0.016648340351210898 0.00067439555956648359 0 0.016475701420326741 0.00061370501399401524 0 0.017403136175448249 0.00072957126906317358 0 0.017335653963300428 0.00050040526123290704 0 0.017468322064312564 0.00077656040989736998 0 0.017403136175448249 0.00072957126906317358 0 0.017468322064312564 0.00077656040989736998 0 0.017510877800012769 0.00078180407700713687 0 0.017637434446210343 0.00082017220878344093 0 0.017468322064312564 0.00077656040989736998 0 0.017510877800012769 0.00078180407700713687 0 0.017637434446210343 0.00082017220878344093 0 0.017510877800012769 0.00078180407700713687 0 0.017611666221189943 0.00077301820699396157 0 0.017403136175448249 0.00072957126906317358 0 0.017510877800012769 0.00078180407700713687 0 0.017465909915702665 0.00076493860194849328 0 0.017465909915702665 0.00076493860194849328 0 0.017611666221189943 0.00077301820699396157 0 0.017470377246305187 0.00074448690195124496 0 0.017510877800012769 0.00078180407700713687 0 0.017465909915702665 0.00076493860194849328 0 0.017611666221189943 0.00077301820699396157 0 0.017611666221189943 0.00077301820699396157 0 0.017470377246305187 0.00074448690195124496 0 0.017705021828858473 0.00070289509883080816 0 0.017778467576457374 0.00076055757479119698 0 0.018009698907622194 0.00068719388126515092 0 0.017810565853953728 0.0008348510034586746 0 0.017738937874311651 0.00080440673525320708 0 0.017778467576457374 0.00076055757479119698 0 0.017810565853953728 0.0008348510034586746 0 0.017637434446210343 0.00082017220878344093 0 0.017611666221189943 0.00077301820699396157 0 0.017738937874311651 0.00080440673525320708 0 0.017611666221189943 0.00077301820699396157 0 0.017738937874311651 0.00080440673525320708 0 0.017778467576457374 0.00076055757479119698 0 0.017611666221189943 0.00077301820699396157 0 0.017778467576457374 0.00076055757479119698 0 0.017705021828858473 0.00070289509883080816 0 0.017705021828858473 0.00070289509883080816 0 0.017863865368918243 0.00055322575255768768 0 0.018009698907622194 0.00068719388126515092 0 0.017778467576457374 0.00076055757479119698 0 0.017705021828858473 0.00070289509883080816 0 0.018009698907622194 0.00068719388126515092 0 0.017470377246305187 0.00074448690195124496 0 0.017705021828858473 0.00070289509883080816 0 0.017453373248669551 0.00068044518139377078 0 0.017705021828858473 0.00070289509883080816 0 0.017453373248669551 0.00068044518139377078 0 0.017863865368918243 0.00055322575255768768 0 0.017453373248669551 0.00068044518139377078 0 0.017189146697367159 0.00070672021811005908 0 0.017218488819691874 0.00061252532476330831 0 0.017453373248669551 0.00068044518139377078 0 0.01731739291529847 0.00074075714474352758 0 0.017189146697367159 0.00070672021811005908 0 0.017470377246305187 0.00074448690195124496 0 0.017453373248669551 0.00068044518139377078 0 0.01731739291529847 0.00074075714474352758 0 0.017470377246305187 0.00074448690195124496 0 0.01731739291529847 0.00074075714474352758 0 0.017366142543971407 0.00075236130409886794 0 0.01731739291529847 0.00074075714474352758 0 0.017366142543971407 0.00075236130409886794 0 0.017220458124110615 0.00074175551912971413 0 0.017465909915702665 0.00076493860194849328 0 0.017470377246305187 0.00074448690195124496 0 0.017366142543971407 0.00075236130409886794 0 0.017342164778205754 0.00070539186872501129 0 0.017366142543971407 0.00075236130409886794 0 0.017220458124110615 0.00074175551912971413 0 0.01731739291529847 0.00074075714474352758 0 0.017220458124110615 0.00074175551912971413 0 0.017189146697367159 0.00070672021811005908 0 0.017038490835425742 0.00070577766418340943 0 0.01707968100790638 0.00073090082228260478 0 0.017220458124110615 0.00074175551912971413 0 0.017038490835425742 0.00070577766418340943 0 0.017220458124110615 0.00074175551912971413 0 0.017189146697367159 0.00070672021811005908 0 0.017189146697367159 0.00070672021811005908 0 0.016906662307775093 0.000664149707891179 0 0.017218488819691874 0.00061252532476330831 0 0.017038490835425742 0.00070577766418340943 0 0.017189146697367159 0.00070672021811005908 0 0.016906662307775093 0.000664149707891179 0 0.01656159020452207 0.00063655762692751364 0 0.016906662307775093 0.000664149707891179 0 0.017097940292293296 0.00046934405954002819 0 0.016906662307775093 0.000664149707891179 0 0.017218488819691874 0.00061252532476330831 0 0.017097940292293296 0.00046934405954002819 0 0.017453373248669551 0.00068044518139377078 0 0.017218488819691874 0.00061252532476330831 0 0.017456347116837648 0.00039308007364552091 0 0.017218488819691874 0.00061252532476330831 0 0.017097940292293296 0.00046934405954002819 0 0.017456347116837648 0.00039308007364552091 0 0.017456347116837648 0.00039308007364552091 0 0.016929377431485374 0.00016327773938151042 0 0.017384465687135094 4.0971890352550406e-05 0 0.017456347116837648 0.00039308007364552091 0 0.017384465687135094 4.0971890352550406e-05 0 0.017856127755012784 -5.5911910977741362e-05 0 0.017097940292293296 0.00046934405954002819 0 0.017456347116837648 0.00039308007364552091 0 0.016929377431485374 0.00016327773938151042 0 0.01656159020452207 0.00063655762692751364 0 0.017097940292293296 0.00046934405954002819 0 0.016929377431485374 0.00016327773938151042 0 0.016456106510383175 -0.00029273028033445703 0 0.016929377431485374 0.00016327773938151042 0 0.017302194026887607 -0.00035357364810035814 0 0.016929377431485374 0.00016327773938151042 0 0.017384465687135094 4.0971890352550406e-05 0 0.017302194026887607 -0.00035357364810035814 0 0.017384465687135094 4.0971890352550406e-05 0 0.017302194026887607 -0.00035357364810035814 0 0.017856127755012784 -5.5911910977741362e-05 0 0.016456106510383175 -0.00029273028033445703 0 0.017302194026887607 -0.00035357364810035814 0 0.016494804505521071 -0.00087883699937495782 0 0.018470267362013557 -0.00033942221572616466 0 0.01804867795550898 -0.00046890250733825283 0 0.018806380830144166 -0.00057276746596424848 0 0.017302194026887607 -0.00035357364810035814 0 0.01804867795550898 -0.00046890250733825283 0 0.017856127755012784 -5.5911910977741362e-05 0 0.018470267362013557 -0.00033942221572616466 0 0.01804867795550898 -0.00046890250733825283 0 0.017856127755012784 -5.5911910977741362e-05 0 0.018470267362013557 -0.00033942221572616466 0 0.017856127755012784 -5.5911910977741362e-05 0 0.018129267839641212 0.00020839074809733218 0 0.018470267362013557 -0.00033942221572616466 0 0.018129267839641212 0.00020839074809733218 0 0.018918496545163963 -0.00022412556385197624 0 0.018129267839641212 0.00020839074809733218 0 0.018371106843547924 0.00042000096685200407 0 0.018918496545163963 -0.00022412556385197624 0 0.017456347116837648 0.00039308007364552091 0 0.018129267839641212 0.00020839074809733218 0 0.017863865368918243 0.00055322575255768768 0 0.017456347116837648 0.00039308007364552091 0 0.017856127755012784 -5.5911910977741362e-05 0 0.018129267839641212 0.00020839074809733218 0 0.017453373248669551 0.00068044518139377078 0 0.017456347116837648 0.00039308007364552091 0 0.017863865368918243 0.00055322575255768768 0 0.017863865368918243 0.00055322575255768768 0 0.018371106843547924 0.00042000096685200407 0 0.018009698907622194 0.00068719388126515092 0 0.018129267839641212 0.00020839074809733218 0 0.017863865368918243 0.00055322575255768768 0 0.018371106843547924 0.00042000096685200407 0 0.018784655531718868 0.00030078655107476968 0 0.018561669770391684 0.00097020590363151003 0 0.019195615178652984 0.00029836216769189269 0 0.019825276531867407 0.00069591330676498 0 0.019175120300039393 0.0011241649724430169 0 0.019195615178652984 0.00029836216769189269 0 0.019825276531867407 0.00069591330676498 0 0.019498513309909812 -1.5467153258072485e-05 0 0.020202424355161924 0.00019656274973686776 0 0.019498513309909812 -1.5467153258072485e-05 0 0.020177820235960615 -0.00035199744388053031 0 0.019825276531867407 0.00069591330676498 0 0.020202424355161924 0.00019656274973686776 0 0.019498513309909812 -1.5467153258072485e-05 0 0.019195615178652984 0.00029836216769189269 0 0.019498513309909812 -1.5467153258072485e-05 0 0.018918496545163963 -0.00022412556385197624 0 0.018784655531718868 0.00030078655107476968 0 0.018896148308546596 -0.00022525449851977568 0 0.019498513309909812 -1.5467153258072485e-05 0 0.018918496545163963 -0.00022412556385197624 0 0.019632207718342551 -0.00080701879571891736 0 0.019498513309909812 -1.5467153258072485e-05 0 0.019632207718342551 -0.00080701879571891736 0 0.020177820235960615 -0.00035199744388053031 0 0.019632207718342551 -0.00080701879571891736 0 0.01943900516050702 -0.00056099863812704605 0 0.01908090946630768 -0.00049273219311456672 0 0.019632207718342551 -0.00080701879571891736 0 0.01943900516050702 -0.00056099863812704605 0 0.019669689448933613 -0.00048119257313461347 0 0.01943900516050702 -0.00056099863812704605 0 0.01908090946630768 -0.00049273219311456672 0 0.01947536515772293 -0.00051550224793656964 0 0.018470267362013557 -0.00033942221572616466 0 0.01908090946630768 -0.00049273219311456672 0 0.018806380830144166 -0.00057276746596424848 0 0.018470267362013557 -0.00033942221572616466 0 0.018918496545163963 -0.00022412556385197624 0 0.01908090946630768 -0.00049273219311456672 0 0.018918496545163963 -0.00022412556385197624 0 0.019632207718342551 -0.00080701879571891736 0 0.01908090946630768 -0.00049273219311456672 0 0.021604644576262887 -0.0015554709609124999 0 0.022308366001682477 -0.00081865080647400192 0 0.02225003886516555 -0.0031895726534185735 0 0.023808637774543024 -0.0018285483085273579 0 0.022265057578010731 -0.0031811463614667464 0 0.021604644576262887 -0.0015554709609124999 0 0.021281686036289577 -0.0020534824992896068 0 0.02225003886516555 -0.0031895726534185735 0 0.020760282157935638 -0.0024910569962517935 0 0.021281686036289577 -0.0020534824992896068 0 0.020724182347899269 -0.0012132916417907111 0 0.019632207718342551 -0.00080701879571891736 0 0.020760282157935638 -0.0024910569962517935 0 0.020724182347899269 -0.0012132916417907111 0 0.020760282157935638 -0.0024910569962517935 0 0.021281686036289577 -0.0020534824992896068 0 0.02225003886516555 -0.0031895726534185735 0 0.019632207718342551 -0.00080701879571891736 0 0.020760282157935638 -0.0024910569962517935 0 0.020570222080344407 -0.0027816626325846078 0 0.019713058475254456 -0.00094113587721504123 0 0.0202559055038543 -0.0015428405874888165 0 0.019632207718342551 -0.00080701879571891736 0 0.019808392135937856 -0.00033249078737645105 0 0.019669689448933613 -0.00048119257313461347 0 0.021604644576262887 -0.0015554709609124999 0 0.021281686036289577 -0.0020534824992896068 0 0.020724182347899269 -0.0012132916417907111 0 0.020724182347899269 -0.0012132916417907111 0 0.020177820235960615 -0.00035199744388053031 0 0.021031843869191245 -0.00063704921605214264 0 0.021604644576262887 -0.0015554709609124999 0 0.020724182347899269 -0.0012132916417907111 0 0.021031843869191245 -0.00063704921605214264 0 0.019632207718342551 -0.00080701879571891736 0 0.020724182347899269 -0.0012132916417907111 0 0.020177820235960615 -0.00035199744388053031 0 0.021604644576262887 -0.0015554709609124999 0 0.021031843869191245 -0.00063704921605214264 0 0.021763140499224599 -0.0005176888789563917 0 0.021604644576262887 -0.0015554709609124999 0 0.021763140499224599 -0.0005176888789563917 0 0.022308366001682477 -0.00081865080647400192 0 0.021126353896761294 6.6717215734907508e-06 0 0.021760718294788213 0.00019646144481022271 0 0.021787279396289917 -0.00011805682704907259 0 0.021763140499224599 -0.0005176888789563917 0 0.021126353896761294 6.6717215734907508e-06 0 0.021787279396289917 -0.00011805682704907259 0 0.021031843869191245 -0.00063704921605214264 0 0.021763140499224599 -0.0005176888789563917 0 0.021126353896761294 6.6717215734907508e-06 0 0.020177820235960615 -0.00035199744388053031 0 0.021031843869191245 -0.00063704921605214264 0 0.021126353896761294 6.6717215734907508e-06 0 0.020202424355161924 0.00019656274973686776 0 0.020177820235960615 -0.00035199744388053031 0 0.021126353896761294 6.6717215734907508e-06 0 0.019825276531867407 0.00069591330676498 0 0.020202424355161924 0.00019656274973686776 0 0.02101333990856381 0.00077103284971002679 0 0.020202424355161924 0.00019656274973686776 0 0.021126353896761294 6.6717215734907508e-06 0 0.02101333990856381 0.00077103284971002679 0 0.021126353896761294 6.6717215734907508e-06 0 0.02101333990856381 0.00077103284971002679 0 0.021760718294788213 0.00019646144481022271 0 0.02101333990856381 0.00077103284971002679 0 0.021760970122263544 0.00069815377721369181 0 0.021760718294788213 0.00019646144481022271 0 0.021151692971463555 0.0010230060995476344 0 0.02101333990856381 0.00077103284971002679 0 0.021760970122263544 0.00069815377721369181 0 0.024038499186573081 -0.002182520447938611 0 0.022918617051694477 -0.0013117886985692727 0 0.021151692971463555 0.0010230060995476344 0 0.020918041917195793 0.00088485675838792315 0 0.020973899811393523 0.00099505615415416038 0 0.021151692971463555 0.0010230060995476344 0 0.02101333990856381 0.00077103284971002679 0 0.020918041917195793 0.00088485675838792315 0 0.020915637735375619 0.00082063160468387073 0 0.020642960763905826 0.0011922303094329253 0 0.019825276531867407 0.00069591330676498 0 0.02101333990856381 0.00077103284971002679 0 0.019981966205599673 0.001518158037176618 0 0.019825276531867407 0.00069591330676498 0 0.019175120300039393 0.0011241649724430169 0 0.019981966205599673 0.001518158037176618 0 0.018561669770391684 0.00097020590363151003 0 0.018872112074841695 0.0010942177251771301 0 0.019175120300039393 0.0011241649724430169 0 0.019981966205599673 0.001518158037176618 0 0.019133132523071666 0.0020570344541188377 0 0.020642960763905826 0.0011922303094329253 0 0.018872112074841695 0.0010942177251771301 0 0.020918041917195793 0.00088485675838792315 0 0.020771829689956417 0.00096785873115326677 0 0.020872230178256231 0.00098247623978974983 0 0.020918041917195793 0.00088485675838792315 0 0.020973899811393523 0.00099505615415416038 0 0.020872230178256231 0.00098247623978974983 0 0.020973899811393523 0.00099505615415416038 0 0.02092342795380555 0.001005744549925725 0 0.020996864434347742 0.0010463193157867166 0 0.020973899811393523 0.00099505615415416038 0 0.02092342795380555 0.001005744549925725 0 0.020872230178256231 0.00098247623978974983 0 0.02092342795380555 0.001005744549925725 0 0.020887129362946254 0.0010218764878101182 0 0.020872230178256231 0.00098247623978974983 0 0.02092342795380555 0.001005744549925725 0 0.020887129362946254 0.0010218764878101182 0 0.020923250663879036 0.0010400892343910733 0 0.02092342795380555 0.001005744549925725 0 0.020923250663879036 0.0010400892343910733 0 0.020996864434347742 0.0010463193157867166 0 0.020887129362946254 0.0010218764878101182 0 0.020923250663879036 0.0010400892343910733 0 0.020925489433497455 0.0010522489502199815 0 0.020209454407769313 -0.00099288228126167199 0 0.020125336783075501 -0.0013020133486690338 0 0.015962981393365029 0.00033721453372710387 0 0.016484721296834034 0.00058045337933582022 0 0.016205744345692812 0.00036567497548245428 0 0.020125336783075501 -0.0013020133486690338 0 0.017897302516879845 0.0010397081535380899 0 0.020887129362946254 0.0010218764878101182 0 0.020925489433497455 0.0010522489502199815 0 0.020763678928169091 0.0010208106189177925 0 0.017897302516879845 0.0010397081535380899 0 0.018872112074841695 0.0010942177251771301 0 0.020763678928169091 0.0010208106189177925 0 0.020771829689956417 0.00096785873115326677 0 0.020824257527919176 0.00099803127513767732 0 0.020887129362946254 0.0010218764878101182 0 0.020763678928169091 0.0010208106189177925 0 0.020824257527919176 0.00099803127513767732 0 0.020771829689956417 0.00096785873115326677 0 0.020824257527919176 0.00099803127513767732 0 0.020872230178256231 0.00098247623978974983 0 0.020887129362946254 0.0010218764878101182 0 0.020824257527919176 0.00099803127513767732 0 0.020872230178256231 0.00098247623978974983 0 0.016205744345692812 0.00036567497548245428 0 0.016372663935738961 0.0004060838929584123 0 0.01631545825955389 0.00029342849659573376 0 0.016484721296834034 0.00058045337933582022 0 0.016205744345692812 0.00036567497548245428 0 0.016372663935738961 0.0004060838929584123 0 0.016484721296834034 0.00058045337933582022 0 0.016372663935738961 0.0004060838929584123 0 0.016482024801198928 0.00038197081681885087 0 0.017897302516879845 0.0010397081535380899 0 0.017298210858167049 0.00053156699747771102 0 0.016590506699826611 0.00023701167872680186 0 0.016482024801198928 0.00038197081681885087 0 0.016415256294217848 0.00015821790876408687 0 0.016482024801198928 0.00038197081681885087 0 0.016415256294217848 0.00015821790876408687 0 0.01631545825955389 0.00029342849659573376 0 0.016372663935738961 0.0004060838929584123 0 0.016482024801198928 0.00038197081681885087 0 0.01631545825955389 0.00029342849659573376 0 0.016415256294217848 0.00015821790876408687 0 0.01631545825955389 0.00029342849659573376 0 0.016256986083664549 0.00016285555123011204 0 0.01631545825955389 0.00029342849659573376 0 0.016256986083664549 0.00016285555123011204 0 0.016180516546739111 0.00022816304253512194 0 0.016205744345692812 0.00036567497548245428 0 0.01631545825955389 0.00029342849659573376 0 0.016180516546739111 0.00022816304253512194 0 0.016205744345692812 0.00036567497548245428 0 0.016180516546739111 0.00022816304253512194 0 0.016090146830845909 0.00027635693988346382 0 0.016180516546739111 0.00022816304253512194 0 0.016090146830845909 0.00027635693988346382 0 0.016048566463087922 0.00017744910077167447 0 0.016180516546739111 0.00022816304253512194 0 0.016162314563121689 8.8773787653043373e-05 0 0.016048566463087922 0.00017744910077167447 0 0.016256986083664549 0.00016285555123011204 0 0.016180516546739111 0.00022816304253512194 0 0.016162314563121689 8.8773787653043373e-05 0 0.016162314563121689 8.8773787653043373e-05 0 0.016220564829703701 -6.9122207860138979e-05 0 0.016033285956991036 3.8036366939217204e-05 0 0.016256986083664549 0.00016285555123011204 0 0.016162314563121689 8.8773787653043373e-05 0 0.016292518507603687 5.2918546402671248e-05 0 0.016162314563121689 8.8773787653043373e-05 0 0.016220564829703701 -6.9122207860138979e-05 0 0.016292518507603687 5.2918546402671248e-05 0 0.016415256294217848 0.00015821790876408687 0 0.016292518507603687 5.2918546402671248e-05 0 0.016405241107576587 -7.5757931460956543e-05 0 0.016558565071305775 6.1131667713867509e-05 0 0.016415256294217848 0.00015821790876408687 0 0.016405241107576587 -7.5757931460956543e-05 0 0.016415256294217848 0.00015821790876408687 0 0.016256986083664549 0.00016285555123011204 0 0.016292518507603687 5.2918546402671248e-05 0 0.016220564829703701 -6.9122207860138979e-05 0 0.016292518507603687 5.2918546402671248e-05 0 0.016405241107576587 -7.5757931460956543e-05 0 0.020382329003508722 -0.0090528064898912353 0 0.020663939066859073 -0.010353669978198152 0 0.020186394562955595 -0.0098573697459322668 0 0.020125336783075501 -0.0013020133486690338 0 0.022658827406436186 -0.0048534355122833656 0 0.020756015872085691 -0.0032552479591693045 0 0.020445788455704092 -0.0033901501810055163 0 0.02066486498508769 -0.0036275737478110876 0 0.022658827406436186 -0.0048534355122833656 0 0.020092850996602803 -0.0042288768592251471 0 0.015962981393365029 0.00033721453372710387 0 0.016205744345692812 0.00036567497548245428 0 0.016090146830845909 0.00027635693988346382 0 0.020125336783075501 -0.0013020133486690338 0 0.020092850996602803 -0.0042288768592251471 0 0.015962981393365029 0.00033721453372710387 0 0.015970114289121148 0.00011610310683599159 0 0.015885073959259199 3.3384503680103767e-05 0 0.020923250663879036 0.0010400892343910733 0 0.020928547114796432 0.0010463908635927684 0 0.020996864434347742 0.0010463193157867166 0 0.015962981393365029 0.00033721453372710387 0 0.016090146830845909 0.00027635693988346382 0 0.016048566463087922 0.00017744910077167447 0 0.016048566463087922 0.00017744910077167447 0 0.015970114289121148 0.00011610310683599159 0 0.016033285956991036 3.8036366939217204e-05 0 0.015962981393365029 0.00033721453372710387 0 0.016048566463087922 0.00017744910077167447 0 0.015970114289121148 0.00011610310683599159 0 0.016220564829703701 -6.9122207860138979e-05 0 0.016033285956991036 3.8036366939217204e-05 0 0.016006614786584786 -9.835229067844305e-05 0 0.015970114289121148 0.00011610310683599159 0 0.015885073959259199 3.3384503680103767e-05 0 0.016033285956991036 3.8036366939217204e-05 0 0.015885073959259199 3.3384503680103767e-05 0 0.016033285956991036 3.8036366939217204e-05 0 0.016006614786584786 -9.835229067844305e-05 0 0.015825173672391901 -0.00030391190127709541 0 0.015885073959259199 3.3384503680103767e-05 0 0.016006614786584786 -9.835229067844305e-05 0 0.016162314563121689 8.8773787653043373e-05 0 0.016048566463087922 0.00017744910077167447 0 0.016033285956991036 3.8036366939217204e-05 0 0.01709220037946033 -0.014154828981932563 0 0.020092850996602803 -0.0042288768592251471 0 0.028275628650962868 -0.0079714993147509475 0 0.025793251957093248 -0.0091032735040835876 0 0.026513939660083519 -0.0075603136369024717 0 0.020382329003508722 -0.0090528064898912353 0 0.020663939066859073 -0.010353669978198152 0 0.022638234365251305 -0.0096052377875064012 0 0.022658827406436186 -0.0048534355122833656 0 0.024206078612468405 -0.012271164742019686 0 0.025793251957093248 -0.0091032735040835876 0 0.025068471029872232 -0.0089826124306781018 0 0.025554640581226241 -0.0080727800024462861 0 0.024139471706102891 -0.0099167066325529518 0 0.025837991704153841 -0.0091678082439160379 0 0.025068471029872232 -0.0089826124306781018 0 0.024206078612468405 -0.012271164742019686 0 0.02477151347212235 -0.011089896583832679 0 0.025068471029872232 -0.0089826124306781018 0 0.025554640581226241 -0.0080727800024462861 0 0.024524754628082436 -0.0080779617135062314 0 0.025554640581226241 -0.0080727800024462861 0 0.025157135086902524 -0.0070340040435238928 0 0.024524754628082436 -0.0080779617135062314 0 0.025793251957093248 -0.0091032735040835876 0 0.025554640581226241 -0.0080727800024462861 0 0.026513939660083519 -0.0075603136369024717 0 0.026297977012460391 -0.0057326681633431903 0 0.025157135086902524 -0.0070340040435238928 0 0.026513939660083519 -0.0075603136369024717 0 0.025554640581226241 -0.0080727800024462861 0 0.025157135086902524 -0.0070340040435238928 0 0.026513939660083519 -0.0075603136369024717 0 0.026297977012460391 -0.0057326681633431903 0 0.025157135086902524 -0.0070340040435238928 0 0.023880848506645645 -0.0057744847144478835 0 0.024038499186573081 -0.002182520447938611 0 0.022658827406436186 -0.0048534355122833656 0 0.021151692971463555 0.0010230060995476344 0 0.020973899811393523 0.00099505615415416038 0 0.020996864434347742 0.0010463193157867166 0 0.026297977012460391 -0.0057326681633431903 0 0.028275628650962868 -0.0079714993147509475 0 0.026513939660083519 -0.0075603136369024717 0 0.022530085546376127 -0.0070921816048607218 0 0.020969144186860068 -0.0062536110592531667 0 0.022150706434963439 -0.0048437369064933304 0 0.022530085546376127 -0.0070921816048607218 0 0.021180363164465848 -0.0075838556684037313 0 0.020969144186860068 -0.0062536110592531667 0 0.022530085546376127 -0.0070921816048607218 0 0.023857000436044527 -0.0071908731162781195 0 0.023880848506645645 -0.0057744847144478835 0 0.025157135086902524 -0.0070340040435238928 0 0.023857000436044527 -0.0071908731162781195 0 0.023880848506645645 -0.0057744847144478835 0 0.025157135086902524 -0.0070340040435238928 0 0.023857000436044527 -0.0071908731162781195 0 0.024524754628082436 -0.0080779617135062314 0 0.022530085546376127 -0.0070921816048607218 0 0.023857000436044527 -0.0071908731162781195 0 0.023437695504576209 -0.0083069529629506336 0 0.023857000436044527 -0.0071908731162781195 0 0.023437695504576209 -0.0083069529629506336 0 0.024524754628082436 -0.0080779617135062314 0 0.023437695504576209 -0.0083069529629506336 0 0.024524754628082436 -0.0080779617135062314 0 0.024102966162211324 -0.0089669191105672032 0 0.024139471706102891 -0.0099167066325529518 0 0.025068471029872232 -0.0089826124306781018 0 0.024102966162211324 -0.0089669191105672032 0 0.025068471029872232 -0.0089826124306781018 0 0.024524754628082436 -0.0080779617135062314 0 0.024102966162211324 -0.0089669191105672032 0 0.024139471706102891 -0.0099167066325529518 0 0.024102966162211324 -0.0089669191105672032 0 0.023016733606918301 -0.0094852361090262127 0 0.023437695504576209 -0.0083069529629506336 0 0.024102966162211324 -0.0089669191105672032 0 0.023016733606918301 -0.0094852361090262127 0 0.022530085546376127 -0.0070921816048607218 0 0.023437695504576209 -0.0083069529629506336 0 0.021970456064775299 -0.0088847678684789017 0 0.022530085546376127 -0.0070921816048607218 0 0.021970456064775299 -0.0088847678684789017 0 0.021180363164465848 -0.0075838556684037313 0 0.023437695504576209 -0.0083069529629506336 0 0.023016733606918301 -0.0094852361090262127 0 0.021970456064775299 -0.0088847678684789017 0 0.019124461262068029 -0.0096735469517053533 0 0.020393008685638928 -0.008583825514886307 0 0.019380317030679745 -0.0073118789491116495 0 0.020393008685638928 -0.008583825514886307 0 0.019380317030679745 -0.0073118789491116495 0 0.021180363164465848 -0.0075838556684037313 0 0.020784786565299113 -0.010158368443149299 0 0.021970456064775299 -0.0088847678684789017 0 0.020393008685638928 -0.008583825514886307 0 0.019124461262068029 -0.0096735469517053533 0 0.020784786565299113 -0.010158368443149299 0 0.020393008685638928 -0.008583825514886307 0 0.021970456064775299 -0.0088847678684789017 0 0.020393008685638928 -0.008583825514886307 0 0.021180363164465848 -0.0075838556684037313 0 0.023817873176154757 -0.016558748238130871 0 0.023965564362286196 -0.011599349103333679 0 0.028273918995520016 -0.017984265400328145 0 0.0284579759582319 -0.016945894334459758 0 0.027675302639436569 -0.017132841920007774 0 0.0284579759582319 -0.016945894334459758 0 0.027812238438943482 -0.016446270608573593 0 0.028128499291016341 -0.016038968873008153 0 0.023965564362286196 -0.011599349103333679 0 0.024076593748583033 -0.010336876198603757 0 0.0284579759582319 -0.016945894334459758 0 0.027812238438943482 -0.016446270608573593 0 0.027675302639436569 -0.017132841920007774 0 0.019380317030679745 -0.0073118789491116495 0 0.021180363164465848 -0.0075838556684037313 0 0.020969144186860068 -0.0062536110592531667 0 0.019380317030679745 -0.0073118789491116495 0 0.020969144186860068 -0.0062536110592531667 0 0.019610854506624545 -0.004940304785388267 0 0.020969144186860068 -0.0062536110592531667 0 0.020909492591595667 -0.0050159255865654612 0 0.022150706434963439 -0.0048437369064933304 0 0.020969144186860068 -0.0062536110592531667 0 0.019610854506624545 -0.004940304785388267 0 0.020909492591595667 -0.0050159255865654612 0 0.019610854506624545 -0.004940304785388267 0 0.020909492591595667 -0.0050159255865654612 0 0.020889812157586608 -0.0040106380470354506 0 0.020909492591595667 -0.0050159255865654612 0 0.020889812157586608 -0.0040106380470354506 0 0.022150706434963439 -0.0048437369064933304 0 0.0284579759582319 -0.016945894334459758 0 0.028729443012834352 -0.015738059759645293 0 0.028128499291016341 -0.016038968873008153 0 0.027812238438943482 -0.016446270608573593 0 0.028128499291016341 -0.016038968873008153 0 0.027542950018674715 -0.015719853074678981 0 0.028729443012834352 -0.015738059759645293 0 0.028128499291016341 -0.016038968873008153 0 0.028099269891486596 -0.015218017525345543 0 0.028128499291016341 -0.016038968873008153 0 0.028099269891486596 -0.015218017525345543 0 0.027542950018674715 -0.015719853074678981 0 0.028729443012834352 -0.015738059759645293 0 0.028099269891486596 -0.015218017525345543 0 0.029013153006789406 -0.013870524994283356 0 0.028099269891486596 -0.015218017525345543 0 0.027869894644046451 -0.01459202279019047 0 0.027243964886988312 -0.015100025747236283 0 0.028099269891486596 -0.015218017525345543 0 0.028503238501438818 -0.014522193812301963 0 0.027869894644046451 -0.01459202279019047 0 0.027589025350897002 -0.015713369654956823 0 0.026018173617488285 -0.0086024689398116506 0 0.024076593748583033 -0.010336876198603757 0 0.026018173617488285 -0.0086024689398116506 0 0.019610854506624545 -0.004940304785388267 0 0.020889812157586608 -0.0040106380470354506 0 0.019940813690909404 -0.0022809671828301166 0 0.020889812157586608 -0.0040106380470354506 0 0.019940813690909404 -0.0022809671828301166 0 0.021828751875969294 -0.0029458805226876971 0 0.021828751875969294 -0.0029458805226876971 0 0.022150706434963439 -0.0048437369064933304 0 0.024269991151698318 -0.0032754800165115377 0 0.021828751875969294 -0.0029458805226876971 0 0.024269991151698318 -0.0032754800165115377 0 0.022044164869025107 -0.00055489360505143874 0 0.020889812157586608 -0.0040106380470354506 0 0.021828751875969294 -0.0029458805226876971 0 0.022150706434963439 -0.0048437369064933304 0 0.022530085546376127 -0.0070921816048607218 0 0.022150706434963439 -0.0048437369064933304 0 0.023880848506645645 -0.0057744847144478835 0 0.026297977012460391 -0.0057326681633431903 0 0.023880848506645645 -0.0057744847144478835 0 0.024269991151698318 -0.0032754800165115377 0 0.022150706434963439 -0.0048437369064933304 0 0.023880848506645645 -0.0057744847144478835 0 0.024269991151698318 -0.0032754800165115377 0 0.021760970122263544 0.00069815377721369181 0 0.021760718294788213 0.00019646144481022271 0 0.022044164869025107 -0.00055489360505143874 0 0.021760718294788213 0.00019646144481022271 0 0.022044164869025107 -0.00055489360505143874 0 0.022055669230465064 -0.00012448597419087299 0 0.022918617051694477 -0.0013117886985692727 0 0.02209547544315783 -0.00053009328688994174 0 0.022130436525979253 9.1626395623933875e-05 0 0.022055669230465064 -0.00012448597419087299 0 0.022063153597349137 -0.00028000010167241916 0 0.022044164869025107 -0.00055489360505143874 0 0.022130436525979253 9.1626395623933875e-05 0 0.022055669230465064 -0.00012448597419087299 0 0.022130436525979253 9.1626395623933875e-05 0 0.022063153597349137 -0.00028000010167241916 0 0.022308366001682477 -0.00081865080647400192 0 0.021760718294788213 0.00019646144481022271 0 0.021787279396289917 -0.00011805682704907259 0 0.022055669230465064 -0.00012448597419087299 0 0.021787279396289917 -0.00011805682704907259 0 0.022055669230465064 -0.00012448597419087299 0 0.022063153597349137 -0.00028000010167241916 0 0.021763140499224599 -0.0005176888789563917 0 0.021787279396289917 -0.00011805682704907259 0 0.022063153597349137 -0.00028000010167241916 0 0.021763140499224599 -0.0005176888789563917 0 0.022063153597349137 -0.00028000010167241916 0 0.022308366001682477 -0.00081865080647400192 0 0.024061503546697199 -0.00055501785100464803 0 0.023808637774543024 -0.0018285483085273579 0 0.026743465586533306 -0.0027523943480938506 0 0.02636809867858159 -0.0025616136382606855 0 0.02653560713249636 -0.0026157149863765914 0 0.026743465586533306 -0.0027523943480938506 0 0.025515021456871883 -0.0022546164570767424 0 0.02636809867858159 -0.0025616136382606855 0 0.02636809867858159 -0.0025616136382606855 0 0.027275064162680242 -0.0030307586328241157 0 0.02653560713249636 -0.0026157149863765914 0 0.025515021456871883 -0.0022546164570767424 0 0.02636809867858159 -0.0025616136382606855 0 0.026120426120562069 -0.0029283648831529021 0 0.02636809867858159 -0.0025616136382606855 0 0.026120426120562069 -0.0029283648831529021 0 0.027275064162680242 -0.0030307586328241157 0 0.026120426120562069 -0.0029283648831529021 0 0.027275064162680242 -0.0030307586328241157 0 0.026248392826762862 -0.0041450035556370515 0 0.025515021456871883 -0.0022546164570767424 0 0.024872190936522556 -0.0031031545423879769 0 0.02225003886516555 -0.0031895726534185735 0 0.026120426120562069 -0.0029283648831529021 0 0.024872190936522556 -0.0031031545423879769 0 0.026248392826762862 -0.0041450035556370515 0 0.025515021456871883 -0.0022546164570767424 0 0.026120426120562069 -0.0029283648831529021 0 0.024872190936522556 -0.0031031545423879769 0 0.027625756207194853 -0.012091713543051582 0 0.028673569974092209 -0.012240849179238998 0 0.028011459668436701 -0.012796219872861187 0 0.027625756207194853 -0.012091713543051582 0 0.028011459668436701 -0.012796219872861187 0 0.027436308037480196 -0.012811474397911462 0 0.027942857075003835 -0.0076600175983672532 0 0.027585703448658103 -0.0082465363896305505 0 0.027275064162680242 -0.0030307586328241157 0 0.02653560713249636 -0.0026157149863765914 0 0.026252448245017396 -0.0026505404605228072 0 0.028673569974092209 -0.012240849179238998 0 0.028011459668436701 -0.012796219872861187 0 0.028559886325333794 -0.01335372148996997 0 0.028011459668436701 -0.012796219872861187 0 0.027722687644093691 -0.013420469639236276 0 0.028559886325333794 -0.01335372148996997 0 0.028011459668436701 -0.012796219872861187 0 0.027722687644093691 -0.013420469639236276 0 0.027436308037480196 -0.012811474397911462 0 0.027722687644093691 -0.013420469639236276 0 0.028038490486572438 -0.013950179429923337 0 0.027381127746434454 -0.014178224912958814 0 0.027722687644093691 -0.013420469639236276 0 0.028559886325333794 -0.01335372148996997 0 0.028038490486572438 -0.013950179429923337 0 0.025902932892041586 -0.0044713069697133977 0 0.026743465586533306 -0.0027523943480938506 0 0.026252448245017396 -0.0026505404605228072 0 0.026743465586533306 -0.0027523943480938506 0 0.02653560713249636 -0.0026157149863765914 0 0.026252448245017396 -0.0026505404605228072 0 0.026018173617488285 -0.0086024689398116506 0 0.024061503546697199 -0.00055501785100464803 0 0.019940813690909404 -0.0022809671828301166 0 0.022044164869025107 -0.00055489360505143874 0 0.022130436525979253 9.1626395623933875e-05 0 0.026018173617488285 -0.0086024689398116506 0 0.027585703448658103 -0.0082465363896305505 0 0.019940813690909404 -0.0022809671828301166 0 0.021828751875969294 -0.0029458805226876971 0 0.022044164869025107 -0.00055489360505143874 0 0.028503238501438818 -0.014522193812301963 0 0.028559886325333794 -0.01335372148996997 0 0.028038490486572438 -0.013950179429923337 0 0.028038490486572438 -0.013950179429923337 0 0.027869894644046451 -0.01459202279019047 0 0.027381127746434454 -0.014178224912958814 0 0.028503238501438818 -0.014522193812301963 0 0.028038490486572438 -0.013950179429923337 0 0.027869894644046451 -0.01459202279019047 0 0.027381127746434454 -0.014178224912958814 0 0.026610229568807479 -0.014584708435568345 0 0.027243964886988312 -0.015100025747236283 0 0.027869894644046451 -0.01459202279019047 0 0.027381127746434454 -0.014178224912958814 0 0.027243964886988312 -0.015100025747236283 0 0.027381127746434454 -0.014178224912958814 0 0.026610229568807479 -0.014584708435568345 0 0.026850564360030766 -0.01355767314570416 0 0.026610229568807479 -0.014584708435568345 0 0.026850564360030766 -0.01355767314570416 0 0.025957577152406035 -0.014126872113509893 0 0.026850564360030766 -0.01355767314570416 0 0.026243640710787743 -0.013315479986895471 0 0.025957577152406035 -0.014126872113509893 0 0.027722687644093691 -0.013420469639236276 0 0.027381127746434454 -0.014178224912958814 0 0.026850564360030766 -0.01355767314570416 0 0.027722687644093691 -0.013420469639236276 0 0.026850564360030766 -0.01355767314570416 0 0.027436308037480196 -0.012811474397911462 0 0.026850564360030766 -0.01355767314570416 0 0.027436308037480196 -0.012811474397911462 0 0.026760199333701412 -0.012488279267811389 0 0.026850564360030766 -0.01355767314570416 0 0.026760199333701412 -0.012488279267811389 0 0.026243640710787743 -0.013315479986895471 0 0.026760199333701412 -0.012488279267811389 0 0.026243640710787743 -0.013315479986895471 0 0.025962286205416074 -0.012023665776173288 0 0.027625756207194853 -0.012091713543051582 0 0.026760199333701412 -0.012488279267811389 0 0.026975865040141163 -0.011446573405345547 0 0.027625756207194853 -0.012091713543051582 0 0.027436308037480196 -0.012811474397911462 0 0.026760199333701412 -0.012488279267811389 0 0.024999921488357973 -0.01315061069966268 0 0.026243640710787743 -0.013315479986895471 0 0.025962286205416074 -0.012023665776173288 0 0.024999921488357973 -0.01315061069966268 0 0.026243640710787743 -0.013315479986895471 0 0.024999841526048765 -0.014647380542164438 0 0.026243640710787743 -0.013315479986895471 0 0.024999841526048765 -0.014647380542164438 0 0.026153123946040205 -0.014877574973033469 0 0.026236721620270218 -0.013405531781283373 0 0.02604309236865977 -0.014497583389833575 0 0.026153123946040205 -0.014877574973033469 0 0.025499872699091142 -0.015472206529750602 0 0.025877797185478616 -0.016216662740316638 0 0.026610229568807479 -0.014584708435568345 0 0.025957577152406035 -0.014126872113509893 0 0.025585793044189738 -0.015395898757054579 0 0.02604309236865977 -0.014497583389833575 0 0.025742076593308953 -0.015821379430354037 0 0.024999841526048765 -0.014647380542164438 0 0.026153123946040205 -0.014877574973033469 0 0.025499872699091142 -0.015472206529750602 0 0.024999841526048765 -0.014647380542164438 0 0.025499872699091142 -0.015472206529750602 0 0.025000013475548435 -0.016144353057258431 0 0.025499872699091142 -0.015472206529750602 0 0.025000013475548435 -0.016144353057258431 0 0.025877797185478616 -0.016216662740316638 0 0.025000013475548435 -0.016144353057258431 0 0.025370716476719814 -0.016788558312611692 0 0.025877797185478616 -0.016216662740316638 0 0.025000013475548435 -0.016144353057258431 0 0.025370716476719814 -0.016788558312611692 0 0.024999828177141293 -0.017639454500112159 0 0.025370716476719814 -0.016788558312611692 0 0.025877797185478616 -0.016216662740316638 0 0.02551154524012432 -0.017160835412026527 0 0.026103167275076611 -0.016118667215732751 0 0.025585793044189738 -0.015395898757054579 0 0.02551154524012432 -0.017160835412026527 0 0.026103167275076611 -0.016118667215732751 0 0.02551154524012432 -0.017160835412026527 0 0.026200079898615891 -0.016756057446966982 0 0.025742076593308953 -0.015821379430354037 0 0.025522417734818986 -0.017049866561177979 0 0.026610229568807479 -0.014584708435568345 0 0.025585793044189738 -0.015395898757054579 0 0.026493499862361845 -0.015435805614853889 0 0.026103167275076611 -0.016118667215732751 0 0.025585793044189738 -0.015395898757054579 0 0.026493499862361845 -0.015435805614853889 0 0.026610229568807479 -0.014584708435568345 0 0.026493499862361845 -0.015435805614853889 0 0.027243964886988312 -0.015100025747236283 0 0.026493499862361845 -0.015435805614853889 0 0.027243964886988312 -0.015100025747236283 0 0.026786740634319555 -0.0160747937972168 0 0.028099269891486596 -0.015218017525345543 0 0.027243964886988312 -0.015100025747236283 0 0.027542950018674715 -0.015719853074678981 0 0.027243964886988312 -0.015100025747236283 0 0.027542950018674715 -0.015719853074678981 0 0.026786740634319555 -0.0160747937972168 0 0.027542950018674715 -0.015719853074678981 0 0.026786740634319555 -0.0160747937972168 0 0.027296798359826555 -0.016514833521132644 0 0.027812238438943482 -0.016446270608573593 0 0.027542950018674715 -0.015719853074678981 0 0.027296798359826555 -0.016514833521132644 0 0.026103167275076611 -0.016118667215732751 0 0.026493499862361845 -0.015435805614853889 0 0.026786740634319555 -0.0160747937972168 0 0.026103167275076611 -0.016118667215732751 0 0.026786740634319555 -0.0160747937972168 0 0.026200079898615891 -0.016756057446966982 0 0.026786740634319555 -0.0160747937972168 0 0.026782279382656635 -0.016998727068945969 0 0.027296798359826555 -0.016514833521132644 0 0.026782279382656635 -0.016998727068945969 0 0.025936359807979384 -0.017417441497092609 0 0.026200079898615891 -0.016756057446966982 0 0.026786740634319555 -0.0160747937972168 0 0.026782279382656635 -0.016998727068945969 0 0.026200079898615891 -0.016756057446966982 0 0.026782279382656635 -0.016998727068945969 0 0.027296798359826555 -0.016514833521132644 0 0.027675302639436569 -0.017132841920007774 0 0.027812238438943482 -0.016446270608573593 0 0.027296798359826555 -0.016514833521132644 0 0.027675302639436569 -0.017132841920007774 0 0.023817873176154757 -0.016558748238130871 0 0.027996084647945157 -0.018496035162150749 0 0.028273918995520016 -0.017984265400328145 0 0.027675302639436569 -0.017132841920007774 0 0.027094495548768038 -0.017646435163634594 0 0.026782279382656635 -0.016998727068945969 0 0.027675302639436569 -0.017132841920007774 0 0.027094495548768038 -0.017646435163634594 0 0.026096913772181773 -0.01898834130306809 0 0.02697539346459495 -0.018620819488010368 0 0.025954426054978951 -0.018182922314955094 0 0.026782279382656635 -0.016998727068945969 0 0.027094495548768038 -0.017646435163634594 0 0.025936359807979384 -0.017417441497092609 0 0.027996084647945157 -0.018496035162150749 0 0.025711726634284403 -0.017732588702257666 0 0.026096913772181773 -0.01898834130306809 0 0.025954426054978951 -0.018182922314955094 0 0.025000042576113157 -0.017640877223596512 0 0.025370716476719814 -0.016788558312611692 0 0.02551154524012432 -0.017160835412026527 0 0.024999828177141293 -0.017639454500112159 0 0.025936359807979384 -0.017417441497092609 0 0.02551154524012432 -0.017160835412026527 0 0.024999828177141293 -0.017639454500112159 0 0.025711726634284403 -0.017732588702257666 0 0.025000368641170841 -0.017640683365479751 0 0.025936359807979384 -0.017417441497092609 0 0.02551154524012432 -0.017160835412026527 0 0.026200079898615891 -0.016756057446966982 0 0.026011305562196999 -0.0073319197984197896 0 0.024999923088156569 -0.0071650405109177397 0 0.025879017940050937 -0.0082618329229372043 0 0.024999923088156569 -0.0071650405109177397 0 0.025824446451446881 -0.0064747244494510331 0 0.024999872454844155 -0.0056686968516901481 0 0.026011305562196999 -0.0073319197984197896 0 0.024999923088156569 -0.0071650405109177397 0 0.025824446451446881 -0.0064747244494510331 0 0.026011305562196999 -0.0073319197984197896 0 0.025824446451446881 -0.0064747244494510331 0 0.026724876743413881 -0.0068821179599629131 0 0.02644667985598903 -0.0060639420801457504 0 0.025832367153834787 -0.0044699340551304853 0 0.025824446451446881 -0.0064747244494510331 0 0.026724876743413881 -0.0068821179599629131 0 0.026776177308848816 -0.0059206933661686938 0 0.026175861462253563 -0.0049389743919892176 0 0.026406228069164414 -0.0049753576072539552 0 0.026551939062381125 -0.0051342037373389368 0 0.026175861462253563 -0.0049389743919892176 0 0.026551939062381125 -0.0051342037373389368 0 0.026141454817748801 -0.0045586984472649889 0 0.025401084393385315 -0.0041081302912402261 0 0.025832367153834787 -0.0044699340551304853 0 0.026406228069164414 -0.0049753576072539552 0 0.026620935636997637 -0.0045547554885446992 0 0.026551939062381125 -0.0051342037373389368 0 0.026175861462253563 -0.0049389743919892176 0 0.026406228069164414 -0.0049753576072539552 0 0.025736049091816905 -0.0054601442334099694 0 0.026406228069164414 -0.0049753576072539552 0 0.025736049091816905 -0.0054601442334099694 0 0.026408504826864274 -0.0058141033825593689 0 0.026406228069164414 -0.0049753576072539552 0 0.026408504826864274 -0.0058141033825593689 0 0.026620935636997637 -0.0045547554885446992 0 0.02644667985598903 -0.0060639420801457504 0 0.026174737753960977 -0.0066191141021453119 0 0.026011305562196999 -0.0073319197984197896 0 0.026724876743413881 -0.0068821179599629131 0 0.0265182689523548 -0.0077461650887676444 0 0.026011305562196999 -0.0073319197984197896 0 0.0265182689523548 -0.0077461650887676444 0 0.025879017940050937 -0.0082618329229372043 0 0.0265182689523548 -0.0077461650887676444 0 0.02620594353568487 -0.0080323389313105165 0 0.025879017940050937 -0.0082618329229372043 0 0.026174737753960977 -0.0066191141021453119 0 0.02619625227224838 -0.0078556657144056487 0 0.025736049091816905 -0.0054601442334099694 0 0.026408504826864274 -0.0058141033825593689 0 0.02620594353568487 -0.0080323389313105165 0 0.026408504826864274 -0.0058141033825593689 0 0.02620594353568487 -0.0080323389313105165 0 0.026981195882581039 -0.0071974527302792546 0 0.02620594353568487 -0.0080323389313105165 0 0.026948303694516552 -0.0085047371164112765 0 0.026981195882581039 -0.0071974527302792546 0 0.02620594353568487 -0.0080323389313105165 0 0.025879017940050937 -0.0082618329229372043 0 0.025830147244240383 -0.0090484213099296697 0 0.025879017940050937 -0.0082618329229372043 0 0.024999827974681043 -0.0086611780888895835 0 0.025830147244240383 -0.0090484213099296697 0 0.024999923088156569 -0.0071650405109177397 0 0.025879017940050937 -0.0082618329229372043 0 0.024999827974681043 -0.0086611780888895835 0 0.024999827974681043 -0.0086611780888895835 0 0.025830147244240383 -0.0090484213099296697 0 0.02499972381191564 -0.01015755001968577 0 0.02499972381191564 -0.01015755001968577 0 0.025657847702958481 -0.010956173043731475 0 0.026095016971919099 -0.010013123130225241 0 0.025830147244240383 -0.0090484213099296697 0 0.02499972381191564 -0.01015755001968577 0 0.026095016971919099 -0.010013123130225241 0 0.02499972381191564 -0.01015755001968577 0 0.024999793917561127 -0.011654226372369573 0 0.025657847702958481 -0.010956173043731475 0 0.024999793917561127 -0.011654226372369573 0 0.025657847702958481 -0.010956173043731475 0 0.025962286205416074 -0.012023665776173288 0 0.025657847702958481 -0.010956173043731475 0 0.026277790511478067 -0.010975187084697486 0 0.026095016971919099 -0.010013123130225241 0 0.025657847702958481 -0.010956173043731475 0 0.025962286205416074 -0.012023665776173288 0 0.026277790511478067 -0.010975187084697486 0 0.024999921488357973 -0.01315061069966268 0 0.024999793917561127 -0.011654226372369573 0 0.025962286205416074 -0.012023665776173288 0 0.027625756207194853 -0.012091713543051582 0 0.026975865040141163 -0.011446573405345547 0 0.027783188484626103 -0.011070541343152605 0 0.025962286205416074 -0.012023665776173288 0 0.026975865040141163 -0.011446573405345547 0 0.026277790511478067 -0.010975187084697486 0 0.026760199333701412 -0.012488279267811389 0 0.025962286205416074 -0.012023665776173288 0 0.026975865040141163 -0.011446573405345547 0 0.026975865040141163 -0.011446573405345547 0 0.026277790511478067 -0.010975187084697486 0 0.026989089766345464 -0.01029607227251896 0 0.026975865040141163 -0.011446573405345547 0 0.026989089766345464 -0.01029607227251896 0 0.027783188484626103 -0.011070541343152605 0 0.026989089766345464 -0.01029607227251896 0 0.026548647425222713 -0.0092869570836996273 0 0.02740516116218487 -0.0092707205981595025 0 0.026277790511478067 -0.010975187084697486 0 0.026989089766345464 -0.01029607227251896 0 0.026095016971919099 -0.010013123130225241 0 0.026989089766345464 -0.01029607227251896 0 0.026095016971919099 -0.010013123130225241 0 0.026548647425222713 -0.0092869570836996273 0 0.025830147244240383 -0.0090484213099296697 0 0.026095016971919099 -0.010013123130225241 0 0.026548647425222713 -0.0092869570836996273 0 0.02620594353568487 -0.0080323389313105165 0 0.025830147244240383 -0.0090484213099296697 0 0.026548647425222713 -0.0092869570836996273 0 0.026948303694516552 -0.0085047371164112765 0 0.026548647425222713 -0.0092869570836996273 0 0.02740516116218487 -0.0092707205981595025 0 0.02620594353568487 -0.0080323389313105165 0 0.026948303694516552 -0.0085047371164112765 0 0.026548647425222713 -0.0092869570836996273 0 0.02740516116218487 -0.0092707205981595025 0 0.028219689264877206 -0.0089714115922280551 0 0.027798214367021502 -0.0083354143670480683 0 0.026948303694516552 -0.0085047371164112765 0 0.02740516116218487 -0.0092707205981595025 0 0.027798214367021502 -0.0083354143670480683 0 0.028219689264877206 -0.0089714115922280551 0 0.028522926372287784 -0.0089854664380829667 0 0.028609521970037598 -0.0081895649885873317 0 0.028219689264877206 -0.0089714115922280551 0 0.028362003364120352 -0.0089525015186605831 0 0.028522926372287784 -0.0089854664380829667 0 0.028331629829979131 -0.0082672359474580664 0 0.028351012510339273 -0.0089770233535381525 0 0.028219689264877206 -0.0089714115922280551 0 0.028039235176768287 -0.0098915367841020153 0 0.028362003364120352 -0.0089525015186605831 0 0.028039235176768287 -0.0098915367841020153 0 0.02877525160763543 -0.010777698787746334 0 0.028362003364120352 -0.0089525015186605831 0 0.026989089766345464 -0.01029607227251896 0 0.02740516116218487 -0.0092707205981595025 0 0.028039235176768287 -0.0098915367841020153 0 0.02740516116218487 -0.0092707205981595025 0 0.028219689264877206 -0.0089714115922280551 0 0.028039235176768287 -0.0098915367841020153 0 0.026989089766345464 -0.01029607227251896 0 0.028039235176768287 -0.0098915367841020153 0 0.027783188484626103 -0.011070541343152605 0 0.028039235176768287 -0.0098915367841020153 0 0.02877525160763543 -0.010777698787746334 0 0.027783188484626103 -0.011070541343152605 0 0.027942857075003835 -0.0076600175983672532 0 0.028331629829979131 -0.0082672359474580664 0 0.028673569974092209 -0.012240849179238998 0 0.02877525160763543 -0.010777698787746334 0 0.027783188484626103 -0.011070541343152605 0 0.027625756207194853 -0.012091713543051582 0 0.028673569974092209 -0.012240849179238998 0 0.027783188484626103 -0.011070541343152605 0 0.024872190936522556 -0.0031031545423879769 0 0.024923836731484444 -0.0048955835304584942 0 0.026248392826762862 -0.0041450035556370515 0 0.024825086795542944 -0.0031556876934098941 0 0.024694962710311002 -0.0050416190121822533 0 0.024872190936522556 -0.0031031545423879769 0 0.024420887540126047 -0.0047001473770648316 0 0.023533887655212957 -0.0040583523863226608 0 0.024923836731484444 -0.0048955835304584942 0 0.026248392826762862 -0.0041450035556370515 0 0.026202906376100024 -0.0056993409903260839 0 0.027275064162680242 -0.0030307586328241157 0 0.027957230642852094 -0.0056135805647369525 0 0.026248392826762862 -0.0041450035556370515 0 0.027957230642852094 -0.0056135805647369525 0 0.026248392826762862 -0.0041450035556370515 0 0.026202906376100024 -0.0056993409903260839 0 0.027957230642852094 -0.0056135805647369525 0 0.026202906376100024 -0.0056993409903260839 0 0.026793226137193062 -0.0071783908944384554 0 0.024420887540126047 -0.0047001473770648316 0 0.024327211454470903 -0.0069399964797012843 0 0.022692453612334938 -0.0050054197902636519 0 0.024694962710311002 -0.0050416190121822533 0 0.023681721039972545 -0.0053228303324291144 0 0.024923836731484444 -0.0048955835304584942 0 0.026202906376100024 -0.0056993409903260839 0 0.024919224771119713 -0.0068445713325339143 0 0.026202906376100024 -0.0056993409903260839 0 0.024919224771119713 -0.0068445713325339143 0 0.026793226137193062 -0.0071783908944384554 0 0.023681721039972545 -0.0053228303324291144 0 0.022655897545015607 -0.0019616930174501026 0 0.021206646265902615 -0.00065059870551575092 0 0.021542297258720224 -0.0011125981657267134 0 0.021117067296718466 -0.00087870609093057995 0 0.023362027700985635 -0.0031879206641321923 0 0.023355998095971824 -0.0034491887478694987 0 0.024564401614617339 -0.0047180089043986871 0 0.023681721039972545 -0.0053228303324291144 0 0.024855177127343881 -0.0045236024307707158 0 0.022434862869861807 0.00062931545364320772 0 0.023134535770185254 -9.3518096710641158e-05 0 0.022355818869853262 -0.00049266561063386464 0 0.024919224771119713 -0.0068445713325339143 0 0.026793226137193062 -0.0071783908944384554 0 0.026838519041341342 -0.0088497841944632435 0 0.022655897545015607 -0.0019616930174501026 0 0.021921575635266609 -0.00046602370445947408 0 0.022655897545015607 -0.0019616930174501026 0 0.024855177127343881 -0.0045236024307707158 0 0.027957230642852094 -0.0056135805647369525 0 0.026793226137193062 -0.0071783908944384554 0 0.028362003364120352 -0.0089525015186605831 0 0.026793226137193062 -0.0071783908944384554 0 0.026838519041341342 -0.0088497841944632435 0 0.028362003364120352 -0.0089525015186605831 0 0.026838519041341342 -0.0088497841944632435 0 0.028362003364120352 -0.0089525015186605831 0 0.028522926372287784 -0.0089854664380829667 0 0.024855177127343881 -0.0045236024307707158 0 0.026107173287399688 -0.004823039692228465 0 0.023134535770185254 -9.3518096710641158e-05 0 0.023965258217448687 -0.00086849133934314613 0 0.023030799928860202 -0.00090203491357253621 0 0.023134535770185254 -9.3518096710641158e-05 0 0.022355818869853262 -0.00049266561063386464 0 0.023030799928860202 -0.00090203491357253621 0 0.021921575635266609 -0.00046602370445947408 0 0.02209672390217458 -0.0018714180544684574 0 0.022355818869853262 -0.00049266561063386464 0 0.023030799928860202 -0.00090203491357253621 0 0.022158229971362249 -0.0017541076210398903 0 0.023030799928860202 -0.00090203491357253621 0 0.022158229971362249 -0.0017541076210398903 0 0.023328055644019904 -0.0015043596636666657 0 0.022158229971362249 -0.0017541076210398903 0 0.023413693166111683 -0.0021955144001139745 0 0.023328055644019904 -0.0015043596636666657 0 0.022158229971362249 -0.0017541076210398903 0 0.022770234896450942 -0.0025950501400873851 0 0.023413693166111683 -0.0021955144001139745 0 0.022770234896450942 -0.0025950501400873851 0 0.023413693166111683 -0.0021955144001139745 0 0.023834417089201743 -0.0030334969442147954 0 0.023413693166111683 -0.0021955144001139745 0 0.024234631227025662 -0.002649327133116408 0 0.023834417089201743 -0.0030334969442147954 0 0.023413693166111683 -0.0021955144001139745 0 0.024024350186215696 -0.001808377314635116 0 0.024234631227025662 -0.002649327133116408 0 0.023413693166111683 -0.0021955144001139745 0 0.024024350186215696 -0.001808377314635116 0 0.023328055644019904 -0.0015043596636666657 0 0.023965258217448687 -0.00086849133934314613 0 0.023030799928860202 -0.00090203491357253621 0 0.023328055644019904 -0.0015043596636666657 0 0.023965258217448687 -0.00086849133934314613 0 0.024024350186215696 -0.001808377314635116 0 0.023328055644019904 -0.0015043596636666657 0 0.023965258217448687 -0.00086849133934314613 0 0.024024350186215696 -0.001808377314635116 0 0.024541382528710996 -0.0014538306094309115 0 0.026107173287399688 -0.004823039692228465 0 0.026523349565617468 -0.0047984418131811462 0 0.028219689264877206 -0.0089714115922280551 0 0.028609521970037598 -0.0081895649885873317 0 0.027798214367021502 -0.0083354143670480683 0 0.026523349565617468 -0.0047984418131811462 0 0.026684295450991651 -0.0046712523504811258 0 0.028609521970037598 -0.0081895649885873317 0 0.028489756828288571 -0.0073116018226939425 0 0.027798214367021502 -0.0083354143670480683 0 0.024024350186215696 -0.001808377314635116 0 0.024541382528710996 -0.0014538306094309115 0 0.025085606885308077 -0.0020106863144750534 0 0.028489756828288571 -0.0073116018226939425 0 0.027798214367021502 -0.0083354143670480683 0 0.026981195882581039 -0.0071974527302792546 0 0.026948303694516552 -0.0085047371164112765 0 0.027798214367021502 -0.0083354143670480683 0 0.026981195882581039 -0.0071974527302792546 0 0.026684295450991651 -0.0046712523504811258 0 0.026628830662223046 -0.0045212294574299679 0 0.026408504826864274 -0.0058141033825593689 0 0.026981195882581039 -0.0071974527302792546 0 0.026620935636997637 -0.0045547554885446992 0 0.025085606885308077 -0.0020106863144750534 0 0.024872743333289881 -0.0038621149681237117 0 0.026620935636997637 -0.0045547554885446992 0 0.028489756828288571 -0.0073116018226939425 0 0.026981195882581039 -0.0071974527302792546 0 0.026620935636997637 -0.0045547554885446992 0 0.025085606885308077 -0.0020106863144750534 0 0.024234631227025662 -0.002649327133116408 0 0.024872743333289881 -0.0038621149681237117 0 0.024234631227025662 -0.002649327133116408 0 0.024872743333289881 -0.0038621149681237117 0 0.023834417089201743 -0.0030334969442147954 0 0.024024350186215696 -0.001808377314635116 0 0.025085606885308077 -0.0020106863144750534 0 0.024234631227025662 -0.002649327133116408 0 0.024872743333289881 -0.0038621149681237117 0 0.024266029640284181 -0.0034673889798974978 0 0.024503266728120667 -0.0034425788325880306 0 0.024872743333289881 -0.0038621149681237117 0 0.024266029640284181 -0.0034673889798974978 0 0.023834417089201743 -0.0030334969442147954 0 0.024872743333289881 -0.0038621149681237117 0 0.024469782553895539 -0.0033467333684289819 0 0.024503266728120667 -0.0034425788325880306 0 0.024872743333289881 -0.0038621149681237117 0 0.026620935636997637 -0.0045547554885446992 0 0.026551939062381125 -0.0051342037373389368 0 0.024961289144941182 -0.0039181373260165275 0 0.025401084393385315 -0.0041081302912402261 0 0.024469782553895539 -0.0033467333684289819 0 0.024475885279518699 -0.0033722450770368654 0 0.024503266728120667 -0.0034425788325880306 0 0.024469782553895539 -0.0033467333684289819 0 0.024475885279518699 -0.0033722450770368654 0 0.024599925701806878 -0.0033657929903677243 0 0.024266029640284181 -0.0034673889798974978 0 0.024503266728120667 -0.0034425788325880306 0 0.024023548414576261 -0.0034098058680945252 0 0.024475885279518699 -0.0033722450770368654 0 0.024503266728120667 -0.0034425788325880306 0 0.024292570764502898 -0.0034292258874856203 0 0.024503266728120667 -0.0034425788325880306 0 0.024023548414576261 -0.0034098058680945252 0 0.024292570764502898 -0.0034292258874856203 0 0.024023548414576261 -0.0034098058680945252 0 0.023224520366353252 -0.003332142560329745 0 0.023879621490929568 -0.0034541468168910096 0 0.024023548414576261 -0.0034098058680945252 0 0.023224520366353252 -0.003332142560329745 0 0.023482661008299831 -0.0031855042203781467 0 0.024023548414576261 -0.0034098058680945252 0 0.023879621490929568 -0.0034541468168910096 0 0.024292570764502898 -0.0034292258874856203 0 0.024266029640284181 -0.0034673889798974978 0 0.024023548414576261 -0.0034098058680945252 0 0.023482661008299831 -0.0031855042203781467 0 0.023224520366353252 -0.003332142560329745 0 0.023482661008299831 -0.0031855042203781467 0 0.022507715614242193 -0.0029635044872932969 0 0.022770234896450942 -0.0025950501400873851 0 0.023482661008299831 -0.0031855042203781467 0 0.022507715614242193 -0.0029635044872932969 0 0.022770234896450942 -0.0025950501400873851 0 0.023834417089201743 -0.0030334969442147954 0 0.023482661008299831 -0.0031855042203781467 0 0.024266029640284181 -0.0034673889798974978 0 0.023834417089201743 -0.0030334969442147954 0 0.023482661008299831 -0.0031855042203781467 0 0.021688564993767503 -0.0028972821231465543 0 0.020701820324879362 -0.0025464783175615869 0 0.021541781758673741 -0.0022879831494083264 0 0.022770234896450942 -0.0025950501400873851 0 0.022507715614242193 -0.0029635044872932969 0 0.021541781758673741 -0.0022879831494083264 0 0.022507715614242193 -0.0029635044872932969 0 0.021688564993767503 -0.0028972821231465543 0 0.021541781758673741 -0.0022879831494083264 0 0.023224520366353252 -0.003332142560329745 0 0.022507715614242193 -0.0029635044872932969 0 0.022242964411326095 -0.003271198153181418 0 0.022507715614242193 -0.0029635044872932969 0 0.021688564993767503 -0.0028972821231465543 0 0.022242964411326095 -0.003271198153181418 0 0.021688564993767503 -0.0028972821231465543 0 0.021194572784392358 -0.0031200704858564848 0 0.020701820324879362 -0.0025464783175615869 0 0.021688564993767503 -0.0028972821231465543 0 0.021194572784392358 -0.0031200704858564848 0 0.022242964411326095 -0.003271198153181418 0 0.021194572784392358 -0.0031200704858564848 0 0.020199221592804985 -0.0029690890270117152 0 0.020701820324879362 -0.0025464783175615869 0 0.020199221592804985 -0.0029690890270117152 0 0.019467752538510567 -0.002298006307421576 0 0.019161525102201957 -0.0032451659483606625 0 0.020199221592804985 -0.0029690890270117152 0 0.019467752538510567 -0.002298006307421576 0 0.020701820324879362 -0.0025464783175615869 0 0.019467752538510567 -0.002298006307421576 0 0.020701820324879362 -0.0025464783175615869 0 0.020151594876022326 -0.0017251838604344968 0 0.019467752538510567 -0.002298006307421576 0 0.020151594876022326 -0.0017251838604344968 0 0.01874967171578204 -0.0014744138726471622 0 0.020151594876022326 -0.0017251838604344968 0 0.019269402167704126 -0.0011978971045087253 0 0.01874967171578204 -0.0014744138726471622 0 0.020151594876022326 -0.0017251838604344968 0 0.020004566838242598 -0.0011763459107190088 0 0.019269402167704126 -0.0011978971045087253 0 0.020151594876022326 -0.0017251838604344968 0 0.020973956955311547 -0.0014160329784287098 0 0.021541781758673741 -0.0022879831494083264 0 0.020151594876022326 -0.0017251838604344968 0 0.020973956955311547 -0.0014160329784287098 0 0.020004566838242598 -0.0011763459107190088 0 0.020701820324879362 -0.0025464783175615869 0 0.020151594876022326 -0.0017251838604344968 0 0.021541781758673741 -0.0022879831494083264 0 0.022158229971362249 -0.0017541076210398903 0 0.022770234896450942 -0.0025950501400873851 0 0.021541781758673741 -0.0022879831494083264 0 0.022158229971362249 -0.0017541076210398903 0 0.020973956955311547 -0.0014160329784287098 0 0.021541781758673741 -0.0022879831494083264 0 0.021542297258720224 -0.0011125981657267134 0 0.022158229971362249 -0.0017541076210398903 0 0.020973956955311547 -0.0014160329784287098 0 0.021542297258720224 -0.0011125981657267134 0 0.020889738892346108 -0.0010344753446165117 0 0.021117067296718466 -0.00087870609093057995 0 0.021542297258720224 -0.0011125981657267134 0 0.020973956955311547 -0.0014160329784287098 0 0.020889738892346108 -0.0010344753446165117 0 0.020973956955311547 -0.0014160329784287098 0 0.020454186667253724 -0.0010578619213747855 0 0.020004566838242598 -0.0011763459107190088 0 0.020973956955311547 -0.0014160329784287098 0 0.020889738892346108 -0.0010344753446165117 0 0.020454186667253724 -0.0010578619213747855 0 0.020889738892346108 -0.0010344753446165117 0 0.020454186667253724 -0.0010578619213747855 0 0.020418680605300575 -0.0008587253685156896 0 0.020454186667253724 -0.0010578619213747855 0 0.020418680605300575 -0.0008587253685156896 0 0.019991046941881599 -0.00087602291977664445 0 0.020418680605300575 -0.0008587253685156896 0 0.020425513790706128 -0.00067855151009031547 0 0.020119481111513272 -0.00068691588833007071 0 0.020418680605300575 -0.0008587253685156896 0 0.020425513790706128 -0.00067855151009031547 0 0.020766597890020201 -0.00082665104870383282 0 0.020418680605300575 -0.0008587253685156896 0 0.020119481111513272 -0.00068691588833007071 0 0.019991046941881599 -0.00087602291977664445 0 0.021117067296718466 -0.00087870609093057995 0 0.020766597890020201 -0.00082665104870383282 0 0.020935251175292269 -0.00071808968174580596 0 0.020889738892346108 -0.0010344753446165117 0 0.020418680605300575 -0.0008587253685156896 0 0.020766597890020201 -0.00082665104870383282 0 0.020889738892346108 -0.0010344753446165117 0 0.021117067296718466 -0.00087870609093057995 0 0.020766597890020201 -0.00082665104870383282 0 0.020425513790706128 -0.00067855151009031547 0 0.020766597890020201 -0.00082665104870383282 0 0.020710577959792108 -0.0006714561322626331 0 0.020766597890020201 -0.00082665104870383282 0 0.020710577959792108 -0.0006714561322626331 0 0.020935251175292269 -0.00071808968174580596 0 0.021206646265902615 -0.00065059870551575092 0 0.021117067296718466 -0.00087870609093057995 0 0.020935251175292269 -0.00071808968174580596 0 0.021206646265902615 -0.00065059870551575092 0 0.020935251175292269 -0.00071808968174580596 0 0.020820445432190301 -0.00056927965298069524 0 0.020710577959792108 -0.0006714561322626331 0 0.020935251175292269 -0.00071808968174580596 0 0.020820445432190301 -0.00056927965298069524 0 0.022556692315441943 -0.0046051147776297371 0 0.022553606595660997 -0.004783401447069768 0 0.021616441914206568 -0.003828722688444133 0 0.022655897545015607 -0.0019616930174501026 0 0.021057583593080326 -0.0021690985407309279 0 0.021206646265902615 -0.00065059870551575092 0 0.020820445432190301 -0.00056927965298069524 0 0.020579071773094405 -0.00035773811420838144 0 0.022556692315441943 -0.0046051147776297371 0 0.021616441914206568 -0.003828722688444133 0 0.021694258804741472 -0.0036177171924482963 0 0.023681721039972545 -0.0053228303324291144 0 0.022176132745331104 -0.004306278091162543 0 0.020579071773094405 -0.00035773811420838144 0 0.020380146993500776 -0.00045964274106800716 0 0.02012642981905638 -0.00040425238225632297 0 0.020820445432190301 -0.00056927965298069524 0 0.020579071773094405 -0.00035773811420838144 0 0.020578272099396264 -0.00048836060887673578 0 0.020579071773094405 -0.00035773811420838144 0 0.020578272099396264 -0.00048836060887673578 0 0.020380146993500776 -0.00045964274106800716 0 0.020578272099396264 -0.00048836060887673578 0 0.020380146993500776 -0.00045964274106800716 0 0.020534555738567453 -0.00056332616875563886 0 0.020820445432190301 -0.00056927965298069524 0 0.020578272099396264 -0.00048836060887673578 0 0.020534555738567453 -0.00056332616875563886 0 0.020710577959792108 -0.0006714561322626331 0 0.020820445432190301 -0.00056927965298069524 0 0.020534555738567453 -0.00056332616875563886 0 0.020425513790706128 -0.00067855151009031547 0 0.020710577959792108 -0.0006714561322626331 0 0.020534555738567453 -0.00056332616875563886 0 0.020425513790706128 -0.00067855151009031547 0 0.020534555738567453 -0.00056332616875563886 0 0.020270361841058473 -0.00055839480351032537 0 0.020425513790706128 -0.00067855151009031547 0 0.020119481111513272 -0.00068691588833007071 0 0.020270361841058473 -0.00055839480351032537 0 0.020380146993500776 -0.00045964274106800716 0 0.020534555738567453 -0.00056332616875563886 0 0.020270361841058473 -0.00055839480351032537 0 0.020119481111513272 -0.00068691588833007071 0 0.020270361841058473 -0.00055839480351032537 0 0.019924316760751376 -0.00052911960786485197 0 0.020119481111513272 -0.00068691588833007071 0 0.019924316760751376 -0.00052911960786485197 0 0.01966870718608427 -0.00066936978856335541 0 0.019924316760751376 -0.00052911960786485197 0 0.02012972143820772 -0.00047706958562172521 0 0.01996393636868635 -0.00044519983332158173 0 0.020270361841058473 -0.00055839480351032537 0 0.019924316760751376 -0.00052911960786485197 0 0.02012972143820772 -0.00047706958562172521 0 0.020380146993500776 -0.00045964274106800716 0 0.020270361841058473 -0.00055839480351032537 0 0.02012972143820772 -0.00047706958562172521 0 0.020380146993500776 -0.00045964274106800716 0 0.02012972143820772 -0.00047706958562172521 0 0.02012642981905638 -0.00040425238225632297 0 0.020579071773094405 -0.00035773811420838144 0 0.02012642981905638 -0.00040425238225632297 0 0.019808392135937856 -0.00033249078737645105 0 0.02012642981905638 -0.00040425238225632297 0 0.019871673524012718 -0.00040119671960962545 0 0.019808392135937856 -0.00033249078737645105 0 0.021057583593080326 -0.0021690985407309279 0 0.0202559055038543 -0.0015428405874888165 0 0.02012972143820772 -0.00047706958562172521 0 0.02012642981905638 -0.00040425238225632297 0 0.01996393636868635 -0.00044519983332158173 0 0.019924316760751376 -0.00052911960786485197 0 0.01996393636868635 -0.00044519983332158173 0 0.019753571666183346 -0.00044177174840190429 0 0.02012642981905638 -0.00040425238225632297 0 0.01996393636868635 -0.00044519983332158173 0 0.019871673524012718 -0.00040119671960962545 0 0.019871673524012718 -0.00040119671960962545 0 0.019767682222634402 -0.00040898673063822312 0 0.019753571666183346 -0.00044177174840190429 0 0.01996393636868635 -0.00044519983332158173 0 0.019871673524012718 -0.00040119671960962545 0 0.019753571666183346 -0.00044177174840190429 0 0.019767682222634402 -0.00040898673063822312 0 0.019669689448933613 -0.00048119257313461347 0 0.019753571666183346 -0.00044177174840190429 0 0.019767682222634402 -0.00040898673063822312 0 0.019808392135937856 -0.00033249078737645105 0 0.019669689448933613 -0.00048119257313461347 0 0.019871673524012718 -0.00040119671960962545 0 0.019767682222634402 -0.00040898673063822312 0 0.019808392135937856 -0.00033249078737645105 0 0.020760282157935638 -0.0024910569962517935 0 0.020570222080344407 -0.0027816626325846078 0 0.021694258804741472 -0.0036177171924482963 0 0.024872190936522556 -0.0031031545423879769 0 0.02225003886516555 -0.0031895726534185735 0 0.023533887655212957 -0.0040583523863226608 0 0.020885648841234075 -0.0026619329909037936 0 0.022176132745331104 -0.004306278091162543 0 0.020760282157935638 -0.0024910569962517935 0 0.02225003886516555 -0.0031895726534185735 0 0.022692453612334938 -0.0050054197902636519 0 0.02225003886516555 -0.0031895726534185735 0 0.023533887655212957 -0.0040583523863226608 0 0.022692453612334938 -0.0050054197902636519 0 0.024420887540126047 -0.0047001473770648316 0 0.023533887655212957 -0.0040583523863226608 0 0.022692453612334938 -0.0050054197902636519 0 0.021616441914206568 -0.003828722688444133 0 0.020570222080344407 -0.0027816626325846078 0 0.021694258804741472 -0.0036177171924482963 0 0.01908090946630768 -0.00049273219311456672 0 0.019245967057582879 -0.00056429434371326392 0 0.01947536515772293 -0.00051550224793656964 0 0.01908090946630768 -0.00049273219311456672 0 0.019245967057582879 -0.00056429434371326392 0 0.018806380830144166 -0.00057276746596424848 0 0.01943900516050702 -0.00056099863812704605 0 0.01947536515772293 -0.00051550224793656964 0 0.019669689448933613 -0.00048119257313461347 0 0.01947536515772293 -0.00051550224793656964 0 0.019669689448933613 -0.00048119257313461347 0 0.019753571666183346 -0.00044177174840190429 0 0.01947536515772293 -0.00051550224793656964 0 0.019753571666183346 -0.00044177174840190429 0 0.019538700954382194 -0.00053858777855384551 0 0.019245967057582879 -0.00056429434371326392 0 0.01947536515772293 -0.00051550224793656964 0 0.019538700954382194 -0.00053858777855384551 0 0.019538700954382194 -0.00053858777855384551 0 0.01966870718608427 -0.00066936978856335541 0 0.019171549743762926 -0.00063685666454818383 0 0.01966870718608427 -0.00066936978856335541 0 0.019171549743762926 -0.00063685666454818383 0 0.019260700226768193 -0.00084556265908689965 0 0.019924316760751376 -0.00052911960786485197 0 0.019753571666183346 -0.00044177174840190429 0 0.019538700954382194 -0.00053858777855384551 0 0.019924316760751376 -0.00052911960786485197 0 0.019538700954382194 -0.00053858777855384551 0 0.01966870718608427 -0.00066936978856335541 0 0.018806380830144166 -0.00057276746596424848 0 0.019171549743762926 -0.00063685666454818383 0 0.018593236224907498 -0.00073378986250457003 0 0.019171549743762926 -0.00063685666454818383 0 0.019260700226768193 -0.00084556265908689965 0 0.018593236224907498 -0.00073378986250457003 0 0.019245967057582879 -0.00056429434371326392 0 0.019538700954382194 -0.00053858777855384551 0 0.019171549743762926 -0.00063685666454818383 0 0.019245967057582879 -0.00056429434371326392 0 0.018806380830144166 -0.00057276746596424848 0 0.019171549743762926 -0.00063685666454818383 0 0.019260700226768193 -0.00084556265908689965 0 0.019991046941881599 -0.00087602291977664445 0 0.020004566838242598 -0.0011763459107190088 0 0.01966870718608427 -0.00066936978856335541 0 0.019260700226768193 -0.00084556265908689965 0 0.019991046941881599 -0.00087602291977664445 0 0.020119481111513272 -0.00068691588833007071 0 0.01966870718608427 -0.00066936978856335541 0 0.019991046941881599 -0.00087602291977664445 0 0.019260700226768193 -0.00084556265908689965 0 0.020004566838242598 -0.0011763459107190088 0 0.019269402167704126 -0.0011978971045087253 0 0.020454186667253724 -0.0010578619213747855 0 0.019991046941881599 -0.00087602291977664445 0 0.020004566838242598 -0.0011763459107190088 0 0.019260700226768193 -0.00084556265908689965 0 0.019269402167704126 -0.0011978971045087253 0 0.018284669030530255 -0.00099647895293796646 0 0.019269402167704126 -0.0011978971045087253 0 0.018284669030530255 -0.00099647895293796646 0 0.01874967171578204 -0.0014744138726471622 0 0.018284669030530255 -0.00099647895293796646 0 0.017036839089834509 -0.00089795342641950902 0 0.017521826590591823 -0.0013124486580356309 0 0.018284669030530255 -0.00099647895293796646 0 0.017740869200465595 -0.00081794603912617881 0 0.017036839089834509 -0.00089795342641950902 0 0.019260700226768193 -0.00084556265908689965 0 0.018284669030530255 -0.00099647895293796646 0 0.018593236224907498 -0.00073378986250457003 0 0.018284669030530255 -0.00099647895293796646 0 0.017740869200465595 -0.00081794603912617881 0 0.018593236224907498 -0.00073378986250457003 0 0.018806380830144166 -0.00057276746596424848 0 0.018593236224907498 -0.00073378986250457003 0 0.018195089674443402 -0.00067001901467810584 0 0.017740869200465595 -0.00081794603912617881 0 0.018593236224907498 -0.00073378986250457003 0 0.018195089674443402 -0.00067001901467810584 0 0.017740869200465595 -0.00081794603912617881 0 0.018195089674443402 -0.00067001901467810584 0 0.017676409309846389 -0.00075954120826215988 0 0.017302194026887607 -0.00035357364810035814 0 0.01804867795550898 -0.00046890250733825283 0 0.017676409309846389 -0.00075954120826215988 0 0.01804867795550898 -0.00046890250733825283 0 0.018195089674443402 -0.00067001901467810584 0 0.017676409309846389 -0.00075954120826215988 0 0.01804867795550898 -0.00046890250733825283 0 0.018806380830144166 -0.00057276746596424848 0 0.018195089674443402 -0.00067001901467810584 0 0.017302194026887607 -0.00035357364810035814 0 0.017048636295637774 -0.0009798809447184489 0 0.016494804505521071 -0.00087883699937495782 0 0.017302194026887607 -0.00035357364810035814 0 0.017676409309846389 -0.00075954120826215988 0 0.017048636295637774 -0.0009798809447184489 0 0.017740869200465595 -0.00081794603912617881 0 0.017676409309846389 -0.00075954120826215988 0 0.017048636295637774 -0.0009798809447184489 0 0.017048636295637774 -0.0009798809447184489 0 0.016494804505521071 -0.00087883699937495782 0 0.016749532735764718 -0.0012909890215940481 0 0.017048636295637774 -0.0009798809447184489 0 0.017036839089834509 -0.00089795342641950902 0 0.016749532735764718 -0.0012909890215940481 0 0.016961154115267593 -0.00092177154182633949 0 0.016073361971245117 -0.00082393518908378165 0 0.017740869200465595 -0.00081794603912617881 0 0.017048636295637774 -0.0009798809447184489 0 0.017036839089834509 -0.00089795342641950902 0 0.017036839089834509 -0.00089795342641950902 0 0.015530461151831281 -0.0010155855338713309 0 0.015389519638561317 -0.00031956361144973462 0 0.016314337543108126 -0.0014236520959478019 0 0.015530461151831281 -0.0010155855338713309 0 0.015169517410762574 -0.0013293522907628832 0 0.017036839089834509 -0.00089795342641950902 0 0.016314337543108126 -0.0014236520959478019 0 0.015530461151831281 -0.0010155855338713309 0 0.016314337543108126 -0.0014236520959478019 0 0.016110765915623184 -0.0018757021560921287 0 0.015169517410762574 -0.0013293522907628832 0 0.017036839089834509 -0.00089795342641950902 0 0.016314337543108126 -0.0014236520959478019 0 0.017521826590591823 -0.0013124486580356309 0 0.018284669030530255 -0.00099647895293796646 0 0.017521826590591823 -0.0013124486580356309 0 0.01874967171578204 -0.0014744138726471622 0 0.017521826590591823 -0.0013124486580356309 0 0.01874967171578204 -0.0014744138726471622 0 0.017571998988642062 -0.0019566228068272767 0 0.019467752538510567 -0.002298006307421576 0 0.01874967171578204 -0.0014744138726471622 0 0.017571998988642062 -0.0019566228068272767 0 0.016314337543108126 -0.0014236520959478019 0 0.017521826590591823 -0.0013124486580356309 0 0.017571998988642062 -0.0019566228068272767 0 0.017571998988642062 -0.0019566228068272767 0 0.016736804272944578 -0.0020501025543995808 0 0.016110765915623184 -0.0018757021560921287 0 0.01759198057080304 -0.0018924770372040517 0 0.017932592079920848 -0.0025562289286330409 0 0.019467752538510567 -0.002298006307421576 0 0.017571998988642062 -0.0019566228068272767 0 0.019161525102201957 -0.0032451659483606625 0 0.016736804272944578 -0.0020501025543995808 0 0.016110765915623184 -0.0018757021560921287 0 0.0159149824898564 -0.0020513426921048607 0 0.016110765915623184 -0.0018757021560921287 0 0.0159149824898564 -0.0020513426921048607 0 0.015328690965844587 -0.0018874088533018842 0 0.016110765915623184 -0.0018757021560921287 0 0.015169852833177257 -0.0016108751599491627 0 0.015328690965844587 -0.0018874088533018842 0 0.016314337543108126 -0.0014236520959478019 0 0.017571998988642062 -0.0019566228068272767 0 0.016110765915623184 -0.0018757021560921287 0 0.0159149824898564 -0.0020513426921048607 0 0.01605891573473955 -0.0022385646240975542 0 0.016332554155808192 -0.0021288035159118075 0 0.015660622114069885 -0.0022053967981654965 0 0.0159149824898564 -0.0020513426921048607 0 0.01605891573473955 -0.0022385646240975542 0 0.015660622114069885 -0.0022053967981654965 0 0.015467159718423601 -0.0024351321203420636 0 0.015156510853356767 -0.0021173644072703958 0 0.015660622114069885 -0.0022053967981654965 0 0.0159149824898564 -0.0020513426921048607 0 0.015156510853356767 -0.0021173644072703958 0 0.0159149824898564 -0.0020513426921048607 0 0.015156510853356767 -0.0021173644072703958 0 0.015328690965844587 -0.0018874088533018842 0 0.016736804272944578 -0.0020501025543995808 0 0.0159149824898564 -0.0020513426921048607 0 0.016332554155808192 -0.0021288035159118075 0 0.016736804272944578 -0.0020501025543995808 0 0.016469727848271689 -0.002154649564216589 0 0.016332554155808192 -0.0021288035159118075 0 0.019161525102201957 -0.0032451659483606625 0 0.020177363891333292 -0.0037051901077473576 0 0.020592100375463371 -0.0034404526073739104 0 0.017932592079920848 -0.0025562289286330409 0 0.018309883932541873 -0.0029089320125653697 0 0.016469727848271689 -0.002154649564216589 0 0.01605891573473955 -0.0022385646240975542 0 0.016332554155808192 -0.0021288035159118075 0 0.016469727848271689 -0.002154649564216589 0 0.01605891573473955 -0.0022385646240975542 0 0.016291017355906892 -0.0023677129351477931 0 0.01605891573473955 -0.0022385646240975542 0 0.016291017355906892 -0.0023677129351477931 0 0.015882674640608777 -0.0025405338187715512 0 0.020177363891333292 -0.0037051901077473576 0 0.020112335487866395 -0.0040117332647924267 0 0.020521324889767923 -0.0039530468417689245 0 0.018309883932541873 -0.0029089320125653697 0 0.018481160705693934 -0.0033259717818478135 0 0.016469727848271689 -0.002154649564216589 0 0.016291017355906892 -0.0023677129351477931 0 0.016894681120573067 -0.00242929852788086 0 0.016894681120573067 -0.00242929852788086 0 0.016207400570478651 -0.0027613949854589565 0 0.017099270039052573 -0.0032577093447281936 0 0.016291017355906892 -0.0023677129351477931 0 0.016894681120573067 -0.00242929852788086 0 0.016207400570478651 -0.0027613949854589565 0 0.016291017355906892 -0.0023677129351477931 0 0.015882674640608777 -0.0025405338187715512 0 0.016207400570478651 -0.0027613949854589565 0 0.015882674640608777 -0.0025405338187715512 0 0.016207400570478651 -0.0027613949854589565 0 0.015612708203894973 -0.0030513447365194462 0 0.015882674640608777 -0.0025405338187715512 0 0.015470310989812351 -0.0027521906421680031 0 0.015467159718423601 -0.0024351321203420636 0 0.015882674640608777 -0.0025405338187715512 0 0.015470310989812351 -0.0027521906421680031 0 0.015612708203894973 -0.0030513447365194462 0 0.015660622114069885 -0.0022053967981654965 0 0.01605891573473955 -0.0022385646240975542 0 0.015467159718423601 -0.0024351321203420636 0 0.01605891573473955 -0.0022385646240975542 0 0.015882674640608777 -0.0025405338187715512 0 0.015467159718423601 -0.0024351321203420636 0 0.015470310989812351 -0.0027521906421680031 0 0.015467159718423601 -0.0024351321203420636 0 0.015129906521684541 -0.0027081043646347653 0 0.015467159718423601 -0.0024351321203420636 0 0.015129906521684541 -0.0027081043646347653 0 0.014820307497076204 -0.0024125891291502518 0 0.015129906521684541 -0.0027081043646347653 0 0.015350048810483959 -0.0029547398695180505 0 0.014982849873342134 -0.0029299985424144476 0 0.015470310989812351 -0.0027521906421680031 0 0.015129906521684541 -0.0027081043646347653 0 0.015350048810483959 -0.0029547398695180505 0 0.015350048810483959 -0.0029547398695180505 0 0.015612708203894973 -0.0030513447365194462 0 0.015506641501336557 -0.0031100884600196717 0 0.015470310989812351 -0.0027521906421680031 0 0.015350048810483959 -0.0029547398695180505 0 0.015612708203894973 -0.0030513447365194462 0 0.015350048810483959 -0.0029547398695180505 0 0.015506641501336557 -0.0031100884600196717 0 0.015021176718304668 -0.0030831854487713348 0 0.015350048810483959 -0.0029547398695180505 0 0.015021176718304668 -0.0030831854487713348 0 0.014982849873342134 -0.0029299985424144476 0 0.014978839583984896 -0.0030118613738104199 0 0.014776018468942663 -0.0026307235824132775 0 0.015506641501336557 -0.0031100884600196717 0 0.015021176718304668 -0.0030831854487713348 0 0.015609125402140989 -0.00270174755398577 0 0.015506641501336557 -0.0031100884600196717 0 0.015609125402140989 -0.00270174755398577 0 0.015379888837503729 -0.0027997429269283574 0 0.015609125402140989 -0.00270174755398577 0 0.015142748477589804 -0.0023486691575033097 0 0.015379888837503729 -0.0027997429269283574 0 0.014776018468942663 -0.0026307235824132775 0 0.014063881173393092 -0.001332068014465479 0 0.014011536254561328 -0.0027057199746188814 0 0.014715688516945047 -0.0026004012405603143 0 0.01434676644440965 -0.0019752371761067021 0 0.015021176718304668 -0.0030831854487713348 0 0.014011536254561328 -0.0027057199746188814 0 0.014715688516945047 -0.0026004012405603143 0 0.014715688516945047 -0.0026004012405603143 0 0.014884622424217306 -0.0022274509804918055 0 0.01434676644440965 -0.0019752371761067021 0 0.014461754317859232 -0.0023791233686062951 0 0.014000554584599235 -0.0016396202865883252 0 0.014580626170385944 -0.0015823754105343971 0 0.014461754317859232 -0.0023791233686062951 0 0.015142748477589804 -0.0023486691575033097 0 0.014580626170385944 -0.0015823754105343971 0 0.015142748477589804 -0.0023486691575033097 0 0.015369882575429301 -0.0015830440663892568 0 0.014580626170385944 -0.0015823754105343971 0 0.015609125402140989 -0.00270174755398577 0 0.015142748477589804 -0.0023486691575033097 0 0.015369882575429301 -0.0015830440663892568 0 0.015142748477589804 -0.0023486691575033097 0 0.015189447963438275 -0.0029350631004351471 0 0.015379888837503729 -0.0027997429269283574 0 0.015506641501336557 -0.0031100884600196717 0 0.015189447963438275 -0.0029350631004351471 0 0.015379888837503729 -0.0027997429269283574 0 0.014461754317859232 -0.0023791233686062951 0 0.015142748477589804 -0.0023486691575033097 0 0.015189447963438275 -0.0029350631004351471 0 0.014461754317859232 -0.0023791233686062951 0 0.015189447963438275 -0.0029350631004351471 0 0.014718740908174833 -0.0030619939399796096 0 0.014461754317859232 -0.0023791233686062951 0 0.014718740908174833 -0.0030619939399796096 0 0.014066258330117435 -0.0028552272108991806 0 0.017449364062090404 -0.0038049162484175493 0 0.017711274351309134 -0.0044685907186253829 0 0.015685748075577589 -0.0035104258187655273 0 0.014718740908174833 -0.0030619939399796096 0 0.014394113526014031 -0.0035363593053640125 0 0.015685748075577589 -0.0035104258187655273 0 0.014718740908174833 -0.0030619939399796096 0 0.014394113526014031 -0.0035363593053640125 0 0.014066258330117435 -0.0028552272108991806 0 0.015128986764054308 -0.0036791033205981721 0 0.016007731717786699 -0.0037293685783206525 0 0.015189447963438275 -0.0029350631004351471 0 0.014718740908174833 -0.0030619939399796096 0 0.015685748075577589 -0.0035104258187655273 0 0.015612708203894973 -0.0030513447365194462 0 0.015506641501336557 -0.0031100884600196717 0 0.015685748075577589 -0.0035104258187655273 0 0.015506641501336557 -0.0031100884600196717 0 0.015189447963438275 -0.0029350631004351471 0 0.015685748075577589 -0.0035104258187655273 0 0.016207400570478651 -0.0027613949854589565 0 0.015612708203894973 -0.0030513447365194462 0 0.015685748075577589 -0.0035104258187655273 0 0.016207400570478651 -0.0027613949854589565 0 0.015685748075577589 -0.0035104258187655273 0 0.017099270039052573 -0.0032577093447281936 0 0.016894681120573067 -0.00242929852788086 0 0.017099270039052573 -0.0032577093447281936 0 0.018332257108387217 -0.0041458623629736617 0 0.017449364062090404 -0.0038049162484175493 0 0.015685748075577589 -0.0035104258187655273 0 0.017099270039052573 -0.0032577093447281936 0 0.017449364062090404 -0.0038049162484175493 0 0.017099270039052573 -0.0032577093447281936 0 0.018332257108387217 -0.0041458623629736617 0 0.018481160705693934 -0.0033259717818478135 0 0.018417439813103925 -0.0042238826539019135 0 0.020112335487866395 -0.0040117332647924267 0 0.019036352846753635 -0.0039707111717223352 0 0.018332257108387217 -0.0041458623629736617 0 0.022017398443138492 -0.0041491240590301416 0 0.022664402834225675 -0.0041435122028592244 0 0.022335700336387484 -0.0040183460678300548 0 0.021768611421129753 -0.0042677199296715478 0 0.022017398443138492 -0.0041491240590301416 0 0.022281103471536272 -0.0042894365331623274 0 0.022017398443138492 -0.0041491240590301416 0 0.022281103471536272 -0.0042894365331623274 0 0.022664402834225675 -0.0041435122028592244 0 0.021768611421129753 -0.0042677199296715478 0 0.022281103471536272 -0.0042894365331623274 0 0.022238352541578913 -0.0045493654500055759 0 0.022281103471536272 -0.0042894365331623274 0 0.022238352541578913 -0.0045493654500055759 0 0.022760792685174197 -0.0043242721096613214 0 0.022281103471536272 -0.0042894365331623274 0 0.022760792685174197 -0.0043242721096613214 0 0.022664402834225675 -0.0041435122028592244 0 0.019036352846753635 -0.0039707111717223352 0 0.01890401798062994 -0.0045110030760625352 0 0.018332257108387217 -0.0041458623629736617 0 0.014394113526014031 -0.0035363593053640125 0 0.013367761487190826 -0.0032661027923389465 0 0.014066258330117435 -0.0028552272108991806 0 0.015128986764054308 -0.0036791033205981721 0 0.021332110524644211 -0.0033141541096378328 0 0.020356249754873761 -0.0042831611248335972 0 0.021332110524644211 -0.0033141541096378328 0 0.017711274351309134 -0.0044685907186253829 0 0.01890401798062994 -0.0045110030760625352 0 0.018332257108387217 -0.0041458623629736617 0 0.017449364062090404 -0.0038049162484175493 0 0.017711274351309134 -0.0044685907186253829 0 0.018332257108387217 -0.0041458623629736617 0 0.013367761487190826 -0.0032661027923389465 0 0.014066258330117435 -0.0028552272108991806 0 0.01369225550726358 -0.0022210201372659388 0 0.014461754317859232 -0.0023791233686062951 0 0.014066258330117435 -0.0028552272108991806 0 0.01369225550726358 -0.0022210201372659388 0 0.021332110524644211 -0.0033141541096378328 0 0.026785824307469869 -0.0038164558690767956 0 0.022238352541578913 -0.0045493654500055759 0 0.023206207633189879 -0.0044935439963184739 0 0.022760792685174197 -0.0043242721096613214 0 0.013367761487190826 -0.0032661027923389465 0 0.012848215807188326 -0.0019850898156099925 0 0.01369225550726358 -0.0022210201372659388 0 0.029380459852668184 -0.0030405821671403376 0 0.029246664948979279 -0.0020783861947096193 0 0.02856187073724397 -0.0027488742704853005 0 0.021332110524644211 -0.0033141541096378328 0 0.021045617545387141 -0.0019723382184300836 0 0.014000554584599235 -0.0016396202865883252 0 0.01369225550726358 -0.0022210201372659388 0 0.013346888612022045 -0.0011097612513993234 0 0.012848215807188326 -0.0019850898156099925 0 0.01369225550726358 -0.0022210201372659388 0 0.013346888612022045 -0.0011097612513993234 0 0.014461754317859232 -0.0023791233686062951 0 0.014000554584599235 -0.0016396202865883252 0 0.01369225550726358 -0.0022210201372659388 0 0.028028769077040591 -0.0020557283003211514 0 0.027486998986830369 -0.0026086100710409153 0 0.027399412160922103 -0.0013619040459955847 0 0.028028769077040591 -0.0020557283003211514 0 0.02856187073724397 -0.0027488742704853005 0 0.027486998986830369 -0.0026086100710409153 0 0.028028769077040591 -0.0020557283003211514 0 0.02852866447276502 -0.0018377198690927663 0 0.028162119657243023 -0.0012731436232037339 0 0.028028769077040591 -0.0020557283003211514 0 0.02852866447276502 -0.0018377198690927663 0 0.02856187073724397 -0.0027488742704853005 0 0.029246664948979279 -0.0020783861947096193 0 0.02852866447276502 -0.0018377198690927663 0 0.028696123118807246 -0.0013554991377066447 0 0.029246664948979279 -0.0020783861947096193 0 0.02852866447276502 -0.0018377198690927663 0 0.02856187073724397 -0.0027488742704853005 0 0.023206207633189879 -0.0044935439963184739 0 0.023564482727692716 -0.0040499833200153025 0 0.024468397961672918 -0.0038863163122441627 0 0.026785824307469869 -0.0038164558690767956 0 0.025682328474539676 -0.0031110131420197386 0 0.023206207633189879 -0.0044935439963184739 0 0.023564482727692716 -0.0040499833200153025 0 0.022760792685174197 -0.0043242721096613214 0 0.023564482727692716 -0.0040499833200153025 0 0.022760792685174197 -0.0043242721096613214 0 0.022664402834225675 -0.0041435122028592244 0 0.023564482727692716 -0.0040499833200153025 0 0.022664402834225675 -0.0041435122028592244 0 0.023000509690864163 -0.0039476736790875523 0 0.022664402834225675 -0.0041435122028592244 0 0.023000509690864163 -0.0039476736790875523 0 0.022335700336387484 -0.0040183460678300548 0 0.023564482727692716 -0.0040499833200153025 0 0.023000509690864163 -0.0039476736790875523 0 0.023799877104864857 -0.0038518929900486385 0 0.023442123821602982 -0.003809664872688447 0 0.022884873419185055 -0.0037978374868107853 0 0.023000509690864163 -0.0039476736790875523 0 0.023442123821602982 -0.003809664872688447 0 0.023000509690864163 -0.0039476736790875523 0 0.023799877104864857 -0.0038518929900486385 0 0.023271252996276609 -0.003729724591665924 0 0.022884873419185055 -0.0037978374868107853 0 0.022816702072521976 -0.0036784081491057895 0 0.023442123821602982 -0.003809664872688447 0 0.023271252996276609 -0.003729724591665924 0 0.022884873419185055 -0.0037978374868107853 0 0.022884873419185055 -0.0037978374868107853 0 0.022816702072521976 -0.0036784081491057895 0 0.022232049332673139 -0.0036973747821224673 0 0.023271252996276609 -0.003729724591665924 0 0.022816702072521976 -0.0036784081491057895 0 0.023156905595710237 -0.0036235728085614121 0 0.022884873419185055 -0.0037978374868107853 0 0.022232049332673139 -0.0036973747821224673 0 0.022471586413164268 -0.0038719448762366076 0 0.022232049332673139 -0.0036973747821224673 0 0.022471586413164268 -0.0038719448762366076 0 0.021923923444985328 -0.0038555206618490017 0 0.022884873419185055 -0.0037978374868107853 0 0.022471586413164268 -0.0038719448762366076 0 0.023000509690864163 -0.0039476736790875523 0 0.022471586413164268 -0.0038719448762366076 0 0.022335700336387484 -0.0040183460678300548 0 0.021923923444985328 -0.0038555206618490017 0 0.022471586413164268 -0.0038719448762366076 0 0.023000509690864163 -0.0039476736790875523 0 0.022335700336387484 -0.0040183460678300548 0 0.022017398443138492 -0.0041491240590301416 0 0.022335700336387484 -0.0040183460678300548 0 0.021780156484780145 -0.0040023364007060859 0 0.022017398443138492 -0.0041491240590301416 0 0.021780156484780145 -0.0040023364007060859 0 0.021486707677201775 -0.0040738910146506978 0 0.021768611421129753 -0.0042677199296715478 0 0.022017398443138492 -0.0041491240590301416 0 0.021486707677201775 -0.0040738910146506978 0 0.021780156484780145 -0.0040023364007060859 0 0.021486707677201775 -0.0040738910146506978 0 0.021274428870806852 -0.0038499727169229773 0 0.022335700336387484 -0.0040183460678300548 0 0.021780156484780145 -0.0040023364007060859 0 0.021923923444985328 -0.0038555206618490017 0 0.020112335487866395 -0.0040117332647924267 0 0.019036352846753635 -0.0039707111717223352 0 0.020521324889767923 -0.0039530468417689245 0 0.020356249754873761 -0.0042831611248335972 0 0.020448444356845751 -0.0037290885766379602 0 0.021768611421129753 -0.0042677199296715478 0 0.021486707677201775 -0.0040738910146506978 0 0.020521324889767923 -0.0039530468417689245 0 0.020177363891333292 -0.0037051901077473576 0 0.020521324889767923 -0.0039530468417689245 0 0.020721358473227511 -0.0036836517336045001 0 0.021486707677201775 -0.0040738910146506978 0 0.020521324889767923 -0.0039530468417689245 0 0.021274428870806852 -0.0038499727169229773 0 0.020521324889767923 -0.0039530468417689245 0 0.021274428870806852 -0.0038499727169229773 0 0.020721358473227511 -0.0036836517336045001 0 0.021274428870806852 -0.0038499727169229773 0 0.021376568733870532 -0.0036501222285280533 0 0.020721358473227511 -0.0036836517336045001 0 0.022232049332673139 -0.0036973747821224673 0 0.021923923444985328 -0.0038555206618490017 0 0.021376568733870532 -0.0036501222285280533 0 0.021780156484780145 -0.0040023364007060859 0 0.021923923444985328 -0.0038555206618490017 0 0.021274428870806852 -0.0038499727169229773 0 0.021923923444985328 -0.0038555206618490017 0 0.021274428870806852 -0.0038499727169229773 0 0.021376568733870532 -0.0036501222285280533 0 0.021376568733870532 -0.0036501222285280533 0 0.020592100375463371 -0.0034404526073739104 0 0.02166029081236151 -0.0034576013124299572 0 0.021376568733870532 -0.0036501222285280533 0 0.020721358473227511 -0.0036836517336045001 0 0.020592100375463371 -0.0034404526073739104 0 0.020177363891333292 -0.0037051901077473576 0 0.020721358473227511 -0.0036836517336045001 0 0.020592100375463371 -0.0034404526073739104 0 0.020199221592804985 -0.0029690890270117152 0 0.019161525102201957 -0.0032451659483606625 0 0.020592100375463371 -0.0034404526073739104 0 0.021194572784392358 -0.0031200704858564848 0 0.020592100375463371 -0.0034404526073739104 0 0.02166029081236151 -0.0034576013124299572 0 0.021194572784392358 -0.0031200704858564848 0 0.020199221592804985 -0.0029690890270117152 0 0.020592100375463371 -0.0034404526073739104 0 0.021194572784392358 -0.0031200704858564848 0 0.02166029081236151 -0.0034576013124299572 0 0.022242964411326095 -0.003271198153181418 0 0.02166029081236151 -0.0034576013124299572 0 0.022242964411326095 -0.003271198153181418 0 0.022535463870451331 -0.0035483361182383349 0 0.022242964411326095 -0.003271198153181418 0 0.022535463870451331 -0.0035483361182383349 0 0.02303536770348525 -0.0034833617717599146 0 0.023224520366353252 -0.003332142560329745 0 0.022242964411326095 -0.003271198153181418 0 0.02303536770348525 -0.0034833617717599146 0 0.022535463870451331 -0.0035483361182383349 0 0.023156905595710237 -0.0036235728085614121 0 0.02303536770348525 -0.0034833617717599146 0 0.022816702072521976 -0.0036784081491057895 0 0.022535463870451331 -0.0035483361182383349 0 0.023156905595710237 -0.0036235728085614121 0 0.022816702072521976 -0.0036784081491057895 0 0.022232049332673139 -0.0036973747821224673 0 0.022535463870451331 -0.0035483361182383349 0 0.022232049332673139 -0.0036973747821224673 0 0.02166029081236151 -0.0034576013124299572 0 0.022535463870451331 -0.0035483361182383349 0 0.022232049332673139 -0.0036973747821224673 0 0.021376568733870532 -0.0036501222285280533 0 0.02166029081236151 -0.0034576013124299572 0 0.023858758010533006 -0.0035161069037696353 0 0.023620306432080417 -0.0035856451660918939 0 0.023477820126759186 -0.0034683673279980007 0 0.023858758010533006 -0.0035161069037696353 0 0.024055338092596249 -0.0035703748958216424 0 0.023620306432080417 -0.0035856451660918939 0 0.023858758010533006 -0.0035161069037696353 0 0.024055338092596249 -0.0035703748958216424 0 0.024164062536832957 -0.0034878501447525175 0 0.024055338092596249 -0.0035703748958216424 0 0.023620306432080417 -0.0035856451660918939 0 0.023983696175445463 -0.0036492592192608328 0 0.023620306432080417 -0.0035856451660918939 0 0.023156905595710237 -0.0036235728085614121 0 0.023634592662077673 -0.0036849447471557725 0 0.023620306432080417 -0.0035856451660918939 0 0.023156905595710237 -0.0036235728085614121 0 0.02303536770348525 -0.0034833617717599146 0 0.023620306432080417 -0.0035856451660918939 0 0.023477820126759186 -0.0034683673279980007 0 0.02303536770348525 -0.0034833617717599146 0 0.023224520366353252 -0.003332142560329745 0 0.023477820126759186 -0.0034683673279980007 0 0.02303536770348525 -0.0034833617717599146 0 0.023224520366353252 -0.003332142560329745 0 0.023477820126759186 -0.0034683673279980007 0 0.023879621490929568 -0.0034541468168910096 0 0.023858758010533006 -0.0035161069037696353 0 0.023477820126759186 -0.0034683673279980007 0 0.023879621490929568 -0.0034541468168910096 0 0.023858758010533006 -0.0035161069037696353 0 0.023879621490929568 -0.0034541468168910096 0 0.024164062536832957 -0.0034878501447525175 0 0.023879621490929568 -0.0034541468168910096 0 0.024292570764502898 -0.0034292258874856203 0 0.024164062536832957 -0.0034878501447525175 0 0.024475885279518699 -0.0033722450770368654 0 0.024292570764502898 -0.0034292258874856203 0 0.024459496740490215 -0.0034169721637328562 0 0.024292570764502898 -0.0034292258874856203 0 0.024164062536832957 -0.0034878501447525175 0 0.024459496740490215 -0.0034169721637328562 0 0.024459496740490215 -0.0034169721637328562 0 0.024747604791672095 -0.0034162531228310328 0 0.024599925701806878 -0.0033657929903677243 0 0.024475885279518699 -0.0033722450770368654 0 0.024459496740490215 -0.0034169721637328562 0 0.024599925701806878 -0.0033657929903677243 0 0.024459496740490215 -0.0034169721637328562 0 0.024549238298299723 -0.0034759362418649714 0 0.024747604791672095 -0.0034162531228310328 0 0.024459496740490215 -0.0034169721637328562 0 0.024549238298299723 -0.0034759362418649714 0 0.024342987315469519 -0.0035196973204237587 0 0.024549238298299723 -0.0034759362418649714 0 0.024729071308206337 -0.0035046793848274535 0 0.024507593366905518 -0.0035596368056219326 0 0.024549238298299723 -0.0034759362418649714 0 0.024342987315469519 -0.0035196973204237587 0 0.024507593366905518 -0.0035596368056219326 0 0.024549238298299723 -0.0034759362418649714 0 0.024729071308206337 -0.0035046793848274535 0 0.024747604791672095 -0.0034162531228310328 0 0.024055338092596249 -0.0035703748958216424 0 0.024164062536832957 -0.0034878501447525175 0 0.024342987315469519 -0.0035196973204237587 0 0.024164062536832957 -0.0034878501447525175 0 0.024459496740490215 -0.0034169721637328562 0 0.024342987315469519 -0.0035196973204237587 0 0.024055338092596249 -0.0035703748958216424 0 0.024342987315469519 -0.0035196973204237587 0 0.024289841247167033 -0.0036123000830975954 0 0.024342987315469519 -0.0035196973204237587 0 0.024289841247167033 -0.0036123000830975954 0 0.024507593366905518 -0.0035596368056219326 0 0.024289841247167033 -0.0036123000830975954 0 0.024507593366905518 -0.0035596368056219326 0 0.024515278143194704 -0.0036477243407961831 0 0.024289841247167033 -0.0036123000830975954 0 0.024515278143194704 -0.0036477243407961831 0 0.024294679851769061 -0.0036865081964549086 0 0.024729071308206337 -0.0035046793848274535 0 0.024507593366905518 -0.0035596368056219326 0 0.024697746805328991 -0.0035879658627386568 0 0.024507593366905518 -0.0035596368056219326 0 0.024697746805328991 -0.0035879658627386568 0 0.024515278143194704 -0.0036477243407961831 0 0.024729071308206337 -0.0035046793848274535 0 0.024697746805328991 -0.0035879658627386568 0 0.024882094739043754 -0.0035377085127856647 0 0.024697746805328991 -0.0035879658627386568 0 0.024713901884180878 -0.0036633682312253871 0 0.024893245470378349 -0.0035922522569632586 0 0.024697746805328991 -0.0035879658627386568 0 0.024713901884180878 -0.0036633682312253871 0 0.024515278143194704 -0.0036477243407961831 0 0.024515278143194704 -0.0036477243407961831 0 0.024294679851769061 -0.0036865081964549086 0 0.024574448391580152 -0.0036885086547834615 0 0.024713901884180878 -0.0036633682312253871 0 0.024515278143194704 -0.0036477243407961831 0 0.024574448391580152 -0.0036885086547834615 0 0.024294679851769061 -0.0036865081964549086 0 0.024344103975987377 -0.0037220368153859074 0 0.024574448391580152 -0.0036885086547834615 0 0.023953200960925142 -0.0037168138705533631 0 0.023937627024616489 -0.003771190928530491 0 0.024344103975987377 -0.0037220368153859074 0 0.023953200960925142 -0.0037168138705533631 0 0.024294679851769061 -0.0036865081964549086 0 0.024344103975987377 -0.0037220368153859074 0 0.023953200960925142 -0.0037168138705533631 0 0.024294679851769061 -0.0036865081964549086 0 0.023983696175445463 -0.0036492592192608328 0 0.024289841247167033 -0.0036123000830975954 0 0.024294679851769061 -0.0036865081964549086 0 0.023983696175445463 -0.0036492592192608328 0 0.023953200960925142 -0.0037168138705533631 0 0.023983696175445463 -0.0036492592192608328 0 0.023634592662077673 -0.0036849447471557725 0 0.023620306432080417 -0.0035856451660918939 0 0.023983696175445463 -0.0036492592192608328 0 0.023634592662077673 -0.0036849447471557725 0 0.024055338092596249 -0.0035703748958216424 0 0.024289841247167033 -0.0036123000830975954 0 0.023983696175445463 -0.0036492592192608328 0 0.023271252996276609 -0.003729724591665924 0 0.023156905595710237 -0.0036235728085614121 0 0.023634592662077673 -0.0036849447471557725 0 0.023953200960925142 -0.0037168138705533631 0 0.023634592662077673 -0.0036849447471557725 0 0.023651882175360787 -0.0037483234807169316 0 0.023271252996276609 -0.003729724591665924 0 0.023634592662077673 -0.0036849447471557725 0 0.023651882175360787 -0.0037483234807169316 0 0.023442123821602982 -0.003809664872688447 0 0.023937627024616489 -0.003771190928530491 0 0.023799877104864857 -0.0038518929900486385 0 0.023442123821602982 -0.003809664872688447 0 0.023651882175360787 -0.0037483234807169316 0 0.023937627024616489 -0.003771190928530491 0 0.023442123821602982 -0.003809664872688447 0 0.023271252996276609 -0.003729724591665924 0 0.023651882175360787 -0.0037483234807169316 0 0.023953200960925142 -0.0037168138705533631 0 0.023651882175360787 -0.0037483234807169316 0 0.023937627024616489 -0.003771190928530491 0 0.023799877104864857 -0.0038518929900486385 0 0.024326744630096486 -0.0037360510081402764 0 0.024641142135133645 -0.0036635646353971522 0 0.023937627024616489 -0.003771190928530491 0 0.023799877104864857 -0.0038518929900486385 0 0.024326744630096486 -0.0037360510081402764 0 0.023937627024616489 -0.003771190928530491 0 0.024344103975987377 -0.0037220368153859074 0 0.024326744630096486 -0.0037360510081402764 0 0.024344103975987377 -0.0037220368153859074 0 0.024326744630096486 -0.0037360510081402764 0 0.02468217473767343 -0.0036228868628857091 0 0.024326744630096486 -0.0037360510081402764 0 0.02468217473767343 -0.0036228868628857091 0 0.024641142135133645 -0.0036635646353971522 0 0.02468217473767343 -0.0036228868628857091 0 0.024641142135133645 -0.0036635646353971522 0 0.025055262436281801 -0.0032550636442055586 0 0.023564482727692716 -0.0040499833200153025 0 0.023799877104864857 -0.0038518929900486385 0 0.024641142135133645 -0.0036635646353971522 0 0.024641142135133645 -0.0036635646353971522 0 0.025802926609595329 -0.0025023173820656348 0 0.024468397961672918 -0.0038863163122441627 0 0.023564482727692716 -0.0040499833200153025 0 0.024641142135133645 -0.0036635646353971522 0 0.024468397961672918 -0.0038863163122441627 0 0.024641142135133645 -0.0036635646353971522 0 0.025802926609595329 -0.0025023173820656348 0 0.025055262436281801 -0.0032550636442055586 0 0.025802926609595329 -0.0025023173820656348 0 0.027486998986830369 -0.0026086100710409153 0 0.027399412160922103 -0.0013619040459955847 0 0.025757365669631084 -0.0026213540946916896 0 0.025682328474539676 -0.0031110131420197386 0 0.025376367918353859 -0.0022612072949781898 0 0.024986736382870123 -0.0029353342537547069 0 0.024795379989427654 -0.0021898540769745437 0 0.025376367918353859 -0.0022612072949781898 0 0.024795379989427654 -0.0021898540769745437 0 0.025316877599139514 -0.001175105506882907 0 0.025802926609595329 -0.0025023173820656348 0 0.025376367918353859 -0.0022612072949781898 0 0.025055262436281801 -0.0032550636442055586 0 0.025376367918353859 -0.0022612072949781898 0 0.025055262436281801 -0.0032550636442055586 0 0.024986736382870123 -0.0029353342537547069 0 0.024986736382870123 -0.0029353342537547069 0 0.024675701425644264 -0.0031114906881845312 0 0.024795379989427654 -0.0021898540769745437 0 0.024986736382870123 -0.0029353342537547069 0 0.024816721088104648 -0.0035166600761202598 0 0.024675701425644264 -0.0031114906881845312 0 0.025055262436281801 -0.0032550636442055586 0 0.024986736382870123 -0.0029353342537547069 0 0.024816721088104648 -0.0035166600761202598 0 0.02468217473767343 -0.0036228868628857091 0 0.025055262436281801 -0.0032550636442055586 0 0.024816721088104648 -0.0035166600761202598 0 0.02468217473767343 -0.0036228868628857091 0 0.024816721088104648 -0.0035166600761202598 0 0.024574448391580152 -0.0036885086547834615 0 0.024344103975987377 -0.0037220368153859074 0 0.02468217473767343 -0.0036228868628857091 0 0.024574448391580152 -0.0036885086547834615 0 0.024713901884180878 -0.0036633682312253871 0 0.024816721088104648 -0.0035166600761202598 0 0.024574448391580152 -0.0036885086547834615 0 0.024713901884180878 -0.0036633682312253871 0 0.024816721088104648 -0.0035166600761202598 0 0.024810136681363948 -0.0036551452724732239 0 0.024816721088104648 -0.0035166600761202598 0 0.024810136681363948 -0.0036551452724732239 0 0.024558579822345838 -0.003553178126231155 0 0.024810136681363948 -0.0036551452724732239 0 0.024558579822345838 -0.003553178126231155 0 0.025346205520750287 -0.0035554802406007873 0 0.025402496958353574 -0.0029174098444618669 0 0.02536756464452709 -0.003421991302265265 0 0.025692817361256719 -0.0030420537935611732 0 0.02630323551782203 -0.0024251480985828053 0 0.025346205520750287 -0.0035554802406007873 0 0.025692817361256719 -0.0030420537935611732 0 0.02630323551782203 -0.0024251480985828053 0 0.025527124006353329 -0.0021150892818393224 0 0.025402496958353574 -0.0029174098444618669 0 0.025278853310169755 -0.0018541948835459261 0 0.02630323551782203 -0.0024251480985828053 0 0.026419770814200043 -0.0010605225855271922 0 0.025527124006353329 -0.0021150892818393224 0 0.024558579822345838 -0.003553178126231155 0 0.024675701425644264 -0.0031114906881845312 0 0.024124663955821017 -0.0026669346073135334 0 0.024816721088104648 -0.0035166600761202598 0 0.024558579822345838 -0.003553178126231155 0 0.024675701425644264 -0.0031114906881845312 0 0.024675701425644264 -0.0031114906881845312 0 0.024124663955821017 -0.0026669346073135334 0 0.024795379989427654 -0.0021898540769745437 0 0.026419770814200043 -0.0010605225855271922 0 0.025537477416019007 -0.00043742719286682554 0 0.026107514205670809 0.00021311257525502602 0 0.025278853310169755 -0.0018541948835459261 0 0.025195110743248136 -0.00049622592682060766 0 0.024795379989427654 -0.0021898540769745437 0 0.024231833719358376 -0.0011039825208363826 0 0.025316877599139514 -0.001175105506882907 0 0.024124663955821017 -0.0026669346073135334 0 0.024795379989427654 -0.0021898540769745437 0 0.024231833719358376 -0.0011039825208363826 0 0.025537477416019007 -0.00043742719286682554 0 0.024999570435954171 -0.0011789794757351764 0 0.024999644298032517 0.00031765872879330106 0 0.026419770814200043 -0.0010605225855271922 0 0.025537477416019007 -0.00043742719286682554 0 0.025527124006353329 -0.0021150892818393224 0 0.025537477416019007 -0.00043742719286682554 0 0.024999570435954171 -0.0011789794757351764 0 0.025527124006353329 -0.0021150892818393224 0 0.024999570435954171 -0.0011789794757351764 0 0.025527124006353329 -0.0021150892818393224 0 0.024999622533417747 -0.0026756953489388748 0 0.025692817361256719 -0.0030420537935611732 0 0.025527124006353329 -0.0021150892818393224 0 0.025443357386793024 -0.0030717695459997712 0 0.025527124006353329 -0.0021150892818393224 0 0.025443357386793024 -0.0030717695459997712 0 0.024999622533417747 -0.0026756953489388748 0 0.024999622533417747 -0.0026756953489388748 0 0.025365559095375276 -0.0036582275055253451 0 0.024999830798214953 -0.0041712973228219324 0 0.025443357386793024 -0.0030717695459997712 0 0.024999622533417747 -0.0026756953489388748 0 0.025365559095375276 -0.0036582275055253451 0 0.025365559095375276 -0.0036582275055253451 0 0.024999830798214953 -0.0041712973228219324 0 0.025246580622525831 -0.0041324849180828221 0 0.025232408678988506 -0.0040893966406842699 0 0.025791704374322256 -0.0045545394742815817 0 0.024999830798214953 -0.0041712973228219324 0 0.025246580622525831 -0.0041324849180828221 0 0.025383174186980512 -0.0049640550845023021 0 0.025365559095375276 -0.0036582275055253451 0 0.025246580622525831 -0.0041324849180828221 0 0.025369535616548325 -0.0038980328889621635 0 0.025434912797544899 -0.0037610236523634177 0 0.025421496168377522 -0.0037470242237209405 0 0.025404339814675794 -0.003832147698538109 0 0.025369535616548325 -0.0038980328889621635 0 0.025434912797544899 -0.0037610236523634177 0 0.025404339814675794 -0.003832147698538109 0 0.025246580622525831 -0.0041324849180828221 0 0.025369535616548325 -0.0038980328889621635 0 0.025404339814675794 -0.003832147698538109 0 0.025365559095375276 -0.0036582275055253451 0 0.025369535616548325 -0.0038980328889621635 0 0.025434912797544899 -0.0037610236523634177 0 0.025443357386793024 -0.0030717695459997712 0 0.025365559095375276 -0.0036582275055253451 0 0.025521007183084733 -0.0034780150032028344 0 0.025365559095375276 -0.0036582275055253451 0 0.025434912797544899 -0.0037610236523634177 0 0.025521007183084733 -0.0034780150032028344 0 0.025692817361256719 -0.0030420537935611732 0 0.025443357386793024 -0.0030717695459997712 0 0.025521007183084733 -0.0034780150032028344 0 0.025692817361256719 -0.0030420537935611732 0 0.025521007183084733 -0.0034780150032028344 0 0.025346205520750287 -0.0035554802406007873 0 0.025521007183084733 -0.0034780150032028344 0 0.025346205520750287 -0.0035554802406007873 0 0.025382484332606925 -0.0035808744644663022 0 0.025346205520750287 -0.0035554802406007873 0 0.025134530859252074 -0.0035456850569727926 0 0.025382484332606925 -0.0035808744644663022 0 0.024713901884180878 -0.0036633682312253871 0 0.024810136681363948 -0.0036551452724732239 0 0.024893245470378349 -0.0035922522569632586 0 0.024810136681363948 -0.0036551452724732239 0 0.025346205520750287 -0.0035554802406007873 0 0.024893245470378349 -0.0035922522569632586 0 0.025346205520750287 -0.0035554802406007873 0 0.024893245470378349 -0.0035922522569632586 0 0.025134530859252074 -0.0035456850569727926 0 0.024893245470378349 -0.0035922522569632586 0 0.024882094739043754 -0.0035377085127856647 0 0.025134530859252074 -0.0035456850569727926 0 0.024697746805328991 -0.0035879658627386568 0 0.024893245470378349 -0.0035922522569632586 0 0.024882094739043754 -0.0035377085127856647 0 0.024882094739043754 -0.0035377085127856647 0 0.025134530859252074 -0.0035456850569727926 0 0.024998855401252126 -0.0034777445069168857 0 0.024729071308206337 -0.0035046793848274535 0 0.024882094739043754 -0.0035377085127856647 0 0.024998855401252126 -0.0034777445069168857 0 0.025350745931192124 -0.0036776855917479015 0 0.02524758985122064 -0.0034751381989568835 0 0.024998855401252126 -0.0034777445069168857 0 0.025382484332606925 -0.0035808744644663022 0 0.025016903513796995 -0.0034168082834603671 0 0.025382484332606925 -0.0035808744644663022 0 0.025421496168377522 -0.0037470242237209405 0 0.025501097927417123 -0.0038177799314169096 0 0.025434912797544899 -0.0037610236523634177 0 0.025521007183084733 -0.0034780150032028344 0 0.025382484332606925 -0.0035808744644663022 0 0.025434912797544899 -0.0037610236523634177 0 0.025382484332606925 -0.0035808744644663022 0 0.025421496168377522 -0.0037470242237209405 0 0.025134530859252074 -0.0035456850569727926 0 0.024998855401252126 -0.0034777445069168857 0 0.025382484332606925 -0.0035808744644663022 0 0.025421496168377522 -0.0037470242237209405 0 0.025501097927417123 -0.0038177799314169096 0 0.025404339814675794 -0.003832147698538109 0 0.02524758985122064 -0.0034751381989568835 0 0.025832367153834787 -0.0044699340551304853 0 0.025501097927417123 -0.0038177799314169096 0 0.0255143084432717 -0.0039403059477916653 0 0.025404339814675794 -0.003832147698538109 0 0.025832367153834787 -0.0044699340551304853 0 0.025791704374322256 -0.0045545394742815817 0 0.025016903513796995 -0.0034168082834603671 0 0.024747604791672095 -0.0034162531228310328 0 0.024864300035998436 -0.0033308397641454643 0 0.024998855401252126 -0.0034777445069168857 0 0.025016903513796995 -0.0034168082834603671 0 0.024747604791672095 -0.0034162531228310328 0 0.024729071308206337 -0.0035046793848274535 0 0.024998855401252126 -0.0034777445069168857 0 0.024747604791672095 -0.0034162531228310328 0 0.024469782553895539 -0.0033467333684289819 0 0.024599925701806878 -0.0033657929903677243 0 0.024864300035998436 -0.0033308397641454643 0 0.024747604791672095 -0.0034162531228310328 0 0.024599925701806878 -0.0033657929903677243 0 0.024864300035998436 -0.0033308397641454643 0 0.025824446451446881 -0.0064747244494510331 0 0.026776177308848816 -0.0059206933661686938 0 0.025675663968689862 -0.0057340367691001504 0 0.026776177308848816 -0.0059206933661686938 0 0.025675663968689862 -0.0057340367691001504 0 0.026077797608773691 -0.0051029132618791795 0 0.025824446451446881 -0.0064747244494510331 0 0.025675663968689862 -0.0057340367691001504 0 0.024999872454844155 -0.0056686968516901481 0 0.025675663968689862 -0.0057340367691001504 0 0.024999872454844155 -0.0056686968516901481 0 0.025383174186980512 -0.0049640550845023021 0 0.024999830798214953 -0.0041712973228219324 0 0.024999872454844155 -0.0056686968516901481 0 0.025383174186980512 -0.0049640550845023021 0 0.025246580622525831 -0.0041324849180828221 0 0.025383174186980512 -0.0049640550845023021 0 0.026077797608773691 -0.0051029132618791795 0 0.025675663968689862 -0.0057340367691001504 0 0.025383174186980512 -0.0049640550845023021 0 0.026077797608773691 -0.0051029132618791795 0 0.0073562642695133695 0.0021604134070341103 0 0.0076170078521418357 0.0011301285549257173 0 0.0086578496648844969 0.0012426405188903952 0 0.0073562642695133695 0.0021604134070341103 0 0.0076170078521418357 0.0011301285549257173 0 0.0064039886533882881 0.0016420358635952325 0 0.00660303627941803 0.0021884668554401467 0 0.005518166011322552 0.0019200657765762539 0 0.0064039886533882881 0.0016420358635952325 0 0.0052149190454514847 0.0016065951662286512 0 0.005604708643822647 0.0019644281348225896 0 0.0073562642695133695 0.0021604134070341103 0 0.0064039886533882881 0.0016420358635952325 0 0.005604708643822647 0.0019644281348225896 0 0.0063596590474792342 0.0021067108365865092 0 0.0057570211232616502 0.002285917490267277 0 0.0053481177989056407 0.0018788209617662077 0 0.0057570211232616502 0.002285917490267277 0 0.0053481177989056407 0.0018788209617662077 0 0.0052404606566061719 0.0022869174350373424 0 0.0057570211232616502 0.002285917490267277 0 0.0055494184390586223 0.0024705106079317917 0 0.0052404606566061719 0.0022869174350373424 0 0.0057570211232616502 0.002285917490267277 0 0.0055494184390586223 0.0024705106079317917 0 0.0057866177189444942 0.0026348937483070779 0 0.0054287230023864104 0.0026829730714165302 0 0.0057866177189444942 0.0026348937483070779 0 0.0055102078629620573 0.0028355133941976337 0 0.0055494184390586223 0.0024705106079317917 0 0.0054287230023864104 0.0026829730714165302 0 0.0057866177189444942 0.0026348937483070779 0 0.006661192128378169 0.00083080131213875467 0 0.0065425263474514529 -3.9884786827097156e-05 0 0.0057866177189444942 0.0026348937483070779 0 0.0062449083294624352 0.0025632634884737342 0 0.0061886021948429201 0.0031442215363788363 0 0.0057570211232616502 0.002285917490267277 0 0.0057866177189444942 0.0026348937483070779 0 0.0062449083294624352 0.0025632634884737342 0 0.0062449083294624352 0.0025632634884737342 0 0.0067114344068757914 0.00270807002776511 0 0.0061886021948429201 0.0031442215363788363 0 0.0063596590474792342 0.0021067108365865092 0 0.0057570211232616502 0.002285917490267277 0 0.0062449083294624352 0.0025632634884737342 0 0.0063596590474792342 0.0021067108365865092 0 0.0062449083294624352 0.0025632634884737342 0 0.0067114344068757914 0.00270807002776511 0 0.0063596590474792342 0.0021067108365865092 0 0.0067114344068757914 0.00270807002776511 0 0.0074314103480305847 0.0024453672550565795 0 0.00660303627941803 0.0021884668554401467 0 0.0096761942449206956 0.0017421180235104787 0 0.010122325882934522 0.00089343956222676438 0 0.010418931478602492 0.00090046290520088526 0 0.010009109657600013 0.00078695164997085538 0 0.01202558515592146 0.0011056231085200749 0 0.011393780718845942 0.0008392190878044705 0 0.011785167014267519 0.00043994052652181887 0 0.0096761942449206956 0.0017421180235104787 0 0.011094776137136515 0.0009119457023359426 0 0.0096761942449206956 0.0017421180235104787 0 0.010009168821977108 0.00088905260488590361 0 0.0073562642695133695 0.0021604134070341103 0 0.0092587086050043964 0.0026359871942522243 0 0.0086578496648844969 0.0012426405188903952 0 0.0092587086050043964 0.0026359871942522243 0 0.010009109657600013 0.00078695164997085538 0 0.0086578496648844969 0.0012426405188903952 0 0.0086578496648844969 0.0012426405188903952 0 0.0082841622729799922 0.00036245025558388999 0 0.009473884152282671 8.4852308709585151e-05 0 0.0076170078521418357 0.0011301285549257173 0 0.0086578496648844969 0.0012426405188903952 0 0.0082841622729799922 0.00036245025558388999 0 0.0082841622729799922 0.00036245025558388999 0 0.009473884152282671 8.4852308709585151e-05 0 0.0087422649947467672 -0.00040053864375945138 0 0.010009109657600013 0.00078695164997085538 0 0.0086578496648844969 0.0012426405188903952 0 0.009473884152282671 8.4852308709585151e-05 0 0.010009109657600013 0.00078695164997085538 0 0.009473884152282671 8.4852308709585151e-05 0 0.010812057886184652 -0.00019752700241958075 0 0.009473884152282671 8.4852308709585151e-05 0 0.0097484199477317502 -0.00070679894975465493 0 0.010812057886184652 -0.00019752700241958075 0 0.009473884152282671 8.4852308709585151e-05 0 0.0097484199477317502 -0.00070679894975465493 0 0.0087422649947467672 -0.00040053864375945138 0 0.0087422649947467672 -0.00040053864375945138 0 0.0078236097358891296 -0.00051487124958328196 0 0.008361527433341771 -0.0012600300511492917 0 0.0097484199477317502 -0.00070679894975465493 0 0.0087422649947467672 -0.00040053864375945138 0 0.008361527433341771 -0.0012600300511492917 0 0.0082841622729799922 0.00036245025558388999 0 0.0087422649947467672 -0.00040053864375945138 0 0.0078236097358891296 -0.00051487124958328196 0 0.0078236097358891296 -0.00051487124958328196 0 0.0066722043615112803 -0.00036111295566834797 0 0.007246947044845191 -0.00097466715056772628 0 0.0078236097358891296 -0.00051487124958328196 0 0.0073755315351782154 0.00034791783458982926 0 0.0066722043615112803 -0.00036111295566834797 0 0.0082841622729799922 0.00036245025558388999 0 0.0078236097358891296 -0.00051487124958328196 0 0.0073755315351782154 0.00034791783458982926 0 0.0076170078521418357 0.0011301285549257173 0 0.0064039886533882881 0.0016420358635952325 0 0.0073755315351782154 0.00034791783458982926 0 0.0076170078521418357 0.0011301285549257173 0 0.0082841622729799922 0.00036245025558388999 0 0.0073755315351782154 0.00034791783458982926 0 0.0064005409866026187 0.0016287332474277515 0 0.0062492353522451381 0.00044437278295138895 0 0.0064039886533882881 0.0016420358635952325 0 0.0057698125561560266 0.0011377499538289702 0 0.0052149190454514847 0.0016065951662286512 0 0.0064039886533882881 0.0016420358635952325 0 0.0073755315351782154 0.00034791783458982926 0 0.0066722043615112803 -0.00036111295566834797 0 0.0057698125561560266 0.0011377499538289702 0 0.0049084309991565484 0.0013475988846128406 0 0.0047273560760892263 0.00090204643567081202 0 0.0044427433899049754 0.0013274182184970836 0 0.004375133901073529 0.0016811411155948075 0 0.0035104151781425977 0.000914106590438173 0 0.0038836320665778636 0.0022211091687777806 0 0.003599556729636686 0.00059739612354045265 0 0.0047273560760892263 0.00090204643567081202 0 0.0044427433899049754 0.0013274182184970836 0 0.0035104151781425977 0.000914106590438173 0 0.0049084309991565484 0.0013475988846128406 0 0.0047273560760892263 0.00090204643567081202 0 0.0044427433899049754 0.0013274182184970836 0 0.004674162376978732 0.001554050443116633 0 0.0044925324718717097 0.0017934210204562976 0 0.0052149190454514847 0.0016065951662286512 0 0.0049084309991565484 0.0013475988846128406 0 0.0044427433899049754 0.0013274182184970836 0 0.004674162376978732 0.001554050443116633 0 0.0044427433899049754 0.0013274182184970836 0 0.004674162376978732 0.001554050443116633 0 0.004375133901073529 0.0016811411155948075 0 0.004674162376978732 0.001554050443116633 0 0.0044925324718717097 0.0017934210204562976 0 0.004375133901073529 0.0016811411155948075 0 0.0044925324718717097 0.0017934210204562976 0 0.0052149190454514847 0.0016065951662286512 0 0.005604708643822647 0.0019644281348225896 0 0.0057698125561560266 0.0011377499538289702 0 0.0049084309991565484 0.0013475988846128406 0 0.0052149190454514847 0.0016065951662286512 0 0.0049084309991565484 0.0013475988846128406 0 0.004674162376978732 0.001554050443116633 0 0.0052149190454514847 0.0016065951662286512 0 -0.0032874146057811785 0.0046925612563774345 0 -0.00032968750307284153 0.004149089324133398 0 -0.00093674053684623503 0.0060126641762915959 0 -0.0032874146057811785 0.0046925612563774345 0 -0.00032968750307284153 0.004149089324133398 0 -0.00074474482981123783 0.0022724187163218148 0 -0.00032968750307284153 0.004149089324133398 0 0.0013577220716291798 0.0051508384221784402 0 -0.00093674053684623503 0.0060126641762915959 0 -0.00032968750307284153 0.004149089324133398 0 0.0013577220716291798 0.0051508384221784402 0 0.00071616654083499177 0.0024189612819806596 0 0.0036885625263487561 0.0013336761003510738 0 0.0035438716156358579 0.0012019007805623284 0 0.0035104151781425977 0.000914106590438173 0 0.0023408089225348118 0.0040450218171512783 0 0.0017772328317153228 0.0011484155257646957 0 0.0036885625263487561 0.0013336761003510738 0 0.0035438716156358579 0.0012019007805623284 0 0.0034818475586680634 0.0014704132815664408 0 -0.0032874146057811785 0.0046925612563774345 0 -0.00093674053684623503 0.0060126641762915959 0 -0.001560626140769239 0.008186634970833457 0 -0.00093674053684623503 0.0060126641762915959 0 -0.001560626140769239 0.008186634970833457 0 9.091139908946514e-05 0.0089159130019801445 0 0.0013577220716291798 0.0051508384221784402 0 -0.00093674053684623503 0.0060126641762915959 0 9.091139908946514e-05 0.0089159130019801445 0 -0.0054158391979982892 0.00087295365003064291 0 -0.0044177299755308458 -0.004264251274051078 0 -0.010666895298562955 -0.0026442455681862432 0 -0.010793794833349748 -0.0021550282556809007 0 -0.011139273057677614 -0.0028317189922807758 0 -0.0016555230896432482 -8.0382352382970558e-05 0 -0.0029868658476847445 -0.0019769408049547647 0 -0.0027596177171072076 -0.0026045843392693319 0 -0.0054158391979982892 0.00087295365003064291 0 0.0017772328317153228 0.0011484155257646957 0 0.0017772328317153228 0.0011484155257646957 0 -0.0010566415011599804 -0.0050871407494857811 0 -0.0034583986584687475 -0.00091945657055391285 0 -0.0029868658476847445 -0.0019769408049547647 0 -0.0028879194532416418 -0.002904369013505916 0 -0.0016555230896432482 -8.0382352382970558e-05 0 -0.0034583986584687475 -0.00091945657055391285 0 -0.0029868658476847445 -0.0019769408049547647 0 0.0036885625263487561 0.0013336761003510738 0 0.0034818475586680634 0.0014704132815664408 0 0.0037214617027944243 0.0015427573504403198 0 0.0017772328317153228 0.0011484155257646957 0 0.0053537910973219787 -0.0013120157423967336 0 0.0054950903702260506 -0.0051886910924851988 0 0.0055581943613194611 -0.0051957435266136547 0 0.005497040391107876 -0.0051906856436087362 0 0.0054950903702260506 -0.0051886910924851988 0 0.0055581943613194611 -0.0051957435266136547 0 0.0055969341926072544 -0.0051991961002761967 0 0.0055581943613194611 -0.0051957435266136547 0 0.005497040391107876 -0.0051906856436087362 0 0.0055347112288280566 -0.0051699112659408077 0 -0.011139273057677614 -0.0028317189922807758 0 -0.010816479419311261 -0.0031137591552125618 0 -0.01106845649576119 -0.0037295900669635511 0 -0.0044177299755308458 -0.004264251274051078 0 -0.010916024148533855 -0.0051643313884296464 0 -0.0093820249592607811 -0.0065792482841134561 0 -0.0094094360704193632 -0.0066033798101757853 0 -0.0096349355418899815 -0.0068790602139468925 0 -0.0043351465033860288 -0.0034895338816580087 0 -0.0044177299755308458 -0.004264251274051078 0 -0.0029868658476847445 -0.0019769408049547647 0 -0.0027556433345099474 -0.0026096413014418439 0 -0.0028879194532416418 -0.002904369013505916 0 -0.0044177299755308458 -0.004264251274051078 0 -0.0010566415011599804 -0.0050871407494857811 0 -0.010666895298562955 -0.0026442455681862432 0 -0.011139273057677614 -0.0028317189922807758 0 -0.010816479419311261 -0.0031137591552125618 0 0.0048382702433939946 0.0020384659382399468 0 0.0045688732722821666 0.0023587615257979529 0 0.0052404606566061719 0.0022869174350373424 0 0.0045433575221591714 0.0017699978649115058 0 0.005518166011322552 0.0019200657765762539 0 0.0044925324718717097 0.0017934210204562976 0 0.0048382702433939946 0.0020384659382399468 0 0.0053481177989056407 0.0018788209617662077 0 0.0048382702433939946 0.0020384659382399468 0 0.0053481177989056407 0.0018788209617662077 0 0.0052404606566061719 0.0022869174350373424 0 0.0038836320665778636 0.0022211091687777806 0 0.0053537910973219787 -0.0013120157423967336 0 0.0044925324718717097 0.0017934210204562976 0 0.0048382702433939946 0.0020384659382399468 0 0.0045688732722821666 0.0023587615257979529 0 0.0044925324718717097 0.0017934210204562976 0 0.004375133901073529 0.0016811411155948075 0 0.0045688732722821666 0.0023587615257979529 0 0.0053537910973219787 -0.0013120157423967336 0 0.0065425263474514529 -3.9884786827097156e-05 0 0.006828941395355068 -0.0030603066353416296 0 0.0067708495385092743 -0.0031690908359163724 0 0.0067074398563442003 -0.0031395293496600902 0 0.0054287230023864104 0.0026829730714165302 0 0.0045688732722821666 0.0023587615257979529 0 0.0054952352636610446 0.0028017918383081257 0 0.0054287230023864104 0.0026829730714165302 0 0.0045688732722821666 0.0023587615257979529 0 0.0052404606566061719 0.0022869174350373424 0 0.0055494184390586223 0.0024705106079317917 0 0.0054287230023864104 0.0026829730714165302 0 0.0052404606566061719 0.0022869174350373424 0 0.0067422491242185387 -0.0032241396361332563 0 0.0067708495385092743 -0.0031690908359163724 0 0.0068076212370230815 -0.0032473708276726577 0 0.0067422491242185387 -0.0032241396361332563 0 0.0067708495385092743 -0.0031690908359163724 0 0.0067074398563442003 -0.0031395293496600902 0 0.0053537910973219787 -0.0013120157423967336 0 0.0063711767926683607 -0.0048338628734336149 0 0.006828941395355068 -0.0030603066353416296 0 0.0067708495385092743 -0.0031690908359163724 0 0.0068076212370230815 -0.0032473708276726577 0 0.0055581943613194611 -0.0051957435266136547 0 0.0055969341926072544 -0.0051991961002761967 0 0.0057429437528025212 -0.0051809524070803616 0 0.0067422491242185387 -0.0032241396361332563 0 0.0068076212370230815 -0.0032473708276726577 0 0.0067316443286866466 -0.003307335026607584 0 -0.0010566415011599804 -0.0050871407494857811 0 -0.002815700359633278 -0.0066494132301196636 0 -0.0094094360704193632 -0.0066033798101757853 0 -0.0096349355418899815 -0.0068790602139468925 0 -0.0097390218668306043 -0.0069781964854599195 0 -0.0010566415011599804 -0.0050871407494857811 0 0.0059203761826497128 -0.0053729931309831631 0 0.0046331134868753338 -0.0067042204915290123 0 0.005086566825887792 -0.0058888661897715999 0 0.0043893675548411322 -0.0056395735431904181 0 0.0055581943613194611 -0.0051957435266136547 0 0.0057429437528025212 -0.0051809524070803616 0 0.0055347112288280566 -0.0051699112659408077 0 0.0059203761826497128 -0.0053729931309831631 0 0.0054008697966654567 -0.0051331308037171836 0 0.0048649202059515206 -0.0054014151024003631 0 0.0047927602426567715 -0.0049908264041713035 0 0.0055522694229717699 -0.0049955310400779749 0 0.005086566825887792 -0.0058888661897715999 0 0.0048649202059515206 -0.0054014151024003631 0 0.0055522694229717699 -0.0049955310400779749 0 0.0057429437528025212 -0.0051809524070803616 0 0.0055347112288280566 -0.0051699112659408077 0 0.0055522694229717699 -0.0049955310400779749 0 0.0041224663844746301 -0.0046312574821893862 0 0.0043893675548411322 -0.0056395735431904181 0 0.0045322754317349383 -0.0050781426551406352 0 0.005086566825887792 -0.0058888661897715999 0 0.0048649202059515206 -0.0054014151024003631 0 0.0043893675548411322 -0.0056395735431904181 0 0.0048649202059515206 -0.0054014151024003631 0 0.0045322754317349383 -0.0050781426551406352 0 0.0047927602426567715 -0.0049908264041713035 0 0.0048649202059515206 -0.0054014151024003631 0 0.0043893675548411322 -0.0056395735431904181 0 0.0045322754317349383 -0.0050781426551406352 0 0.0041224663844746301 -0.0046312574821893862 0 0.0046261020029599621 -0.0047380834144408104 0 0.0046282549498670817 -0.0043845390554952861 0 0.0041224663844746301 -0.0046312574821893862 0 0.0046261020029599621 -0.0047380834144408104 0 0.0045322754317349383 -0.0050781426551406352 0 0.0046261020029599621 -0.0047380834144408104 0 0.0045322754317349383 -0.0050781426551406352 0 0.0047927602426567715 -0.0049908264041713035 0 0.0046261020029599621 -0.0047380834144408104 0 0.0050663071452521401 -0.0046076834242223322 0 0.0046282549498670817 -0.0043845390554952861 0 0.0046261020029599621 -0.0047380834144408104 0 0.0047927602426567715 -0.0049908264041713035 0 0.0050663071452521401 -0.0046076834242223322 0 0.0047927602426567715 -0.0049908264041713035 0 0.0055522694229717699 -0.0049955310400779749 0 0.0050663071452521401 -0.0046076834242223322 0 0.0055522694229717699 -0.0049955310400779749 0 0.0050663071452521401 -0.0046076834242223322 0 0.005530042527421195 -0.004407937188012607 0 0.0058868290531697851 -0.0038529531901887511 0 0.005530042527421195 -0.004407937188012607 0 0.005334258911806989 -0.0039368265446359327 0 0.005530042527421195 -0.004407937188012607 0 0.005334258911806989 -0.0039368265446359327 0 0.0050585655010125267 -0.004250377962252078 0 0.005334258911806989 -0.0039368265446359327 0 0.0050585655010125267 -0.004250377962252078 0 0.0047899797790783268 -0.0039433431016646118 0 0.0050663071452521401 -0.0046076834242223322 0 0.005530042527421195 -0.004407937188012607 0 0.0050585655010125267 -0.004250377962252078 0 0.0041224663844746301 -0.0046312574821893862 0 0.0043024172520514719 -0.0040069004664606894 0 0.0046282549498670817 -0.0043845390554952861 0 0.0050663071452521401 -0.0046076834242223322 0 0.0050585655010125267 -0.004250377962252078 0 0.0046282549498670817 -0.0043845390554952861 0 0.0050585655010125267 -0.004250377962252078 0 0.0047899797790783268 -0.0039433431016646118 0 0.0046282549498670817 -0.0043845390554952861 0 0.0043024172520514719 -0.0040069004664606894 0 0.0047899797790783268 -0.0039433431016646118 0 0.0046282549498670817 -0.0043845390554952861 0 0.0067420432384885532 -0.0033587308493162825 0 0.00676286702860054 -0.0033707099002377814 0 0.0067316443286866466 -0.003307335026607584 0 0.0068076212370230815 -0.0032473708276726577 0 0.0067420432384885532 -0.0033587308493162825 0 0.0067316443286866466 -0.003307335026607584 0 0.0055522694229717699 -0.0049955310400779749 0 0.005530042527421195 -0.004407937188012607 0 0.0061806517755673678 -0.0045504825222855367 0 0.0063711767926683607 -0.0048338628734336149 0 0.0064575465031196638 -0.0037704877361635623 0 0.0057429437528025212 -0.0051809524070803616 0 0.0055522694229717699 -0.0049955310400779749 0 0.0061806517755673678 -0.0045504825222855367 0 0.0058868290531697851 -0.0038529531901887511 0 0.005530042527421195 -0.004407937188012607 0 0.0061806517755673678 -0.0045504825222855367 0 0.0066368885520441514 -0.0032841977902165688 0 0.0058868290531697851 -0.0038529531901887511 0 0.0061806517755673678 -0.0045504825222855367 0 0.0066219385867232342 -0.0033677216627507273 0 0.0064575465031196638 -0.0037704877361635623 0 0.0066368885520441514 -0.0032841977902165688 0 0.0067420432384885532 -0.0033587308493162825 0 0.00676286702860054 -0.0033707099002377814 0 0.007579883761220923 -0.0034866541702964693 0 0.0090525638962688192 -0.0025153116806277036 0 0.0085799983742199312 -0.0030836486978866829 0 0.009414602875366938 -0.0046195987235960597 0 0.010016929135711247 -0.0035495489877427205 0 0.0095128007272831158 -0.0023881299700772795 0 0.0085799983742199312 -0.0030836486978866829 0 0.010016929135711247 -0.0035495489877427205 0 0.0090525638962688192 -0.0025153116806277036 0 0.011038283629496702 -0.0023716955988956059 0 0.00676286702860054 -0.0033707099002377814 0 0.0066958904100930415 -0.0033081543827767341 0 0.0067316443286866466 -0.003307335026607584 0 0.0066958904100930415 -0.0033081543827767341 0 0.0067316443286866466 -0.003307335026607584 0 0.0066916425985566429 -0.0032432881726974592 0 0.0067422491242185387 -0.0032241396361332563 0 0.0067316443286866466 -0.003307335026607584 0 0.0066916425985566429 -0.0032432881726974592 0 0.0079384472720596469 -0.001018106012371597 0 0.0079310694516898424 -0.0010000406852375349 0 0.0079355548146285773 -0.00099246117706372895 0 0.0090525638962688192 -0.0025153116806277036 0 0.0097135003042628388 0.00060957018729435963 0 0.0079384472720596469 -0.001018106012371597 0 0.0079247727495961769 -0.0010006352829122311 0 0.0079310694516898424 -0.0010000406852375349 0 0.0090525638962688192 -0.0025153116806277036 0 0.0071320849276539176 -0.0024386939541933875 0 0.0067114344068757914 0.00270807002776511 0 0.0061886021948429201 0.0031442215363788363 0 0.0068926769066860105 0.0034486645158497021 0 0.0079247727495961769 -0.0010006352829122311 0 0.0079310694516898424 -0.0010000406852375349 0 0.0079239443160276021 -0.00099868648723871979 0 0.0079310694516898424 -0.0010000406852375349 0 0.0079239443160276021 -0.00099868648723871979 0 0.0079355548146285773 -0.00099246117706372895 0 0.0068710646355130646 0.0009700207353560929 0 0.0097135003042628388 0.00060957018729435963 0 0.0067422491242185387 -0.0032241396361332563 0 0.0066916425985566429 -0.0032432881726974592 0 0.0067074398563442003 -0.0031395293496600902 0 0.0057866177189444942 0.0026348937483070779 0 0.0061886021948429201 0.0031442215363788363 0 0.0055102078629620573 0.0028355133941976337 0 0.0079247727495961769 -0.0010006352829122311 0 0.0079239443160276021 -0.00099868648723871979 0 0.0078955708468223564 -0.00099810403715713141 0 0.0071320849276539176 -0.0024386939541933875 0 0.0065425263474514529 -3.9884786827097156e-05 0 0.0068710646355130646 0.0009700207353560929 0 0.0065425263474514529 -3.9884786827097156e-05 0 0.011785167014267519 0.00043994052652181887 0 0.011565316494747086 -0.00035863584836157646 0 0.011287092070261974 0.00032950169157198008 0 0.011393780718845942 0.0008392190878044705 0 0.011785167014267519 0.00043994052652181887 0 0.011287092070261974 0.00032950169157198008 0 0.0096761942449206956 0.0017421180235104787 0 0.0097135003042628388 0.00060957018729435963 0 0.01202558515592146 0.0011056231085200749 0 0.011785167014267519 0.00043994052652181887 0 0.012555649956614902 0.00017723550382287779 0 0.0067114344068757914 0.00270807002776511 0 0.0074314103480305847 0.0024453672550565795 0 0.0068926769066860105 0.0034486645158497021 0 0.011955684898075584 -0.00030535887974630617 0 0.011565316494747086 -0.00035863584836157646 0 0.011756541462680332 -0.00090988763503525665 0 0.0097135003042628388 0.00060957018729435963 0 0.012507532076233105 -0.00031907823752860056 0 0.012213547462295153 -0.00090611432198496697 0 0.011955684898075584 -0.00030535887974630617 0 0.011756541462680332 -0.00090988763503525665 0 0.011785167014267519 0.00043994052652181887 0 0.012555649956614902 0.00017723550382287779 0 0.011565316494747086 -0.00035863584836157646 0 0.011565316494747086 -0.00035863584836157646 0 0.011469544612036838 -0.0013226618398834453 0 0.011756541462680332 -0.00090988763503525665 0 0.011469544612036838 -0.0013226618398834453 0 0.011756541462680332 -0.00090988763503525665 0 0.01131282909953105 -0.0015416019298245202 0 0.012213547462295153 -0.00090611432198496697 0 0.011756541462680332 -0.00090988763503525665 0 0.011851924911681775 -0.0014388312954201139 0 0.010927697032805467 -0.0020778110503689188 0 0.011038283629496702 -0.0023716955988956059 0 0.010882064847743999 -0.0020061154099026367 0 0.011851924911681775 -0.0014388312954201139 0 0.01131282909953105 -0.0015416019298245202 0 0.011756541462680332 -0.00090988763503525665 0 0.011851924911681775 -0.0014388312954201139 0 0.01131282909953105 -0.0015416019298245202 0 0.011581526019846543 -0.0013693209075387395 0 0.011469544612036838 -0.0013226618398834453 0 0.01131282909953105 -0.0015416019298245202 0 0.011581526019846543 -0.0013693209075387395 0 0.011469544612036838 -0.0013226618398834453 0 0.012292571087679637 -0.0012967035652153207 0 0.011469544612036838 -0.0013226618398834453 0 0.012292571087679637 -0.0012967035652153207 0 0.012408901286004062 -0.001632740645924266 0 0.011513627251926053 -0.0012566494701622382 0 0.011665664054114712 -0.00087085861118759388 0 0.011565316494747086 -0.00035863584836157646 0 0.011469544612036838 -0.0013226618398834453 0 0.010869951970540094 -0.00012285385229734202 0 0.012292571087679637 -0.0012967035652153207 0 0.013160999146021431 -0.0013698157998934411 0 0.012408901286004062 -0.001632740645924266 0 0.01257282426868311 -0.00098116193793664711 0 0.012292571087679637 -0.0012967035652153207 0 0.012920233139585076 -0.0011653624436960908 0 0.01342984095852991 -0.00091929414187111791 0 0.013512670313388224 -0.0011657047630069493 0 0.014197193793189218 -0.0010410317470551285 0 0.01342984095852991 -0.00091929414187111791 0 0.012920233139585076 -0.0011653624436960908 0 0.013512670313388224 -0.0011657047630069493 0 0.013512670313388224 -0.0011657047630069493 0 0.013160999146021431 -0.0013698157998934411 0 0.013798759960859294 -0.0011402673716407097 0 0.012920233139585076 -0.0011653624436960908 0 0.013512670313388224 -0.0011657047630069493 0 0.013160999146021431 -0.0013698157998934411 0 0.012292571087679637 -0.0012967035652153207 0 0.012920233139585076 -0.0011653624436960908 0 0.013160999146021431 -0.0013698157998934411 0 0.013160999146021431 -0.0013698157998934411 0 0.013601663546803913 -0.0012992918844398314 0 0.013216567841783086 -0.0015265011094073978 0 0.013160999146021431 -0.0013698157998934411 0 0.013601663546803913 -0.0012992918844398314 0 0.013798759960859294 -0.0011402673716407097 0 0.013601663546803913 -0.0012992918844398314 0 0.01393480515526397 -0.0010420952228176951 0 0.013723899374962135 -0.0011764056400623193 0 0.012186169375118173 -0.00036498158093614224 0 0.01298609015008116 -0.00030467854835582745 0 0.013601663546803913 -0.0012992918844398314 0 0.013216567841783086 -0.0015265011094073978 0 0.013723899374962135 -0.0011764056400623193 0 0.011141058337628837 0.00084232445376529268 0 0.010965220770145334 0.00076501964836005036 0 0.010869951970540094 -0.00012285385229734202 0 0.011141058337628837 0.00084232445376529268 0 0.010965220770145334 0.00076501964836005036 0 0.011297507287505764 0.0006272712816342618 0 0.010965220770145334 0.00076501964836005036 0 0.011287092070261974 0.00032950169157198008 0 0.010869951970540094 -0.00012285385229734202 0 0.011393780718845942 0.0008392190878044705 0 0.010965220770145334 0.00076501964836005036 0 0.011287092070261974 0.00032950169157198008 0 0.011094776137136515 0.0009119457023359426 0 0.010854062987928424 0.00076521861265119498 0 0.011565316494747086 -0.00035863584836157646 0 0.011287092070261974 0.00032950169157198008 0 0.010869951970540094 -0.00012285385229734202 0 0.013160999146021431 -0.0013698157998934411 0 0.013216567841783086 -0.0015265011094073978 0 0.012408901286004062 -0.001632740645924266 0 0.012186169375118173 -0.00036498158093614224 0 0.011665664054114712 -0.00087085861118759388 0 0.016494804505521071 -0.00087883699937495782 0 0.015700817303633617 -0.0014253354933306689 0 0.016749532735764718 -0.0012909890215940481 0 0.015062620180625807 -0.00099462642018700019 0 0.016073361971245117 -0.00082393518908378165 0 0.015411311573928718 -0.00058043366305950551 0 0.016494804505521071 -0.00087883699937495782 0 0.015700817303633617 -0.0014253354933306689 0 0.014425296252908648 -0.00058496171629415447 0 0.014197193793189218 -0.0010410317470551285 0 0.014162972539345637 -0.00086613773139336179 0 0.015411311573928718 -0.00058043366305950551 0 0.015700817303633617 -0.0014253354933306689 0 0.014197193793189218 -0.0010410317470551285 0 0.015062620180625807 -0.00099462642018700019 0 0.01426608039488258 -0.001000940255775348 0 0.014197193793189218 -0.0010410317470551285 0 0.013798759960859294 -0.0011402673716407097 0 0.014162972539345637 -0.00086613773139336179 0 0.013512670313388224 -0.0011657047630069493 0 0.014197193793189218 -0.0010410317470551285 0 0.013798759960859294 -0.0011402673716407097 0 0.013798759960859294 -0.0011402673716407097 0 0.01393480515526397 -0.0010420952228176951 0 0.014162972539345637 -0.00086613773139336179 0 0.013601663546803913 -0.0012992918844398314 0 0.013798759960859294 -0.0011402673716407097 0 0.01393480515526397 -0.0010420952228176951 0 0.01393480515526397 -0.0010420952228176951 0 0.014162972539345637 -0.00086613773139336179 0 0.014605815025841589 -0.00077836794167574863 0 0.014425296252908648 -0.00058496171629415447 0 0.014605815025841589 -0.00077836794167574863 0 0.015389519638561317 -0.00031956361144973462 0 0.014425296252908648 -0.00058496171629415447 0 0.014162972539345637 -0.00086613773139336179 0 0.014605815025841589 -0.00077836794167574863 0 0.01393480515526397 -0.0010420952228176951 0 0.014605815025841589 -0.00077836794167574863 0 0.014761142524369737 -0.0010480683326170638 0 0.014605815025841589 -0.00077836794167574863 0 0.015530461151831281 -0.0010155855338713309 0 0.014761142524369737 -0.0010480683326170638 0 0.014605815025841589 -0.00077836794167574863 0 0.015530461151831281 -0.0010155855338713309 0 0.015389519638561317 -0.00031956361144973462 0 0.015530461151831281 -0.0010155855338713309 0 0.015169517410762574 -0.0013293522907628832 0 0.014761142524369737 -0.0010480683326170638 0 0.015169517410762574 -0.0013293522907628832 0 0.014761142524369737 -0.0010480683326170638 0 0.014194102342965101 -0.00095105669331783786 0 0.015169517410762574 -0.0013293522907628832 0 0.014194102342965101 -0.00095105669331783786 0 0.014319552289292783 -0.0012127546676879962 0 0.014194102342965101 -0.00095105669331783786 0 0.013660009601213201 -0.00064851637548221154 0 0.014319552289292783 -0.0012127546676879962 0 0.01393480515526397 -0.0010420952228176951 0 0.014761142524369737 -0.0010480683326170638 0 0.014194102342965101 -0.00095105669331783786 0 0.01393480515526397 -0.0010420952228176951 0 0.014194102342965101 -0.00095105669331783786 0 0.013660009601213201 -0.00064851637548221154 0 0.01393480515526397 -0.0010420952228176951 0 0.013660009601213201 -0.00064851637548221154 0 0.013723899374962135 -0.0011764056400623193 0 0.013660009601213201 -0.00064851637548221154 0 0.013481966877941544 -0.0010243749044184663 0 0.014319552289292783 -0.0012127546676879962 0 0.013660009601213201 -0.00064851637548221154 0 0.013481966877941544 -0.0010243749044184663 0 0.012617305562865068 -0.00057403383613852522 0 0.013481966877941544 -0.0010243749044184663 0 0.013831573053982428 -0.0014047208286001578 0 0.013178607007374303 -0.0014548065773954391 0 0.013481966877941544 -0.0010243749044184663 0 0.012699877899073612 -0.0010263138990170878 0 0.013178607007374303 -0.0014548065773954391 0 0.013481966877941544 -0.0010243749044184663 0 0.013831573053982428 -0.0014047208286001578 0 0.014319552289292783 -0.0012127546676879962 0 0.013831573053982428 -0.0014047208286001578 0 0.014319552289292783 -0.0012127546676879962 0 0.014564760566392837 -0.0017420482622857742 0 0.015169517410762574 -0.0013293522907628832 0 0.014319552289292783 -0.0012127546676879962 0 0.015169852833177257 -0.0016108751599491627 0 0.014319552289292783 -0.0012127546676879962 0 0.015169852833177257 -0.0016108751599491627 0 0.014564760566392837 -0.0017420482622857742 0 0.015169852833177257 -0.0016108751599491627 0 0.015328690965844587 -0.0018874088533018842 0 0.014564760566392837 -0.0017420482622857742 0 0.016110765915623184 -0.0018757021560921287 0 0.015169517410762574 -0.0013293522907628832 0 0.015169852833177257 -0.0016108751599491627 0 0.010814506013638725 0.00057061559098748368 0 0.011297507287505764 0.0006272712816342618 0 0.011617850649522768 -0.00011653511946354467 0 0.010814506013638725 0.00057061559098748368 0 0.011617850649522768 -0.00011653511946354467 0 0.010812057886184652 -0.00019752700241958075 0 0.010009109657600013 0.00078695164997085538 0 0.010814506013638725 0.00057061559098748368 0 0.010812057886184652 -0.00019752700241958075 0 0.010418931478602492 0.00090046290520088526 0 0.010965220770145334 0.00076501964836005036 0 0.010814506013638725 0.00057061559098748368 0 0.010418931478602492 0.00090046290520088526 0 0.010009109657600013 0.00078695164997085538 0 0.010814506013638725 0.00057061559098748368 0 0.010965220770145334 0.00076501964836005036 0 0.010814506013638725 0.00057061559098748368 0 0.011297507287505764 0.0006272712816342618 0 0.011141058337628837 0.00084232445376529268 0 0.011297507287505764 0.0006272712816342618 0 0.012295459979961301 0.00062739858219721604 0 0.011297507287505764 0.0006272712816342618 0 0.012295459979961301 0.00062739858219721604 0 0.011617850649522768 -0.00011653511946354467 0 0.013595918593575425 -0.00062226947597310419 0 0.01298609015008116 -0.00030467854835582745 0 0.013660009601213201 -0.00064851637548221154 0 0.012295459979961301 0.00062739858219721604 0 0.012617305562865068 -0.00057403383613852522 0 0.012295459979961301 0.00062739858219721604 0 0.011617850649522768 -0.00011653511946354467 0 0.012617305562865068 -0.00057403383613852522 0 0.011617850649522768 -0.00011653511946354467 0 0.012617305562865068 -0.00057403383613852522 0 0.011857340179169888 -0.00069907143643521913 0 0.012617305562865068 -0.00057403383613852522 0 0.012699877899073612 -0.0010263138990170878 0 0.011857340179169888 -0.00069907143643521913 0 0.013481966877941544 -0.0010243749044184663 0 0.012617305562865068 -0.00057403383613852522 0 0.012699877899073612 -0.0010263138990170878 0 0.012699877899073612 -0.0010263138990170878 0 0.011857340179169888 -0.00069907143643521913 0 0.012373014485753397 -0.0014655434031641025 0 0.011004354371266917 -0.00029101140445603847 0 0.010731140106210332 -0.00098214104279699551 0 0.011496823626391622 -0.0010491769702130217 0 0.011857340179169888 -0.00069907143643521913 0 0.011004354371266917 -0.00029101140445603847 0 0.011496823626391622 -0.0010491769702130217 0 0.011563102638386518 -8.0214079597433477e-05 0 0.010908051572378235 -0.00025170742535101796 0 0.011617850649522768 -0.00011653511946354467 0 0.011857340179169888 -0.00069907143643521913 0 0.011004354371266917 -0.00029101140445603847 0 0.010055093217645078 -0.00042297975114595222 0 0.011004354371266917 -0.00029101140445603847 0 0.010731140106210332 -0.00098214104279699551 0 0.0098810948279007514 -0.00056913709367321106 0 0.010908051572378235 -0.00025170742535101796 0 0.010731140106210332 -0.00098214104279699551 0 0.011113538258342902 -0.0016357739932161164 0 0.0099593501377447935 -0.0014665157671666454 0 0.011113538258342902 -0.0016357739932161164 0 0.010466343929273036 -0.0022788617209394471 0 0.0099593501377447935 -0.0014665157671666454 0 0.011113538258342902 -0.0016357739932161164 0 0.011701168266412603 -0.0015085827921023835 0 0.011783817007269196 -0.0018755260864318931 0 0.011113538258342902 -0.0016357739932161164 0 0.011701168266412603 -0.0015085827921023835 0 0.011496823626391622 -0.0010491769702130217 0 0.010731140106210332 -0.00098214104279699551 0 0.011113538258342902 -0.0016357739932161164 0 0.011496823626391622 -0.0010491769702130217 0 0.011857340179169888 -0.00069907143643521913 0 0.011496823626391622 -0.0010491769702130217 0 0.012373014485753397 -0.0014655434031641025 0 0.011701168266412603 -0.0015085827921023835 0 0.011496823626391622 -0.0010491769702130217 0 0.012373014485753397 -0.0014655434031641025 0 0.012699877899073612 -0.0010263138990170878 0 0.012373014485753397 -0.0014655434031641025 0 0.013178607007374303 -0.0014548065773954391 0 0.012373014485753397 -0.0014655434031641025 0 0.013178607007374303 -0.0014548065773954391 0 0.013280412242641928 -0.0018009913806166238 0 0.012373014485753397 -0.0014655434031641025 0 0.012584482521984523 -0.0019617875993160256 0 0.013280412242641928 -0.0018009913806166238 0 0.011701168266412603 -0.0015085827921023835 0 0.012373014485753397 -0.0014655434031641025 0 0.011783817007269196 -0.0018755260864318931 0 0.012373014485753397 -0.0014655434031641025 0 0.011783817007269196 -0.0018755260864318931 0 0.012584482521984523 -0.0019617875993160256 0 0.011783817007269196 -0.0018755260864318931 0 0.011968661006957116 -0.0020618178630366661 0 0.011310028312794321 -0.0021469542486558411 0 0.011783817007269196 -0.0018755260864318931 0 0.012584482521984523 -0.0019617875993160256 0 0.011968661006957116 -0.0020618178630366661 0 0.012584482521984523 -0.0019617875993160256 0 0.012757611883844841 -0.0021878126830151522 0 0.013405654314790509 -0.0021388826488058493 0 0.012584482521984523 -0.0019617875993160256 0 0.012757611883844841 -0.0021878126830151522 0 0.011968661006957116 -0.0020618178630366661 0 0.012757611883844841 -0.0021878126830151522 0 0.011968661006957116 -0.0020618178630366661 0 0.012095066714845991 -0.0021485876286647552 0 0.011968661006957116 -0.0020618178630366661 0 0.011384801731956625 -0.0020987712535088777 0 0.012095066714845991 -0.0021485876286647552 0 0.011384801731956625 -0.0020987712535088777 0 0.010887266614136486 -0.0025957122858905829 0 0.010881230846560213 -0.003359901357374814 0 0.011968661006957116 -0.0020618178630366661 0 0.011384801731956625 -0.0020987712535088777 0 0.011310028312794321 -0.0021469542486558411 0 0.011064245565955488 -0.0022017632317117655 0 0.010593550881148349 -0.0023492262427823197 0 0.011384801731956625 -0.0020987712535088777 0 0.010887266614136486 -0.0025957122858905829 0 0.011310028312794321 -0.0021469542486558411 0 0.010887266614136486 -0.0025957122858905829 0 0.010881230846560213 -0.003359901357374814 0 0.010002818492235858 -0.0031695435447757262 0 0.010887266614136486 -0.0025957122858905829 0 0.010466343929273036 -0.0022788617209394471 0 0.010002818492235858 -0.0031695435447757262 0 0.010887266614136486 -0.0025957122858905829 0 0.010466343929273036 -0.0022788617209394471 0 0.011310028312794321 -0.0021469542486558411 0 0.011113538258342902 -0.0016357739932161164 0 0.010466343929273036 -0.0022788617209394471 0 0.011310028312794321 -0.0021469542486558411 0 0.011113538258342902 -0.0016357739932161164 0 0.011783817007269196 -0.0018755260864318931 0 0.011310028312794321 -0.0021469542486558411 0 0.015156510853356767 -0.0021173644072703958 0 0.015328690965844587 -0.0018874088533018842 0 0.014564760566392837 -0.0017420482622857742 0 0.015156510853356767 -0.0021173644072703958 0 0.014564760566392837 -0.0017420482622857742 0 0.014182361614276493 -0.0020330575439678989 0 0.014564760566392837 -0.0017420482622857742 0 0.014182361614276493 -0.0020330575439678989 0 0.013858107372480073 -0.0017147557144550931 0 0.014182361614276493 -0.0020330575439678989 0 0.013858107372480073 -0.0017147557144550931 0 0.013280412242641928 -0.0018009913806166238 0 0.013831573053982428 -0.0014047208286001578 0 0.014564760566392837 -0.0017420482622857742 0 0.013858107372480073 -0.0017147557144550931 0 0.013858107372480073 -0.0017147557144550931 0 0.013178607007374303 -0.0014548065773954391 0 0.013280412242641928 -0.0018009913806166238 0 0.013831573053982428 -0.0014047208286001578 0 0.013858107372480073 -0.0017147557144550931 0 0.013178607007374303 -0.0014548065773954391 0 0.012584482521984523 -0.0019617875993160256 0 0.013280412242641928 -0.0018009913806166238 0 0.013405654314790509 -0.0021388826488058493 0 0.012757611883844841 -0.0021878126830151522 0 0.013405654314790509 -0.0021388826488058493 0 0.01340199243438139 -0.0024578977040589063 0 0.013405654314790509 -0.0021388826488058493 0 0.014114068270061413 -0.002423676745215938 0 0.01340199243438139 -0.0024578977040589063 0 0.014182361614276493 -0.0020330575439678989 0 0.013405654314790509 -0.0021388826488058493 0 0.014114068270061413 -0.002423676745215938 0 0.014182361614276493 -0.0020330575439678989 0 0.013280412242641928 -0.0018009913806166238 0 0.013405654314790509 -0.0021388826488058493 0 0.014182361614276493 -0.0020330575439678989 0 0.014114068270061413 -0.002423676745215938 0 0.014820307497076204 -0.0024125891291502518 0 0.014114068270061413 -0.002423676745215938 0 0.014820307497076204 -0.0024125891291502518 0 0.014664360247486649 -0.0027263152899349146 0 0.015129906521684541 -0.0027081043646347653 0 0.014820307497076204 -0.0024125891291502518 0 0.014664360247486649 -0.0027263152899349146 0 0.015156510853356767 -0.0021173644072703958 0 0.014182361614276493 -0.0020330575439678989 0 0.014820307497076204 -0.0024125891291502518 0 0.015467159718423601 -0.0024351321203420636 0 0.015156510853356767 -0.0021173644072703958 0 0.014820307497076204 -0.0024125891291502518 0 0.015021176718304668 -0.0030831854487713348 0 0.014982849873342134 -0.0029299985424144476 0 0.014719989531263765 -0.003054792190581408 0 0.014982849873342134 -0.0029299985424144476 0 0.014664360247486649 -0.0027263152899349146 0 0.014719989531263765 -0.003054792190581408 0 0.015129906521684541 -0.0027081043646347653 0 0.014982849873342134 -0.0029299985424144476 0 0.014664360247486649 -0.0027263152899349146 0 0.014114068270061413 -0.002423676745215938 0 0.014664360247486649 -0.0027263152899349146 0 0.014082512276078294 -0.0028227471348611019 0 0.014719989531263765 -0.003054792190581408 0 0.014082512276078294 -0.0028227471348611019 0 0.014347523745492341 -0.0032282900230454466 0 0.014664360247486649 -0.0027263152899349146 0 0.014719989531263765 -0.003054792190581408 0 0.014082512276078294 -0.0028227471348611019 0 0.014082512276078294 -0.0028227471348611019 0 0.013811548715644096 -0.003103455896891288 0 0.013399124354257224 -0.0028801339380647197 0 0.014082512276078294 -0.0028227471348611019 0 0.013811548715644096 -0.003103455896891288 0 0.014347523745492341 -0.0032282900230454466 0 0.014114068270061413 -0.002423676745215938 0 0.014082512276078294 -0.0028227471348611019 0 0.01340199243438139 -0.0024578977040589063 0 0.01340199243438139 -0.0024578977040589063 0 0.013399124354257224 -0.0028801339380647197 0 0.012704836131607366 -0.0025196845884471329 0 0.014082512276078294 -0.0028227471348611019 0 0.01340199243438139 -0.0024578977040589063 0 0.013399124354257224 -0.0028801339380647197 0 0.012757611883844841 -0.0021878126830151522 0 0.01340199243438139 -0.0024578977040589063 0 0.012704836131607366 -0.0025196845884471329 0 0.013399124354257224 -0.0028801339380647197 0 0.012704836131607366 -0.0025196845884471329 0 0.012837214996126873 -0.0030100019113867504 0 0.013811548715644096 -0.003103455896891288 0 0.013399124354257224 -0.0028801339380647197 0 0.013453772921792223 -0.0034673871888622441 0 0.013399124354257224 -0.0028801339380647197 0 0.013453772921792223 -0.0034673871888622441 0 0.012837214996126873 -0.0030100019113867504 0 0.013453772921792223 -0.0034673871888622441 0 0.013866596742943492 -0.0041674702879494294 0 0.012678478100877709 -0.0038416844025493959 0 0.013453772921792223 -0.0034673871888622441 0 0.012837214996126873 -0.0030100019113867504 0 0.012678478100877709 -0.0038416844025493959 0 0.011246573077858367 -0.0015159782748057707 0 0.012331921301052614 -0.001890191065313004 0 0.011732449257588554 -0.00095989433377001898 0 0.013197761057729861 -0.0020338256172141864 0 0.011972648178762738 -0.0027849010721648858 0 0.011972648178762738 -0.0027849010721648858 0 0.01007766472914255 0.00018591789534973323 0 0.011246573077858367 -0.0015159782748057707 0 0.011585693981118811 -0.00090225872865921355 0 0.011732449257588554 -0.00095989433377001898 0 0.013197761057729861 -0.0020338256172141864 0 0.010420355708991014 0.00086684026571441663 0 0.014519588715203927 -0.0031133461083148869 0 0.014556946777789901 -0.0030954925399778277 0 0.014734744991979017 -0.0029591894411973864 0 0.012705534935276552 0.00063900330080838696 0 0.012722913964551866 0.00064723249740307671 0 0.012715288988997266 0.0006525924000308251 0 0.013197761057729861 -0.0020338256172141864 0 0.013764207755843895 -0.0010578464805564842 0 0.013453772921792223 -0.0034673871888622441 0 0.013866596742943492 -0.0041674702879494294 0 0.014347523745492341 -0.0032282900230454466 0 0.013811548715644096 -0.003103455896891288 0 0.013453772921792223 -0.0034673871888622441 0 0.014347523745492341 -0.0032282900230454466 0 0.014519588715203927 -0.0031133461083148869 0 0.014556946777789901 -0.0030954925399778277 0 0.014347523745492341 -0.0032282900230454466 0 0.013197761057729861 -0.0020338256172141864 0 0.014204884893095612 -0.0035453861510541828 0 0.014719989531263765 -0.003054792190581408 0 0.014657403236664535 -0.0030547170535320124 0 0.014854468690515658 -0.002887158641855383 0 0.014719989531263765 -0.003054792190581408 0 0.014347523745492341 -0.0032282900230454466 0 0.014657403236664535 -0.0030547170535320124 0 0.014556946777789901 -0.0030954925399778277 0 0.014347523745492341 -0.0032282900230454466 0 0.014657403236664535 -0.0030547170535320124 0 0.014556946777789901 -0.0030954925399778277 0 0.014657403236664535 -0.0030547170535320124 0 0.014734744991979017 -0.0029591894411973864 0 0.014657403236664535 -0.0030547170535320124 0 0.014734744991979017 -0.0029591894411973864 0 0.014854468690515658 -0.002887158641855383 0 0.014734744991979017 -0.0029591894411973864 0 0.014854468690515658 -0.002887158641855383 0 0.014884622424217306 -0.0022274509804918055 0 0.014715688516945047 -0.0026004012405603143 0 0.014854468690515658 -0.002887158641855383 0 0.014884622424217306 -0.0022274509804918055 0 0.015021176718304668 -0.0030831854487713348 0 0.014715688516945047 -0.0026004012405603143 0 0.014854468690515658 -0.002887158641855383 0 0.015021176718304668 -0.0030831854487713348 0 0.014719989531263765 -0.003054792190581408 0 0.014854468690515658 -0.002887158641855383 0 0.010683733375693425 -0.0019592728630643259 0 0.010986569799827503 -0.0017722122448695558 0 0.011846301217938546 -0.0024693795049020913 0 0.010683733375693425 -0.0019592728630643259 0 0.011846301217938546 -0.0024693795049020913 0 0.011077569809582907 -0.0032944358036194744 0 0.010683733375693425 -0.0019592728630643259 0 0.011077569809582907 -0.0032944358036194744 0 0.0074369966220802506 -0.00033237961354593763 0 0.010683733375693425 -0.0019592728630643259 0 0.0095530868847001661 -0.00092615187378068523 0 0.010986569799827503 -0.0017722122448695558 0 0.010683733375693425 -0.0019592728630643259 0 0.0095530868847001661 -0.00092615187378068523 0 0.0074369966220802506 -0.00033237961354593763 0 0.0081979176477171463 -0.00052329108684452609 0 0.0090571886372197031 -0.00063377304062964105 0 0.0074369966220802506 -0.00033237961354593763 0 0.0090776189298146983 -0.00073178718200015151 0 0.0090389289363858039 -0.0026256267911327655 0 0.0099446099279568399 -0.001822563806912523 0 0.0076835637928283126 -0.00055030938574120256 0 0.0095530868847001661 -0.00092615187378068523 0 0.0074369966220802506 -0.00033237961354593763 0 0.0070740404797055428 0.00064830545473191397 0 0.0081979176477171463 -0.00052329108684452609 0 0.0073904002154540106 -0.00040320142637610619 0 0.0074369966220802506 -0.00033237961354593763 0 0.010881230846560213 -0.003359901357374814 0 0.010014596666101256 -0.0042154965682299431 0 0.010002818492235858 -0.0031695435447757262 0 0.0095530868847001661 -0.00092615187378068523 0 0.010027027033260616 -0.0013649962913128855 0 0.010186125952527492 -0.0010373164401648351 0 0.010593550881148349 -0.0023492262427823197 0 0.0090389289363858039 -0.0026256267911327655 0 0.011384801731956625 -0.0020987712535088777 0 0.010027027033260616 -0.0013649962913128855 0 0.010986569799827503 -0.0017722122448695558 0 0.0095530868847001661 -0.00092615187378068523 0 0.010027027033260616 -0.0013649962913128855 0 0.010986569799827503 -0.0017722122448695558 0 0.011384801731956625 -0.0020987712535088777 0 0.010986569799827503 -0.0017722122448695558 0 0.012095066714845991 -0.0021485876286647552 0 0.010986569799827503 -0.0017722122448695558 0 0.012095066714845991 -0.0021485876286647552 0 0.011846301217938546 -0.0024693795049020913 0 0.012095066714845991 -0.0021485876286647552 0 0.012704836131607366 -0.0025196845884471329 0 0.011846301217938546 -0.0024693795049020913 0 0.012757611883844841 -0.0021878126830151522 0 0.012095066714845991 -0.0021485876286647552 0 0.012704836131607366 -0.0025196845884471329 0 0.012837214996126873 -0.0030100019113867504 0 0.011846301217938546 -0.0024693795049020913 0 0.012678478100877709 -0.0038416844025493959 0 0.012704836131607366 -0.0025196845884471329 0 0.012837214996126873 -0.0030100019113867504 0 0.011846301217938546 -0.0024693795049020913 0 0.010320394357203083 -0.0010729329940375675 0 0.0091411474276120609 -0.0012559933708968598 0 0.0090571886372197031 -0.00063377304062964105 0 0.011846301217938546 -0.0024693795049020913 0 0.012705747878246751 -0.0038098180338353082 0 0.011077569809582907 -0.0032944358036194744 0 0.011972648178762738 -0.0027849010721648858 0 0.0099446099279568399 -0.001822563806912523 0 0.012189254810933955 -0.0029879582389053735 0 0.011972648178762738 -0.0027849010721648858 0 0.0091649622659703348 -0.00025862241764979042 0 0.01007766472914255 0.00018591789534973323 0 0.010320394357203083 -0.0010729329940375675 0 0.010006605292413982 -0.0015549620616673557 0 0.010810419353723903 -0.0018365922621460553 0 0.0081971196910918427 0.0011745150641450481 0 0.0080600032029658 0.0013308968460054957 0 0.0079363926556670784 0.0012877462018513269 0 0.0079123285227787402 0.00020971075480562409 0 0.0065441139376373764 0.0021081129088888098 0 0.0050469828463607196 0.0024688560229407823 0 0.0050309099241904248 0.0024961475310397527 0 0.0053270281249711048 0.0025327578491214516 0 0.0081971196910918427 0.0011745150641450481 0 0.0084551764326667375 0.0010532122425254121 0 0.0082414998860921226 0.0013076498344973709 0 0.010320394357203083 -0.0010729329940375675 0 0.010006605292413982 -0.0015549620616673557 0 0.0091411474276120609 -0.0012559933708968598 0 0.0091649622659703348 -0.00025862241764979042 0 0.0079123285227787402 0.00020971075480562409 0 0.0048739259052878658 0.0023606299340497802 0 0.0050309099241904248 0.0024961475310397527 0 0.0046651424556706858 0.0020558243389713579 0 0.0050469828463607196 0.0024688560229407823 0 0.0048739259052878658 0.0023606299340497802 0 0.004915449020934529 0.0024565787698040704 0 0.0050469828463607196 0.0024688560229407823 0 0.0048739259052878658 0.0023606299340497802 0 0.0050309099241904248 0.0024961475310397527 0 0.0079123285227787402 0.00020971075480562409 0 0.0062430225046671483 0.0004118032466078037 0 0.0081979176477171463 -0.00052329108684452609 0 0.0091411474276120609 -0.0012559933708968598 0 0.0090571886372197031 -0.00063377304062964105 0 0.0081979176477171463 -0.00052329108684452609 0 0.0095361063138611011 -0.0018974580072423828 0 0.0079237083721419542 -0.0013270928853584911 0 0.0088858717940003829 -0.0012712709441529584 0 0.0079123285227787402 0.00020971075480562409 0 0.0081979176477171463 -0.00052329108684452609 0 0.0073904002154540106 -0.00040320142637610619 0 0.0079237083721419542 -0.0013270928853584911 0 0.0046651424556706858 0.0020558243389713579 0 0.0048388157108943571 0.0022859086942665142 0 0.0050511122793392444 0.0019778213784878945 0 0.004915449020934529 0.0024565787698040704 0 0.0049610849039227294 0.0022978089016679466 0 0.0049188981309496319 0.0025213954869837121 0 0.0048388157108943571 0.0022859086942665142 0 0.004915449020934529 0.0024565787698040704 0 0.0049610849039227294 0.0022978089016679466 0 0.0048739259052878658 0.0023606299340497802 0 0.0046651424556706858 0.0020558243389713579 0 0.0048388157108943571 0.0022859086942665142 0 0.0048739259052878658 0.0023606299340497802 0 0.0048388157108943571 0.0022859086942665142 0 0.004915449020934529 0.0024565787698040704 0 0.0049610849039227294 0.0022978089016679466 0 0.0052106769000259765 0.0019935554893227218 0 0.0048877322506921603 0.0025747841227721701 0 0.0048388157108943571 0.0022859086942665142 0 0.0049610849039227294 0.0022978089016679466 0 0.0050511122793392444 0.0019778213784878945 0 0.0049610849039227294 0.0022978089016679466 0 0.0052106769000259765 0.0019935554893227218 0 0.0050511122793392444 0.0019778213784878945 0 0.0049610849039227294 0.0022978089016679466 0 0.0048877322506921603 0.0025747841227721701 0 0.0049188981309496319 0.0025213954869837121 0 0.0052106769000259765 0.0019935554893227218 0 0.0046912764807503339 0.0027768739888263615 0 0.0048877322506921603 0.0025747841227721701 0 0.0052106769000259765 0.0019935554893227218 0 0.0047276741816641467 0.002877292193128054 0 0.0044982330851648118 0.0033651031712900762 0 0.0050973415945274108 0.002151327489121801 0 0.004625411156369913 0.0030291091984325819 0 0.0051356955988217786 0.0019572660468342479 0 0.0049298301410782086 0.0023966831860718291 0 0.0053599364898011797 0.0010950275001643027 0 0.0052106769000259765 0.0019935554893227218 0 0.0051356955988217786 0.0019572660468342479 0 0.0053440250368044697 0.0014485834618215368 0 0.0052106769000259765 0.0019935554893227218 0 0.0051356955988217786 0.0019572660468342479 0 0.0047276741816641467 0.002877292193128054 0 0.0051356955988217786 0.0019572660468342479 0 0.0053440250368044697 0.0014485834618215368 0 0.0053599364898011797 0.0010950275001643027 0 0.0053440250368044697 0.0014485834618215368 0 0.0057088283162248146 0.00063820384215287039 0 0.0053599364898011797 0.0010950275001643027 0 0.0052106769000259765 0.0019935554893227218 0 0.0053440250368044697 0.0014485834618215368 0 0.0057088283162248146 0.00063820384215287039 0 0.0073904002154540106 -0.00040320142637610619 0 0.0079237083721419542 -0.0013270928853584911 0 0.0057088283162248146 0.00063820384215287039 0 0.0046651424556706858 0.0020558243389713579 0 0.0057088283162248146 0.00063820384215287039 0 0.0050511122793392444 0.0019778213784878945 0 0.0062430225046671483 0.0004118032466078037 0 0.005907204195008774 0.00054653531116179177 0 0.0052106769000259765 0.0019935554893227218 0 0.0057088283162248146 0.00063820384215287039 0 0.0050511122793392444 0.0019778213784878945 0 0.0035618520480159939 0.004496391177473239 0 0.0043315821263162939 0.0036538939252769484 0 0.0030301309060972266 0.0039176361017817752 0 0.0048103989530151377 0.0032873359127630329 0 0.0043315821263162939 0.0036538939252769484 0 0.0049298301410782086 0.0023966831860718291 0 0.0037329484751393465 -0.00019403656497831063 0 0.0034116179217910715 0.0032981865223061122 0 0.0043315821263162939 0.0036538939252769484 0 0.0047276741816641467 0.002877292193128054 0 0.0049298301410782086 0.0023966831860718291 0 0.0043315821263162939 0.0036538939252769484 0 0.0047276741816641467 0.002877292193128054 0 0.0044982330851648118 0.0033651031712900762 0 0.0061095943953155566 -0.0019502252694079038 0 0.0064362950164050907 -0.0021179837514028765 0 0.0051356955988217786 0.0019572660468342479 0 0.0047276741816641467 0.002877292193128054 0 0.0049298301410782086 0.0023966831860718291 0 0.0058824176241547782 -0.0067010598385693161 0 0.0069498205390334227 -0.0059978981175352357 0 0.0059958544625723677 -0.0053350954221277943 0 0.0037329484751393465 -0.00019403656497831063 0 0.0061095943953155566 -0.0019502252694079038 0 0.0059958544625723677 -0.0053350954221277943 0 0.006852829704226863 -0.005026448303229604 0 0.005942038823751287 -0.0041140566819784438 0 0.0069498205390334227 -0.0059978981175352357 0 0.0059958544625723677 -0.0053350954221277943 0 0.006852829704226863 -0.005026448303229604 0 0.006852829704226863 -0.005026448303229604 0 0.0074220551057061959 -0.0043947839890880842 0 0.0079547624772520146 -0.0053068210600971527 0 0.0069498205390334227 -0.0059978981175352357 0 0.006852829704226863 -0.005026448303229604 0 0.0079547624772520146 -0.0053068210600971527 0 0.006852829704226863 -0.005026448303229604 0 0.0074220551057061959 -0.0043947839890880842 0 0.005942038823751287 -0.0041140566819784438 0 0.0082194208810990096 -0.0042403159067665001 0 0.0067669601197784699 -0.0031653678515261136 0 0.005942038823751287 -0.0041140566819784438 0 0.0079191120422216089 -0.0045905032642236474 0 0.0059518851320312744 -0.0040232857890821812 0 0.0057088283162248146 0.00063820384215287039 0 0.0053599364898011797 0.0010950275001643027 0 0.0070740404797055428 0.00064830545473191397 0 0.0064362950164050907 -0.0021179837514028765 0 0.0090389289363858039 -0.0026256267911327655 0 0.0057088283162248146 0.00063820384215287039 0 0.0074369966220802506 -0.00033237961354593763 0 0.0070740404797055428 0.00064830545473191397 0 0.0073904002154540106 -0.00040320142637610619 0 0.0057088283162248146 0.00063820384215287039 0 0.0074369966220802506 -0.00033237961354593763 0 0.0074220551057061959 -0.0043947839890880842 0 0.0079547624772520146 -0.0053068210600971527 0 0.0089502291179618526 -0.0046329272920348878 0 0.0082194208810990096 -0.0042403159067665001 0 0.0093282346483166273 -0.0037263709746774643 0 0.0090679724266390632 -0.0032896618182996773 0 0.0079191120422216089 -0.0045905032642236474 0 0.0090389289363858039 -0.0026256267911327655 0 0.0082194208810990096 -0.0042403159067665001 0 0.010014596666101256 -0.0042154965682299431 0 0.0093282346483166273 -0.0037263709746774643 0 0.010014596666101256 -0.0042154965682299431 0 0.0093282346483166273 -0.0037263709746774643 0 0.010002818492235858 -0.0031695435447757262 0 0.010002818492235858 -0.0031695435447757262 0 0.0094146698296763281 -0.0025070102086098135 0 0.0090679724266390632 -0.0032896618182996773 0 0.0093282346483166273 -0.0037263709746774643 0 0.010002818492235858 -0.0031695435447757262 0 0.0090679724266390632 -0.0032896618182996773 0 0.010466343929273036 -0.0022788617209394471 0 0.010002818492235858 -0.0031695435447757262 0 0.0094146698296763281 -0.0025070102086098135 0 0.010466343929273036 -0.0022788617209394471 0 0.0094146698296763281 -0.0025070102086098135 0 0.0099593501377447935 -0.0014665157671666454 0 0.0094146698296763281 -0.0025070102086098135 0 0.0080611414796957249 -0.0027148305661476311 0 0.008665032831139936 -0.0018079795521617173 0 0.0094146698296763281 -0.0025070102086098135 0 0.0099593501377447935 -0.0014665157671666454 0 0.008665032831139936 -0.0018079795521617173 0 0.0094146698296763281 -0.0025070102086098135 0 0.0090679724266390632 -0.0032896618182996773 0 0.0080611414796957249 -0.0027148305661476311 0 0.0082194208810990096 -0.0042403159067665001 0 0.0090679724266390632 -0.0032896618182996773 0 0.0080611414796957249 -0.0027148305661476311 0 0.0082194208810990096 -0.0042403159067665001 0 0.0067669601197784699 -0.0031653678515261136 0 0.0080611414796957249 -0.0027148305661476311 0 0.0067669601197784699 -0.0031653678515261136 0 0.007084370599076361 -0.0021282485694966327 0 0.0059837574937398694 -0.0025023039053255233 0 0.007084370599076361 -0.0021282485694966327 0 0.00666773455947551 -0.0013025151879585042 0 0.0059837574937398694 -0.0025023039053255233 0 0.0080611414796957249 -0.0027148305661476311 0 0.0077953552422420427 -0.0019840521347693945 0 0.008665032831139936 -0.0018079795521617173 0 0.0067669601197784699 -0.0031653678515261136 0 0.007084370599076361 -0.0021282485694966327 0 0.0080611414796957249 -0.0027148305661476311 0 0.007084370599076361 -0.0021282485694966327 0 0.0080611414796957249 -0.0027148305661476311 0 0.0077953552422420427 -0.0019840521347693945 0 0.0073310893858723929 -0.0014724155858679261 0 0.0088217245497869568 -0.00074591271098981753 0 0.008665032831139936 -0.0018079795521617173 0 0.0077953552422420427 -0.0019840521347693945 0 0.0073310893858723929 -0.0014724155858679261 0 0.008665032831139936 -0.0018079795521617173 0 0.007084370599076361 -0.0021282485694966327 0 0.0077953552422420427 -0.0019840521347693945 0 0.0073310893858723929 -0.0014724155858679261 0 0.007084370599076361 -0.0021282485694966327 0 0.0073310893858723929 -0.0014724155858679261 0 0.00666773455947551 -0.0013025151879585042 0 0.0062492353522451381 0.00044437278295138895 0 0.0062270121009632452 -0.00075928167866641061 0 0.0066722043615112803 -0.00036111295566834797 0 0.00666773455947551 -0.0013025151879585042 0 0.007246947044845191 -0.00097466715056772628 0 0.0073310893858723929 -0.0014724155858679261 0 0.00666773455947551 -0.0013025151879585042 0 0.007246947044845191 -0.00097466715056772628 0 0.0078236097358891296 -0.00051487124958328196 0 0.007246947044845191 -0.00097466715056772628 0 0.008361527433341771 -0.0012600300511492917 0 0.0073310893858723929 -0.0014724155858679261 0 0.007246947044845191 -0.00097466715056772628 0 0.008361527433341771 -0.0012600300511492917 0 0.0074486712607286102 -0.0014703808397962769 0 0.0085810253708395925 -0.0010104633089023192 0 0.0098810948279007514 -0.00056913709367321106 0 0.0085810253708395925 -0.0010104633089023192 0 0.010055093217645078 -0.00042297975114595222 0 0.010731140106210332 -0.00098214104279699551 0 0.0099593501377447935 -0.0014665157671666454 0 0.010055093217645078 -0.00042297975114595222 0 0.0088217245497869568 -0.00074591271098981753 0 0.0099593501377447935 -0.0014665157671666454 0 0.0088217245497869568 -0.00074591271098981753 0 0.0099593501377447935 -0.0014665157671666454 0 0.008665032831139936 -0.0018079795521617173 0 0.0020938931648314756 -0.0012803377900835503 0 0.00039361403698818652 4.3626481258371945e-05 0 0.0030431210005483719 0.00058020726609924269 0 0.0020938931648314756 -0.0012803377900835503 0 0.00039361403698818652 4.3626481258371945e-05 0 -0.00051014487365849107 -0.0019796811852299456 0 -0.0022466217220955919 0.00040366466390688441 0 0.00039361403698818652 4.3626481258371945e-05 0 -0.00051014487365849107 -0.0019796811852299456 0 -0.0022466217220955919 0.00040366466390688441 0 0.00039361403698818652 4.3626481258371945e-05 0 -0.00074474482981123783 0.0022724187163218148 0 0.00039361403698818652 4.3626481258371945e-05 0 -0.00074474482981123783 0.0022724187163218148 0 0.00071616654083499177 0.0024189612819806596 0 -0.00032968750307284153 0.004149089324133398 0 -0.00074474482981123783 0.0022724187163218148 0 0.00071616654083499177 0.0024189612819806596 0 0.0013577220716291798 0.0051508384221784402 0 0.00071616654083499177 0.0024189612819806596 0 0.0030431210005483719 0.00058020726609924269 0 0.0035438716156358579 0.0012019007805623284 0 0.0030431210005483719 0.00058020726609924269 0 0.0035104151781425977 0.000914106590438173 0 0.0023408089225348118 0.0040450218171512783 0 0.0031206954041725962 0.00026705725459132926 0 0.00039361403698818652 4.3626481258371945e-05 0 0.00071616654083499177 0.0024189612819806596 0 0.0030431210005483719 0.00058020726609924269 0 0.0047273560760892263 0.00090204643567081202 0 0.0035104151781425977 0.000914106590438173 0 0.0039015920412752239 0.00056470118370202161 0 0.0047273560760892263 0.00090204643567081202 0 0.0039015920412752239 0.00056470118370202161 0 0.0046508842777879499 0.00011663125261440346 0 0.0030431210005483719 0.00058020726609924269 0 0.0035104151781425977 0.000914106590438173 0 0.0039015920412752239 0.00056470118370202161 0 0.0047273560760892263 0.00090204643567081202 0 0.0058504693040382187 -5.7054952129701727e-05 0 0.0046508842777879499 0.00011663125261440346 0 0.0057698125561560266 0.0011377499538289702 0 0.0047273560760892263 0.00090204643567081202 0 0.0058504693040382187 -5.7054952129701727e-05 0 0.0058504693040382187 -5.7054952129701727e-05 0 0.0046508842777879499 0.00011663125261440346 0 0.0049448241571881536 -0.001053709989295379 0 0.0058504693040382187 -5.7054952129701727e-05 0 0.0049448241571881536 -0.001053709989295379 0 0.0059837574937398694 -0.0025023039053255233 0 0.0062270121009632452 -0.00075928167866641061 0 0.0059949310352898078 -0.0024421166396555818 0 0.0020938931648314756 -0.0012803377900835503 0 0.0030431210005483719 0.00058020726609924269 0 0.0037916888749218707 -0.0005601247335831086 0 0.0030431210005483719 0.00058020726609924269 0 0.0039015920412752239 0.00056470118370202161 0 0.0037916888749218707 -0.0005601247335831086 0 0.0039015920412752239 0.00056470118370202161 0 0.0046508842777879499 0.00011663125261440346 0 0.0037916888749218707 -0.0005601247335831086 0 0.0046508842777879499 0.00011663125261440346 0 0.0049448241571881536 -0.001053709989295379 0 0.0037916888749218707 -0.0005601247335831086 0 0.0049448241571881536 -0.001053709989295379 0 0.0037916888749218707 -0.0005601247335831086 0 0.0043494011331437921 -0.002687486559412059 0 0.0020938931648314756 -0.0012803377900835503 0 0.0037916888749218707 -0.0005601247335831086 0 0.0043494011331437921 -0.002687486559412059 0 0.0049448241571881536 -0.001053709989295379 0 0.0043494011331437921 -0.002687486559412059 0 0.0059837574937398694 -0.0025023039053255233 0 0.0067669601197784699 -0.0031653678515261136 0 0.0059837574937398694 -0.0025023039053255233 0 0.0051689005966260426 -0.0034956774633143829 0 0.0067669601197784699 -0.0031653678515261136 0 0.0051689005966260426 -0.0034956774633143829 0 0.005942038823751287 -0.0041140566819784438 0 0.0043494011331437921 -0.002687486559412059 0 0.0059837574937398694 -0.0025023039053255233 0 0.0051689005966260426 -0.0034956774633143829 0 0.0043494011331437921 -0.002687486559412059 0 0.0051689005966260426 -0.0034956774633143829 0 0.0037370164314988121 -0.0036768220098263855 0 0.0043494011331437921 -0.002687486559412059 0 0.0023360804496185507 -0.0054158654064441767 0 0.001649756873043251 -0.0031584021882691909 0 0.0042541461232216563 -0.0028453436677268735 0 0.0031417591448007569 -0.0046051769117371666 0 0.0023360804496185507 -0.0054158654064441767 0 0.001649756873043251 -0.0031584021882691909 0 -0.00019802190117705658 -0.0045666717825470424 0 0.0020938931648314756 -0.0012803377900835503 0 0.001649756873043251 -0.0031584021882691909 0 -0.00051014487365849107 -0.0019796811852299456 0 0.0020938931648314756 -0.0012803377900835503 0 0.0043494011331437921 -0.002687486559412059 0 0.001649756873043251 -0.0031584021882691909 0 -0.0037526163447899118 -0.0016172877255141121 0 -0.002337271590204827 -0.0034491052896369299 0 -0.00051014487365849107 -0.0019796811852299456 0 -0.002337271590204827 -0.0034491052896369299 0 -0.00051014487365849107 -0.0019796811852299456 0 -0.00019802190117705658 -0.0045666717825470424 0 0.001649756873043251 -0.0031584021882691909 0 -0.00051014487365849107 -0.0019796811852299456 0 -0.00019802190117705658 -0.0045666717825470424 0 -0.002337271590204827 -0.0034491052896369299 0 -0.00019802190117705658 -0.0045666717825470424 0 -0.0021878230044533394 -0.0062592055650730659 0 -0.00019802190117705658 -0.0045666717825470424 0 -0.0021878230044533394 -0.0062592055650730659 0 0.00015345462130773242 -0.0080585112332791555 0 -0.0039915856238465636 -0.0060288907808118148 0 -0.0039006573458316394 -0.0049392996605907395 0 -0.0028304136083064564 -0.0057950531667058346 0 -0.003061521198751061 -0.0056179318256385832 0 -9.395040466554873e-05 -0.0049272031220421869 0 0.0023360804496185507 -0.0054158654064441767 0 -0.00019802190117705658 -0.0045666717825470424 0 0.00015345462130773242 -0.0080585112332791555 0 0.0037370164314988121 -0.0036768220098263855 0 0.0029428073888040436 -0.0046431835691144998 0 0.0047005719327685358 -0.0044794229924683664 0 0.0031417591448007569 -0.0046051769117371666 0 -9.395040466554873e-05 -0.0049272031220421869 0 -0.0005723114199306928 -0.0011731622863663273 0 -0.00021293448248653037 -0.0014099388039993882 0 -0.00053778108976979227 -0.0014772372491341336 0 -9.395040466554873e-05 -0.0049272031220421869 0 0.0018748639306823305 -0.0032033691368563541 0 0.0029428073888040436 -0.0046431835691144998 0 0.0039635598449662846 -0.005376207483314765 0 0.0047005719327685358 -0.0044794229924683664 0 -0.0005723114199306928 -0.0011731622863663273 0 -0.00053778108976979227 -0.0014772372491341336 0 -0.0008828905354445613 -0.0015058683391597544 0 -0.0039915856238465636 -0.0060288907808118148 0 -0.0028304136083064564 -0.0057950531667058346 0 -0.0039321268237349667 -0.0070495622594168002 0 -9.395040466554873e-05 -0.0049272031220421869 0 -0.0024878991143368477 -0.0041121117471349111 0 0.0059958544625723677 -0.0053350954221277943 0 0.005942038823751287 -0.0041140566819784438 0 0.0047005719327685358 -0.0044794229924683664 0 0.0051689005966260426 -0.0034956774633143829 0 0.005942038823751287 -0.0041140566819784438 0 0.0047005719327685358 -0.0044794229924683664 0 0.0051689005966260426 -0.0034956774633143829 0 0.0037370164314988121 -0.0036768220098263855 0 0.0047005719327685358 -0.0044794229924683664 0 0.0039635598449662846 -0.005376207483314765 0 0.0047005719327685358 -0.0044794229924683664 0 0.0049538522482832914 -0.0060535329347904746 0 0.0059958544625723677 -0.0053350954221277943 0 0.0047005719327685358 -0.0044794229924683664 0 0.0049538522482832914 -0.0060535329347904746 0 0.0037329484751393465 -0.00019403656497831063 0 0.0027219392616874565 -0.0042623097316629149 0 5.7213585067126043e-05 -0.0015522442036455563 0 0.00019852250137383418 -0.0016990858251245652 0 0.00018836060640914552 -0.0016729476004606022 0 0.0058824176241547782 -0.0067010598385693161 0 0.0059958544625723677 -0.0053350954221277943 0 0.0049538522482832914 -0.0060535329347904746 0 0.0018748639306823305 -0.0032033691368563541 0 0.0027219392616874565 -0.0042623097316629149 0 -0.00021293448248653037 -0.0014099388039993882 0 0.00019852250137383418 -0.0016990858251245652 0 -0.00012180821469961892 -0.0016966096016993659 0 0.00019852250137383418 -0.0016990858251245652 0 0.00018836060640914552 -0.0016729476004606022 0 2.852896068078854e-05 -0.001776474641728404 0 0.00019852250137383418 -0.0016990858251245652 0 2.852896068078854e-05 -0.001776474641728404 0 -0.00012180821469961892 -0.0016966096016993659 0 -0.00012180821469961892 -0.0016966096016993659 0 -9.9738657133452186e-05 -0.0018618226590849222 0 -0.00033528583787800173 -0.0016827402940825886 0 2.852896068078854e-05 -0.001776474641728404 0 -0.00012180821469961892 -0.0016966096016993659 0 -9.9738657133452186e-05 -0.0018618226590849222 0 2.852896068078854e-05 -0.001776474641728404 0 -9.9738657133452186e-05 -0.0018618226590849222 0 -0.00020696481980974374 -0.0021864053212950528 0 0.00018836060640914552 -0.0016729476004606022 0 0.00037859969958777863 -0.0012401701384193761 0 0.00049840061426370433 -0.0013196948134390964 0 0.00023404021477125989 -0.0015840047525874543 0 6.9079761487859484e-05 -0.0020050172924731668 0 0.00018836060640914552 -0.0016729476004606022 0 2.852896068078854e-05 -0.001776474641728404 0 -0.00020696481980974374 -0.0021864053212950528 0 -9.9738657133452186e-05 -0.0018618226590849222 0 -0.0002677039666375377 -0.0020193462805178806 0 -0.00020696481980974374 -0.0021864053212950528 0 5.7213585067126043e-05 -0.0015522442036455563 0 0.00018836060640914552 -0.0016729476004606022 0 0.00037859969958777863 -0.0012401701384193761 0 0.0037329484751393465 -0.00019403656497831063 0 0.00086686222426943813 0.0021005413148943871 0 -0.00053778108976979227 -0.0014772372491341336 0 -0.0008828905354445613 -0.0015058683391597544 0 -0.00063512166426911887 -0.0019029004996191277 0 -0.00094074521040465821 -0.0020135881697001343 0 -0.0008828905354445613 -0.0015058683391597544 0 -0.00063512166426911887 -0.0019029004996191277 0 -0.00053778108976979227 -0.0014772372491341336 0 -0.00033528583787800173 -0.0016827402940825886 0 -0.00063512166426911887 -0.0019029004996191277 0 -0.00021293448248653037 -0.0014099388039993882 0 -0.00012180821469961892 -0.0016966096016993659 0 -0.00033528583787800173 -0.0016827402940825886 0 -0.00021293448248653037 -0.0014099388039993882 0 -0.00053778108976979227 -0.0014772372491341336 0 -0.00033528583787800173 -0.0016827402940825886 0 -0.00035444426421028222 -0.0019444697273617382 0 -0.0004050451609629618 -0.0020833596999058853 0 -0.00063512166426911887 -0.0019029004996191277 0 -0.0004050451609629618 -0.0020833596999058853 0 -0.00063512166426911887 -0.0019029004996191277 0 -0.0005946816620771069 -0.002238567667828156 0 -0.00033528583787800173 -0.0016827402940825886 0 -0.00035444426421028222 -0.0019444697273617382 0 -0.00063512166426911887 -0.0019029004996191277 0 -9.9738657133452186e-05 -0.0018618226590849222 0 -0.00035444426421028222 -0.0019444697273617382 0 -0.0002677039666375377 -0.0020193462805178806 0 -9.9738657133452186e-05 -0.0018618226590849222 0 -0.00033528583787800173 -0.0016827402940825886 0 -0.00035444426421028222 -0.0019444697273617382 0 -0.0002677039666375377 -0.0020193462805178806 0 -0.0004050451609629618 -0.0020833596999058853 0 -0.00020696481980974374 -0.0021864053212950528 0 -0.00035444426421028222 -0.0019444697273617382 0 -0.0002677039666375377 -0.0020193462805178806 0 -0.0004050451609629618 -0.0020833596999058853 0 -0.00094074521040465821 -0.0020135881697001343 0 -0.00063512166426911887 -0.0019029004996191277 0 -0.0005946816620771069 -0.002238567667828156 0 -0.0005946816620771069 -0.002238567667828156 0 -0.00088323388030942267 -0.0024518703379152289 0 -0.0006366006530405308 -0.0025591454181915461 0 -0.0005946816620771069 -0.002238567667828156 0 -0.00088323388030942267 -0.0024518703379152289 0 -0.00099613673852529529 -0.0022683731342590259 0 -0.00094074521040465821 -0.0020135881697001343 0 -0.0005946816620771069 -0.002238567667828156 0 -0.00099613673852529529 -0.0022683731342590259 0 0.00080306122887481926 -0.00089853544937929138 0 0.00037859969958777863 -0.0012401701384193761 0 0.00049840061426370433 -0.0013196948134390964 0 9.2931541015962792e-05 -0.00037172579900979338 0 0.00086686222426943813 0.0021005413148943871 0 -0.0004050451609629618 -0.0020833596999058853 0 -0.0005946816620771069 -0.002238567667828156 0 -0.00020696481980974374 -0.0021864053212950528 0 -0.0005946816620771069 -0.002238567667828156 0 -0.0006366006530405308 -0.0025591454181915461 0 -0.00020696481980974374 -0.0021864053212950528 0 9.2931541015962792e-05 -0.00037172579900979338 0 6.9079761487859484e-05 -0.0020050172924731668 0 8.3614937627113364e-05 0.0041749948471744118 0 0.0012332059064750758 0.0038947754056210169 0 -0.00011157212196152208 0.0038561503607799619 0 8.3614937627113364e-05 0.0041749948471744118 0 0.001771625659103407 0.0044083830455183643 0 0.0012332059064750758 0.0038947754056210169 0 9.2931541015962792e-05 -0.00037172579900979338 0 -0.0020809194073378723 0.0023446847044175387 0 -0.0012977965038810074 -0.0025894139014605204 0 9.2931541015962792e-05 -0.00037172579900979338 0 -0.00085988445013976975 -0.0026653474838357958 0 -0.00057961776460095627 -0.0024626019904887908 0 -0.00083387328463142764 -0.0027423079315404518 0 -0.00085988445013976975 -0.0026653474838357958 0 -0.00088323388030942267 -0.0024518703379152289 0 -0.0006366006530405308 -0.0025591454181915461 0 0.0035618520480159939 0.004496391177473239 0 0.0030301309060972266 0.0039176361017817752 0 0.001771625659103407 0.0044083830455183643 0 0.0030301309060972266 0.0039176361017817752 0 0.001771625659103407 0.0044083830455183643 0 0.0023976597841446098 0.0036366107179028645 0 0.001771625659103407 0.0044083830455183643 0 0.0012332059064750758 0.0038947754056210169 0 0.0023976597841446098 0.0036366107179028645 0 0.0030301309060972266 0.0039176361017817752 0 0.0023976597841446098 0.0036366107179028645 0 0.0035024192852577403 0.0033366502630970056 0 0.0023976597841446098 0.0036366107179028645 0 0.0014339169566704012 0.0033578894506659119 0 0.0024696331833265303 0.0026616836375302835 0 0.0023976597841446098 0.0036366107179028645 0 0.0024696331833265303 0.0026616836375302835 0 0.0035024192852577403 0.0033366502630970056 0 0.0012332059064750758 0.0038947754056210169 0 0.0023976597841446098 0.0036366107179028645 0 0.0014339169566704012 0.0033578894506659119 0 0.0014339169566704012 0.0033578894506659119 0 0.00087832684843640871 0.0025383532997159536 0 0.0024696331833265303 0.0026616836375302835 0 -0.0024023395090386596 0.0054064004312206143 0 -0.00011157212196152208 0.0038561503607799619 0 -0.0024937235911441161 0.0031639204029528974 0 8.3614937627113364e-05 0.0041749948471744118 0 -0.00015892177966490511 0.0039941471770636103 0 -0.00011157212196152208 0.0038561503607799619 0 -0.0020809194073378723 0.0023446847044175387 0 -0.00036603460176444849 0.0040437585633657435 0 0.0012332059064750758 0.0038947754056210169 0 0.0014339169566704012 0.0033578894506659119 0 -0.00011157212196152208 0.0038561503607799619 0 0.0014339169566704012 0.0033578894506659119 0 0.00087832684843640871 0.0025383532997159536 0 -0.00011157212196152208 0.0038561503607799619 0 0.00087832684843640871 0.0025383532997159536 0 -0.00011157212196152208 0.0038561503607799619 0 -0.0019659818846335594 0.0020300854759198335 0 -0.00011157212196152208 0.0038561503607799619 0 -0.0024937235911441161 0.0031639204029528974 0 -0.0019659818846335594 0.0020300854759198335 0 -0.0024937235911441161 0.0031639204029528974 0 -0.0019659818846335594 0.0020300854759198335 0 -0.0050348555223192143 0.0026229802440422769 0 -0.0019659818846335594 0.0020300854759198335 0 -0.0024464368479444614 0.00067821713174076007 0 -0.0053504497483845047 0.0014068889244917525 0 -0.0024464368479444614 0.00067821713174076007 0 0.0011881053138104248 0.0012742730809616408 0 -5.3089424134713373e-05 -0.00047854488482539673 0 -0.0019659818846335594 0.0020300854759198335 0 -0.0024464368479444614 0.00067821713174076007 0 0.0011881053138104248 0.0012742730809616408 0 0.00087832684843640871 0.0025383532997159536 0 -0.0019659818846335594 0.0020300854759198335 0 0.0011881053138104248 0.0012742730809616408 0 0.00087832684843640871 0.0025383532997159536 0 0.0024696331833265303 0.0026616836375302835 0 0.0023458297875155448 0.0016912496070705027 0 0.00087832684843640871 0.0025383532997159536 0 0.0023458297875155448 0.0016912496070705027 0 0.0011881053138104248 0.0012742730809616408 0 0.0024696331833265303 0.0026616836375302835 0 0.0023458297875155448 0.0016912496070705027 0 0.0031309199970859978 0.0018690226185657821 0 0.0023458297875155448 0.0016912496070705027 0 0.0025432263092601687 0.0014514560582026988 0 0.0028741717332940032 0.0012391584004898641 0 0.0023458297875155448 0.0016912496070705027 0 0.0011881053138104248 0.0012742730809616408 0 0.0025432263092601687 0.0014514560582026988 0 0.0011881053138104248 0.0012742730809616408 0 0.0025432263092601687 0.0014514560582026988 0 0.0025915751893355325 0.0016627609003738184 0 0.0019033463973466879 0.00039818829306309642 0 1.7453591362873733e-06 0.0018135573991382777 0 0.0011881053138104248 0.0012742730809616408 0 0.001655404923261764 -0.0020789236149579785 0 -5.3089424134713373e-05 -0.00047854488482539673 0 0.0025432263092601687 0.0014514560582026988 0 0.0032916657348853943 0.0018869326156489494 0 0.0025915751893355325 0.0016627609003738184 0 0.0033907255692466956 0.0018994807910697692 0 0.0045751724986353706 0.0024534895767885294 0 0.0025432263092601687 0.0014514560582026988 0 0.0032916657348853943 0.0018869326156489494 0 0.0028741717332940032 0.0012391584004898641 0 0.0032916657348853943 0.0018869326156489494 0 0.0057548294379837876 0.0030524809051899128 0 0.0063732347724052112 0.0037836576771534372 0 0.0084116764133460795 0.0045412077655943807 0 0.0024859615365514804 0.0053350528118150916 0 0.0032916657348853943 0.0018869326156489494 0 0.0044226763202261975 0.001999006698403936 0 0.0057548294379837876 0.0030524809051899128 0 0.0065852651861993735 0.0043387799654675428 0 0.0058789215887884421 0.0041953680193849629 0 0.0049509830104319799 0.0047634338775411336 0 0.0058937858362897427 0.0031130805991258672 0 1.7453591362873733e-06 0.0018135573991382777 0 0.0032916657348853943 0.0018869326156489494 0 0.0044226763202261975 0.001999006698403936 0 0.0025915751893355325 0.0016627609003738184 0 0.0065414586964965601 0.0037751170019324986 0 0.0070614470445932815 0.0040501790049840081 0 0.0060295115870276726 0.0031334332721769933 0 0.0065852651861993735 0.0043387799654675428 0 0.0058789215887884421 0.0041953680193849629 0 0.0061815918918676936 0.0038720573388570721 0 0.0058789215887884421 0.0041953680193849629 0 0.0056523755294524084 0.0037934552448903474 0 0.0061815918918676936 0.0038720573388570721 0 0.0056523755294524084 0.0037934552448903474 0 0.0058797039256677603 0.0034160204576697685 0 0.0061815918918676936 0.0038720573388570721 0 0.0058797039256677603 0.0034160204576697685 0 0.0061658602722336258 0.0035450117015395832 0 0.0061815918918676936 0.0038720573388570721 0 0.0061658602722336258 0.0035450117015395832 0 0.0065414586964965601 0.0037751170019324986 0 0.0060295115870276726 0.0031334332721769933 0 0.0065852651861993735 0.0043387799654675428 0 0.0061815918918676936 0.0038720573388570721 0 0.0065414586964965601 0.0037751170019324986 0 0.0065852651861993735 0.0043387799654675428 0 0.0065414586964965601 0.0037751170019324986 0 0.0070614470445932815 0.0040501790049840081 0 0.0061658602722336258 0.0035450117015395832 0 0.0061815918918676936 0.0038720573388570721 0 0.0065414586964965601 0.0037751170019324986 0 1.7453591362873733e-06 0.0018135573991382777 0 -0.0045172336113639211 0.0028122426944674475 0 0.0056523755294524084 0.0037934552448903474 0 0.0049509830104319799 0.0047634338775411336 0 0.0052888011634865369 0.0026911880072226515 0 -0.0084370846597926694 0.0010346797357968617 0 -0.0082288009109115264 0.0016734564936403686 0 -0.0086279472413719905 0.0019985375658111088 0 0.0058789215887884421 0.0041953680193849629 0 0.0056523755294524084 0.0037934552448903474 0 0.0049509830104319799 0.0047634338775411336 0 -0.0084370846597926694 0.0010346797357968617 0 -0.0082288009109115264 0.0016734564936403686 0 -0.0077801877038266775 0.0015865310968468469 0 -0.0077801877038266775 0.0015865310968468469 0 -0.0072963813483637781 0.0007214075856812217 0 -0.0070172670327122494 0.0018927308829583926 0 -0.0084370846597926694 0.0010346797357968617 0 -0.0077801877038266775 0.0015865310968468469 0 -0.0072963813483637781 0.0007214075856812217 0 -0.0072963813483637781 0.0007214075856812217 0 -0.0070172670327122494 0.0018927308829583926 0 -0.0054206277181030847 0.00045283209900393847 0 -0.005144551975567597 -0.00048375623866990291 0 -0.0050208775499880759 0.00029913662008244088 0 -0.0024464368479444614 0.00067821713174076007 0 -0.0016428798344426607 -0.0014753362369511278 0 -0.0054206277181030847 0.00045283209900393847 0 0.001655404923261764 -0.0020789236149579785 0 -5.3089424134713373e-05 -0.00047854488482539673 0 -0.0016428798344426607 -0.0014753362369511278 0 -0.0024464368479444614 0.00067821713174076007 0 -5.3089424134713373e-05 -0.00047854488482539673 0 -0.0016428798344426607 -0.0014753362369511278 0 1.7453591362873733e-06 0.0018135573991382777 0 -0.005144551975567597 -0.00048375623866990291 0 0.0050263387002756656 0.0039752090615851905 0 0.005473631311299877 0.0030318201404932466 0 0.0041750751549710146 0.0036616154575207561 0 0.0050263387002756656 0.0039752090615851905 0 0.005473631311299877 0.0030318201404932466 0 0.0060238089416359613 0.0043660203780965896 0 0.0050263387002756656 0.0039752090615851905 0 0.0041750751549710146 0.0036616154575207561 0 0.0045202587955781078 0.0048568324324886067 0 0.0054817749026021684 0.0029586999327809063 0 0.0046365138553348725 0.0028244717857246649 0 0.0041750751549710146 0.0036616154575207561 0 0.0045202587955781078 0.0048568324324886067 0 0.003704600787320155 0.0045306476625067175 0 0.0049781796241067508 0.0056365155780906092 0 0.0060238089416359613 0.0043660203780965896 0 0.0058062894893105583 0.0060791485157677821 0 0.0047758182247858673 0.0051976958273381099 0 0.0060216531734630305 0.0044711661766604844 0 0.0050263387002756656 0.0039752090615851905 0 0.0045202587955781078 0.0048568324324886067 0 0.0060238089416359613 0.0043660203780965896 0 0.0064045549233286113 0.004197777778671986 0 0.0067922566931277279 0.0045421461012041678 0 0.0064841296681586143 0.0052889913409161814 0 0.0064045549233286113 0.004197777778671986 0 0.0060238089416359613 0.0043660203780965896 0 0.0064841296681586143 0.0052889913409161814 0 0.0064045549233286113 0.004197777778671986 0 0.0060238089416359613 0.0043660203780965896 0 0.0063379967679972659 0.0036238170331210876 0 0.0044226763202261975 0.001999006698403936 0 0.0066521253176185001 0.0036344024523438817 0 0.0057548294379837876 0.0030524809051899128 0 0.0065852651861993735 0.0043387799654675428 0 0.0070614470445932815 0.0040501790049840081 0 0.0066521253176185001 0.0036344024523438817 0 0.0058937858362897427 0.0031130805991258672 0 0.006088713370548937 0.0034828350112307309 0 0.0070614470445932815 0.0040501790049840081 0 0.0080045083928644827 0.0050305294109687796 0 0.0073471136517113582 0.0049076836239032072 0 0.0070614470445932815 0.0040501790049840081 0 0.0067922566931277279 0.0045421461012041678 0 0.0073471136517113582 0.0049076836239032072 0 0.0070614470445932815 0.0040501790049840081 0 0.0067922566931277279 0.0045421461012041678 0 0.0066521253176185001 0.0036344024523438817 0 0.0064045549233286113 0.004197777778671986 0 0.0067922566931277279 0.0045421461012041678 0 0.0066521253176185001 0.0036344024523438817 0 0.0064045549233286113 0.004197777778671986 0 0.0066521253176185001 0.0036344024523438817 0 0.0063379967679972659 0.0036238170331210876 0 0.0057548294379837876 0.0030524809051899128 0 0.0063379967679972659 0.0036238170331210876 0 0.0063732347724052112 0.0037836576771534372 0 0.0066521253176185001 0.0036344024523438817 0 0.0057548294379837876 0.0030524809051899128 0 0.0063379967679972659 0.0036238170331210876 0 0.005473631311299877 0.0030318201404932466 0 0.0063379967679972659 0.0036238170331210876 0 0.0063732347724052112 0.0037836576771534372 0 0.005473631311299877 0.0030318201404932466 0 0.0060238089416359613 0.0043660203780965896 0 0.0063379967679972659 0.0036238170331210876 0 0.005473631311299877 0.0030318201404932466 0 0.0063732347724052112 0.0037836576771534372 0 0.0056115467371328238 0.0023693079414167837 0 0.0045751724986353706 0.0024534895767885294 0 0.0048106892475402304 0.00204972013545831 0 0.0023458297875155448 0.0016912496070705027 0 0.0028741717332940032 0.0012391584004898641 0 0.0031309199970859978 0.0018690226185657821 0 0.0028741717332940032 0.0012391584004898641 0 0.0031309199970859978 0.0018690226185657821 0 0.0040310520927441832 0.0016148833926510034 0 0.0031309199970859978 0.0018690226185657821 0 0.0040310520927441832 0.0016148833926510034 0 0.0038586334050785863 0.0023420488102530866 0 0.0056115467371328238 0.0023693079414167837 0 0.0050578946240120645 0.0022880719808862087 0 0.0048935711821605464 0.0021138485556760683 0 0.0040310520927441832 0.0016148833926510034 0 0.0048935711821605464 0.0021138485556760683 0 0.0038586334050785863 0.0023420488102530866 0 0.0048106892475402304 0.00204972013545831 0 0.0049127931910242645 0.0021018883674726587 0 0.005473631311299877 0.0030318201404932466 0 0.0056115467371328238 0.0023693079414167837 0 0.0050578946240120645 0.0022880719808862087 0 0.005473631311299877 0.0030318201404932466 0 0.0049177538299096709 0.001982505019923047 0 0.0050578946240120645 0.0022880719808862087 0 0.0049177538299096709 0.001982505019923047 0 0.0050578946240120645 0.0022880719808862087 0 0.0050261118014435112 0.0020717648356009585 0 0.0050578946240120645 0.0022880719808862087 0 0.0048935711821605464 0.0021138485556760683 0 0.0050261118014435112 0.0020717648356009585 0 0.0048935711821605464 0.0021138485556760683 0 0.0045141101721073466 0.0026215874303265789 0 0.0038586334050785863 0.0023420488102530866 0 0.0048935711821605464 0.0021138485556760683 0 0.0045141101721073466 0.0026215874303265789 0 0.0048648397083900542 0.0025328575495437069 0 0.0048935711821605464 0.0021138485556760683 0 0.0048648397083900542 0.0025328575495437069 0 0.0051003220699387076 0.0024611178916114913 0 0.0024696331833265303 0.0026616836375302835 0 0.0031309199970859978 0.0018690226185657821 0 0.0038586334050785863 0.0023420488102530866 0 0.0045141101721073466 0.0026215874303265789 0 0.0038586334050785863 0.0023420488102530866 0 0.0037194589027686538 0.0029261086341126202 0 0.0025672474995341197 0.0026294644178076689 0 0.0035881432152463449 0.0031104824401922181 0 0.0024696331833265303 0.0026616836375302835 0 0.0038586334050785863 0.0023420488102530866 0 0.0037194589027686538 0.0029261086341126202 0 0.0043315821263162939 0.0036538939252769484 0 0.0035024192852577403 0.0033366502630970056 0 0.0044982330851648118 0.0033651031712900762 0 0.0043315821263162939 0.0036538939252769484 0 0.0030301309060972266 0.0039176361017817752 0 0.0035024192852577403 0.0033366502630970056 0 0.0037194589027686538 0.0029261086341126202 0 0.0046912764807503339 0.0027768739888263615 0 0.0045561443650360984 0.0027575831996405008 0 0.0035881432152463449 0.0031104824401922181 0 0.004625411156369913 0.0030291091984325819 0 0.0045141101721073466 0.0026215874303265789 0 0.0037194589027686538 0.0029261086341126202 0 0.0045561443650360984 0.0027575831996405008 0 0.0048648397083900542 0.0025328575495437069 0 0.0047969980629654543 0.0026488804337536647 0 0.0049507333941577686 0.0025649331418101007 0 0.0045141101721073466 0.0026215874303265789 0 0.0048648397083900542 0.0025328575495437069 0 0.0047969980629654543 0.0026488804337536647 0 0.0045141101721073466 0.0026215874303265789 0 0.0045561443650360984 0.0027575831996405008 0 0.0047969980629654543 0.0026488804337536647 0 0.0046912764807503339 0.0027768739888263615 0 0.0045561443650360984 0.0027575831996405008 0 0.0048877322506921603 0.0025747841227721701 0 0.0045561443650360984 0.0027575831996405008 0 0.0047969980629654543 0.0026488804337536647 0 0.0048877322506921603 0.0025747841227721701 0 0.0047969980629654543 0.0026488804337536647 0 0.0049188981309496319 0.0025213954869837121 0 0.0049507333941577686 0.0025649331418101007 0 0.0047969980629654543 0.0026488804337536647 0 0.0048877322506921603 0.0025747841227721701 0 0.0049188981309496319 0.0025213954869837121 0 0.004915449020934529 0.0024565787698040704 0 0.005073740779793055 0.0025197377611923559 0 0.0049507333941577686 0.0025649331418101007 0 0.004915449020934529 0.0024565787698040704 0 0.0049188981309496319 0.0025213954869837121 0 0.0049507333941577686 0.0025649331418101007 0 0.005073740779793055 0.0025197377611923559 0 0.0049507333941577686 0.0025649331418101007 0 0.0051003220699387076 0.0024611178916114913 0 0.0048648397083900542 0.0025328575495437069 0 0.0049507333941577686 0.0025649331418101007 0 0.0051003220699387076 0.0024611178916114913 0 0.005073740779793055 0.0025197377611923559 0 0.0052553251137304217 0.0024937667188357857 0 0.0051542623233469054 0.0024967099289226317 0 0.005073740779793055 0.0025197377611923559 0 0.0052553251137304217 0.0024937667188357857 0 0.0051003220699387076 0.0024611178916114913 0 0.004915449020934529 0.0024565787698040704 0 0.005073740779793055 0.0025197377611923559 0 0.0051542623233469054 0.0024967099289226317 0 0.0050469828463607196 0.0024688560229407823 0 0.004915449020934529 0.0024565787698040704 0 0.0051542623233469054 0.0024967099289226317 0 0.0051542623233469054 0.0024967099289226317 0 0.0053270281249711048 0.0025327578491214516 0 0.0054070445701665465 0.0024878374257293885 0 0.0050469828463607196 0.0024688560229407823 0 0.0051542623233469054 0.0024967099289226317 0 0.0053270281249711048 0.0025327578491214516 0 0.0082414998860921226 0.0013076498344973709 0 0.0080600032029658 0.0013308968460054957 0 0.008017812213246607 0.0015549253270799787 0 0.0065441139376373764 0.0021081129088888098 0 0.0069451348999710278 0.0027453548610876827 0 0.0053270281249711048 0.0025327578491214516 0 0.0055063453713408133 0.0024991940876932244 0 0.0054070445701665465 0.0024878374257293885 0 0.0081971196910918427 0.0011745150641450481 0 0.0082414998860921226 0.0013076498344973709 0 0.0080600032029658 0.0013308968460054957 0 0.0055063453713408133 0.0024991940876932244 0 0.0054070445701665465 0.0024878374257293885 0 0.0055252188758189132 0.0024705293443583486 0 0.0066254143109969951 0.0036478106512872624 0 0.0062745302064116147 0.0031276058462292641 0 0.0066841435283058193 0.0031727531461580596 0 0.0069451348999710278 0.0027453548610876827 0 0.0059198676593446358 0.0027329938088261896 0 0.0052553251137304217 0.0024937667188357857 0 0.0051542623233469054 0.0024967099289226317 0 0.0054070445701665465 0.0024878374257293885 0 0.0052553251137304217 0.0024937667188357857 0 0.0054070445701665465 0.0024878374257293885 0 0.0055292738805500976 0.0024826371961631233 0 0.0054070445701665465 0.0024878374257293885 0 0.0055292738805500976 0.0024826371961631233 0 0.0055252188758189132 0.0024705293443583486 0 0.0055292738805500976 0.0024826371961631233 0 0.0058067211211853447 0.0024777197162648198 0 0.0054039657664102835 0.002418323852649092 0 0.0052553251137304217 0.0024937667188357857 0 0.0055292738805500976 0.0024826371961631233 0 0.0054039657664102835 0.002418323852649092 0 0.0062745302064116147 0.0031276058462292641 0 0.0066841435283058193 0.0031727531461580596 0 0.006659747608140254 0.0027563046753674731 0 0.0055292738805500976 0.0024826371961631233 0 0.0055252188758189132 0.0024705293443583486 0 0.0058067211211853447 0.0024777197162648198 0 0.0059198676593446358 0.0027329938088261896 0 0.0057957312600240606 0.0025116122688346072 0 0.0062745302064116147 0.0031276058462292641 0 0.0063342855967254141 0.0025252875276130723 0 0.0058067211211853447 0.0024777197162648198 0 0.0062745302064116147 0.0031276058462292641 0 0.0063342855967254141 0.0025252875276130723 0 0.006659747608140254 0.0027563046753674731 0 0.0063342855967254141 0.0025252875276130723 0 0.006659747608140254 0.0027563046753674731 0 0.0067509138958085826 0.0022726504126808463 0 0.0063342855967254141 0.0025252875276130723 0 0.006185640191230188 0.0021497262683676565 0 0.0067509138958085826 0.0022726504126808463 0 0.0063342855967254141 0.0025252875276130723 0 0.006185640191230188 0.0021497262683676565 0 0.0058067211211853447 0.0024777197162648198 0 0.006185640191230188 0.0021497262683676565 0 0.0067509138958085826 0.0022726504126808463 0 0.006695411407690947 0.0018489305455177232 0 0.0056184177310439586 0.0021691904103088321 0 0.0058067211211853447 0.0024777197162648198 0 0.0054039657664102835 0.002418323852649092 0 0.006185640191230188 0.0021497262683676565 0 0.0056184177310439586 0.0021691904103088321 0 0.0058067211211853447 0.0024777197162648198 0 0.0056184177310439586 0.0021691904103088321 0 0.0052175725960054587 0.0022246496846366529 0 0.0054039657664102835 0.002418323852649092 0 0.0048935711821605464 0.0021138485556760683 0 0.0052175725960054587 0.0022246496846366529 0 0.0050261118014435112 0.0020717648356009585 0 0.0048935711821605464 0.0021138485556760683 0 0.0052175725960054587 0.0022246496846366529 0 0.0051003220699387076 0.0024611178916114913 0 0.0052175725960054587 0.0022246496846366529 0 0.0051003220699387076 0.0024611178916114913 0 0.0054039657664102835 0.002418323852649092 0 0.0052553251137304217 0.0024937667188357857 0 0.0051003220699387076 0.0024611178916114913 0 0.0054039657664102835 0.002418323852649092 0 0.010949391768888529 0.0019973123950064839 0 0.011110574228036062 0.0019350221482480037 0 0.010959454440035852 0.0017676346669968921 0 0.01189966376523971 0.0013730114516165048 0 0.010841478142941187 0.0017004674908901924 0 0.011164226535317736 0.0019859785054995699 0 0.01078544842345011 0.0016670652372186737 0 0.011252807100949145 0.0016909738843013044 0 0.012709948315574836 0.0006991794650684812 0 0.012668455839463313 0.00074441649052978251 0 0.012685027644457029 0.00070209072776115868 0 0.011481460734102181 0.0015884509266281366 0 0.01189966376523971 0.0013730114516165048 0 0.012685027644457029 0.00070209072776115868 0 0.012693745715092812 0.00065128232987849007 0 0.012707649127913645 0.00066645964245888806 0 0.012722913964551866 0.00064723249740307671 0 0.012693745715092812 0.00065128232987849007 0 0.012707649127913645 0.00066645964245888806 0 0.013764207755843895 -0.0010578464805564842 0 0.01371997162502938 -0.000764959927083656 0 0.012685027644457029 0.00070209072776115868 0 0.012707649127913645 0.00066645964245888806 0 0.012700927101539104 0.00068840658687154747 0 0.012709948315574836 0.0006991794650684812 0 0.012685027644457029 0.00070209072776115868 0 0.012700927101539104 0.00068840658687154747 0 0.012707649127913645 0.00066645964245888806 0 0.012700927101539104 0.00068840658687154747 0 0.012709134256471223 0.00068321024992747386 0 0.012709948315574836 0.0006991794650684812 0 0.012700927101539104 0.00068840658687154747 0 0.012709134256471223 0.00068321024992747386 0 0.012707649127913645 0.00066645964245888806 0 0.012709134256471223 0.00068321024992747386 0 0.012715556819620286 0.0006644840100720991 0 0.012709948315574836 0.0006991794650684812 0 0.012709134256471223 0.00068321024992747386 0 0.012715556819620286 0.0006644840100720991 0 0.012709948315574836 0.0006991794650684812 0 0.012715556819620286 0.0006644840100720991 0 0.012715288988997266 0.0006525924000308251 0 0.011481460734102181 0.0015884509266281366 0 0.011761668099845803 0.0013660105561985156 0 0.012722913964551866 0.00064723249740307671 0 0.012707649127913645 0.00066645964245888806 0 0.012715556819620286 0.0006644840100720991 0 0.012722913964551866 0.00064723249740307671 0 0.012715556819620286 0.0006644840100720991 0 0.012715288988997266 0.0006525924000308251 0 0.011481460734102181 0.0015884509266281366 0 0.0097197531299021284 0.0023485174872295432 0 0.010525853504314727 0.0020895889766863714 0 0.010364536706670639 0.0020669650105382097 0 0.010416955639615368 0.0021291429400960198 0 0.010525853504314727 0.0020895889766863714 0 0.010364536706670639 0.0020669650105382097 0 0.010427004875172936 0.0019717669083687481 0 0.007418591352090196 0.003473934779573504 0 0.0071958065906276361 0.0031006493259780636 0 0.0074659204011126709 0.0029480841359621974 0 0.010364536706670639 0.0020669650105382097 0 0.010416955639615368 0.0021291429400960198 0 0.010301621422202818 0.0021524487873386938 0 0.010416955639615368 0.0021291429400960198 0 0.010301621422202818 0.0021524487873386938 0 0.010307859142979053 0.0021615526325586246 0 0.012705534935276552 0.00063900330080838696 0 0.012715288988997266 0.0006525924000308251 0 0.012691489817570028 0.0006400445996871195 0 0.011761668099845803 0.0013660105561985156 0 0.010420355708991014 0.00086684026571441663 0 0.0086757366229710982 0.0030758449704049533 0 0.0092909602763077866 0.0016308148445400056 0 0.0094742609517009316 0.00051461613398286849 0 0.0094475540703362754 0.00046621501458295374 0 0.0095256927141676388 0.00043447966793235351 0 0.010420355708991014 0.00086684026571441663 0 0.01007766472914255 0.00018591789534973323 0 0.0092909602763077866 0.0016308148445400056 0 0.010420355708991014 0.00086684026571441663 0 0.0080600032029658 0.0013308968460054957 0 0.0079078420774841267 0.001331199347040003 0 0.0079363926556670784 0.0012877462018513269 0 0.0092909602763077866 0.0016308148445400056 0 0.01007766472914255 0.00018591789534973323 0 0.0069451348999710278 0.0027453548610876827 0 0.0092909602763077866 0.0016308148445400056 0 0.0080600032029658 0.0013308968460054957 0 0.008017812213246607 0.0015549253270799787 0 0.0079078420774841267 0.001331199347040003 0 0.007418591352090196 0.003473934779573504 0 0.007007850616696132 0.0040648082817827001 0 0.0068913750559451339 0.0033693092920706741 0 0.0067023967876327752 0.0035719645778650153 0 0.007007850616696132 0.0040648082817827001 0 0.0068913750559451339 0.0033693092920706741 0 0.0069451348999710278 0.0027453548610876827 0 0.0066699296341403693 0.0033317965703095207 0 0.007418591352090196 0.003473934779573504 0 0.0068913750559451339 0.0033693092920706741 0 0.0071958065906276361 0.0031006493259780636 0 0.0066254143109969951 0.0036478106512872624 0 0.0068913750559451339 0.0033693092920706741 0 0.0066841435283058193 0.0031727531461580596 0 0.0068913750559451339 0.0033693092920706741 0 0.0066841435283058193 0.0031727531461580596 0 0.0069534502110420345 0.0029648764200272417 0 0.0066841435283058193 0.0031727531461580596 0 0.0069534502110420345 0.0029648764200272417 0 0.006659747608140254 0.0027563046753674731 0 0.0068913750559451339 0.0033693092920706741 0 0.0069534502110420345 0.0029648764200272417 0 0.0071958065906276361 0.0031006493259780636 0 0.0069534502110420345 0.0029648764200272417 0 0.0071958065906276361 0.0031006493259780636 0 0.0072453485535950435 0.0027323041989247517 0 0.0069534502110420345 0.0029648764200272417 0 0.0069778511701295513 0.0026200460830331277 0 0.0072453485535950435 0.0027323041989247517 0 0.0069534502110420345 0.0029648764200272417 0 0.0069778511701295513 0.0026200460830331277 0 0.006659747608140254 0.0027563046753674731 0 0.0069778511701295513 0.0026200460830331277 0 0.006659747608140254 0.0027563046753674731 0 0.0067509138958085826 0.0022726504126808463 0 0.0069778511701295513 0.0026200460830331277 0 0.0067509138958085826 0.0022726504126808463 0 0.0071162257884179007 0.0023789939984199008 0 0.0067509138958085826 0.0022726504126808463 0 0.0071118712643718166 0.0020003819509234262 0 0.006695411407690947 0.0018489305455177232 0 0.0072412628437086343 0.0022066552609659945 0 0.0071162257884179007 0.0023789939984199008 0 0.0071118712643718166 0.0020003819509234262 0 0.0067509138958085826 0.0022726504126808463 0 0.0071162257884179007 0.0023789939984199008 0 0.0071118712643718166 0.0020003819509234262 0 0.0069778511701295513 0.0026200460830331277 0 0.0071162257884179007 0.0023789939984199008 0 0.0072453485535950435 0.0027323041989247517 0 0.0072412628437086343 0.0022066552609659945 0 0.0071162257884179007 0.0023789939984199008 0 0.0073243820987079194 0.0024032064996230731 0 0.0071162257884179007 0.0023789939984199008 0 0.0073243820987079194 0.0024032064996230731 0 0.0072453485535950435 0.0027323041989247517 0 0.0081903834418002221 0.002299061316714575 0 0.0097197531299021284 0.0023485174872295432 0 0.0090195481537067961 0.0023593487886770775 0 0.0094959411529779124 0.0026083414453671083 0 0.0096298691957511003 0.0032090508457991384 0 0.0073243820987079194 0.0024032064996230731 0 0.0072453485535950435 0.0027323041989247517 0 0.0075011804836718965 0.0025959591811343494 0 0.0073243820987079194 0.0024032064996230731 0 0.0074515784096606382 0.0021703731875702377 0 0.0075011804836718965 0.0025959591811343494 0 0.0074515784096606382 0.0021703731875702377 0 0.0075011804836718965 0.0025959591811343494 0 0.0078933034388460124 0.0027833359485375428 0 0.0072412628437086343 0.0022066552609659945 0 0.0073243820987079194 0.0024032064996230731 0 0.0074515784096606382 0.0021703731875702377 0 0.0072412628437086343 0.0022066552609659945 0 0.0074515784096606382 0.0021703731875702377 0 0.0071118712643718166 0.0020003819509234262 0 0.0090195481537067961 0.0023593487886770775 0 0.0094959411529779124 0.0026083414453671083 0 0.0094042784896217549 0.0021035476224734073 0 0.0086757366229710982 0.0030758449704049533 0 0.0097197531299021284 0.0023485174872295432 0 0.0075011804836718965 0.0025959591811343494 0 0.0074659204011126709 0.0029480841359621974 0 0.0078933034388460124 0.0027833359485375428 0 0.007418591352090196 0.003473934779573504 0 0.0074659204011126709 0.0029480841359621974 0 0.0078933034388460124 0.0027833359485375428 0 0.0072453485535950435 0.0027323041989247517 0 0.0075011804836718965 0.0025959591811343494 0 0.0074659204011126709 0.0029480841359621974 0 0.0071958065906276361 0.0031006493259780636 0 0.0072453485535950435 0.0027323041989247517 0 0.0074659204011126709 0.0029480841359621974 0 0.010738676160800251 0.0017105439353071875 0 0.010809991400625038 0.001601164417677407 0 0.010959454440035852 0.0017676346669968921 0 0.010949391768888529 0.0019973123950064839 0 0.010738676160800251 0.0017105439353071875 0 0.010959454440035852 0.0017676346669968921 0 0.01045713325831784 0.0015174101483162866 0 0.010767339658468602 0.0014769711380639384 0 0.01078544842345011 0.0016670652372186737 0 0.010355688151723077 0.0019428921822455792 0 0.010841478142941187 0.0017004674908901924 0 0.0097197531299021284 0.0023485174872295432 0 0.010355688151723077 0.0019428921822455792 0 0.0094959411529779124 0.0026083414453671083 0 0.0096298691957511003 0.0032090508457991384 0 0.0099292513227431621 0.0027505400390117223 0 0.010355688151723077 0.0019428921822455792 0 0.009488786705514245 0.0017924537945278728 0 0.0094959411529779124 0.0026083414453671083 0 0.0099292513227431621 0.0027505400390117223 0 0.0094042784896217549 0.0021035476224734073 0 0.010214858498532563 0.0018496732094573985 0 0.010108129586664273 0.0015198230293896968 0 0.0096431774407763817 0.0015222288542604252 0 0.010214858498532563 0.0018496732094573985 0 0.010108129586664273 0.0015198230293896968 0 0.010439538697430192 0.00150670022907217 0 0.010108129586664273 0.0015198230293896968 0 0.010439538697430192 0.00150670022907217 0 0.010125142271372919 0.0012657261320679037 0 0.01045713325831784 0.0015174101483162866 0 0.010439538697430192 0.00150670022907217 0 0.010767339658468602 0.0014769711380639384 0 0.010355688151723077 0.0019428921822455792 0 0.010470062905226767 0.0016429200894576513 0 0.010439538697430192 0.00150670022907217 0 0.010767339658468602 0.0014769711380639384 0 0.01069474173143822 0.00137045874713069 0 0.010439538697430192 0.00150670022907217 0 0.01069474173143822 0.00137045874713069 0 0.010618910495116856 0.0012138300764083774 0 0.010767339658468602 0.0014769711380639384 0 0.01069474173143822 0.00137045874713069 0 0.010949349007896299 0.0012442103323599104 0 0.01069474173143822 0.00137045874713069 0 0.010949349007896299 0.0012442103323599104 0 0.010618910495116856 0.0012138300764083774 0 0.010767339658468602 0.0014769711380639384 0 0.010949349007896299 0.0012442103323599104 0 0.011248660267545094 0.0012461323610660202 0 0.010767339658468602 0.0014769711380639384 0 0.011264571993420205 0.00142761858685714 0 0.011248660267545094 0.0012461323610660202 0 0.010767339658468602 0.0014769711380639384 0 0.01078544842345011 0.0016670652372186737 0 0.011264571993420205 0.00142761858685714 0 0.01078544842345011 0.0016670652372186737 0 0.011252807100949145 0.0016909738843013044 0 0.011264571993420205 0.00142761858685714 0 0.010945044144733063 0.00090505918690067988 0 0.010406193936977165 0.00085008189519893975 0 0.010751051646271477 0.00020936346354690755 0 0.010406193936977165 0.00085008189519893975 0 0.01014463283353261 0.00045161664526256626 0 0.010751051646271477 0.00020936346354690755 0 0.010945044144733063 0.00090505918690067988 0 0.010751051646271477 0.00020936346354690755 0 0.011281345657817106 0.00051073866744868568 0 0.010949349007896299 0.0012442103323599104 0 0.010945044144733063 0.00090505918690067988 0 0.011274687432281492 0.0010319861352621595 0 0.010949349007896299 0.0012442103323599104 0 0.010945044144733063 0.00090505918690067988 0 0.010618910495116856 0.0012138300764083774 0 0.010945044144733063 0.00090505918690067988 0 0.010618910495116856 0.0012138300764083774 0 0.010406193936977165 0.00085008189519893975 0 0.010618910495116856 0.0012138300764083774 0 0.010125142271372919 0.0012657261320679037 0 0.010406193936977165 0.00085008189519893975 0 0.010125142271372919 0.0012657261320679037 0 0.0098015093299853983 0.00095057126316581031 0 0.010406193936977165 0.00085008189519893975 0 0.010439538697430192 0.00150670022907217 0 0.010618910495116856 0.0012138300764083774 0 0.010125142271372919 0.0012657261320679037 0 0.010125142271372919 0.0012657261320679037 0 0.0095206087211491489 0.0012637931639971332 0 0.0096431774407763817 0.0015222288542604252 0 0.010108129586664273 0.0015198230293896968 0 0.010125142271372919 0.0012657261320679037 0 0.0096431774407763817 0.0015222288542604252 0 0.010125142271372919 0.0012657261320679037 0 0.0098015093299853983 0.00095057126316581031 0 0.0095206087211491489 0.0012637931639971332 0 0.0098015093299853983 0.00095057126316581031 0 0.01014463283353261 0.00045161664526256626 0 0.0096458076699338386 0.0006291057819240016 0 0.0098015093299853983 0.00095057126316581031 0 0.010406193936977165 0.00085008189519893975 0 0.01014463283353261 0.00045161664526256626 0 0.01014463283353261 0.00045161664526256626 0 0.0096458076699338386 0.0006291057819240016 0 0.0094122066010385846 0.00027459046218455719 0 0.0096458076699338386 0.0006291057819240016 0 0.0091967170252738387 0.0008206281537238854 0 0.0094122066010385846 0.00027459046218455719 0 0.0089290310404928838 0.00045069579527886965 0 0.0091967170252738387 0.0008206281537238854 0 0.0094122066010385846 0.00027459046218455719 0 0.0091967170252738387 0.0008206281537238854 0 0.0085347591451760997 0.0010516374742208169 0 0.0083911741954712741 0.00059159981740917382 0 0.0089290310404928838 0.00045069579527886965 0 0.0091967170252738387 0.0008206281537238854 0 0.0083911741954712741 0.00059159981740917382 0 0.0091956114154503176 0.0011298616175293959 0 0.0088216780789379442 0.0013866077570985145 0 0.0085347591451760997 0.0010516374742208169 0 0.0091967170252738387 0.0008206281537238854 0 0.0091956114154503176 0.0011298616175293959 0 0.0085347591451760997 0.0010516374742208169 0 0.0098015093299853983 0.00095057126316581031 0 0.0091967170252738387 0.0008206281537238854 0 0.0091956114154503176 0.0011298616175293959 0 0.0098015093299853983 0.00095057126316581031 0 0.0096458076699338386 0.0006291057819240016 0 0.0091967170252738387 0.0008206281537238854 0 0.0090195481537067961 0.0023593487886770775 0 0.0088216780789379442 0.0013866077570985145 0 0.0082751240892681866 0.0014624108221043726 0 0.0081903834418002221 0.002299061316714575 0 0.0076634405806676681 0.0015051581247531585 0 0.0091956114154503176 0.0011298616175293959 0 0.0095206087211491489 0.0012637931639971332 0 0.0088216780789379442 0.0013866077570985145 0 0.0090195481537067961 0.0023593487886770775 0 0.0094042784896217549 0.0021035476224734073 0 0.0088216780789379442 0.0013866077570985145 0 0.0098015093299853983 0.00095057126316581031 0 0.0091956114154503176 0.0011298616175293959 0 0.0095206087211491489 0.0012637931639971332 0 0.0095206087211491489 0.0012637931639971332 0 0.0096431774407763817 0.0015222288542604252 0 0.0088216780789379442 0.0013866077570985145 0 0.009488786705514245 0.0017924537945278728 0 0.0089322671345453842 0.0013656424438415937 0 0.0074515784096606382 0.0021703731875702377 0 0.0071289000030384042 0.0016233579975087876 0 0.0071118712643718166 0.0020003819509234262 0 0.0088216780789379442 0.0013866077570985145 0 0.0082751240892681866 0.0014624108221043726 0 0.0085347591451760997 0.0010516374742208169 0 0.0071289000030384042 0.0016233579975087876 0 0.0071118712643718166 0.0020003819509234262 0 0.006695411407690947 0.0018489305455177232 0 0.0071289000030384042 0.0016233579975087876 0 0.006695411407690947 0.0018489305455177232 0 0.006647750591006139 0.0014842509511215844 0 0.0082751240892681866 0.0014624108221043726 0 0.0085347591451760997 0.0010516374742208169 0 0.0070928880496820695 0.00086589930920819317 0 0.0071289000030384042 0.0016233579975087876 0 0.006647750591006139 0.0014842509511215844 0 0.0070928880496820695 0.00086589930920819317 0 0.0085347591451760997 0.0010516374742208169 0 0.0083911741954712741 0.00059159981740917382 0 0.0070928880496820695 0.00086589930920819317 0 0.0076634405806676681 0.0015051581247531585 0 0.0071256356398384539 0.00085267029805005743 0 0.0077382297731820888 0.00018518810427929015 0 0.0082515821790507312 -0.00067213963536673794 0 0.0063679032324751089 0.00011809120304755849 0 0.0083911741954712741 0.00059159981740917382 0 0.0077382297731820888 0.00018518810427929015 0 0.0070928880496820695 0.00086589930920819317 0 0.0083911741954712741 0.00059159981740917382 0 0.0077382297731820888 0.00018518810427929015 0 0.0086887543851841709 0.00010516006121304466 0 0.0077382297731820888 0.00018518810427929015 0 0.0082515821790507312 -0.00067213963536673794 0 0.0086887543851841709 0.00010516006121304466 0 0.0041877649111545512 0.0021013517570968535 0 0.0040575641345140592 0.0023748942872211971 0 0.0003847929631890666 0.0050337473748342442 0 5.7350866464376564e-05 0.0053534736273847354 0 0.00067933085350642961 0.0059886356832900495 0 0.0003847929631890666 0.0050337473748342442 0 0.0012686117495277537 0.0053902518166503623 0 0.00067933085350642961 0.0059886356832900495 0 0.0082515821790507312 -0.00067213963536673794 0 0.0092556997637894978 -0.00027757249129724043 0 0.0099534820397937703 -0.00086908867679910847 0 0.0003847929631890666 0.0050337473748342442 0 -9.4355249875296914e-05 0.0053656070847444698 0 -0.00031357503372208748 0.005263321453820087 0 5.7350866464376564e-05 0.0053534736273847354 0 -0.00013048595178011 0.0053214564409976538 0 0.00067933085350642961 0.0059886356832900495 0 0.0003847929631890666 0.0050337473748342442 0 5.7350866464376564e-05 0.0053534736273847354 0 -9.4355249875296914e-05 0.0053656070847444698 0 0.0041877649111545512 0.0021013517570968535 0 0.0055760116678838867 0.0031050849445015279 0 0.00054596380744603365 0.0062006033668361707 0 0.0019830353223951559 0.0065170161774870811 0 0.0082515821790507312 -0.00067213963536673794 0 0.0092556997637894978 -0.00027757249129724043 0 0.0086887543851841709 0.00010516006121304466 0 0.0089290310404928838 0.00045069579527886965 0 0.0086887543851841709 0.00010516006121304466 0 0.0094122066010385846 0.00027459046218455719 0 0.0089290310404928838 0.00045069579527886965 0 0.0083911741954712741 0.00059159981740917382 0 0.0086887543851841709 0.00010516006121304466 0 0.0092556997637894978 -0.00027757249129724043 0 0.0086887543851841709 0.00010516006121304466 0 0.0094122066010385846 0.00027459046218455719 0 0.0099162512431216106 -3.3203177397621068e-05 0 0.0099534820397937703 -0.00086908867679910847 0 0.010751051646271477 0.00020936346354690755 0 0.0092556997637894978 -0.00027757249129724043 0 0.0094122066010385846 0.00027459046218455719 0 0.0099162512431216106 -3.3203177397621068e-05 0 0.01014463283353261 0.00045161664526256626 0 0.0094122066010385846 0.00027459046218455719 0 0.0099162512431216106 -3.3203177397621068e-05 0 0.01014463283353261 0.00045161664526256626 0 0.0099162512431216106 -3.3203177397621068e-05 0 0.010751051646271477 0.00020936346354690755 0 0.0092556997637894978 -0.00027757249129724043 0 0.0099162512431216106 -3.3203177397621068e-05 0 0.0099534820397937703 -0.00086908867679910847 0 0.0028998773225468537 0.0052527065464036769 0 0.0047051471741474593 0.0061082779904150604 0 0.00908013635665764 0.0051416194256795151 0 0.0019830353223951559 0.0065170161774870811 0 0.0092006814354237531 0.0056615257612745466 0 0.0019830353223951559 0.0065170161774870811 0 0.0055760116678838867 0.0031050849445015279 0 0.0099534820397937703 -0.00086908867679910847 0 0.011036114470191845 -0.0010426476062744983 0 0.010751051646271477 0.00020936346354690755 0 0.0055760116678838867 0.0031050849445015279 0 0.0092006814354237531 0.0056615257612745466 0 0.0092006814354237531 0.0056615257612745466 0 0.0115279345545986 -0.0025152800022897473 0 0.011065612081748716 -0.00039476408411766181 0 0.010751051646271477 0.00020936346354690755 0 0.011172945434807157 -8.6179151119186313e-05 0 0.010751051646271477 0.00020936346354690755 0 0.011172945434807157 -8.6179151119186313e-05 0 0.011274101806922824 0.0001968070944842245 0 0.0049177538299096709 0.001982505019923047 0 0.005340918508082707 0.0017908855047644055 0 0.0053428910452396703 0.0011027119232347605 0 0.005340918508082707 0.0017908855047644055 0 0.0060743954402745909 0.0012013555822264965 0 0.0053428910452396703 0.0011027119232347605 0 0.0049177538299096709 0.001982505019923047 0 0.005340918508082707 0.0017908855047644055 0 0.0050261118014435112 0.0020717648356009585 0 0.0052175725960054587 0.0022246496846366529 0 0.005340918508082707 0.0017908855047644055 0 0.0050261118014435112 0.0020717648356009585 0 0.0056184177310439586 0.0021691904103088321 0 0.0052175725960054587 0.0022246496846366529 0 0.005340918508082707 0.0017908855047644055 0 0.006185640191230188 0.0021497262683676565 0 0.0056184177310439586 0.0021691904103088321 0 0.0060654106605512017 0.0017578484976715893 0 0.0056184177310439586 0.0021691904103088321 0 0.005340918508082707 0.0017908855047644055 0 0.0060654106605512017 0.0017578484976715893 0 0.0060654106605512017 0.0017578484976715893 0 0.006695411407690947 0.0018489305455177232 0 0.006647750591006139 0.0014842509511215844 0 0.006185640191230188 0.0021497262683676565 0 0.0060654106605512017 0.0017578484976715893 0 0.006695411407690947 0.0018489305455177232 0 0.0060654106605512017 0.0017578484976715893 0 0.006647750591006139 0.0014842509511215844 0 0.0060743954402745909 0.0012013555822264965 0 0.006647750591006139 0.0014842509511215844 0 0.0070928880496820695 0.00086589930920819317 0 0.0060743954402745909 0.0012013555822264965 0 0.005340918508082707 0.0017908855047644055 0 0.0060654106605512017 0.0017578484976715893 0 0.0060743954402745909 0.0012013555822264965 0 0.0040575641345140592 0.0023748942872211971 0 0.0041802643694764567 0.0026091526081103459 0 0.0060743954402745909 0.0012013555822264965 0 0.0063679032324751089 0.00011809120304755849 0 0.0053428910452396703 0.0011027119232347605 0 0.0070928880496820695 0.00086589930920819317 0 0.0060743954402745909 0.0012013555822264965 0 0.0063679032324751089 0.00011809120304755849 0 0.0077382297731820888 0.00018518810427929015 0 0.0070928880496820695 0.00086589930920819317 0 0.0063679032324751089 0.00011809120304755849 0 0.0003847929631890666 0.0050337473748342442 0 0.0015686843294738487 0.0046072448762554908 0 0.0012686117495277537 0.0053902518166503623 0 0.0015686843294738487 0.0046072448762554908 0 0.0012686117495277537 0.0053902518166503623 0 0.0023053328811168728 0.0051908692365079702 0 0.0012686117495277537 0.0053902518166503623 0 0.0023053328811168728 0.0051908692365079702 0 0.0016642911723001494 0.006224383246566571 0 0.0015686843294738487 0.0046072448762554908 0 0.0023053328811168728 0.0051908692365079702 0 0.0029422586440646719 0.0041433283747444958 0 0.0029422586440646719 0.0041433283747444958 0 0.003704600787320155 0.0045306476625067175 0 0.0031739141338018549 0.0054601317212098323 0 0.0023053328811168728 0.0051908692365079702 0 0.0029422586440646719 0.0041433283747444958 0 0.0031739141338018549 0.0054601317212098323 0 0.0041750751549710146 0.0036616154575207561 0 0.0029422586440646719 0.0041433283747444958 0 0.003704600787320155 0.0045306476625067175 0 0.0046365138553348725 0.0028244717857246649 0 0.0041802643694764567 0.0026091526081103459 0 0.0047758182247858673 0.0051976958273381099 0 0.0032880393026205137 0.005779477758822176 0 0.0045202587955781078 0.0048568324324886067 0 0.003704600787320155 0.0045306476625067175 0 0.0031739141338018549 0.0054601317212098323 0 0.0049781796241067508 0.0056365155780906092 0 0.0035040480775835178 0.0060806154682898897 0 0.0050449847875988756 0.0070735872386216191 0 0.0035040480775835178 0.0060806154682898897 0 0.0040583684819016459 0.0086218763723004341 0 0.0050449847875988756 0.0070735872386216191 0 0.0035040480775835178 0.0060806154682898897 0 0.002101212752680384 0.0072221723893208791 0 0.0040583684819016459 0.0086218763723004341 0 0.0030281719266329471 0.0083995670678474414 0 0.0040548131661468549 0.0086898883914094168 0 0.0032880393026205137 0.005779477758822176 0 0.0017151325167305503 0.0061989854757610397 0 0.0035040480775835178 0.0060806154682898897 0 0.0016642911723001494 0.006224383246566571 0 0.002101212752680384 0.0072221723893208791 0 0.0023053328811168728 0.0051908692365079702 0 0.0031739141338018549 0.0054601317212098323 0 0.0016642911723001494 0.006224383246566571 0 0.0030281719266329471 0.0083995670678474414 0 0.0023691198026037576 0.0081626868075820973 0 0.0012686117495277537 0.0053902518166503623 0 0.0016642911723001494 0.006224383246566571 0 0.00067933085350642961 0.0059886356832900495 0 0.0016642911723001494 0.006224383246566571 0 0.002101212752680384 0.0072221723893208791 0 0.00067933085350642961 0.0059886356832900495 0 0.0038790465180546358 0.0097952182002497348 0 0.0038259573873972914 0.009652506779928835 0 0.0039671432775768524 0.0099712500681832933 0 0.0038790465180546358 0.0097952182002497348 0 0.0039671432775768524 0.0099712500681832933 0 0.0039488679232986485 0.0099340184970863141 0 0.0038790465180546358 0.0097952182002497348 0 0.0038259573873972914 0.009652506779928835 0 0.0037992133949875922 0.0096070917866403448 0 0.0038259573873972914 0.009652506779928835 0 0.0037992133949875922 0.0096070917866403448 0 0.0040583684819016459 0.0086218763723004341 0 0.0038790465180546358 0.0097952182002497348 0 0.0037992133949875922 0.0096070917866403448 0 0.0038553957515162201 0.0099705603917624418 0 0.0037992133949875922 0.0096070917866403448 0 0.0038553957515162201 0.0099705603917624418 0 0.0037462910399945165 0.01006116627777149 0 0.0038790465180546358 0.0097952182002497348 0 0.0038553957515162201 0.0099705603917624418 0 0.0039488679232986485 0.0099340184970863141 0 0.0038553957515162201 0.0099705603917624418 0 0.0037462910399945165 0.01006116627777149 0 0.0038069076791775801 0.010167948972220026 0 0.0037992133949875922 0.0096070917866403448 0 0.0037462910399945165 0.01006116627777149 0 0.0038502541120062571 0.010070890746473769 0 0.0040583684819016459 0.0086218763723004341 0 0.0046460885702052993 0.010500465674240046 0 0.0051774029177512129 0.0094985215927191804 0 0.0038502541120062571 0.010070890746473769 0 0.0040583684819016459 0.0086218763723004341 0 0.0046460885702052993 0.010500465674240046 0 0.0037992133949875922 0.0096070917866403448 0 0.0038502541120062571 0.010070890746473769 0 0.0040583684819016459 0.0086218763723004341 0 0.0039609085078735643 0.010031192220678933 0 0.003927807789839804 0.010183202296640357 0 0.0038185076959360437 0.010058268640562772 0 0.0039200908755340682 0.0098591843860674679 0 0.0039609085078735643 0.010031192220678933 0 0.0038185076959360437 0.010058268640562772 0 0.0039200908755340682 0.0098591843860674679 0 0.0039924407340649996 0.0099653175307047662 0 0.0039609085078735643 0.010031192220678933 0 0.0040084597934981793 0.0099210392846187483 0 0.0039200908755340682 0.0098591843860674679 0 0.0039924407340649996 0.0099653175307047662 0 0.0039609085078735643 0.010031192220678933 0 0.0040227879421013205 0.010029186499360344 0 0.004025943376646416 0.010140813946115558 0 0.0039609085078735643 0.010031192220678933 0 0.004025943376646416 0.010140813946115558 0 0.003927807789839804 0.010183202296640357 0 0.0039924407340649996 0.0099653175307047662 0 0.0039609085078735643 0.010031192220678933 0 0.0040227879421013205 0.010029186499360344 0 0.0040227879421013205 0.010029186499360344 0 0.0040600309612790746 0.01011765976930447 0 0.004025943376646416 0.010140813946115558 0 0.0040143425132628981 0.0100002445140468 0 0.0040227879421013205 0.010029186499360344 0 0.0040600309612790746 0.01011765976930447 0 0.0040143425132628981 0.0100002445140468 0 0.0040227879421013205 0.010029186499360344 0 0.0040092616559285928 0.0099765235224040082 0 0.0040084597934981793 0.0099210392846187483 0 0.0039924407340649996 0.0099653175307047662 0 0.0040092616559285928 0.0099765235224040082 0 0.0040084597934981793 0.0099210392846187483 0 0.0040092616559285928 0.0099765235224040082 0 0.0039671432775768524 0.0099712500681832933 0 0.0019830353223951559 0.0065170161774870811 0 0.0023691198026037576 0.0081626868075820973 0 0.0039924407340649996 0.0099653175307047662 0 0.0040227879421013205 0.010029186499360344 0 0.0040092616559285928 0.0099765235224040082 0 0.0040143425132628981 0.0100002445140468 0 0.0040092616559285928 0.0099765235224040082 0 0.0039671432775768524 0.0099712500681832933 0 0.0040143425132628981 0.0100002445140468 0 0.0039671432775768524 0.0099712500681832933 0 0.0039488679232986485 0.0099340184970863141 0 0.0040143425132628981 0.0100002445140468 0 0.0039488679232986485 0.0099340184970863141 0 0.0040009974236171015 0.010068003431874899 0 0.0038553957515162201 0.0099705603917624418 0 0.0039488679232986485 0.0099340184970863141 0 0.0040009974236171015 0.010068003431874899 0 0.0040009974236171015 0.010068003431874899 0 0.0039847471203070337 0.010175843699544853 0 0.0040771798460674125 0.010198621225880318 0 0.0038553957515162201 0.0099705603917624418 0 0.0040009974236171015 0.010068003431874899 0 0.0039847471203070337 0.010175843699544853 0 0.0038069076791775801 0.010167948972220026 0 0.0041722205473554291 0.010400536233331441 0 0.0039285837679138612 0.010144238769329661 0 0.0038069076791775801 0.010167948972220026 0 0.0039847471203070337 0.010175843699544853 0 0.0041722205473554291 0.010400536233331441 0 0.0038553957515162201 0.0099705603917624418 0 0.0038069076791775801 0.010167948972220026 0 0.0039847471203070337 0.010175843699544853 0 0.0041722205473554291 0.010400536233331441 0 0.0041372672791027071 0.010277569315772657 0 0.0040771798460674125 0.010198621225880318 0 0.0041722205473554291 0.010400536233331441 0 0.0045056014413532488 0.01078704448116726 0 0.0039285837679138612 0.010144238769329661 0 0.0039847471203070337 0.010175843699544853 0 0.0041722205473554291 0.010400536233331441 0 0.0040771798460674125 0.010198621225880318 0 0.0041722205473554291 0.010400536233331441 0 0.0042427900663335747 0.010427747936250552 0 0.0045056014413532488 0.01078704448116726 0 0.0041722205473554291 0.010400536233331441 0 0.0041372672791027071 0.010277569315772657 0 0.0042427900663335747 0.010427747936250552 0 0.0041372672791027071 0.010277569315772657 0 0.0040771798460674125 0.010198621225880318 0 0.0040600309612790746 0.01011765976930447 0 0.0040143425132628981 0.0100002445140468 0 0.0040009974236171015 0.010068003431874899 0 0.0040600309612790746 0.01011765976930447 0 0.0040009974236171015 0.010068003431874899 0 0.0040771798460674125 0.010198621225880318 0 0.0040600309612790746 0.01011765976930447 0 0.0041372672791027071 0.010277569315772657 0 0.0040600309612790746 0.01011765976930447 0 0.004025943376646416 0.010140813946115558 0 0.004025943376646416 0.010140813946115558 0 0.0040315406223134422 0.010287841540914637 0 0.003927807789839804 0.010183202296640357 0 0.0041372672791027071 0.010277569315772657 0 0.004025943376646416 0.010140813946115558 0 0.0040315406223134422 0.010287841540914637 0 0.0040315406223134422 0.010287841540914637 0 0.0042427900663335747 0.010427747936250552 0 0.0040092306945657711 0.010519464870127745 0 0.0041372672791027071 0.010277569315772657 0 0.0040315406223134422 0.010287841540914637 0 0.0042427900663335747 0.010427747936250552 0 0.0045056014413532488 0.01078704448116726 0 0.0040092306945657711 0.010519464870127745 0 0.0039730915826147201 0.011401930264653384 0 0.0042427900663335747 0.010427747936250552 0 0.0045056014413532488 0.01078704448116726 0 0.0040092306945657711 0.010519464870127745 0 0.0040315406223134422 0.010287841540914637 0 0.0040092306945657711 0.010519464870127745 0 0.0039041617294128935 0.010344038666917766 0 0.0037371015317361144 0.010511358858899787 0 0.0032205214081845938 0.010720346163905865 0 0.0040092306945657711 0.010519464870127745 0 0.0039041617294128935 0.010344038666917766 0 0.0038164808944485514 0.010423504090435881 0 0.0039041617294128935 0.010344038666917766 0 0.0038164808944485514 0.010423504090435881 0 0.0038366350416838904 0.010267811593487603 0 0.0040092306945657711 0.010519464870127745 0 0.0016388650425568257 0.010799909151075825 0 0.0039730915826147201 0.011401930264653384 0 0.0038366350416838904 0.010267811593487603 0 0.003927807789839804 0.010183202296640357 0 0.0038185076959360437 0.010058268640562772 0 0.0040315406223134422 0.010287841540914637 0 0.0039041617294128935 0.010344038666917766 0 0.003927807789839804 0.010183202296640357 0 0.0039041617294128935 0.010344038666917766 0 0.0038366350416838904 0.010267811593487603 0 0.003927807789839804 0.010183202296640357 0 0.0071325457795135983 0.014257197990397387 0 0.0073009148416613859 0.014308358995951049 0 0.0073134848847484302 0.014159813391585877 0 0.0071325457795135983 0.014257197990397387 0 0.0072429907583141107 0.014405422972982376 0 0.0073009148416613859 0.014308358995951049 0 0.0071325457795135983 0.014257197990397387 0 0.007000816342532962 0.01436449893065567 0 0.0071318873883329456 0.014441336748623568 0 0.0071325457795135983 0.014257197990397387 0 0.007000816342532962 0.01436449893065567 0 0.0067375491132902034 0.014142563489252713 0 0.007000816342532962 0.01436449893065567 0 0.0071318873883329456 0.014441336748623568 0 0.0069698116454180422 0.014617828224811034 0 0.0071325457795135983 0.014257197990397387 0 0.0071318873883329456 0.014441336748623568 0 0.0072429907583141107 0.014405422972982376 0 0.0071318873883329456 0.014441336748623568 0 0.007244470721661336 0.014522283625216559 0 0.0069698116454180422 0.014617828224811034 0 0.0071318873883329456 0.014441336748623568 0 0.0072429907583141107 0.014405422972982376 0 0.007244470721661336 0.014522283625216559 0 0.0022758200215594838 0.011370126457700698 0 0.0032306210178331143 0.012571758887655051 0 0.0037329252182572168 0.012325489032380784 0 0.0069698116454180422 0.014617828224811034 0 0.0074407037263540124 0.014773547636302163 0 0.0073459292587580299 0.014639095643178906 0 0.0016388650425568257 0.010799909151075825 0 0.0037329252182572168 0.012325489032380784 0 0.0039730915826147201 0.011401930264653384 0 0.0032205214081845938 0.010720346163905865 0 0.0032460315668153897 0.012214765891780862 0 0.0046959936927882112 0.013618776876212933 0 0.0068122136728902593 0.012160704301041133 0 0.007244470721661336 0.014522283625216559 0 0.0069698116454180422 0.014617828224811034 0 0.0073459292587580299 0.014639095643178906 0 0.0022758200215594838 0.011370126457700698 0 0.0032306210178331143 0.012571758887655051 0 0.0016156140298474737 0.011445439397595342 0 0.0037329252182572168 0.012325489032380784 0 0.0039730915826147201 0.011401930264653384 0 0.0053855987845951598 0.012633512660722485 0 0.0045056014413532488 0.01078704448116726 0 0.0039730915826147201 0.011401930264653384 0 0.0053855987845951598 0.012633512660722485 0 0.0069698116454180422 0.014617828224811034 0 0.0067375491132902034 0.014142563489252713 0 0.0060367707310055594 0.013907797089702637 0 0.0037329252182572168 0.012325489032380784 0 0.0060367707310055594 0.013907797089702637 0 0.0053855987845951598 0.012633512660722485 0 0.0032306210178331143 0.012571758887655051 0 0.0037329252182572168 0.012325489032380784 0 0.0060367707310055594 0.013907797089702637 0 0.0046959936927882112 0.013618776876212933 0 0.0061159687464243965 0.013931226834507194 0 0.007000816342532962 0.01436449893065567 0 0.0069698116454180422 0.014617828224811034 0 0.0067375491132902034 0.014142563489252713 0 0.0060367707310055594 0.013907797089702637 0 0.0053855987845951598 0.012633512660722485 0 0.006411590392580861 0.013347790081530909 0 0.0045056014413532488 0.01078704448116726 0 0.0053855987845951598 0.012633512660722485 0 0.0063485145732072711 0.012428252055388724 0 0.004466938683384953 0.010833850868721316 0 0.0050439189069162067 0.011289889190015792 0 0.0050439189069162067 0.011289889190015792 0 0.0050483797938774182 0.011860694567722433 0 0.0038069076791775801 0.010167948972220026 0 0.0039285837679138612 0.010144238769329661 0 0.0036011543459228915 0.010450820700521054 0 0.0053855987845951598 0.012633512660722485 0 0.0063485145732072711 0.012428252055388724 0 0.006411590392580861 0.013347790081530909 0 0.0063485145732072711 0.012428252055388724 0 0.006411590392580861 0.013347790081530909 0 0.0064730432498715648 0.013310459320092356 0 0.0060367707310055594 0.013907797089702637 0 0.006411590392580861 0.013347790081530909 0 0.0063615034400606911 0.013618239189528503 0 0.0060367707310055594 0.013907797089702637 0 0.0065016473498323195 0.013890353677498411 0 0.0063615034400606911 0.013618239189528503 0 0.0063611002804742399 0.013752919865009939 0 0.0065016473498323195 0.013890353677498411 0 0.0063615034400606911 0.013618239189528503 0 0.0065016473498323195 0.013890353677498411 0 0.0067120650632969195 0.013953558266362106 0 0.0071237240367058377 0.014010475593937867 0 0.0060367707310055594 0.013907797089702637 0 0.0065016473498323195 0.013890353677498411 0 0.0067120650632969195 0.013953558266362106 0 0.0067375491132902034 0.014142563489252713 0 0.0060367707310055594 0.013907797089702637 0 0.0067120650632969195 0.013953558266362106 0 0.0067375491132902034 0.014142563489252713 0 0.0067120650632969195 0.013953558266362106 0 0.0070840223425441334 0.014012324850359701 0 0.0067120650632969195 0.013953558266362106 0 0.0071237240367058377 0.014010475593937867 0 0.0070840223425441334 0.014012324850359701 0 0.0073639079153370356 0.013978318639130481 0 0.0070840223425441334 0.014012324850359701 0 0.0073175538385839411 0.014010316569818184 0 0.0071237240367058377 0.014010475593937867 0 0.0073639079153370356 0.013978318639130481 0 0.0070840223425441334 0.014012324850359701 0 0.0070840223425441334 0.014012324850359701 0 0.0073134848847484302 0.014159813391585877 0 0.0073175538385839411 0.014010316569818184 0 0.0071325457795135983 0.014257197990397387 0 0.0067375491132902034 0.014142563489252713 0 0.0070840223425441334 0.014012324850359701 0 0.0071325457795135983 0.014257197990397387 0 0.0070840223425441334 0.014012324850359701 0 0.0073134848847484302 0.014159813391585877 0 0.0060140264382074699 0.013313068363408167 0 0.0054069170544889444 0.012571318221018271 0 0.0061075934698888706 0.013368362419947663 0 0.0050336158535086188 0.01227535618534333 0 0.0054474105126381747 0.012556142165396056 0 0.003888337433662369 0.011236671009354993 0 0.0054069170544889444 0.012571318221018271 0 0.0046460885702052993 0.010500465674240046 0 0.0054069170544889444 0.012571318221018271 0 0.0046460885702052993 0.010500465674240046 0 0.0058802920468250443 0.010811500096177337 0 0.0046460885702052993 0.010500465674240046 0 0.0058802920468250443 0.010811500096177337 0 0.0051774029177512129 0.0094985215927191804 0 0.0038502541120062571 0.010070890746473769 0 0.003888337433662369 0.011236671009354993 0 0.0046460885702052993 0.010500465674240046 0 0.0037462910399945165 0.01006116627777149 0 0.0038502541120062571 0.010070890746473769 0 0.0036011543459228915 0.010450820700521054 0 0.0038502541120062571 0.010070890746473769 0 0.003888337433662369 0.011236671009354993 0 0.0036011543459228915 0.010450820700521054 0 0.0037462910399945165 0.01006116627777149 0 0.0038069076791775801 0.010167948972220026 0 0.0036011543459228915 0.010450820700521054 0 0.006411590392580861 0.013347790081530909 0 0.0064730432498715648 0.013310459320092356 0 0.0063615034400606911 0.013618239189528503 0 0.0050336158535086188 0.01227535618534333 0 0.0050483797938774182 0.011860694567722433 0 0.0060140264382074699 0.013313068363408167 0 0.0064730432498715648 0.013310459320092356 0 0.0061075934698888706 0.013368362419947663 0 0.0064730432498715648 0.013310459320092356 0 0.0061075934698888706 0.013368362419947663 0 0.0063615034400606911 0.013618239189528503 0 0.0061075934698888706 0.013368362419947663 0 0.0063615034400606911 0.013618239189528503 0 0.0061892160923143133 0.013670488959538459 0 0.0063611002804742399 0.013752919865009939 0 0.0063615034400606911 0.013618239189528503 0 0.0061892160923143133 0.013670488959538459 0 0.0061075934698888706 0.013368362419947663 0 0.0061892160923143133 0.013670488959538459 0 0.0059502310708306975 0.013451437503421846 0 0.0054069170544889444 0.012571318221018271 0 0.0061075934698888706 0.013368362419947663 0 0.0059502310708306975 0.013451437503421846 0 0.0054069170544889444 0.012571318221018271 0 0.0059502310708306975 0.013451437503421846 0 0.0059628127355450958 0.013075396989093576 0 0.0054069170544889444 0.012571318221018271 0 0.0059628127355450958 0.013075396989093576 0 0.0059946520972245978 0.012436784120293623 0 0.0059502310708306975 0.013451437503421846 0 0.0061741828733624963 0.013530255748755085 0 0.0059628127355450958 0.013075396989093576 0 0.0014905542171861821 0.02041775179866406 0 -0.000433223960810854 0.021030648043492816 0 -0.00086902314994618645 0.022216684216724937 0 0.003891501020204587 0.016863591211729933 0 0.0027284875397201131 0.017838167767676952 0 -0.000433223960810854 0.021030648043492816 0 -0.0019877010856168076 0.021275657209952826 0 -0.0019099828207533788 0.018320100176244893 0 0.0014905542171861821 0.02041775179866406 0 -0.000433223960810854 0.021030648043492816 0 -0.0019099828207533788 0.018320100176244893 0 -0.000433223960810854 0.021030648043492816 0 -0.0019877010856168076 0.021275657209952826 0 -0.00088030412037443659 0.021738934474040746 0 -0.0019877010856168076 0.021275657209952826 0 -0.00061279385160637357 0.022234558917787809 0 -0.0029736716833821831 0.022658157018790218 0 -0.00061279385160637357 0.022234558917787809 0 -0.00086902314994618645 0.022216684216724937 0 0.0013761574270570217 0.017971976661713754 0 -0.00061279385160637357 0.022234558917787809 0 0.0013761574270570217 0.017971976661713754 0 0.0026889360893833543 0.021871608951604383 0 -0.0006670833937927037 0.022255899622370488 0 6.6722318169842797e-05 0.022165677305383581 0 -0.0019877010856168076 0.021275657209952826 0 -0.00061279385160637357 0.022234558917787809 0 -0.00088030412037443659 0.021738934474040746 0 -0.000433223960810854 0.021030648043492816 0 -0.00088030412037443659 0.021738934474040746 0 -0.00086902314994618645 0.022216684216724937 0 -0.00061279385160637357 0.022234558917787809 0 -0.00088030412037443659 0.021738934474040746 0 -0.00086902314994618645 0.022216684216724937 0 0.0065170705108544115 0.013075060701388842 0 0.0062102985462258843 0.012779947286770855 0 0.0064945190570958357 0.012321640656906108 0 0.0061741828733624963 0.013530255748755085 0 0.0065170705108544115 0.013075060701388842 0 0.0059628127355450958 0.013075396989093576 0 0.0065170705108544115 0.013075060701388842 0 0.0059628127355450958 0.013075396989093576 0 0.0062102985462258843 0.012779947286770855 0 0.0059628127355450958 0.013075396989093576 0 0.0062102985462258843 0.012779947286770855 0 0.0059946520972245978 0.012436784120293623 0 0.0059946520972245978 0.012436784120293623 0 0.0064945190570958357 0.012321640656906108 0 0.0058802920468250443 0.010811500096177337 0 0.0054069170544889444 0.012571318221018271 0 0.0059946520972245978 0.012436784120293623 0 0.0058802920468250443 0.010811500096177337 0 0.0062102985462258843 0.012779947286770855 0 0.0059946520972245978 0.012436784120293623 0 0.0064945190570958357 0.012321640656906108 0 0.0027284875397201131 0.017838167767676952 0 0.0056746325789105208 0.013451490417147686 0 0.0064945190570958357 0.012321640656906108 0 0.0058802920468250443 0.010811500096177337 0 0.0074323246321246102 0.011954188459114253 0 0.0065170705108544115 0.013075060701388842 0 0.0064945190570958357 0.012321640656906108 0 0.0074323246321246102 0.011954188459114253 0 0.0062414184955067046 0.010501439919064348 0 0.0056746325789105208 0.013451490417147686 0 0.0065127331180058444 0.010067953140697765 0 0.0058802920468250443 0.010811500096177337 0 0.0066356849349074052 0.010998414340738814 0 0.0068588028470396595 0.010622041334360465 0 0.0071251876346155449 0.011215178653869288 0 0.0066897749194450053 0.011312050374053535 0 0.0068588028470396595 0.010622041334360465 0 0.0076685678308777098 0.010618963428573477 0 0.0071251876346155449 0.011215178653869288 0 0.0068588028470396595 0.010622041334360465 0 0.0076685678308777098 0.010618963428573477 0 0.0073254125470691702 0.0099773503878457202 0 0.0068588028470396595 0.010622041334360465 0 0.0073254125470691702 0.0099773503878457202 0 0.0066284716368280637 0.0097243052684672059 0 0.0068588028470396595 0.010622041334360465 0 0.0055118980269479884 0.011443918550470595 0 0.0066897749194450053 0.011312050374053535 0 0.0065127331180058444 0.010067953140697765 0 0.0066356849349074052 0.010998414340738814 0 0.0073090900038200362 0.0097550891972145691 0 0.0068588028470396595 0.010622041334360465 0 0.0055118980269479884 0.011443918550470595 0 0.0066284716368280637 0.0097243052684672059 0 0.0056746325789105208 0.013451490417147686 0 0.0071419493358970696 0.0092544106962071382 0 0.0056746325789105208 0.013451490417147686 0 0.0014778582065350049 0.012807914782189175 0 0.0055118980269479884 0.011443918550470595 0 0.0066897749194450053 0.011312050374053535 0 0.0072842421541756807 0.012308107101906158 0 0.0013761574270570217 0.017971976661713754 0 0.006158723553921064 0.020396365244189099 0 0.0040393899368005512 0.020465659917050617 0 0.0013761574270570217 0.017971976661713754 0 0.0026889360893833543 0.021871608951604383 0 0.0040393899368005512 0.020465659917050617 0 0.0076685678308777098 0.010618963428573477 0 0.0071251876346155449 0.011215178653869288 0 0.0072842421541756807 0.012308107101906158 0 -0.00038310756180931141 0.0071000773941852884 0 0.0014778582065350049 0.012807914782189175 0 -0.0083093296496592126 0.0050075861630573476 0 -0.0084621245197518142 0.0055794586887243404 0 -0.0082925893119276672 0.0052520799886215533 0 0.0071251876346155449 0.011215178653869288 0 0.0066897749194450053 0.011312050374053535 0 0.0072842421541756807 0.012308107101906158 0 -0.0084621245197518142 0.0055794586887243404 0 -0.0082925893119276672 0.0052520799886215533 0 -0.0082477673678704073 0.0054688243425734407 0 0.0014778582065350049 0.012807914782189175 0 -0.006891793149851274 0.01216421377927223 0 -0.0051217069627329066 0.022774081152249673 0 -0.0050762115604510456 0.022534278495324505 0 -0.0029736716833821831 0.022658157018790218 0 -0.005123410679069405 0.022756100074650717 0 -0.0058152232768752983 0.022401795062912285 0 -0.0066284951626363157 0.022800364139636112 0 0.00015780768699306724 0.01327032254648103 0 -0.00037144532070951361 0.015936041602153103 0 -0.0051992665048832222 0.013580016389887048 0 -0.0012693497052436954 0.018392853047791733 0 -0.006891793149851274 0.01216421377927223 0 -0.0012693497052436954 0.018392853047791733 0 0.0014778582065350049 0.012807914782189175 0 0.0059113554274677124 0.021584309012551213 0 0.006158723553921064 0.020396365244189099 0 0.0040393899368005512 0.020465659917050617 0 -0.0012693497052436954 0.018392853047791733 0 -0.0014956452930781762 0.019002114276368168 0 -0.0050762115604510456 0.022534278495324505 0 -0.0049384756416793697 0.021767638201675828 0 -0.0039982992230244091 0.021588494788638897 0 -0.0049384756416793697 0.021767638201675828 0 -0.0054562851782170513 0.022172217178317778 0 -0.005491015933409722 0.021541893634117452 0 -0.0054562851782170513 0.022172217178317778 0 -0.005491015933409722 0.021541893634117452 0 -0.0061778036768998989 0.022067695060089661 0 -0.0058152232768752983 0.022401795062912285 0 -0.0054562851782170513 0.022172217178317778 0 -0.0061778036768998989 0.022067695060089661 0 -0.005123410679069405 0.022756100074650717 0 -0.0058152232768752983 0.022401795062912285 0 -0.0054562851782170513 0.022172217178317778 0 -0.0050762115604510456 0.022534278495324505 0 -0.0049384756416793697 0.021767638201675828 0 -0.0054562851782170513 0.022172217178317778 0 -0.005123410679069405 0.022756100074650717 0 -0.0050762115604510456 0.022534278495324505 0 -0.0054562851782170513 0.022172217178317778 0 -0.0050762115604510456 0.022534278495324505 0 -0.0029736716833821831 0.022658157018790218 0 -0.0039982992230244091 0.021588494788638897 0 -0.0012693497052436954 0.018392853047791733 0 6.6722318169842797e-05 0.022165677305383581 0 0.0059113554274677124 0.021584309012551213 0 0.0026889360893833543 0.021871608951604383 0 0.0040393899368005512 0.020465659917050617 0 -0.0019877010856168076 0.021275657209952826 0 -0.0029736716833821831 0.022658157018790218 0 -0.0039982992230244091 0.021588494788638897 0 -0.0019877010856168076 0.021275657209952826 0 -0.003458355038081022 0.019903393854872751 0 -0.0019099828207533788 0.018320100176244893 0 -0.0019877010856168076 0.021275657209952826 0 -0.0039982992230244091 0.021588494788638897 0 -0.003458355038081022 0.019903393854872751 0 -0.0049384756416793697 0.021767638201675828 0 -0.005491015933409722 0.021541893634117452 0 -0.005018335072735477 0.020674058361216396 0 -0.005491015933409722 0.021541893634117452 0 -0.0062776696524022863 0.021052049717417993 0 -0.0061778036768998989 0.022067695060089661 0 -0.005491015933409722 0.021541893634117452 0 -0.005018335072735477 0.020674058361216396 0 -0.0062776696524022863 0.021052049717417993 0 -0.0039982992230244091 0.021588494788638897 0 -0.003458355038081022 0.019903393854872751 0 -0.005018335072735477 0.020674058361216396 0 -0.0049384756416793697 0.021767638201675828 0 -0.0039982992230244091 0.021588494788638897 0 -0.005018335072735477 0.020674058361216396 0 -0.003458355038081022 0.019903393854872751 0 -0.005018335072735477 0.020674058361216396 0 -0.0047193751083145661 0.019324226609950815 0 -0.005018335072735477 0.020674058361216396 0 -0.0063009882226591684 0.019438897633662508 0 -0.0047193751083145661 0.019324226609950815 0 -0.005018335072735477 0.020674058361216396 0 -0.0062776696524022863 0.021052049717417993 0 -0.0063009882226591684 0.019438897633662508 0 -0.0062776696524022863 0.021052049717417993 0 -0.007753003037858754 0.020068773222992886 0 -0.00736258264156372 0.022433930722711694 0 -0.0080878174994469983 0.017803617000483198 0 -0.0077149364877946306 0.012496523825772149 0 -0.0062776696524022863 0.021052049717417993 0 -0.007753003037858754 0.020068773222992886 0 -0.0063009882226591684 0.019438897633662508 0 -0.0086147231667961805 0.013270270755745968 0 -0.0075017169277784316 0.01289949231743627 0 -0.0079965195084570877 0.013561476405854688 0 -0.0086147231667961805 0.013270270755745968 0 -0.0087276006298231488 0.012326598917756284 0 -0.0075017169277784316 0.01289949231743627 0 -0.0079909605992796381 0.0055952759955298524 0 -0.0081292592746017942 0.0056611832532226071 0 -0.0081272799171359742 0.0056835542342397183 0 -0.0080720473432994849 0.0053849320846833647 0 -0.0082549999801986868 0.0053531513248750275 0 -0.0081875482875807207 0.0052444796811427817 0 -0.0079909605992796381 0.0055952759955298524 0 -0.0081272799171359742 0.0056835542342397183 0 -0.0079350903200780445 0.0057463746828927877 0 -0.0080767137446247604 0.0053723977825171814 0 -0.0077584993679988262 0.0081686150686649719 0 -0.0077149364877946306 0.012496523825772149 0 -0.008518456055873003 0.0087378940554681869 0 -0.0088994435625305828 0.011748348943991137 0 -0.0069421658432733081 0.011630462498073297 0 -0.0090475685071072127 0.010605863645113017 0 -0.0077584993679988262 0.0081686150686649719 0 -0.0077149364877946306 0.012496523825772149 0 -0.0080196593159625722 0.0057311697999084376 0 -0.0081908137793218934 0.0057441651110103995 0 -0.0082477673678704073 0.0054688243425734407 0 -0.0084621245197518142 0.0055794586887243404 0 -0.0081908137793218934 0.0057441651110103995 0 -0.0082477673678704073 0.0054688243425734407 0 -0.006891793149851274 0.01216421377927223 0 -0.0077149364877946306 0.012496523825772149 0 -0.0077584993679988262 0.0081686150686649719 0 -0.006891793149851274 0.01216421377927223 0 -0.0062776696524022863 0.021052049717417993 0 -0.0061778036768998989 0.022067695060089661 0 -0.00736258264156372 0.022433930722711694 0 -0.0066284951626363157 0.022800364139636112 0 -0.0061778036768998989 0.022067695060089661 0 -0.00736258264156372 0.022433930722711694 0 -0.0058152232768752983 0.022401795062912285 0 -0.0066284951626363157 0.022800364139636112 0 -0.0061778036768998989 0.022067695060089661 0 -0.007941251755567022 0.0074304430055331999 0 -0.0082308786445810054 0.0086064384822765825 0 -0.0073605641713214492 0.0081757756417425807 0 -0.0082308786445810054 0.0086064384822765825 0 -0.0087525266982011948 0.0074913265814173678 0 -0.0098041540603603129 0.0078298840701165363 0 -0.007941251755567022 0.0074304430055331999 0 -0.0082308786445810054 0.0086064384822765825 0 -0.0087525266982011948 0.0074913265814173678 0 -0.0086892798965504028 0.0083920817590719711 0 -0.008518456055873003 0.0087378940554681869 0 -0.0082308786445810054 0.0086064384822765825 0 -0.0090706311739606627 0.0083780192753496272 0 -0.0087434504187915065 0.0095762010043421598 0 -0.008518456055873003 0.0087378940554681869 0 -0.0088346943670055446 0.011433230013605609 0 -0.0079909605992796381 0.0055952759955298524 0 -0.0078295382892799234 0.0054892993862715803 0 -0.0078295474644796276 0.0055166067553269653 0 -0.0079909605992796381 0.0055952759955298524 0 -0.0079350903200780445 0.0057463746828927877 0 -0.0078295474644796276 0.0055166067553269653 0 -0.0080720473432994849 0.0053849320846833647 0 -0.0078295382892799234 0.0054892993862715803 0 -0.0079497130939599342 0.0053338203139940187 0 -0.008518456055873003 0.0087378940554681869 0 -0.0081754885186016441 0.0057787407138477458 0 -0.0087525266982011948 0.0074913265814173678 0 -0.0098041540603603129 0.0078298840701165363 0 -0.0087544864228012234 0.0065374025345399638 0 -0.0080767137446247604 0.0053723977825171814 0 -0.0078138353069563647 0.00549620548187641 0 -0.0087525266982011948 0.0074913265814173678 0 -0.0087544864228012234 0.0065374025345399638 0 -0.0083880836997306078 0.0070089236818997808 0 -0.0087544864228012234 0.0065374025345399638 0 -0.0083880836997306078 0.0070089236818997808 0 -0.0078205244468475925 0.0063513121714223065 0 -0.007941251755567022 0.0074304430055331999 0 -0.0087525266982011948 0.0074913265814173678 0 -0.0083880836997306078 0.0070089236818997808 0 -0.007941251755567022 0.0074304430055331999 0 -0.0083880836997306078 0.0070089236818997808 0 -0.0078205244468475925 0.0063513121714223065 0 -0.0078295382892799234 0.0054892993862715803 0 -0.0078295474644796276 0.0055166067553269653 0 -0.0077216582437037804 0.0054373350153108669 0 -0.0081754885186016441 0.0057787407138477458 0 -0.0078437142147576543 0.0055662231616959252 0 -0.0087544864228012234 0.0065374025345399638 0 -0.0077216582437037804 0.0054373350153108669 0 -0.0078205244468475925 0.0063513121714223065 0 -0.0077216582437037804 0.0054373350153108669 0 -0.0078350257826463338 0.0053340954014267977 0 -0.0077474342874160884 0.0051045097425937097 0 -0.0078295382892799234 0.0054892993862715803 0 -0.0077216582437037804 0.0054373350153108669 0 -0.0078350257826463338 0.0053340954014267977 0 -0.0078295382892799234 0.0054892993862715803 0 -0.0078350257826463338 0.0053340954014267977 0 -0.0079497130939599342 0.0053338203139940187 0 -0.0078350257826463338 0.0053340954014267977 0 -0.0079193045304958836 0.0051886502334068428 0 -0.0077474342874160884 0.0051045097425937097 0 -0.0078350257826463338 0.0053340954014267977 0 -0.0079193045304958836 0.0051886502334068428 0 -0.0079497130939599342 0.0053338203139940187 0 -0.0080720473432994849 0.0053849320846833647 0 -0.0079497130939599342 0.0053338203139940187 0 -0.0080559977074912952 0.0052241619525293078 0 -0.0079193045304958836 0.0051886502334068428 0 -0.0079497130939599342 0.0053338203139940187 0 -0.0080559977074912952 0.0052241619525293078 0 -0.0079193045304958836 0.0051886502334068428 0 -0.0080559977074912952 0.0052241619525293078 0 -0.008025196131123678 0.0050461959134854122 0 -0.008025196131123678 0.0050461959134854122 0 -0.0080071497174230791 0.0048135772320969236 0 -0.0081293608358125272 0.0049013427018141219 0 -0.008025196131123678 0.0050461959134854122 0 -0.0080071497174230791 0.0048135772320969236 0 -0.0078528540488276809 0.0048981688137863027 0 -0.0079193045304958836 0.0051886502334068428 0 -0.008025196131123678 0.0050461959134854122 0 -0.0078528540488276809 0.0048981688137863027 0 -0.0079193045304958836 0.0051886502334068428 0 -0.0078528540488276809 0.0048981688137863027 0 -0.0077474342874160884 0.0051045097425937097 0 -0.0078528540488276809 0.0048981688137863027 0 -0.0077474342874160884 0.0051045097425937097 0 -0.0075795883048852932 0.0046475073465596668 0 -0.0080196593159625722 0.0057311697999084376 0 -0.0082154024698928609 0.0051602191455963585 0 -0.0082477673678704073 0.0054688243425734407 0 -0.0077584993679988262 0.0081686150686649719 0 -0.0083273768588634275 0.0042509975620057573 0 -0.0082549999801986868 0.0053531513248750275 0 -0.0082154024698928609 0.0051602191455963585 0 -0.0081875482875807207 0.0052444796811427817 0 -0.0082154024698928609 0.0051602191455963585 0 -0.0081875482875807207 0.0052444796811427817 0 -0.0081941649560162925 0.0051397686744975848 0 -0.0082154024698928609 0.0051602191455963585 0 -0.0082925893119276672 0.0052520799886215533 0 -0.0082528000963595187 0.0050803993020491905 0 -0.0082154024698928609 0.0051602191455963585 0 -0.0082925893119276672 0.0052520799886215533 0 -0.0082477673678704073 0.0054688243425734407 0 -0.0080720473432994849 0.0053849320846833647 0 -0.0080559977074912952 0.0052241619525293078 0 -0.0081875482875807207 0.0052444796811427817 0 -0.0080559977074912952 0.0052241619525293078 0 -0.008025196131123678 0.0050461959134854122 0 -0.0081356788476336078 0.005093934288430458 0 -0.0080559977074912952 0.0052241619525293078 0 -0.0081875482875807207 0.0052444796811427817 0 -0.0081356788476336078 0.005093934288430458 0 -0.0081875482875807207 0.0052444796811427817 0 -0.0081941649560162925 0.0051397686744975848 0 -0.0081356788476336078 0.005093934288430458 0 -0.0081941649560162925 0.0051397686744975848 0 -0.0081356788476336078 0.005093934288430458 0 -0.0082307364293630111 0.0050087142888610272 0 -0.0081356788476336078 0.005093934288430458 0 -0.0081293608358125272 0.0049013427018141219 0 -0.0082307364293630111 0.0050087142888610272 0 -0.008025196131123678 0.0050461959134854122 0 -0.0081356788476336078 0.005093934288430458 0 -0.0081293608358125272 0.0049013427018141219 0 -0.0081293608358125272 0.0049013427018141219 0 -0.0082307364293630111 0.0050087142888610272 0 -0.0082249266758487333 0.0047738921069009413 0 -0.0083093296496592126 0.0050075861630573476 0 -0.0082493842392154168 0.0050077357746931925 0 -0.0076439474517379993 0.0051216280196154625 0 -0.0082686262693991673 0.0048717305003658125 0 -0.0082307364293630111 0.0050087142888610272 0 -0.0082249266758487333 0.0047738921069009413 0 -0.0082686262693991673 0.0048717305003658125 0 -0.0082307364293630111 0.0050087142888610272 0 -0.0082493842392154168 0.0050077357746931925 0 -0.0082686262693991673 0.0048717305003658125 0 -0.0082493842392154168 0.0050077357746931925 0 -0.008343908479377108 0.0046740007499768543 0 -0.0082154024698928609 0.0051602191455963585 0 -0.0081941649560162925 0.0051397686744975848 0 -0.0082307364293630111 0.0050087142888610272 0 -0.0082154024698928609 0.0051602191455963585 0 -0.0082307364293630111 0.0050087142888610272 0 -0.0082528000963595187 0.0050803993020491905 0 -0.0083093296496592126 0.0050075861630573476 0 -0.0082925893119276672 0.0052520799886215533 0 -0.0082528000963595187 0.0050803993020491905 0 -0.0082307364293630111 0.0050087142888610272 0 -0.0082528000963595187 0.0050803993020491905 0 -0.0082493842392154168 0.0050077357746931925 0 -0.0083093296496592126 0.0050075861630573476 0 -0.0082528000963595187 0.0050803993020491905 0 -0.0082493842392154168 0.0050077357746931925 0 -0.0082012275018006116 0.0049609532244354222 0 -0.007995830340310919 0.0046595873652466721 0 -0.00038310756180931141 0.0071000773941852884 0 0.00023952923155824127 0.0072051693358623813 0 -0.0082493842392154168 0.0050077357746931925 0 -0.0076439474517379993 0.0051216280196154625 0 -0.0075608479678443358 0.0051249378286054624 0 -0.0082493842392154168 0.0050077357746931925 0 -0.0085208149747359151 0.0044514846777015862 0 -0.008343908479377108 0.0046740007499768543 0 -0.0083726160117582396 0.0044941608000345799 0 -0.0085208149747359151 0.0044514846777015862 0 -0.008343908479377108 0.0046740007499768543 0 -0.0083726160117582396 0.0044941608000345799 0 -0.008343908479377108 0.0046740007499768543 0 -0.0082682451136003796 0.0045231941422790639 0 -0.0082686262693991673 0.0048717305003658125 0 -0.008343908479377108 0.0046740007499768543 0 -0.0082249266758487333 0.0047738921069009413 0 -0.008343908479377108 0.0046740007499768543 0 -0.0082249266758487333 0.0047738921069009413 0 -0.0082682451136003796 0.0045231941422790639 0 -0.0082249266758487333 0.0047738921069009413 0 -0.0081091354988284941 0.0045698668776914374 0 -0.0082682451136003796 0.0045231941422790639 0 -0.0080071497174230791 0.0048135772320969236 0 -0.0081293608358125272 0.0049013427018141219 0 -0.0081091354988284941 0.0045698668776914374 0 -0.0081293608358125272 0.0049013427018141219 0 -0.0082249266758487333 0.0047738921069009413 0 -0.0081091354988284941 0.0045698668776914374 0 -0.0081091354988284941 0.0045698668776914374 0 -0.0082682451136003796 0.0045231941422790639 0 -0.0082041244854474601 0.0042958046647607953 0 -0.0083726160117582396 0.0044941608000345799 0 -0.0082682451136003796 0.0045231941422790639 0 -0.0083504622107191014 0.0042925073828296509 0 -0.0083504622107191014 0.0042925073828296509 0 -0.0082944944719375215 0.0041130710990075949 0 -0.0084621766509854375 0.0038491303720987304 0 -0.0082682451136003796 0.0045231941422790639 0 -0.0082041244854474601 0.0042958046647607953 0 -0.0083504622107191014 0.0042925073828296509 0 -0.0082041244854474601 0.0042958046647607953 0 -0.0083504622107191014 0.0042925073828296509 0 -0.0082944944719375215 0.0041130710990075949 0 -0.0081091354988284941 0.0045698668776914374 0 -0.0082041244854474601 0.0042958046647607953 0 -0.0080468778890022061 0.0041774019728227025 0 -0.0082041244854474601 0.0042958046647607953 0 -0.0081870852979135829 0.0040764340543425837 0 -0.0080468778890022061 0.0041774019728227025 0 -0.0081870852979135829 0.0040764340543425837 0 -0.0080468778890022061 0.0041774019728227025 0 -0.0081337296375453179 0.0038569052773076216 0 -0.0082041244854474601 0.0042958046647607953 0 -0.0081870852979135829 0.0040764340543425837 0 -0.0082944944719375215 0.0041130710990075949 0 -0.0081870852979135829 0.0040764340543425837 0 -0.0082944944719375215 0.0041130710990075949 0 -0.0082696710819144328 0.0039395835063421609 0 0.00023952923155824127 0.0072051693358623813 0 0.00067306424033263272 0.0061436619980951594 0 -0.0085208149747359151 0.0044514846777015862 0 -0.0083504622107191014 0.0042925073828296509 0 -0.0084621766509854375 0.0038491303720987304 0 -0.0076439474517379993 0.0051216280196154625 0 -0.0075608479678443358 0.0051249378286054624 0 -0.0070411716332800653 0.0050520291827619917 0 -0.007995830340310919 0.0046595873652466721 0 -0.0079777032838382594 0.0047864369528036526 0 0.0081523163654596848 0.0089334669830766402 0 0.0081523707305431424 0.0077355069814542101 0 0.0086002056483388406 0.0073112084845821405 0 0.0081523163654596848 0.0089334669830766402 0 0.0081523707305431424 0.0077355069814542101 0 0.0079260712928114156 0.0080732053470508255 0 -0.0075608479678443358 0.0051249378286054624 0 -0.0070411716332800653 0.0050520291827619917 0 -0.0070079381868109842 0.0050568222496345976 0 -0.0083726160117582396 0.0044941608000345799 0 -0.0085208149747359151 0.0044514846777015862 0 -0.0083504622107191014 0.0042925073828296509 0 -0.0075795883048852932 0.0046475073465596668 0 -0.0078496919530561763 0.0044196718907607698 0 -0.007505449669063846 0.004063744713590332 0 -0.0078528540488276809 0.0048981688137863027 0 -0.0075795883048852932 0.0046475073465596668 0 -0.0078496919530561763 0.0044196718907607698 0 -0.0080071497174230791 0.0048135772320969236 0 -0.0078528540488276809 0.0048981688137863027 0 -0.0078496919530561763 0.0044196718907607698 0 -0.0081091354988284941 0.0045698668776914374 0 -0.0078496919530561763 0.0044196718907607698 0 -0.0080468778890022061 0.0041774019728227025 0 -0.0080071497174230791 0.0048135772320969236 0 -0.0081091354988284941 0.0045698668776914374 0 -0.0078496919530561763 0.0044196718907607698 0 -0.0078496919530561763 0.0044196718907607698 0 -0.0078393697930000238 0.0039361805727410343 0 -0.0080468778890022061 0.0041774019728227025 0 -0.0078393697930000238 0.0039361805727410343 0 -0.0080468778890022061 0.0041774019728227025 0 -0.0081337296375453179 0.0038569052773076216 0 -0.0078496919530561763 0.0044196718907607698 0 -0.0078393697930000238 0.0039361805727410343 0 -0.007505449669063846 0.004063744713590332 0 -0.0078393697930000238 0.0039361805727410343 0 -0.007505449669063846 0.004063744713590332 0 -0.0075419353311255927 0.0036193163261779323 0 -0.0078393697930000238 0.0039361805727410343 0 -0.0079386839715110975 0.0035743799614127497 0 -0.0081337296375453179 0.0038569052773076216 0 -0.0078393697930000238 0.0039361805727410343 0 -0.0075419353311255927 0.0036193163261779323 0 -0.0079386839715110975 0.0035743799614127497 0 -0.007146300704260782 0.0033276045695436142 0 -0.0085673888650267538 0.0027920518646805145 0 -0.0077801877038266775 0.0015865310968468469 0 -0.0077627671826125885 0.0024540777679729255 0 -0.0070172670327122494 0.0018927308829583926 0 -0.0082288009109115264 0.0016734564936403686 0 -0.0077801877038266775 0.0015865310968468469 0 -0.0077627671826125885 0.0024540777679729255 0 -0.007111133506995969 0.00288095686067622 0 -0.0070172670327122494 0.0018927308829583926 0 -0.0062946990019446415 0.0020429911286301478 0 -0.007111133506995969 0.00288095686067622 0 -0.0077627671826125885 0.0024540777679729255 0 -0.0070172670327122494 0.0018927308829583926 0 -0.0079777032838382594 0.0047864369528036526 0 -0.0045172336113639211 0.0028122426944674475 0 -0.0070079381868109842 0.0050568222496345976 0 -0.0066282380383390601 0.0050637032973250883 0 -0.0068196748721252344 0.0050584501617151351 0 -0.0070411716332800653 0.0050520291827619917 0 -0.0070079381868109842 0.0050568222496345976 0 -0.0068196748721252344 0.0050584501617151351 0 0.0081484908145254189 0.0067304285013307106 0 0.0086002056483388406 0.0073112084845821405 0 0.0084511842375935911 0.0060031835995026425 0 0.0081484908145254189 0.0067304285013307106 0 0.0086002056483388406 0.0073112084845821405 0 0.0081344101119246674 0.0071957059512621326 0 0.0081523707305431424 0.0077355069814542101 0 0.0086002056483388406 0.0073112084845821405 0 0.0081344101119246674 0.0071957059512621326 0 -0.0084621766509854375 0.0038491303720987304 0 -0.0082721363835360391 0.003634086847416802 0 -0.0083252999058222969 0.0033794951781018997 0 -0.0079386839715110975 0.0035743799614127497 0 -0.0081337296375453179 0.0038569052773076216 0 -0.0082721363835360391 0.003634086847416802 0 -0.0082944944719375215 0.0041130710990075949 0 -0.0084621766509854375 0.0038491303720987304 0 -0.0082696710819144328 0.0039395835063421609 0 -0.0084621766509854375 0.0038491303720987304 0 -0.0082696710819144328 0.0039395835063421609 0 -0.0082898701772524171 0.0038099102033631459 0 -0.0082696710819144328 0.0039395835063421609 0 -0.0082898701772524171 0.0038099102033631459 0 -0.0081337296375453179 0.0038569052773076216 0 -0.0081870852979135829 0.0040764340543425837 0 -0.0082696710819144328 0.0039395835063421609 0 -0.0081337296375453179 0.0038569052773076216 0 -0.0084621766509854375 0.0038491303720987304 0 -0.0082898701772524171 0.0038099102033631459 0 -0.0082721363835360391 0.003634086847416802 0 -0.0082898701772524171 0.0038099102033631459 0 -0.0081337296375453179 0.0038569052773076216 0 -0.0082721363835360391 0.003634086847416802 0 -0.0079386839715110975 0.0035743799614127497 0 -0.0082721363835360391 0.003634086847416802 0 -0.0083252999058222969 0.0033794951781018997 0 -0.0082288009109115264 0.0016734564936403686 0 -0.0077627671826125885 0.0024540777679729255 0 -0.0086279472413719905 0.0019985375658111088 0 -0.0085673888650267538 0.0027920518646805145 0 -0.0045172336113639211 0.0028122426944674475 0 0.0058797039256677603 0.0034160204576697685 0 0.0052888011634865369 0.0026911880072226515 0 0.0059104434406619319 0.0029915652525839267 0 0.00067306424033263272 0.0061436619980951594 0 0.0024859615365514804 0.0053350528118150916 0 0.0086002056483388406 0.0073112084845821405 0 0.0091976855184498565 0.0051238950909672657 0 0.0084511842375935911 0.0060031835995026425 0 0.0070614470445932815 0.0040501790049840081 0 0.0091976855184498565 0.0051238950909672657 0 0.0080045083928644827 0.0050305294109687796 0 -0.0070411716332800653 0.0050520291827619917 0 -0.0066008856302133016 0.0050648331106599468 0 -0.0068196748721252344 0.0050584501617151351 0 0.0056523755294524084 0.0037934552448903474 0 0.0058797039256677603 0.0034160204576697685 0 0.0052888011634865369 0.0026911880072226515 0 0.0031178774401890265 0.0042894992187255138 0 0.0024859615365514804 0.0053350528118150916 0 0.0058797039256677603 0.0034160204576697685 0 0.0061658602722336258 0.0035450117015395832 0 0.0060295115870276726 0.0031334332721769933 0 -0.0045172336113639211 0.0028122426944674475 0 0.0024859615365514804 0.0053350528118150916 0 -0.0066282380383390601 0.0050637032973250883 0 -0.0066008856302133016 0.0050648331106599468 0 -0.0068196748721252344 0.0050584501617151351 0 0.0081484908145254189 0.0067304285013307106 0 0.0084511842375935911 0.0060031835995026425 0 0.0077559956718254537 0.0061348246447814883 0 0.0084511842375935911 0.0060031835995026425 0 0.0085066325581783769 0.0053829935429455219 0 0.0078689609996326453 0.0054786730145784616 0 0.0084511842375935911 0.0060031835995026425 0 0.0078689609996326453 0.0054786730145784616 0 0.0077559956718254537 0.0061348246447814883 0 0.0085066325581783769 0.0053829935429455219 0 0.0080045083928644827 0.0050305294109687796 0 0.0078689609996326453 0.0054786730145784616 0 0.0091976855184498565 0.0051238950909672657 0 0.0084511842375935911 0.0060031835995026425 0 0.0085066325581783769 0.0053829935429455219 0 0.0091976855184498565 0.0051238950909672657 0 0.0085066325581783769 0.0053829935429455219 0 0.0080045083928644827 0.0050305294109687796 0 0.0067922566931277279 0.0045421461012041678 0 0.0073471136517113582 0.0049076836239032072 0 0.0071877415823310966 0.0054187038144522534 0 0.0080045083928644827 0.0050305294109687796 0 0.0073471136517113582 0.0049076836239032072 0 0.0078689609996326453 0.0054786730145784616 0 0.0073471136517113582 0.0049076836239032072 0 0.0078689609996326453 0.0054786730145784616 0 0.0071877415823310966 0.0054187038144522534 0 0.0071877415823310966 0.0054187038144522534 0 0.0070573446086544039 0.0061369552893474205 0 0.0064841296681586143 0.0052889913409161814 0 0.0067922566931277279 0.0045421461012041678 0 0.0071877415823310966 0.0054187038144522534 0 0.0064841296681586143 0.0052889913409161814 0 0.0071877415823310966 0.0054187038144522534 0 0.0070573446086544039 0.0061369552893474205 0 0.0077559956718254537 0.0061348246447814883 0 0.0078689609996326453 0.0054786730145784616 0 0.0071877415823310966 0.0054187038144522534 0 0.0077559956718254537 0.0061348246447814883 0 0.0070573446086544039 0.0061369552893474205 0 0.0077559956718254537 0.0061348246447814883 0 0.0076607621261768327 0.0071683457427704923 0 0.0081484908145254189 0.0067304285013307106 0 0.0077559956718254537 0.0061348246447814883 0 0.0076607621261768327 0.0071683457427704923 0 0.0076607621261768327 0.0071683457427704923 0 0.0066554235019921949 0.0067867488844149757 0 0.0070230404189722444 0.0081125373865063976 0 0.0081484908145254189 0.0067304285013307106 0 0.0081344101119246674 0.0071957059512621326 0 0.0076607621261768327 0.0071683457427704923 0 0.0070573446086544039 0.0061369552893474205 0 0.0076607621261768327 0.0071683457427704923 0 0.0066554235019921949 0.0067867488844149757 0 0.0081523707305431424 0.0077355069814542101 0 0.0076607621261768327 0.0071683457427704923 0 0.0079260712928114156 0.0080732053470508255 0 0.0081523707305431424 0.0077355069814542101 0 0.0081344101119246674 0.0071957059512621326 0 0.0076607621261768327 0.0071683457427704923 0 0.0066554235019921949 0.0067867488844149757 0 0.0060787064951940617 0.0077917403265779202 0 0.0070230404189722444 0.0081125373865063976 0 0.0066554235019921949 0.0067867488844149757 0 0.0058062894893105583 0.0060791485157677821 0 0.0060787064951940617 0.0077917403265779202 0 0.0060238089416359613 0.0043660203780965896 0 0.0064841296681586143 0.0052889913409161814 0 0.0058062894893105583 0.0060791485157677821 0 0.0070573446086544039 0.0061369552893474205 0 0.0066554235019921949 0.0067867488844149757 0 0.0064841296681586143 0.0052889913409161814 0 0.0066554235019921949 0.0067867488844149757 0 0.0064841296681586143 0.0052889913409161814 0 0.0058062894893105583 0.0060791485157677821 0 0.0049781796241067508 0.0056365155780906092 0 0.0058062894893105583 0.0060791485157677821 0 0.0050449847875988756 0.0070735872386216191 0 0.0040583684819016459 0.0086218763723004341 0 0.0050449847875988756 0.0070735872386216191 0 0.0054141028995671626 0.0083501858762224102 0 0.0050449847875988756 0.0070735872386216191 0 0.0060787064951940617 0.0077917403265779202 0 0.0054141028995671626 0.0083501858762224102 0 0.0058062894893105583 0.0060791485157677821 0 0.0050449847875988756 0.0070735872386216191 0 0.0060787064951940617 0.0077917403265779202 0 0.0060787064951940617 0.0077917403265779202 0 0.0054141028995671626 0.0083501858762224102 0 0.0060029816458387723 0.0092928421090859963 0 0.0060787064951940617 0.0077917403265779202 0 0.0060029816458387723 0.0092928421090859963 0 0.0066318005223296572 0.0090243644814449429 0 0.0040583684819016459 0.0086218763723004341 0 0.0054141028995671626 0.0083501858762224102 0 0.0051774029177512129 0.0094985215927191804 0 0.0054141028995671626 0.0083501858762224102 0 0.0051774029177512129 0.0094985215927191804 0 0.0060029816458387723 0.0092928421090859963 0 0.0058802920468250443 0.010811500096177337 0 0.0051774029177512129 0.0094985215927191804 0 0.0060029816458387723 0.0092928421090859963 0 0.0065127331180058444 0.010067953140697765 0 0.0058802920468250443 0.010811500096177337 0 0.0060029816458387723 0.0092928421090859963 0 0.0065127331180058444 0.010067953140697765 0 0.0060029816458387723 0.0092928421090859963 0 0.0066318005223296572 0.0090243644814449429 0 0.0066318005223296572 0.0090243644814449429 0 0.0073090900038200362 0.0097550891972145691 0 0.0070230404189722444 0.0081125373865063976 0 0.0065127331180058444 0.010067953140697765 0 0.0066318005223296572 0.0090243644814449429 0 0.0073090900038200362 0.0097550891972145691 0 0.0073254125470691702 0.0099773503878457202 0 0.0081523163654596848 0.0089334669830766402 0 0.0066284716368280637 0.0097243052684672059 0 0.0071419493358970696 0.0092544106962071382 0 0.0077754628141619396 0.0083891704819888356 0 0.0076685678308777098 0.010618963428573477 0 0.0073254125470691702 0.0099773503878457202 0 0.0081523163654596848 0.0089334669830766402 0 0.0081523163654596848 0.0089334669830766402 0 0.0066284716368280637 0.0097243052684672059 0 0.0079260712928114156 0.0080732053470508255 0 0.0073090900038200362 0.0097550891972145691 0 0.0079260712928114156 0.0080732053470508255 0 0.0070230404189722444 0.0081125373865063976 0 0.0076607621261768327 0.0071683457427704923 0 0.0079260712928114156 0.0080732053470508255 0 0.0070230404189722444 0.0081125373865063976 0 0.0060787064951940617 0.0077917403265779202 0 0.0066318005223296572 0.0090243644814449429 0 0.0070230404189722444 0.0081125373865063976 0 0.025429727424561965 0.0034851139703232213 0 0.025486642366626011 0.0033158285157317705 0 0.025462163283726861 0.0040071121920313259 0 0.026548322907348421 0.0052719165984024281 0 0.02558703040252041 0.0053859461900901866 0 0.025462163283726861 0.0040071121920313259 0 0.025933064102346574 0.0042902338281527201 0 0.025520210670909444 0.0040300102413084963 0 0.024999691243979317 0.0048061267157746331 0 0.02558703040252041 0.0053859461900901866 0 0.025462163283726861 0.0040071121920313259 0 0.02558703040252041 0.0053859461900901866 0 0.026143804031499986 0.0062941423771733802 0 0.025000015422993852 0.0063040371907289372 0 0.024999691243979317 0.0048061267157746331 0 0.02558703040252041 0.0053859461900901866 0 0.025000015422993852 0.0063040371907289372 0 0.026548322907348421 0.0052719165984024281 0 0.02558703040252041 0.0053859461900901866 0 0.026143804031499986 0.0062941423771733802 0 0.026548322907348421 0.0052719165984024281 0 0.027389859735697717 0.0062593395521420674 0 0.026143804031499986 0.0062941423771733802 0 0.025429727424561965 0.0034851139703232213 0 0.025579980150506436 0.0034898843216035883 0 0.025566305616668939 0.0037264566846940024 0 0.025933064102346574 0.0042902338281527201 0 0.026438106734546881 0.0055888579347515262 0 0.026374420943504326 0.0047890840618739286 0 0.026438106734546881 0.0055888579347515262 0 0.025771475409293376 0.0035410930989268024 0 0.026029207453296409 0.003801445590226491 0 0.025566305616668939 0.0037264566846940024 0 0.025579980150506436 0.0034898843216035883 0 0.025771475409293376 0.0035410930989268024 0 0.025566305616668939 0.0037264566846940024 0 0.025771475409293376 0.0035410930989268024 0 0.025696253258812925 0.003309598211220826 0 0.026070680626177928 0.0033624321541056547 0 0.025579980150506436 0.0034898843216035883 0 0.025771475409293376 0.0035410930989268024 0 0.025696253258812925 0.003309598211220826 0 0.025696253258812925 0.003309598211220826 0 0.025533801025448145 0.0033353302934432793 0 0.025602276369349992 0.0031285596355556762 0 0.025429727424561965 0.0034851139703232213 0 0.025533801025448145 0.0033353302934432793 0 0.025486642366626011 0.0033158285157317705 0 0.025429727424561965 0.0034851139703232213 0 0.025579980150506436 0.0034898843216035883 0 0.025533801025448145 0.0033353302934432793 0 0.025579980150506436 0.0034898843216035883 0 0.025696253258812925 0.003309598211220826 0 0.025533801025448145 0.0033353302934432793 0 0.025533801025448145 0.0033353302934432793 0 0.025486642366626011 0.0033158285157317705 0 0.025602276369349992 0.0031285596355556762 0 0.025486642366626011 0.0033158285157317705 0 0.025602276369349992 0.0031285596355556762 0 0.025609801871705157 0.0027089651942117407 0 0.025696253258812925 0.003309598211220826 0 0.025842839982270275 0.0029229892239750377 0 0.025602276369349992 0.0031285596355556762 0 0.025842839982270275 0.0029229892239750377 0 0.025602276369349992 0.0031285596355556762 0 0.025609801871705157 0.0027089651942117407 0 0.025842839982270275 0.0029229892239750377 0 0.025609801871705157 0.0027089651942117407 0 0.02581904753387575 0.0022983786145033703 0 0.025609801871705157 0.0027089651942117407 0 0.025517533588399262 0.001935084969957659 0 0.02581904753387575 0.0022983786145033703 0 0.025609801871705157 0.0027089651942117407 0 0.025486387378617026 0.0026417982208570292 0 0.025517533588399262 0.001935084969957659 0 0.025486642366626011 0.0033158285157317705 0 0.025609801871705157 0.0027089651942117407 0 0.025486387378617026 0.0026417982208570292 0 0.025486387378617026 0.0026417982208570292 0 0.025396105278102314 0.0031239214881806127 0 0.025389438599573485 0.0021755564221443437 0 0.025396105278102314 0.0031239214881806127 0 0.024999654141190906 0.0033098539315684367 0 0.025389438599573485 0.0021755564221443437 0 0.025486642366626011 0.0033158285157317705 0 0.025486387378617026 0.0026417982208570292 0 0.025396105278102314 0.0031239214881806127 0 0.025486642366626011 0.0033158285157317705 0 0.025396105278102314 0.0031239214881806127 0 0.025462163283726861 0.0040071121920313259 0 0.024999691243979317 0.0048061267157746331 0 0.025462163283726861 0.0040071121920313259 0 0.024999654141190906 0.0033098539315684367 0 0.025396105278102314 0.0031239214881806127 0 0.025462163283726861 0.0040071121920313259 0 0.024999654141190906 0.0033098539315684367 0 0.024999654141190906 0.0033098539315684367 0 0.025389438599573485 0.0021755564221443437 0 0.024999542187025693 0.0018137389808648742 0 0.025389438599573485 0.0021755564221443437 0 0.025344595368667847 0.0013800113264024589 0 0.024999542187025693 0.0018137389808648742 0 0.025389438599573485 0.0021755564221443437 0 0.025344595368667847 0.0013800113264024589 0 0.025277075806359697 0.0008315386656557053 0 0.025344595368667847 0.0013800113264024589 0 0.024999542187025693 0.0018137389808648742 0 0.025473624659294088 0.0007056683262725603 0 0.024999542187025693 0.0018137389808648742 0 0.025473624659294088 0.0007056683262725603 0 0.024999644298032517 0.00031765872879330106 0 0.025344595368667847 0.0013800113264024589 0 0.025473624659294088 0.0007056683262725603 0 0.025277075806359697 0.0008315386656557053 0 0.025537477416019007 -0.00043742719286682554 0 0.025473624659294088 0.0007056683262725603 0 0.026107514205670809 0.00021311257525502602 0 0.025537477416019007 -0.00043742719286682554 0 0.025473624659294088 0.0007056683262725603 0 0.024999644298032517 0.00031765872879330106 0 0.024231833719358376 -0.0011039825208363826 0 0.025228382942150674 2.773449414055821e-05 0 0.025316877599139514 -0.001175105506882907 0 0.025195110743248136 -0.00049622592682060766 0 0.025248392694258055 0.00063705767374094119 0 0.025473624659294088 0.0007056683262725603 0 0.026107514205670809 0.00021311257525502602 0 0.025277075806359697 0.0008315386656557053 0 0.025277075806359697 0.0008315386656557053 0 0.025228382942150674 2.773449414055821e-05 0 0.025521114520502 0.000957090329531958 0 0.024231833719358376 -0.0011039825208363826 0 0.025277075806359697 0.0008315386656557053 0 0.025228382942150674 2.773449414055821e-05 0 0.025277075806359697 0.0008315386656557053 0 0.025521114520502 0.000957090329531958 0 0.025517533588399262 0.001935084969957659 0 0.025389438599573485 0.0021755564221443437 0 0.025277075806359697 0.0008315386656557053 0 0.025517533588399262 0.001935084969957659 0 0.025486387378617026 0.0026417982208570292 0 0.025389438599573485 0.0021755564221443437 0 0.025517533588399262 0.001935084969957659 0 0.025521114520502 0.000957090329531958 0 0.025517533588399262 0.001935084969957659 0 0.025774395481426987 0.0016684266946855361 0 0.025517533588399262 0.001935084969957659 0 0.025774395481426987 0.0016684266946855361 0 0.02581904753387575 0.0022983786145033703 0 0.025774395481426987 0.0016684266946855361 0 0.026282119211465144 0.0018933396123240573 0 0.02581904753387575 0.0022983786145033703 0 0.025774395481426987 0.0016684266946855361 0 0.026014808837693536 0.0011506367214673342 0 0.026282119211465144 0.0018933396123240573 0 0.026014808837693536 0.0011506367214673342 0 0.026736164693147768 0.0011430130707495787 0 0.026282119211465144 0.0018933396123240573 0 0.026246619603129302 0.00045225535318993133 0 0.026014808837693536 0.0011506367214673342 0 0.026736164693147768 0.0011430130707495787 0 0.026246619603129302 0.00045225535318993133 0 0.026014808837693536 0.0011506367214673342 0 0.025732434375167427 0.0001736951227032296 0 0.025521114520502 0.000957090329531958 0 0.026014808837693536 0.0011506367214673342 0 0.025732434375167427 0.0001736951227032296 0 0.025521114520502 0.000957090329531958 0 0.025774395481426987 0.0016684266946855361 0 0.026014808837693536 0.0011506367214673342 0 0.025228382942150674 2.773449414055821e-05 0 0.025521114520502 0.000957090329531958 0 0.025732434375167427 0.0001736951227032296 0 0.025228382942150674 2.773449414055821e-05 0 0.025732434375167427 0.0001736951227032296 0 0.025316877599139514 -0.001175105506882907 0 0.025732434375167427 0.0001736951227032296 0 0.025980559883110019 -0.00074403227388508447 0 0.025316877599139514 -0.001175105506882907 0 0.026246619603129302 0.00045225535318993133 0 0.025732434375167427 0.0001736951227032296 0 0.025980559883110019 -0.00074403227388508447 0 0.025802926609595329 -0.0025023173820656348 0 0.025376367918353859 -0.0022612072949781898 0 0.025980559883110019 -0.00074403227388508447 0 0.025376367918353859 -0.0022612072949781898 0 0.025980559883110019 -0.00074403227388508447 0 0.025316877599139514 -0.001175105506882907 0 0.025802926609595329 -0.0025023173820656348 0 0.027399412160922103 -0.0013619040459955847 0 0.026723919939435552 -0.00066366137242418769 0 0.025802926609595329 -0.0025023173820656348 0 0.025980559883110019 -0.00074403227388508447 0 0.026723919939435552 -0.00066366137242418769 0 0.026246619603129302 0.00045225535318993133 0 0.025980559883110019 -0.00074403227388508447 0 0.026837381376081989 0.00027841456460578643 0 0.025980559883110019 -0.00074403227388508447 0 0.026723919939435552 -0.00066366137242418769 0 0.026837381376081989 0.00027841456460578643 0 0.026723919939435552 -0.00066366137242418769 0 0.027343079665366303 -0.00020606131327270566 0 0.026837381376081989 0.00027841456460578643 0 0.027399412160922103 -0.0013619040459955847 0 0.027343079665366303 -0.00020606131327270566 0 0.027899969776955465 -0.00056380138070175534 0 0.027399412160922103 -0.0013619040459955847 0 0.026723919939435552 -0.00066366137242418769 0 0.027343079665366303 -0.00020606131327270566 0 0.027343079665366303 -0.00020606131327270566 0 0.027368288982125448 0.00065653024513262124 0 0.027834854340622227 0.00020088989197979167 0 0.027343079665366303 -0.00020606131327270566 0 0.027368288982125448 0.00065653024513262124 0 0.026837381376081989 0.00027841456460578643 0 0.027368288982125448 0.00065653024513262124 0 0.026837381376081989 0.00027841456460578643 0 0.026736164693147768 0.0011430130707495787 0 0.026246619603129302 0.00045225535318993133 0 0.026837381376081989 0.00027841456460578643 0 0.026736164693147768 0.0011430130707495787 0 0.026736164693147768 0.0011430130707495787 0 0.02697045737922717 0.0019315181756631068 0 0.026282119211465144 0.0018933396123240573 0 0.026736164693147768 0.0011430130707495787 0 0.02746701788198273 0.0013899512997777163 0 0.02697045737922717 0.0019315181756631068 0 0.027368288982125448 0.00065653024513262124 0 0.026736164693147768 0.0011430130707495787 0 0.02746701788198273 0.0013899512997777163 0 0.02746701788198273 0.0013899512997777163 0 0.027649439663942531 0.0020818062906130617 0 0.027994379653966082 0.0014685655903230476 0 0.027368288982125448 0.00065653024513262124 0 0.02746701788198273 0.0013899512997777163 0 0.027927332812658773 0.00087091929539324616 0 0.02746701788198273 0.0013899512997777163 0 0.027649439663942531 0.0020818062906130617 0 0.02697045737922717 0.0019315181756631068 0 0.027649439663942531 0.0020818062906130617 0 0.027206255477186334 0.0025339463667205285 0 0.02697045737922717 0.0019315181756631068 0 0.027649439663942531 0.0020818062906130617 0 0.027206255477186334 0.0025339463667205285 0 0.027571061670446536 0.0027649891642097407 0 0.027206255477186334 0.0025339463667205285 0 0.027571061670446536 0.0027649891642097407 0 0.027250329881487179 0.0030244729237245169 0 0.027206255477186334 0.0025339463667205285 0 0.026617058741954809 0.0024609920108058661 0 0.026864233440182243 0.0029901982599347247 0 0.027206255477186334 0.0025339463667205285 0 0.027250329881487179 0.0030244729237245169 0 0.026864233440182243 0.0029901982599347247 0 0.027206255477186334 0.0025339463667205285 0 0.026617058741954809 0.0024609920108058661 0 0.02697045737922717 0.0019315181756631068 0 0.026617058741954809 0.0024609920108058661 0 0.02697045737922717 0.0019315181756631068 0 0.026282119211465144 0.0018933396123240573 0 0.026617058741954809 0.0024609920108058661 0 0.026282119211465144 0.0018933396123240573 0 0.026096338219566636 0.0025299345512391318 0 0.026282119211465144 0.0018933396123240573 0 0.02581904753387575 0.0022983786145033703 0 0.026096338219566636 0.0025299345512391318 0 0.025842839982270275 0.0029229892239750377 0 0.02581904753387575 0.0022983786145033703 0 0.026096338219566636 0.0025299345512391318 0 0.025842839982270275 0.0029229892239750377 0 0.026096338219566636 0.0025299345512391318 0 0.026324352858345543 0.0029474040634850183 0 0.026617058741954809 0.0024609920108058661 0 0.026324352858345543 0.0029474040634850183 0 0.026864233440182243 0.0029901982599347247 0 0.026617058741954809 0.0024609920108058661 0 0.026096338219566636 0.0025299345512391318 0 0.026324352858345543 0.0029474040634850183 0 0.026324352858345543 0.0029474040634850183 0 0.026594583669314706 0.0033271543785114298 0 0.026864233440182243 0.0029901982599347247 0 0.026324352858345543 0.0029474040634850183 0 0.026594583669314706 0.0033271543785114298 0 0.026070680626177928 0.0033624321541056547 0 0.025842839982270275 0.0029229892239750377 0 0.026324352858345543 0.0029474040634850183 0 0.026070680626177928 0.0033624321541056547 0 0.025696253258812925 0.003309598211220826 0 0.025842839982270275 0.0029229892239750377 0 0.026070680626177928 0.0033624321541056547 0 0.025771475409293376 0.0035410930989268024 0 0.026070680626177928 0.0033624321541056547 0 0.026029207453296409 0.003801445590226491 0 0.026594583669314706 0.0033271543785114298 0 0.026070680626177928 0.0033624321541056547 0 0.026684235254452595 0.0038546388106690446 0 0.026374420943504326 0.0047890840618739286 0 0.02714934835545554 0.0048011474444289689 0 0.026070680626177928 0.0033624321541056547 0 0.026029207453296409 0.003801445590226491 0 0.026684235254452595 0.0038546388106690446 0 0.026594583669314706 0.0033271543785114298 0 0.026684235254452595 0.0038546388106690446 0 0.027083695035367603 0.0034541593943946359 0 0.026684235254452595 0.0038546388106690446 0 0.027083695035367603 0.0034541593943946359 0 0.027439128583858774 0.0038919594466020335 0 0.02714934835545554 0.0048011474444289689 0 0.025918448049940254 0.0059012470514784518 0 0.027366348143164455 0.0042155656094274106 0 0.02754917416581967 0.0033231685489940226 0 0.027748659602953127 0.0042032040967593994 0 0.025918448049940254 0.0059012470514784518 0 0.027716301634849158 0.0026677994751759032 0 0.027083695035367603 0.0034541593943946359 0 0.027439128583858774 0.0038919594466020335 0 0.02754917416581967 0.0033231685489940226 0 0.025918448049940254 0.0059012470514784518 0 0.022204365592185974 0.0058898950490290126 0 0.027083695035367603 0.0034541593943946359 0 0.02754917416581967 0.0033231685489940226 0 0.027250329881487179 0.0030244729237245169 0 0.027571061670446536 0.0027649891642097407 0 0.02754917416581967 0.0033231685489940226 0 0.027250329881487179 0.0030244729237245169 0 0.026594583669314706 0.0033271543785114298 0 0.027083695035367603 0.0034541593943946359 0 0.026864233440182243 0.0029901982599347247 0 0.027083695035367603 0.0034541593943946359 0 0.027250329881487179 0.0030244729237245169 0 0.026864233440182243 0.0029901982599347247 0 0.016344046305689017 0.00067766847697309251 0 0.0174636284407515 0.0040681184022064 0 0.021037361259837649 0.0022478469679152865 0 0.020594794088349078 0.0031442042500756185 0 0.020709840758991856 0.002128995787698945 0 0.027571061670446536 0.0027649891642097407 0 0.02754917416581967 0.0033231685489940226 0 0.02815131720297399 0.002848086313044514 0 0.02754917416581967 0.0033231685489940226 0 0.027962705686771314 0.0034595922306346833 0 0.02815131720297399 0.002848086313044514 0 0.024378455019758868 0.0027105045838982508 0 0.023560508561306169 0.0024376063198694531 0 0.020606563753020925 0.0027902407093358095 0 0.020594794088349078 0.0031442042500756185 0 0.020879362970345615 0.0021433173040667076 0 0.020012229608142147 0.0030291297224603799 0 0.023560508561306169 0.0024376063198694531 0 0.024378455019758868 0.0027105045838982508 0 0.022204365592185974 0.0058898950490290126 0 0.020594794088349078 0.0031442042500756185 0 0.020386391452327401 0.0034390305991660801 0 0.021094046322389017 0.0034189732649505338 0 0.022204365592185974 0.0058898950490290126 0 0.0174636284407515 0.0040681184022064 0 0.02754917416581967 0.0033231685489940226 0 0.027962705686771314 0.0034595922306346833 0 0.027748659602953127 0.0042032040967593994 0 0.020606563753020925 0.0027902407093358095 0 0.020594794088349078 0.0031442042500756185 0 0.020386391452327401 0.0034390305991660801 0 0.0174636284407515 0.0040681184022064 0 0.015024427802688173 0.004796339934559038 0 0.013072623137193665 0.00034532812717233072 0 0.01312173326644917 8.5868512458342554e-06 0 0.012975362814221347 0.00013786917138236692 0 0.021037361259837649 0.0022478469679152865 0 0.020594794088349078 0.0031442042500756185 0 0.021094046322389017 0.0034189732649505338 0 0.012893217712747682 -1.6874174228157825e-05 0 0.012975362814221347 0.00013786917138236692 0 0.012811375225387039 0.00020407848029678827 0 0.01312173326644917 8.5868512458342554e-06 0 0.012893217712747682 -1.6874174228157825e-05 0 0.012975362814221347 0.00013786917138236692 0 0.017759687628364457 0.0096091858153906171 0 0.016409755097191659 0.0095005524823384372 0 0.017923388373488471 0.0093030808219719784 0 0.018943098697186796 0.0096742610528595448 0 0.017759687628364457 0.0096091858153906171 0 0.017923388373488471 0.0093030808219719784 0 0.012669696276208193 -6.3089368960148097e-05 0 0.012607734917887831 0.00014237840309784869 0 0.012811375225387039 0.00020407848029678827 0 0.012893217712747682 -1.6874174228157825e-05 0 0.012669696276208193 -6.3089368960148097e-05 0 0.012811375225387039 0.00020407848029678827 0 0.015024427802688173 0.004796339934559038 0 0.014917842365382555 0.004623532850194758 0 0.012811375225387039 0.00020407848029678827 0 0.0127913914956636 0.00043573754600059446 0 0.012559344308098439 0.00031383861587164398 0 0.012607734917887831 0.00014237840309784869 0 0.012811375225387039 0.00020407848029678827 0 0.012559344308098439 0.00031383861587164398 0 0.013072623137193665 0.00034532812717233072 0 0.012975362814221347 0.00013786917138236692 0 0.012811375225387039 0.00020407848029678827 0 0.013072623137193665 0.00034532812717233072 0 0.012811375225387039 0.00020407848029678827 0 0.0127913914956636 0.00043573754600059446 0 0.013072623137193665 0.00034532812717233072 0 0.0127913914956636 0.00043573754600059446 0 0.012856374578471032 0.00057527397327038481 0 0.0127913914956636 0.00043573754600059446 0 0.012643653783110354 0.00051069022068586808 0 0.012559344308098439 0.00031383861587164398 0 0.0127913914956636 0.00043573754600059446 0 0.012643653783110354 0.00051069022068586808 0 0.012769922183880128 0.00059384623469767154 0 0.012643653783110354 0.00051069022068586808 0 0.012769922183880128 0.00059384623469767154 0 0.012619130888686205 0.00063045662200548699 0 0.012769922183880128 0.00059384623469767154 0 0.012810882358469545 0.0006766560489053253 0 0.012619130888686205 0.00063045662200548699 0 0.0127913914956636 0.00043573754600059446 0 0.012769922183880128 0.00059384623469767154 0 0.012856374578471032 0.00057527397327038481 0 0.012769922183880128 0.00059384623469767154 0 0.012856374578471032 0.00057527397327038481 0 0.012808358256459474 0.00064285368124765636 0 0.024785501646593499 0.0016204754914486063 0 0.024975377534709214 0.0014344538247280856 0 0.024587612802281663 0.0026233190176581686 0 0.021670276876194678 0.0012111464028551067 0 0.023560508561306169 0.0024376063198694531 0 0.012856374578471032 0.00057527397327038481 0 0.012940444156758941 0.00063189306535851755 0 0.012796832628192248 0.00063848411720735898 0 0.013072623137193665 0.00034532812717233072 0 0.012856374578471032 0.00057527397327038481 0 0.012940444156758941 0.00063189306535851755 0 0.021037361259837649 0.0022478469679152865 0 0.020997689419891552 0.0010721017174481846 0 0.020709840758991856 0.002128995787698945 0 0.016344046305689017 0.00067766847697309251 0 0.021670276876194678 0.0012111464028551067 0 0.027649439663942531 0.0020818062906130617 0 0.027571061670446536 0.0027649891642097407 0 0.027933735587331851 0.0024245741093092471 0 0.028371697729751313 0.0019844274629296868 0 0.02815131720297399 0.002848086313044514 0 0.027933735587331851 0.0024245741093092471 0 0.02673504985870993 0.0018403001211128929 0 0.023560508561306169 0.0024376063198694531 0 0.027571061670446536 0.0027649891642097407 0 0.02815131720297399 0.002848086313044514 0 0.027933735587331851 0.0024245741093092471 0 0.027649439663942531 0.0020818062906130617 0 0.028371697729751313 0.0019844274629296868 0 0.027933735587331851 0.0024245741093092471 0 0.027649439663942531 0.0020818062906130617 0 0.028371697729751313 0.0019844274629296868 0 0.027994379653966082 0.0014685655903230476 0 0.028371697729751313 0.0019844274629296868 0 0.027994379653966082 0.0014685655903230476 0 0.028618982676177442 0.00093676809759718179 0 0.027994379653966082 0.0014685655903230476 0 0.028618982676177442 0.00093676809759718179 0 0.027927332812658773 0.00087091929539324616 0 0.02746701788198273 0.0013899512997777163 0 0.027994379653966082 0.0014685655903230476 0 0.027927332812658773 0.00087091929539324616 0 0.028121161695510016 0.0015625288068074493 0 0.028210950298955699 0.00062721027260009192 0 0.028642759521072206 0.00030454594905103061 0 0.021670276876194678 0.0012111464028551067 0 0.027560269283360556 0.00067838452015674697 0 0.02673504985870993 0.0018403001211128929 0 0.027560269283360556 0.00067838452015674697 0 0.024785501646593499 0.0016204754914486063 0 0.024975377534709214 0.0014344538247280856 0 0.024996739291202462 0.00062038461503744304 0 0.021670276876194678 0.0012111464028551067 0 0.020487804452341857 0.00038334204567772213 0 0.012940444156758941 0.00063189306535851755 0 0.012579663900262397 0.00053701172997668262 0 0.012796832628192248 0.00063848411720735898 0 0.027560269283360556 0.00067838452015674697 0 0.028620141671313843 -0.00046080846762779168 0 0.027560269283360556 0.00067838452015674697 0 0.02867174107011523 -0.00059226640401484354 0 0.028210950298955699 0.00062721027260009192 0 0.028642759521072206 0.00030454594905103061 0 0.028550029854896963 -0.00043794651473025694 0 0.028618982676177442 0.00093676809759718179 0 0.028227594332484302 0.00028438453998671018 0 0.028431588413299007 -0.00066185606697932741 0 0.027368288982125448 0.00065653024513262124 0 0.027927332812658773 0.00087091929539324616 0 0.027834854340622227 0.00020088989197979167 0 0.028618982676177442 0.00093676809759718179 0 0.027927332812658773 0.00087091929539324616 0 0.028227594332484302 0.00028438453998671018 0 0.028227594332484302 0.00028438453998671018 0 0.027834854340622227 0.00020088989197979167 0 0.028123883960058493 -0.00015880624234767946 0 0.027927332812658773 0.00087091929539324616 0 0.028227594332484302 0.00028438453998671018 0 0.027834854340622227 0.00020088989197979167 0 0.027343079665366303 -0.00020606131327270566 0 0.027834854340622227 0.00020088989197979167 0 0.027899969776955465 -0.00056380138070175534 0 0.027834854340622227 0.00020088989197979167 0 0.027899969776955465 -0.00056380138070175534 0 0.028123883960058493 -0.00015880624234767946 0 0.028227594332484302 0.00028438453998671018 0 0.028123883960058493 -0.00015880624234767946 0 0.028431588413299007 -0.00066185606697932741 0 0.027899969776955465 -0.00056380138070175534 0 0.028123883960058493 -0.00015880624234767946 0 0.028431588413299007 -0.00066185606697932741 0 0.027899969776955465 -0.00056380138070175534 0 0.028431588413299007 -0.00066185606697932741 0 0.028162119657243023 -0.0012731436232037339 0 0.028367194882892868 0.00035512395707683369 0 0.028550029854896963 -0.00043794651473025694 0 0.028431588413299007 -0.00066185606697932741 0 0.020487804452341857 0.00038334204567772213 0 0.020770091795782878 -0.00071110706418813744 0 0.028642759521072206 0.00030454594905103061 0 0.028550029854896963 -0.00043794651473025694 0 0.029051566189350606 -0.00087254186723632096 0 0.028550029854896963 -0.00043794651473025694 0 0.028431588413299007 -0.00066185606697932741 0 0.029051566189350606 -0.00087254186723632096 0 0.028431588413299007 -0.00066185606697932741 0 0.028696123118807246 -0.0013554991377066447 0 0.028162119657243023 -0.0012731436232037339 0 0.028431588413299007 -0.00066185606697932741 0 0.028696123118807246 -0.0013554991377066447 0 0.029051566189350606 -0.00087254186723632096 0 0.02852866447276502 -0.0018377198690927663 0 0.028696123118807246 -0.0013554991377066447 0 0.028162119657243023 -0.0012731436232037339 0 0.028028769077040591 -0.0020557283003211514 0 0.027399412160922103 -0.0013619040459955847 0 0.028162119657243023 -0.0012731436232037339 0 0.027399412160922103 -0.0013619040459955847 0 0.027899969776955465 -0.00056380138070175534 0 0.028162119657243023 -0.0012731436232037339 0 0.013346888612022045 -0.0011097612513993234 0 0.013400746145039321 -0.00025497934524448547 0 0.01404642320582079 -0.00095821589794908401 0 0.014000554584599235 -0.0016396202865883252 0 0.013346888612022045 -0.0011097612513993234 0 0.01404642320582079 -0.00095821589794908401 0 0.021045617545387141 -0.0019723382184300836 0 0.020770091795782878 -0.00071110706418813744 0 0.013346888612022045 -0.0011097612513993234 0 0.013005185298198609 -0.00039959174691657512 0 0.012427989581331886 -0.00050063599947597424 0 0.029246664948979279 -0.0020783861947096193 0 0.028696123118807246 -0.0013554991377066447 0 0.029051566189350606 -0.00087254186723632096 0 0.012848215807188326 -0.0019850898156099925 0 0.013346888612022045 -0.0011097612513993234 0 0.012427989581331886 -0.00050063599947597424 0 0.013005185298198609 -0.00039959174691657512 0 0.012427989581331886 -0.00050063599947597424 0 0.012823590121601568 0.00020714846965954689 0 0.012579663900262397 0.00053701172997668262 0 0.012427989581331886 -0.00050063599947597424 0 0.012823590121601568 0.00020714846965954689 0 0.013400746145039321 -0.00025497934524448547 0 0.01301650091660878 0.00069835652952465223 0 0.014525893951714157 -0.00032355195568567003 0 0.013005185298198609 -0.00039959174691657512 0 0.012823590121601568 0.00020714846965954689 0 0.013400746145039321 -0.00025497934524448547 0 0.012823590121601568 0.00020714846965954689 0 0.013400746145039321 -0.00025497934524448547 0 0.01301650091660878 0.00069835652952465223 0 0.013346888612022045 -0.0011097612513993234 0 0.013005185298198609 -0.00039959174691657512 0 0.013400746145039321 -0.00025497934524448547 0 0.01301650091660878 0.00069835652952465223 0 0.012808914958707219 0.00061451597921276561 0 0.012810882358469545 0.0006766560489053253 0 0.012579663900262397 0.00053701172997668262 0 0.012823590121601568 0.00020714846965954689 0 0.012808914958707219 0.00061451597921276561 0 0.012823590121601568 0.00020714846965954689 0 0.01301650091660878 0.00069835652952465223 0 0.012808914958707219 0.00061451597921276561 0 0.012579663900262397 0.00053701172997668262 0 0.012808914958707219 0.00061451597921276561 0 0.012796832628192248 0.00063848411720735898 0 0.012808914958707219 0.00061451597921276561 0 0.012808358256459474 0.00064285368124765636 0 0.012796832628192248 0.00063848411720735898 0 0.012808914958707219 0.00061451597921276561 0 0.012808358256459474 0.00064285368124765636 0 0.012810882358469545 0.0006766560489053253 0 0.012856374578471032 0.00057527397327038481 0 0.012808358256459474 0.00064285368124765636 0 0.012796832628192248 0.00063848411720735898 0 0.01301650091660878 0.00069835652952465223 0 0.012810882358469545 0.0006766560489053253 0 0.012565854983195839 0.00072617827982759291 0 0.012769922183880128 0.00059384623469767154 0 0.012808358256459474 0.00064285368124765636 0 0.012810882358469545 0.0006766560489053253 0 0.012810882358469545 0.0006766560489053253 0 0.012565854983195839 0.00072617827982759291 0 0.012619130888686205 0.00063045662200548699 0 0.012565854983195839 0.00072617827982759291 0 0.012619130888686205 0.00063045662200548699 0 0.01237646070525705 0.00071026839425158506 0 0.012565854983195839 0.00072617827982759291 0 0.01228236527111207 0.00087463914224210283 0 0.01237646070525705 0.00071026839425158506 0 0.012565854983195839 0.00072617827982759291 0 0.01228236527111207 0.00087463914224210283 0 0.012332283298630328 0.00089014078980995592 0 0.01228236527111207 0.00087463914224210283 0 0.012066473224822434 0.00094458629840701153 0 0.012090538670000432 0.00078622088396142155 0 0.01228236527111207 0.00087463914224210283 0 0.012090538670000432 0.00078622088396142155 0 0.01237646070525705 0.00071026839425158506 0 0.01228236527111207 0.00087463914224210283 0 0.012066473224822434 0.00094458629840701153 0 0.012208599915588376 0.0010478514776126222 0 0.012208599915588376 0.0010478514776126222 0 0.012232814700247896 0.00095791098127616945 0 0.012236791288710485 0.0011736562369185895 0 0.01228236527111207 0.00087463914224210283 0 0.012208599915588376 0.0010478514776126222 0 0.012332283298630328 0.00089014078980995592 0 0.012208599915588376 0.0010478514776126222 0 0.012332283298630328 0.00089014078980995592 0 0.012232814700247896 0.00095791098127616945 0 0.01301650091660878 0.00069835652952465223 0 0.012565854983195839 0.00072617827982759291 0 0.012332283298630328 0.00089014078980995592 0 0.01301650091660878 0.00069835652952465223 0 0.012332283298630328 0.00089014078980995592 0 0.012020925518577176 0.0009619547513943313 0 0.013052306026515352 0.00065184201351164896 0 0.013291906196061552 0.00021570718607591351 0 0.012332283298630328 0.00089014078980995592 0 0.012020925518577176 0.0009619547513943313 0 0.012232814700247896 0.00095791098127616945 0 0.013400746145039321 -0.00025497934524448547 0 0.014525893951714157 -0.00032355195568567003 0 0.01404642320582079 -0.00095821589794908401 0 0.012232814700247896 0.00095791098127616945 0 0.012313614983233126 0.00086027734121442662 0 0.012375361301560469 0.00049673924295323853 0 0.012232814700247896 0.00095791098127616945 0 0.012313614983233126 0.00086027734121442662 0 0.012236791288710485 0.0011736562369185895 0 0.012020925518577176 0.0009619547513943313 0 0.012232814700247896 0.00095791098127616945 0 0.012375361301560469 0.00049673924295323853 0 0.012020925518577176 0.0009619547513943313 0 0.012375361301560469 0.00049673924295323853 0 0.012719715949958467 -0.0011172504633725239 0 0.012313614983233126 0.00086027734121442662 0 0.012375361301560469 0.00049673924295323853 0 0.01238872969241752 0.00078561112163037295 0 0.013291906196061552 0.00021570718607591351 0 0.014063881173393092 -0.001332068014465479 0 0.014525893951714157 -0.00032355195568567003 0 0.015369882575429301 -0.0015830440663892568 0 0.014643586755501529 -0.0011154551551587233 0 0.012359608030105678 0.00042839135352830366 0 0.01312149445837528 -0.00010321690363907689 0 0.012375361301560469 0.00049673924295323853 0 0.012719715949958467 -0.0011172504633725239 0 0.013899592375584219 -0.00094477428431295838 0 0.015369882575429301 -0.0015830440663892568 0 0.014580626170385944 -0.0015823754105343971 0 0.014643586755501529 -0.0011154551551587233 0 0.014000554584599235 -0.0016396202865883252 0 0.014580626170385944 -0.0015823754105343971 0 0.01404642320582079 -0.00095821589794908401 0 0.014580626170385944 -0.0015823754105343971 0 0.01404642320582079 -0.00095821589794908401 0 0.014643586755501529 -0.0011154551551587233 0 0.014525893951714157 -0.00032355195568567003 0 0.01404642320582079 -0.00095821589794908401 0 0.014643586755501529 -0.0011154551551587233 0 0.014884622424217306 -0.0022274509804918055 0 0.01434676644440965 -0.0019752371761067021 0 0.013899592375584219 -0.00094477428431295838 0 0.012693745715092812 0.00065128232987849007 0 0.012628524340343698 0.0007289339025515351 0 0.012480123295369398 0.00070740294041573204 0 0.01371997162502938 -0.000764959927083656 0 0.01312149445837528 -0.00010321690363907689 0 0.012685027644457029 0.00070209072776115868 0 0.012693745715092812 0.00065128232987849007 0 0.012628524340343698 0.0007289339025515351 0 0.014011536254561328 -0.0027057199746188814 0 0.01434676644440965 -0.0019752371761067021 0 0.013899592375584219 -0.00094477428431295838 0 0.014011536254561328 -0.0027057199746188814 0 0.012719715949958467 -0.0011172504633725239 0 0.013899592375584219 -0.00094477428431295838 0 0.012480123295369398 0.00070740294041573204 0 0.01238872969241752 0.00078561112163037295 0 0.012585890232194542 0.00090266977939116363 0 0.012375361301560469 0.00049673924295323853 0 0.012480123295369398 0.00070740294041573204 0 0.01238872969241752 0.00078561112163037295 0 0.012313614983233126 0.00086027734121442662 0 0.01238872969241752 0.00078561112163037295 0 0.012236791288710485 0.0011736562369185895 0 0.01238872969241752 0.00078561112163037295 0 0.012585890232194542 0.00090266977939116363 0 0.012236791288710485 0.0011736562369185895 0 0.012091636162279698 0.0013062612117326303 0 0.01219004992837153 0.0012251678407594858 0 0.012628524340343698 0.0007289339025515351 0 0.012480123295369398 0.00070740294041573204 0 0.012585890232194542 0.00090266977939116363 0 0.012668455839463313 0.00074441649052978251 0 0.012685027644457029 0.00070209072776115868 0 0.012628524340343698 0.0007289339025515351 0 0.012711665424983453 0.00083037976482798817 0 0.012628524340343698 0.0007289339025515351 0 0.012585890232194542 0.00090266977939116363 0 0.01189966376523971 0.0013730114516165048 0 0.012411686611323901 0.00094165863993945196 0 0.011164226535317736 0.0019859785054995699 0 0.01163752881040106 0.0017183103091443395 0 0.011252807100949145 0.0016909738843013044 0 0.01189966376523971 0.0013730114516165048 0 0.012091636162279698 0.0013062612117326303 0 0.01163752881040106 0.0017183103091443395 0 0.011264571993420205 0.00142761858685714 0 0.011806396804570001 0.001164289114329152 0 0.01163752881040106 0.0017183103091443395 0 0.011252807100949145 0.0016909738843013044 0 0.011264571993420205 0.00142761858685714 0 0.012208599915588376 0.0010478514776126222 0 0.012236791288710485 0.0011736562369185895 0 0.011806396804570001 0.001164289114329152 0 0.01163752881040106 0.0017183103091443395 0 0.012236791288710485 0.0011736562369185895 0 0.011806396804570001 0.001164289114329152 0 0.012066473224822434 0.00094458629840701153 0 0.012208599915588376 0.0010478514776126222 0 0.011806396804570001 0.001164289114329152 0 0.012066473224822434 0.00094458629840701153 0 0.011806396804570001 0.001164289114329152 0 0.011811960827075137 0.00099240290935490505 0 0.011806396804570001 0.001164289114329152 0 0.011811960827075137 0.00099240290935490505 0 0.011540454531144433 0.0010710413690764159 0 0.011811960827075137 0.00099240290935490505 0 0.011540454531144433 0.0010710413690764159 0 0.011575680256969163 0.00089462323765890372 0 0.012066473224822434 0.00094458629840701153 0 0.011811960827075137 0.00099240290935490505 0 0.012090538670000432 0.00078622088396142155 0 0.011806396804570001 0.001164289114329152 0 0.011248660267545094 0.0012461323610660202 0 0.011540454531144433 0.0010710413690764159 0 0.011264571993420205 0.00142761858685714 0 0.011806396804570001 0.001164289114329152 0 0.011248660267545094 0.0012461323610660202 0 0.010949349007896299 0.0012442103323599104 0 0.011248660267545094 0.0012461323610660202 0 0.011274687432281492 0.0010319861352621595 0 0.011248660267545094 0.0012461323610660202 0 0.011540454531144433 0.0010710413690764159 0 0.011274687432281492 0.0010319861352621595 0 0.010945044144733063 0.00090505918690067988 0 0.011274687432281492 0.0010319861352621595 0 0.011323923097970715 0.0008128662241237162 0 0.011540454531144433 0.0010710413690764159 0 0.011274687432281492 0.0010319861352621595 0 0.011575680256969163 0.00089462323765890372 0 0.011274687432281492 0.0010319861352621595 0 0.011575680256969163 0.00089462323765890372 0 0.011323923097970715 0.0008128662241237162 0 0.011575680256969163 0.00089462323765890372 0 0.011323923097970715 0.0008128662241237162 0 0.011607700581519007 0.00064396062602493529 0 0.010945044144733063 0.00090505918690067988 0 0.011323923097970715 0.0008128662241237162 0 0.011281345657817106 0.00051073866744868568 0 0.011281345657817106 0.00051073866744868568 0 0.011607700581519007 0.00064396062602493529 0 0.011645442739071192 0.00028348531503088949 0 0.011323923097970715 0.0008128662241237162 0 0.011281345657817106 0.00051073866744868568 0 0.011607700581519007 0.00064396062602493529 0 0.011281345657817106 0.00051073866744868568 0 0.011274101806922824 0.0001968070944842245 0 0.011645442739071192 0.00028348531503088949 0 0.010751051646271477 0.00020936346354690755 0 0.011281345657817106 0.00051073866744868568 0 0.011274101806922824 0.0001968070944842245 0 0.011938129414329018 0.00049590158446124186 0 0.011607700581519007 0.00064396062602493529 0 0.011645442739071192 0.00028348531503088949 0 0.011938129414329018 0.00049590158446124186 0 0.012008553126567508 0.00025324680989289271 0 0.011645442739071192 0.00028348531503088949 0 0.011938129414329018 0.00049590158446124186 0 0.011853534018706811 0.00078327005382761356 0 0.012156830420641066 0.00061766022327515847 0 0.011938129414329018 0.00049590158446124186 0 0.011607700581519007 0.00064396062602493529 0 0.011853534018706811 0.00078327005382761356 0 0.011575680256969163 0.00089462323765890372 0 0.011607700581519007 0.00064396062602493529 0 0.011853534018706811 0.00078327005382761356 0 0.011811960827075137 0.00099240290935490505 0 0.011575680256969163 0.00089462323765890372 0 0.011853534018706811 0.00078327005382761356 0 0.011811960827075137 0.00099240290935490505 0 0.011853534018706811 0.00078327005382761356 0 0.012090538670000432 0.00078622088396142155 0 0.011853534018706811 0.00078327005382761356 0 0.012090538670000432 0.00078622088396142155 0 0.012156830420641066 0.00061766022327515847 0 0.012090538670000432 0.00078622088396142155 0 0.012156830420641066 0.00061766022327515847 0 0.01237646070525705 0.00071026839425158506 0 0.012156830420641066 0.00061766022327515847 0 0.01237646070525705 0.00071026839425158506 0 0.012437287975171726 0.00054934183320926434 0 0.012619130888686205 0.00063045662200548699 0 0.01237646070525705 0.00071026839425158506 0 0.012437287975171726 0.00054934183320926434 0 0.012643653783110354 0.00051069022068586808 0 0.012619130888686205 0.00063045662200548699 0 0.012437287975171726 0.00054934183320926434 0 0.012643653783110354 0.00051069022068586808 0 0.012437287975171726 0.00054934183320926434 0 0.012559344308098439 0.00031383861587164398 0 0.012437287975171726 0.00054934183320926434 0 0.012559344308098439 0.00031383861587164398 0 0.012259793398515937 0.00040042711846820575 0 0.011938129414329018 0.00049590158446124186 0 0.012156830420641066 0.00061766022327515847 0 0.012259793398515937 0.00040042711846820575 0 0.012156830420641066 0.00061766022327515847 0 0.012437287975171726 0.00054934183320926434 0 0.012259793398515937 0.00040042711846820575 0 0.011938129414329018 0.00049590158446124186 0 0.012259793398515937 0.00040042711846820575 0 0.012008553126567508 0.00025324680989289271 0 0.012259793398515937 0.00040042711846820575 0 0.012008553126567508 0.00025324680989289271 0 0.012352757987426272 0.000174165900364511 0 0.012008553126567508 0.00025324680989289271 0 0.012142588867572223 8.5983751879685933e-05 0 0.012352757987426272 0.000174165900364511 0 0.012291395596335521 4.7529577951460126e-05 0 0.012142588867572223 8.5983751879685933e-05 0 0.012352757987426272 0.000174165900364511 0 0.012142588867572223 8.5983751879685933e-05 0 0.012218839189630234 -0.00010668037525162344 0 0.011919548949737126 8.8908407576130963e-05 0 0.012008553126567508 0.00025324680989289271 0 0.012142588867572223 8.5983751879685933e-05 0 0.011919548949737126 8.8908407576130963e-05 0 0.012607734917887831 0.00014237840309784869 0 0.012559344308098439 0.00031383861587164398 0 0.012352757987426272 0.000174165900364511 0 0.012559344308098439 0.00031383861587164398 0 0.012259793398515937 0.00040042711846820575 0 0.012352757987426272 0.000174165900364511 0 0.012607734917887831 0.00014237840309784869 0 0.012352757987426272 0.000174165900364511 0 0.012436823656528503 3.8342673088863745e-05 0 0.012291395596335521 4.7529577951460126e-05 0 0.012352757987426272 0.000174165900364511 0 0.012436823656528503 3.8342673088863745e-05 0 0.012669696276208193 -6.3089368960148097e-05 0 0.012436823656528503 3.8342673088863745e-05 0 0.012218839189630234 -0.00010668037525162344 0 0.014917842365382555 0.004623532850194758 0 0.014275709065694532 0.0048673966165180878 0 0.012669696276208193 -6.3089368960148097e-05 0 0.012607734917887831 0.00014237840309784869 0 0.012436823656528503 3.8342673088863745e-05 0 0.014917842365382555 0.004623532850194758 0 0.012079959568615945 -0.00069227146620377215 0 0.013641307876453615 -0.0001378932267535683 0 0.01273536356452718 -0.00028262617408797127 0 0.012526562957994779 -8.2183300716683592e-05 0 0.01273536356452718 -0.00028262617408797127 0 0.012526562957994779 -8.2183300716683592e-05 0 0.011915753156542733 -0.00037662766087867105 0 0.01565317231193265 0.0099598052536615869 0 0.013975340519740663 0.009875742374800869 0 0.0154311704589542 0.0094951895017454137 0 0.014275709065694532 0.0048673966165180878 0 0.012942297879412208 0.0046178761356112843 0 0.012291395596335521 4.7529577951460126e-05 0 0.012142588867572223 8.5983751879685933e-05 0 0.012218839189630234 -0.00010668037525162344 0 0.012291395596335521 4.7529577951460126e-05 0 0.012436823656528503 3.8342673088863745e-05 0 0.012218839189630234 -0.00010668037525162344 0 0.013975340519740663 0.009875742374800869 0 0.013855504964896136 0.009620967329844566 0 0.012215016056955642 0.0097611802984256466 0 0.012079959568615945 -0.00069227146620377215 0 0.011707358430799928 0.00010501262306549445 0 0.012218839189630234 -0.00010668037525162344 0 0.011560631635352103 -5.3779745627680348e-05 0 0.011919548949737126 8.8908407576130963e-05 0 0.012526562957994779 -8.2183300716683592e-05 0 0.011915753156542733 -0.00037662766087867105 0 0.011560631635352103 -5.3779745627680348e-05 0 0.011915753156542733 -0.00037662766087867105 0 0.011208477986025825 -0.00040052562718918925 0 0.011560631635352103 -5.3779745627680348e-05 0 0.013688791489223751 0.010071142446751325 0 0.011698710581008777 0.0066379732192008538 0 0.012942297879412208 0.0046178761356112843 0 0.011698710581008777 0.0066379732192008538 0 0.011065612081748716 -0.00039476408411766181 0 0.011208477986025825 -0.00040052562718918925 0 0.011172945434807157 -8.6179151119186313e-05 0 0.0092006814354237531 0.0056615257612745466 0 0.011698710581008777 0.0066379732192008538 0 0.011208477986025825 -0.00040052562718918925 0 0.011560631635352103 -5.3779745627680348e-05 0 0.011172945434807157 -8.6179151119186313e-05 0 0.011560631635352103 -5.3779745627680348e-05 0 0.011172945434807157 -8.6179151119186313e-05 0 0.011274101806922824 0.0001968070944842245 0 0.011560631635352103 -5.3779745627680348e-05 0 0.011274101806922824 0.0001968070944842245 0 0.011645442739071192 0.00028348531503088949 0 0.012008553126567508 0.00025324680989289271 0 0.011645442739071192 0.00028348531503088949 0 0.011919548949737126 8.8908407576130963e-05 0 0.011560631635352103 -5.3779745627680348e-05 0 0.011645442739071192 0.00028348531503088949 0 0.011919548949737126 8.8908407576130963e-05 0 0.013371208182908198 0.0086690743180047602 0 0.014159787347400024 0.0085199884551502084 0 0.01408576203158337 0.007671442011588453 0 0.013371208182908198 0.0086690743180047602 0 0.013870665087403517 0.0093638416401438367 0 0.014159787347400024 0.0085199884551502084 0 0.013371208182908198 0.0086690743180047602 0 0.012311228168434125 0.0085394287118077932 0 0.012690680193091039 0.0094643452534072525 0 0.013371208182908198 0.0086690743180047602 0 0.012311228168434125 0.0085394287118077932 0 0.013149598270376329 0.0078360707369246069 0 0.0092006814354237531 0.0056615257612745466 0 0.0075499261803688017 0.010129090701662154 0 0.011777613179382484 0.010322885955773011 0 0.012311228168434125 0.0085394287118077932 0 0.012690680193091039 0.0094643452534072525 0 0.013510042748775467 0.010162605993362241 0 0.012143401293264787 0.01032707282643178 0 0.012690680193091039 0.0094643452534072525 0 0.011777613179382484 0.010322885955773011 0 0.012143401293264787 0.01032707282643178 0 0.012690680193091039 0.0094643452534072525 0 0.013510042748775467 0.010162605993362241 0 0.012690680193091039 0.0094643452534072525 0 0.013334378059664321 0.0094501922761249853 0 0.013975340519740663 0.009875742374800869 0 0.013855504964896136 0.009620967329844566 0 0.0154311704589542 0.0094951895017454137 0 0.013371208182908198 0.0086690743180047602 0 0.012690680193091039 0.0094643452534072525 0 0.013334378059664321 0.0094501922761249853 0 0.013371208182908198 0.0086690743180047602 0 0.013334378059664321 0.0094501922761249853 0 0.013870665087403517 0.0093638416401438367 0 0.013510042748775467 0.010162605993362241 0 0.013334378059664321 0.0094501922761249853 0 0.013870665087403517 0.0093638416401438367 0 0.013510042748775467 0.010162605993362241 0 0.013870665087403517 0.0093638416401438367 0 0.01522222227089387 0.0099278444789622118 0 0.013688791489223751 0.010071142446751325 0 0.015332507835043273 0.0096853723326276557 0 0.015112435024338526 0.0091389386887216657 0 0.015430934290318263 0.009224777785583017 0 0.015819813484617966 0.0088267141504888326 0 0.01522222227089387 0.0099278444789622118 0 0.015430934290318263 0.009224777785583017 0 0.015913567770526237 0.0090167992219183351 0 0.01522222227089387 0.0099278444789622118 0 0.015112435024338526 0.0091389386887216657 0 0.015430934290318263 0.009224777785583017 0 0.013870665087403517 0.0093638416401438367 0 0.01522222227089387 0.0099278444789622118 0 0.015112435024338526 0.0091389386887216657 0 0.015332507835043273 0.0096853723326276557 0 0.016668159009396517 0.0094713242350981577 0 0.017101993169134602 0.0099985206827820031 0 0.01565317231193265 0.0099598052536615869 0 0.016827603776946327 0.0094386734483493263 0 0.01522222227089387 0.0099278444789622118 0 0.016285411850050006 0.0091444401049737452 0 0.016827603776946327 0.0094386734483493263 0 0.01565317231193265 0.0099598052536615869 0 0.0154311704589542 0.0094951895017454137 0 0.016827603776946327 0.0094386734483493263 0 0.01522222227089387 0.0099278444789622118 0 0.015913567770526237 0.0090167992219183351 0 0.016285411850050006 0.0091444401049737452 0 0.015430934290318263 0.009224777785583017 0 0.015913567770526237 0.0090167992219183351 0 0.015819813484617966 0.0088267141504888326 0 0.015913567770526237 0.0090167992219183351 0 0.016285411850050006 0.0091444401049737452 0 0.016179263106369447 0.0088672345319422627 0 0.016285411850050006 0.0091444401049737452 0 0.016554941018106163 0.0088217442825960883 0 0.016827603776946327 0.0094386734483493263 0 0.016285411850050006 0.0091444401049737452 0 0.016554941018106163 0.0088217442825960883 0 0.016179263106369447 0.0088672345319422627 0 0.016288481454490626 0.0085208010797529227 0 0.016047588986207711 0.0083572284410303749 0 0.016791833077064777 0.0084383929922151844 0 0.016554941018106163 0.0088217442825960883 0 0.016288481454490626 0.0085208010797529227 0 0.016791833077064777 0.0084383929922151844 0 0.016554941018106163 0.0088217442825960883 0 0.016288481454490626 0.0085208010797529227 0 0.016179263106369447 0.0088672345319422627 0 0.015112435024338526 0.0091389386887216657 0 0.015819813484617966 0.0088267141504888326 0 0.015951362862848331 0.0082403788391994526 0 0.016288481454490626 0.0085208010797529227 0 0.015819813484617966 0.0088267141504888326 0 0.015951362862848331 0.0082403788391994526 0 0.015574623621345081 0.0089499741996646315 0 0.015264090914116981 0.0089532759225956719 0 0.015913567770526237 0.0090167992219183351 0 0.016179263106369447 0.0088672345319422627 0 0.015819813484617966 0.0088267141504888326 0 0.016288481454490626 0.0085208010797529227 0 0.016179263106369447 0.0088672345319422627 0 0.015819813484617966 0.0088267141504888326 0 0.014315768689721252 0.011015664828723445 0 0.014540614239154506 0.010887998875748229 0 0.014266239729582459 0.01069515786083769 0 0.016047588986207711 0.0083572284410303749 0 0.016575803893617944 0.0081409235436944831 0 0.016791833077064777 0.0084383929922151844 0 0.015264090914116981 0.0089532759225956719 0 0.016143859706026123 0.0094213561151558819 0 0.0152969723690401 0.0085394800206164828 0 0.014159787347400024 0.0085199884551502084 0 0.01408576203158337 0.007671442011588453 0 0.014133998075948178 0.0091284349555085121 0 0.015264090914116981 0.0089532759225956719 0 0.013870665087403517 0.0093638416401438367 0 0.0152969723690401 0.0085394800206164828 0 0.014159787347400024 0.0085199884551502084 0 0.015264090914116981 0.0089532759225956719 0 0.014288787234834828 0.0092666843247169971 0 0.013870665087403517 0.0093638416401438367 0 0.015112435024338526 0.0091389386887216657 0 0.015951362862848331 0.0082403788391994526 0 0.014315768689721252 0.011015664828723445 0 0.013708226635445436 0.010632241641987223 0 0.014266239729582459 0.01069515786083769 0 0.013708226635445436 0.010632241641987223 0 0.014138674696812728 0.010479387824010372 0 0.014266239729582459 0.01069515786083769 0 0.013708226635445436 0.010632241641987223 0 0.014138674696812728 0.010479387824010372 0 0.014015197502054842 0.01019963626529192 0 0.013708226635445436 0.010632241641987223 0 0.014015197502054842 0.01019963626529192 0 0.013520914460746009 0.010225679904522431 0 0.016143859706026123 0.0094213561151558819 0 0.015873594920032069 0.0084121957393680606 0 0.014540614239154506 0.010887998875748229 0 0.014266239729582459 0.01069515786083769 0 0.014540750210143508 0.010290707954983739 0 0.014138674696812728 0.010479387824010372 0 0.014266239729582459 0.01069515786083769 0 0.014540750210143508 0.010290707954983739 0 0.015873594920032069 0.0084121957393680606 0 0.015943936256704972 0.011362023905389059 0 0.014138674696812728 0.010479387824010372 0 0.014540750210143508 0.010290707954983739 0 0.014015197502054842 0.01019963626529192 0 0.014540750210143508 0.010290707954983739 0 0.014015197502054842 0.01019963626529192 0 0.014559369432993878 0.009707340052562052 0 0.014015197502054842 0.01019963626529192 0 0.013875610090209054 0.0097863351760684864 0 0.014559369432993878 0.009707340052562052 0 0.014015197502054842 0.01019963626529192 0 0.013520914460746009 0.010225679904522431 0 0.013875610090209054 0.0097863351760684864 0 0.013520914460746009 0.010225679904522431 0 0.01317304223176665 0.0098814898319685377 0 0.013875610090209054 0.0097863351760684864 0 0.013511940990402978 0.010581492228585915 0 0.011094276397586714 0.011379437097032355 0 0.013520914460746009 0.010225679904522431 0 0.013137287863998894 0.010008436643796434 0 0.01317304223176665 0.0098814898319685377 0 0.013520914460746009 0.010225679904522431 0 0.013031045644210549 0.010209461197162076 0 0.013092896783072402 0.0099666354292966778 0 0.014288787234834828 0.0092666843247169971 0 0.010056935760650145 0.0094028413989611943 0 0.01408576203158337 0.007671442011588453 0 0.013149598270376329 0.0078360707369246069 0 0.012806138686615995 0.0068005777284357756 0 0.013708226635445436 0.010632241641987223 0 0.013520914460746009 0.010225679904522431 0 0.013031045644210549 0.010209461197162076 0 0.013371208182908198 0.0086690743180047602 0 0.01408576203158337 0.007671442011588453 0 0.013149598270376329 0.0078360707369246069 0 0.0038366350416838904 0.010267811593487603 0 0.0038185076959360437 0.010058268640562772 0 0.0037361398731578007 0.010327167698216731 0 0.012311228168434125 0.0085394287118077932 0 0.013149598270376329 0.0078360707369246069 0 0.012806138686615995 0.0068005777284357756 0 0.0075499261803688017 0.010129090701662154 0 0.010056935760650145 0.0094028413989611943 0 0.0038164808944485514 0.010423504090435881 0 0.0038366350416838904 0.010267811593487603 0 0.0037361398731578007 0.010327167698216731 0 0.0083838566185917458 0.012225102837627412 0 0.0076041323667738721 0.0098343834280726003 0 0.0088244672001643407 0.010605380702676529 0 0.010056935760650145 0.0094028413989611943 0 0.011094276397586714 0.011379437097032355 0 0.0068122136728902593 0.012160704301041133 0 0.011094276397586714 0.011379437097032355 0 0.0068122136728902593 0.012160704301041133 0 0.011937266458841628 0.013899407373263785 0 0.011094276397586714 0.011379437097032355 0 0.011937266458841628 0.013899407373263785 0 0.0091883965771252657 0.012625433583733761 0 0.010765532139626451 0.013624339789130203 0 0.011103884931113393 0.012391208349110772 0 0.0053731063910571085 0.010110934745245428 0 0.0083838566185917458 0.012225102837627412 0 0.0076041323667738721 0.0098343834280726003 0 0.0032205214081845938 0.010720346163905865 0 0.0068122136728902593 0.012160704301041133 0 0.0032205214081845938 0.010720346163905865 0 0.010056935760650145 0.0094028413989611943 0 0.0074499557126351066 0.01460075054944014 0 0.0075542738031970013 0.014760405814301622 0 0.0075046492065997516 0.014492809567165163 0 0.0074407037263540124 0.014773547636302163 0 0.0073459292587580299 0.014639095643178906 0 0.0075542738031970013 0.014760405814301622 0 0.0074499557126351066 0.01460075054944014 0 0.0073459292587580299 0.014639095643178906 0 0.0075542738031970013 0.014760405814301622 0 0.0074499557126351066 0.01460075054944014 0 0.0074234523408768282 0.01451177374289361 0 0.0075046492065997516 0.014492809567165163 0 0.0074499557126351066 0.01460075054944014 0 0.007373767421974051 0.014564107857174709 0 0.0074234523408768282 0.01451177374289361 0 0.007244470721661336 0.014522283625216559 0 0.007373767421974051 0.014564107857174709 0 0.0073459292587580299 0.014639095643178906 0 0.0074499557126351066 0.01460075054944014 0 0.007373767421974051 0.014564107857174709 0 0.0073459292587580299 0.014639095643178906 0 0.011937266458841628 0.013899407373263785 0 0.01132369503075227 0.016120969435120154 0 0.0075542738031970013 0.014760405814301622 0 0.0076312303683999366 0.014349604820225485 0 0.0075046492065997516 0.014492809567165163 0 0.011937266458841628 0.013899407373263785 0 0.01490644109118021 0.013362636787241837 0 0.015626410357175088 0.016768407644284656 0 0.015539318339578641 0.016896325879004782 0 0.015518426318319845 0.017050875296670404 0 0.015626410357175088 0.016768407644284656 0 0.015539318339578641 0.016896325879004782 0 0.015436067827550311 0.016788154888400589 0 0.015539318339578641 0.016896325879004782 0 0.01553281265248848 0.01698809004415042 0 0.015491768192319734 0.016930783276396997 0 0.015539318339578641 0.016896325879004782 0 0.01553281265248848 0.01698809004415042 0 0.015518426318319845 0.017050875296670404 0 0.01553281265248848 0.01698809004415042 0 0.015561189091002419 0.017055894433552807 0 0.015491768192319734 0.016930783276396997 0 0.01553281265248848 0.01698809004415042 0 0.015518426318319845 0.017050875296670404 0 0.015561189091002419 0.017055894433552807 0 0.0076312303683999366 0.014349604820225485 0 0.0075046492065997516 0.014492809567165163 0 0.0075140828358656519 0.014358553450344119 0 0.0075198119076757804 0.014274666686267295 0 0.0076312303683999366 0.014349604820225485 0 0.0075581993474686691 0.014203832723067814 0 0.0075198119076757804 0.014274666686267295 0 0.0076312303683999366 0.014349604820225485 0 0.0075140828358656519 0.014358553450344119 0 0.015518426318319845 0.017050875296670404 0 0.015592140336762813 0.016951020775798777 0 0.015593957748007715 0.016850320438517977 0 0.015592140336762813 0.016951020775798777 0 0.015561189091002419 0.017055894433552807 0 0.0156722140995466 0.016922925496277632 0 0.015518426318319845 0.017050875296670404 0 0.015592140336762813 0.016951020775798777 0 0.015561189091002419 0.017055894433552807 0 0.0073487127872769141 0.014470996266419506 0 0.0074270049950169231 0.014400361342630539 0 0.0073009148416613859 0.014308358995951049 0 0.0072429907583141107 0.014405422972982376 0 0.0073487127872769141 0.014470996266419506 0 0.0073009148416613859 0.014308358995951049 0 0.007244470721661336 0.014522283625216559 0 0.007373767421974051 0.014564107857174709 0 0.0073487127872769141 0.014470996266419506 0 0.0072429907583141107 0.014405422972982376 0 0.007244470721661336 0.014522283625216559 0 0.0073487127872769141 0.014470996266419506 0 0.007373767421974051 0.014564107857174709 0 0.0073487127872769141 0.014470996266419506 0 0.0074234523408768282 0.01451177374289361 0 0.0073487127872769141 0.014470996266419506 0 0.0074234523408768282 0.01451177374289361 0 0.0074270049950169231 0.014400361342630539 0 0.0075046492065997516 0.014492809567165163 0 0.0074270049950169231 0.014400361342630539 0 0.0075140828358656519 0.014358553450344119 0 0.0074234523408768282 0.01451177374289361 0 0.0075046492065997516 0.014492809567165163 0 0.0074270049950169231 0.014400361342630539 0 0.0074270049950169231 0.014400361342630539 0 0.0075140828358656519 0.014358553450344119 0 0.0074311451266834867 0.014276570662816819 0 0.0075198119076757804 0.014274666686267295 0 0.0075140828358656519 0.014358553450344119 0 0.0074311451266834867 0.014276570662816819 0 0.0074270049950169231 0.014400361342630539 0 0.0074311451266834867 0.014276570662816819 0 0.0073009148416613859 0.014308358995951049 0 0.0074311451266834867 0.014276570662816819 0 0.0073009148416613859 0.014308358995951049 0 0.0073134848847484302 0.014159813391585877 0 0.0073134848847484302 0.014159813391585877 0 0.0074245758257727029 0.014101666763439562 0 0.0073175538385839411 0.014010316569818184 0 0.0074245758257727029 0.014101666763439562 0 0.0075120346198127913 0.014080806324018147 0 0.0074213162633491887 0.014020987406480336 0 0.0074245758257727029 0.014101666763439562 0 0.0074595520942405758 0.014193601700577468 0 0.0075581993474686691 0.014203832723067814 0 0.0074311451266834867 0.014276570662816819 0 0.0073134848847484302 0.014159813391585877 0 0.0074595520942405758 0.014193601700577468 0 0.0073134848847484302 0.014159813391585877 0 0.0074245758257727029 0.014101666763439562 0 0.0074595520942405758 0.014193601700577468 0 0.0075198119076757804 0.014274666686267295 0 0.0074311451266834867 0.014276570662816819 0 0.0074595520942405758 0.014193601700577468 0 0.015518426318319845 0.017050875296670404 0 0.015593957748007715 0.016850320438517977 0 0.015592638403128875 0.016694777014830343 0 0.01132369503075227 0.016120969435120154 0 0.012848932475028529 0.015160515905229523 0 0.0076312303683999366 0.014349604820225485 0 0.0075581993474686691 0.014203832723067814 0 0.0076752017253576901 0.014011301286169285 0 0.015518426318319845 0.017050875296670404 0 0.015592638403128875 0.016694777014830343 0 0.015547038256313749 0.016482760178055274 0 0.0075198119076757804 0.014274666686267295 0 0.0074595520942405758 0.014193601700577468 0 0.0075581993474686691 0.014203832723067814 0 0.015592140336762813 0.016951020775798777 0 0.015593957748007715 0.016850320438517977 0 0.015662164657782581 0.016862170172751184 0 0.015593957748007715 0.016850320438517977 0 0.015592638403128875 0.016694777014830343 0 0.01565705402476552 0.016790423336497187 0 0.0074245758257727029 0.014101666763439562 0 0.0075581993474686691 0.014203832723067814 0 0.0075120346198127913 0.014080806324018147 0 0.0075581993474686691 0.014203832723067814 0 0.0075120346198127913 0.014080806324018147 0 0.0076752017253576901 0.014011301286169285 0 0.0075120346198127913 0.014080806324018147 0 0.0076752017253576901 0.014011301286169285 0 0.0074213162633491887 0.014020987406480336 0 0.012848932475028529 0.015160515905229523 0 0.0097048406155199295 0.015403884547747305 0 0.015488953331917609 0.017319196420447734 0 0.015720233449169081 0.01663892839501168 0 0.012562846757940329 0.017067986002761212 0 0.0076752017253576901 0.014011301286169285 0 0.0074213162633491887 0.014020987406480336 0 0.0073415056489183539 0.013967567918275621 0 0.015592638403128875 0.016694777014830343 0 0.015547038256313749 0.016482760178055274 0 0.01564434067119885 0.016511856092839335 0 0.0073639079153370356 0.013978318639130481 0 0.0073175538385839411 0.014010316569818184 0 0.0073415056489183539 0.013967567918275621 0 0.0073175538385839411 0.014010316569818184 0 0.0074213162633491887 0.014020987406480336 0 0.0073415056489183539 0.013967567918275621 0 0.0074245758257727029 0.014101666763439562 0 0.0073175538385839411 0.014010316569818184 0 0.0074213162633491887 0.014020987406480336 0 0.016479418203715072 0.016537910053936029 0 0.016231099341695761 0.016598756339295608 0 0.016405782709365564 0.015994346531204174 0 0.016231099341695761 0.016598756339295608 0 0.016304472487053408 0.016805608182393655 0 0.01610400735478662 0.016971159031253579 0 0.016479418203715072 0.016537910053936029 0 0.016231099341695761 0.016598756339295608 0 0.016304472487053408 0.016805608182393655 0 0.016231099341695761 0.016598756339295608 0 0.016071472589197628 0.016484130765451552 0 0.015997977747230826 0.016807918377205536 0 0.016071472589197628 0.016484130765451552 0 0.015856148196208203 0.01680323679719228 0 0.015997977747230826 0.016807918377205536 0 0.016071472589197628 0.016484130765451552 0 0.015856148196208203 0.01680323679719228 0 0.015720233449169081 0.01663892839501168 0 0.015856148196208203 0.01680323679719228 0 0.015720233449169081 0.01663892839501168 0 0.015694008442745121 0.017215369157515609 0 0.015488953331917609 0.017319196420447734 0 0.015720233449169081 0.01663892839501168 0 0.015694008442745121 0.017215369157515609 0 0.015856148196208203 0.01680323679719228 0 0.015694008442745121 0.017215369157515609 0 0.015997977747230826 0.016807918377205536 0 0.012848932475028529 0.015160515905229523 0 0.015089861865388327 0.016522005696563907 0 0.016231099341695761 0.016598756339295608 0 0.015997977747230826 0.016807918377205536 0 0.01610400735478662 0.016971159031253579 0 0.015694008442745121 0.017215369157515609 0 0.015997977747230826 0.016807918377205536 0 0.01610400735478662 0.016971159031253579 0 0.015089861865388327 0.016522005696563907 0 0.016524285812190349 0.017138981419036785 0 0.01564434067119885 0.016511856092839335 0 0.015872599426883075 0.016783682453880899 0 0.016350419629166418 0.016986648423744605 0 0.015694008442745121 0.017215369157515609 0 0.01610400735478662 0.016971159031253579 0 0.016350419629166418 0.016986648423744605 0 0.01564434067119885 0.016511856092839335 0 0.015872599426883075 0.016783682453880899 0 0.01569482731514249 0.016707055284673648 0 0.015592638403128875 0.016694777014830343 0 0.01564434067119885 0.016511856092839335 0 0.01569482731514249 0.016707055284673648 0 0.015872599426883075 0.016783682453880899 0 0.01569482731514249 0.016707055284673648 0 0.015751579730128269 0.016832041672991033 0 0.015592638403128875 0.016694777014830343 0 0.01569482731514249 0.016707055284673648 0 0.01565705402476552 0.016790423336497187 0 0.015751579730128269 0.016832041672991033 0 0.0156722140995466 0.016922925496277632 0 0.015942694422041416 0.016997684771228625 0 0.01569482731514249 0.016707055284673648 0 0.01565705402476552 0.016790423336497187 0 0.015751579730128269 0.016832041672991033 0 0.015593957748007715 0.016850320438517977 0 0.01565705402476552 0.016790423336497187 0 0.015662164657782581 0.016862170172751184 0 0.01565705402476552 0.016790423336497187 0 0.015751579730128269 0.016832041672991033 0 0.015662164657782581 0.016862170172751184 0 0.015751579730128269 0.016832041672991033 0 0.0156722140995466 0.016922925496277632 0 0.015662164657782581 0.016862170172751184 0 0.015592140336762813 0.016951020775798777 0 0.0156722140995466 0.016922925496277632 0 0.015662164657782581 0.016862170172751184 0 0.015872599426883075 0.016783682453880899 0 0.015751579730128269 0.016832041672991033 0 0.015934759959366239 0.016880146479758697 0 0.015751579730128269 0.016832041672991033 0 0.015934759959366239 0.016880146479758697 0 0.015942694422041416 0.016997684771228625 0 0.016448098183605195 0.016555400532328072 0 0.016384085712803455 0.017528550202147671 0 0.015872599426883075 0.016783682453880899 0 0.015934759959366239 0.016880146479758697 0 0.016350419629166418 0.016986648423744605 0 0.015934759959366239 0.016880146479758697 0 0.016350419629166418 0.016986648423744605 0 0.015942694422041416 0.016997684771228625 0 0.016479418203715072 0.016537910053936029 0 0.016354612637518626 0.01760263054367792 0 0.016847513051783083 0.016939284648616625 0 0.016479418203715072 0.016537910053936029 0 0.016304472487053408 0.016805608182393655 0 0.016403948688411819 0.016964731481387163 0 0.016285233461855168 0.016931987008819361 0 0.01610400735478662 0.016971159031253579 0 0.016350419629166418 0.016986648423744605 0 0.016285233461855168 0.016931987008819361 0 0.016304472487053408 0.016805608182393655 0 0.01610400735478662 0.016971159031253579 0 0.016285233461855168 0.016931987008819361 0 0.016304472487053408 0.016805608182393655 0 0.016403948688411819 0.016964731481387163 0 0.016285233461855168 0.016931987008819361 0 0.016403948688411819 0.016964731481387163 0 0.016350419629166418 0.016986648423744605 0 0.016403948688411819 0.016964731481387163 0 0.016350419629166418 0.016986648423744605 0 0.016409887308862652 0.017317540906487329 0 0.015200423118552358 0.016950543064818586 0 0.015394761096046693 0.016917740200438531 0 0.015284648507822471 0.016872668445737538 0 0.016384085712803455 0.017528550202147671 0 0.016469697337493011 0.01675311615185833 0 0.016354612637518626 0.01760263054367792 0 0.01622195060823612 0.019083342388080592 0 0.016909123205460896 0.017954998143953831 0 0.016350419629166418 0.016986648423744605 0 0.016409887308862652 0.017317540906487329 0 0.015942694422041416 0.016997684771228625 0 0.015561189091002419 0.017055894433552807 0 0.016409887308862652 0.017317540906487329 0 0.015942694422041416 0.016997684771228625 0 0.015561189091002419 0.017055894433552807 0 0.015200423118552358 0.016950543064818586 0 0.015394761096046693 0.016917740200438531 0 0.015298877280117872 0.017158129061254905 0 0.016469697337493011 0.01675311615185833 0 0.015561189091002419 0.017055894433552807 0 0.0156722140995466 0.016922925496277632 0 0.015942694422041416 0.016997684771228625 0 0.015561189091002419 0.017055894433552807 0 0.015491768192319734 0.016930783276396997 0 0.015394761096046693 0.016917740200438531 0 0.015539318339578641 0.016896325879004782 0 0.015491768192319734 0.016930783276396997 0 0.015436067827550311 0.016788154888400589 0 0.015491768192319734 0.016930783276396997 0 0.015394761096046693 0.016917740200438531 0 0.015436067827550311 0.016788154888400589 0 0.015394761096046693 0.016917740200438531 0 0.015436067827550311 0.016788154888400589 0 0.015284648507822471 0.016872668445737538 0 0.01490644109118021 0.013362636787241837 0 0.015943936256704972 0.011362023905389059 0 0.015436067827550311 0.016788154888400589 0 0.015284648507822471 0.016872668445737538 0 0.015212918833286517 0.016775452320677255 0 0.015200423118552358 0.016950543064818586 0 0.015284648507822471 0.016872668445737538 0 0.015212918833286517 0.016775452320677255 0 0.016469697337493011 0.01675311615185833 0 0.015943936256704972 0.011362023905389059 0 0.015943936256704972 0.011362023905389059 0 0.018378086877218463 0.0097875798263278042 0 0.017246879834811862 0.0067714723297687875 0 0.018234325526175502 0.0066330793335197622 0 0.017901408090191029 0.0072927803790222177 0 0.016879850167490201 0.013624396960972947 0 0.0175172978731148 0.013246649296746913 0 0.018230686330011476 0.013454781198667477 0 0.016895289543457263 0.012832918684255238 0 0.016879850167490201 0.013624396960972947 0 0.0175172978731148 0.013246649296746913 0 0.018230686330011476 0.013454781198667477 0 0.018237810416630796 0.013045958676274611 0 0.019617118817381853 0.013251180162092643 0 0.0175172978731148 0.013246649296746913 0 0.018230686330011476 0.013454781198667477 0 0.018237810416630796 0.013045958676274611 0 0.018324172828392719 0.019653957605858471 0 0.018501859545851325 0.018272441056525639 0 0.019840715391157566 0.01860038606762187 0 0.018324172828392719 0.019653957605858471 0 0.018501859545851325 0.018272441056525639 0 0.017487268928713058 0.018300344804556466 0 0.018501859545851325 0.018272441056525639 0 0.017487268928713058 0.018300344804556466 0 0.01786888367221472 0.017612539892495078 0 0.018501859545851325 0.018272441056525639 0 0.019145761170144871 0.017263924589623836 0 0.019840715391157566 0.01860038606762187 0 0.016469697337493011 0.01675311615185833 0 0.018508683625792104 0.016791071431277869 0 0.016895289543457263 0.012832918684255238 0 0.0175172978731148 0.013246649296746913 0 0.018237810416630796 0.013045958676274611 0 0.01622195060823612 0.019083342388080592 0 0.018324172828392719 0.019653957605858471 0 0.017487268928713058 0.018300344804556466 0 0.01622195060823612 0.019083342388080592 0 0.017487268928713058 0.018300344804556466 0 0.016909123205460896 0.017954998143953831 0 0.016909123205460896 0.017954998143953831 0 0.016818137801853032 0.017440064012963278 0 0.017217689675669782 0.01735499932863574 0 0.016354612637518626 0.01760263054367792 0 0.016909123205460896 0.017954998143953831 0 0.016818137801853032 0.017440064012963278 0 0.016354612637518626 0.01760263054367792 0 0.016818137801853032 0.017440064012963278 0 0.016847513051783083 0.016939284648616625 0 0.016818137801853032 0.017440064012963278 0 0.016847513051783083 0.016939284648616625 0 0.017217689675669782 0.01735499932863574 0 0.017523007333324115 0.016914789433504697 0 0.017217689675669782 0.01735499932863574 0 0.01786888367221472 0.017612539892495078 0 0.017523007333324115 0.016914789433504697 0 0.01786888367221472 0.017612539892495078 0 0.018254740509201766 0.016961917174623233 0 0.016847513051783083 0.016939284648616625 0 0.017523007333324115 0.016914789433504697 0 0.017217689675669782 0.01735499932863574 0 0.017487268928713058 0.018300344804556466 0 0.016909123205460896 0.017954998143953831 0 0.017217689675669782 0.01735499932863574 0 0.017487268928713058 0.018300344804556466 0 0.017217689675669782 0.01735499932863574 0 0.01786888367221472 0.017612539892495078 0 0.01786888367221472 0.017612539892495078 0 0.019145761170144871 0.017263924589623836 0 0.018254740509201766 0.016961917174623233 0 0.018501859545851325 0.018272441056525639 0 0.01786888367221472 0.017612539892495078 0 0.019145761170144871 0.017263924589623836 0 0.019145761170144871 0.017263924589623836 0 0.018254740509201766 0.016961917174623233 0 0.019292988566115811 0.016415027722219006 0 0.018254740509201766 0.016961917174623233 0 0.018391365864818106 0.016455965748592687 0 0.019292988566115811 0.016415027722219006 0 0.017523007333324115 0.016914789433504697 0 0.018254740509201766 0.016961917174623233 0 0.018391365864818106 0.016455965748592687 0 0.018391365864818106 0.016455965748592687 0 0.018408043928081087 0.015952050565547757 0 0.017332166568443545 0.016404013033471009 0 0.018408043928081087 0.015952050565547757 0 0.020085866409636378 0.015811296362141267 0 0.018178303640061004 0.015081109840639527 0 0.019292988566115811 0.016415027722219006 0 0.018408043928081087 0.015952050565547757 0 0.020085866409636378 0.015811296362141267 0 0.018391365864818106 0.016455965748592687 0 0.019292988566115811 0.016415027722219006 0 0.018408043928081087 0.015952050565547757 0 0.018408043928081087 0.015952050565547757 0 0.017332166568443545 0.016404013033471009 0 0.016849818636970937 0.01568087707931564 0 0.016479418203715072 0.016537910053936029 0 0.017332166568443545 0.016404013033471009 0 0.016849818636970937 0.01568087707931564 0 0.016479418203715072 0.016537910053936029 0 0.016847513051783083 0.016939284648616625 0 0.017332166568443545 0.016404013033471009 0 0.017523007333324115 0.016914789433504697 0 0.018391365864818106 0.016455965748592687 0 0.017332166568443545 0.016404013033471009 0 0.016847513051783083 0.016939284648616625 0 0.017523007333324115 0.016914789433504697 0 0.017332166568443545 0.016404013033471009 0 0.02083399025610656 0.015791398284572187 0 0.021463415078369106 0.016271009966238967 0 0.021336610502018329 0.015422888313329467 0 0.02083399025610656 0.015791398284572187 0 0.020491708207179205 0.016065891211757395 0 0.021463415078369106 0.016271009966238967 0 0.02083399025610656 0.015791398284572187 0 0.020085866409636378 0.015811296362141267 0 0.020328041982630062 0.015457778105450185 0 0.019292988566115811 0.016415027722219006 0 0.020085866409636378 0.015811296362141267 0 0.020491708207179205 0.016065891211757395 0 0.02083399025610656 0.015791398284572187 0 0.020085866409636378 0.015811296362141267 0 0.020491708207179205 0.016065891211757395 0 0.019145761170144871 0.017263924589623836 0 0.019292988566115811 0.016415027722219006 0 0.020491708207179205 0.016065891211757395 0 0.019145761170144871 0.017263924589623836 0 0.020491708207179205 0.016065891211757395 0 0.020676890363117584 0.017598001352365483 0 0.019145761170144871 0.017263924589623836 0 0.020676890363117584 0.017598001352365483 0 0.019840715391157566 0.01860038606762187 0 0.020491708207179205 0.016065891211757395 0 0.020676890363117584 0.017598001352365483 0 0.022953624358191385 0.017353261831359025 0 0.022953624358191385 0.017353261831359025 0 0.025617508712804639 0.017376713321907076 0 0.025439470221295224 0.014302630493504076 0 0.020491708207179205 0.016065891211757395 0 0.022953624358191385 0.017353261831359025 0 0.025439470221295224 0.014302630493504076 0 0.020803717104317714 0.015896227804847764 0 0.023450228820620509 0.015376055022941159 0 0.022953624358191385 0.017353261831359025 0 0.024159798950747133 0.02037167113205287 0 0.025617508712804639 0.017376713321907076 0 0.021508322510250526 0.018867828985526271 0 0.021231023831078485 0.020519338564135538 0 0.024159798950747133 0.02037167113205287 0 0.022953624358191385 0.017353261831359025 0 0.021508322510250526 0.018867828985526271 0 0.024159798950747133 0.02037167113205287 0 0.018324172828392719 0.019653957605858471 0 0.019840715391157566 0.01860038606762187 0 0.021231023831078485 0.020519338564135538 0 0.020676890363117584 0.017598001352365483 0 0.022953624358191385 0.017353261831359025 0 0.021508322510250526 0.018867828985526271 0 0.020676890363117584 0.017598001352365483 0 0.019840715391157566 0.01860038606762187 0 0.021508322510250526 0.018867828985526271 0 0.019840715391157566 0.01860038606762187 0 0.021508322510250526 0.018867828985526271 0 0.021231023831078485 0.020519338564135538 0 0.018234325526175502 0.0066330793335197622 0 0.019213892932459415 0.0065187375918800711 0 0.018879062273738544 0.0074318509211808836 0 0.018508683625792104 0.016791071431277869 0 0.019999426497401825 0.011525306798028625 0 0.018378086877218463 0.0097875798263278042 0 0.019999426497401825 0.011525306798028625 0 0.019999426497401825 0.011525306798028625 0 0.020048777231019829 0.0055330094389774084 0 0.019999426497401825 0.011525306798028625 0 0.021958705331760531 0.013617687996476403 0 0.019213892932459415 0.0065187375918800711 0 0.019742238633341899 0.0071223423049003309 0 0.020405787941308977 0.0068780820085992903 0 0.020008338321700705 0.0069525087066543388 0 0.020246353957394211 0.0068354751881219552 0 0.020405787941308977 0.0068780820085992903 0 0.019742238633341899 0.0071223423049003309 0 0.019883430836521599 0.0076840071441944841 0 0.018879062273738544 0.0074318509211808836 0 0.019742238633341899 0.0071223423049003309 0 0.019883430836521599 0.0076840071441944841 0 0.02013409708381091 0.0072331936591067767 0 0.019883430836521599 0.0076840071441944841 0 0.018875163371265418 0.0081528302787529337 0 0.019693589424096224 0.008376032801905629 0 0.019883430836521599 0.0076840071441944841 0 0.019693589424096224 0.008376032801905629 0 0.02039512929322522 0.0082591044020747656 0 0.019883430836521599 0.0076840071441944841 0 0.018875163371265418 0.0081528302787529337 0 0.018879062273738544 0.0074318509211808836 0 0.019213892932459415 0.0065187375918800711 0 0.019742238633341899 0.0071223423049003309 0 0.018879062273738544 0.0074318509211808836 0 0.018879062273738544 0.0074318509211808836 0 0.017901408090191029 0.0072927803790222177 0 0.017898412488713957 0.0080603300831791035 0 0.018234325526175502 0.0066330793335197622 0 0.018879062273738544 0.0074318509211808836 0 0.017901408090191029 0.0072927803790222177 0 0.017225902159356921 0.0075800963989844667 0 0.017246879834811862 0.0067714723297687875 0 0.017901408090191029 0.0072927803790222177 0 0.017225902159356921 0.0075800963989844667 0 0.017901408090191029 0.0072927803790222177 0 0.017898412488713957 0.0080603300831791035 0 0.016143859706026123 0.0094213561151558819 0 0.017922150461374568 0.0078238825785859663 0 0.017214232513773572 0.0084557599169473273 0 0.017225902159356921 0.0075800963989844667 0 0.017898412488713957 0.0080603300831791035 0 0.018875163371265418 0.0081528302787529337 0 0.018879062273738544 0.0074318509211808836 0 0.017629052843034607 0.0077823187726394627 0 0.018726563456419043 0.0074957008086985102 0 0.017922150461374568 0.0078238825785859663 0 0.018875163371265418 0.0081528302787529337 0 0.018060708775206213 0.0084728158158243281 0 0.018603190261014344 0.0086558551570508468 0 0.018875163371265418 0.0081528302787529337 0 0.017629052843034607 0.0077823187726394627 0 0.018060708775206213 0.0084728158158243281 0 0.018060708775206213 0.0084728158158243281 0 0.017663553408450338 0.0089454382674126892 0 0.018224819723492804 0.0090077825689223266 0 0.018060708775206213 0.0084728158158243281 0 0.018224819723492804 0.0090077825689223266 0 0.018603190261014344 0.0086558551570508468 0 0.016575803893617944 0.0081409235436944831 0 0.017629052843034607 0.0077823187726394627 0 0.016791833077064777 0.0084383929922151844 0 0.017629052843034607 0.0077823187726394627 0 0.017425528296309858 0.0084776172245840491 0 0.016791833077064777 0.0084383929922151844 0 0.017629052843034607 0.0077823187726394627 0 0.018060708775206213 0.0084728158158243281 0 0.017425528296309858 0.0084776172245840491 0 0.018060708775206213 0.0084728158158243281 0 0.017425528296309858 0.0084776172245840491 0 0.017663553408450338 0.0089454382674126892 0 0.017425528296309858 0.0084776172245840491 0 0.017051702774248757 0.0088408277763232252 0 0.017663553408450338 0.0089454382674126892 0 0.017425528296309858 0.0084776172245840491 0 0.017051702774248757 0.0088408277763232252 0 0.016791833077064777 0.0084383929922151844 0 0.016554941018106163 0.0088217442825960883 0 0.017051702774248757 0.0088408277763232252 0 0.016791833077064777 0.0084383929922151844 0 0.014917842365382555 0.004623532850194758 0 0.018248779540515417 0.0096797070370081891 0 0.017101993169134602 0.0099985206827820031 0 0.017623234117742297 0.0095307367065432958 0 0.018270889182228914 0.0096224009435380512 0 0.017051702774248757 0.0088408277763232252 0 0.017287878304402596 0.0091823325758647514 0 0.016827603776946327 0.0094386734483493263 0 0.016554941018106163 0.0088217442825960883 0 0.017051702774248757 0.0088408277763232252 0 0.016827603776946327 0.0094386734483493263 0 0.017663553408450338 0.0089454382674126892 0 0.017287878304402596 0.0091823325758647514 0 0.017623234117742297 0.0095307367065432958 0 0.017051702774248757 0.0088408277763232252 0 0.017663553408450338 0.0089454382674126892 0 0.017287878304402596 0.0091823325758647514 0 0.017287878304402596 0.0091823325758647514 0 0.017623234117742297 0.0095307367065432958 0 0.016827603776946327 0.0094386734483493263 0 0.017101993169134602 0.0099985206827820031 0 0.017623234117742297 0.0095307367065432958 0 0.016827603776946327 0.0094386734483493263 0 0.018224819723492804 0.0090077825689223266 0 0.018496330769253444 0.0092705286347530697 0 0.018699962452126098 0.0090604245388537594 0 0.018224819723492804 0.0090077825689223266 0 0.018699962452126098 0.0090604245388537594 0 0.018603190261014344 0.0086558551570508468 0 0.018224819723492804 0.0090077825689223266 0 0.018496330769253444 0.0092705286347530697 0 0.018041763924384207 0.0093139510902239871 0 0.017663553408450338 0.0089454382674126892 0 0.017623234117742297 0.0095307367065432958 0 0.018041763924384207 0.0093139510902239871 0 0.017663553408450338 0.0089454382674126892 0 0.018224819723492804 0.0090077825689223266 0 0.018041763924384207 0.0093139510902239871 0 0.017623234117742297 0.0095307367065432958 0 0.018041763924384207 0.0093139510902239871 0 0.018270889182228914 0.0096224009435380512 0 0.018496330769253444 0.0092705286347530697 0 0.018041763924384207 0.0093139510902239871 0 0.018270889182228914 0.0096224009435380512 0 0.018496330769253444 0.0092705286347530697 0 0.018270889182228914 0.0096224009435380512 0 0.019215526838542333 0.0091988271596672132 0 0.018248779540515417 0.0096797070370081891 0 0.019047066102324692 0.0092131974198463966 0 0.017923388373488471 0.0093030808219719784 0 0.019215526838542333 0.0091988271596672132 0 0.018930320843893504 0.0094408788259055087 0 0.018943098697186796 0.0096742610528595448 0 0.017923388373488471 0.0093030808219719784 0 0.018930320843893504 0.0094408788259055087 0 0.018699962452126098 0.0090604245388537594 0 0.019106183843779535 0.0089999542734956646 0 0.019125061103942093 0.0087350694297426684 0 0.018496330769253444 0.0092705286347530697 0 0.018699962452126098 0.0090604245388537594 0 0.019215526838542333 0.0091988271596672132 0 0.018699962452126098 0.0090604245388537594 0 0.019106183843779535 0.0089999542734956646 0 0.019215526838542333 0.0091988271596672132 0 0.019106183843779535 0.0089999542734956646 0 0.019379640276894063 0.0090014062173088879 0 0.019125061103942093 0.0087350694297426684 0 0.019106183843779535 0.0089999542734956646 0 0.019215526838542333 0.0091988271596672132 0 0.019379640276894063 0.0090014062173088879 0 0.018954976618461378 0.0096337062392805907 0 0.019215526838542333 0.0091988271596672132 0 0.019585382404255398 0.0092551578406316164 0 0.018954976618461378 0.0096337062392805907 0 0.019215526838542333 0.0091988271596672132 0 0.018930320843893504 0.0094408788259055087 0 0.0174636284407515 0.0040681184022064 0 0.017737735027638608 0.0063938052915234363 0 0.019912915650311135 0.0096089388170695674 0 0.018954976618461378 0.0096337062392805907 0 0.019585382404255398 0.0092551578406316164 0 0.022204365592185974 0.0058898950490290126 0 0.020236815603081784 0.0098954845235678796 0 0.019912915650311135 0.0096089388170695674 0 0.019585382404255398 0.0092551578406316164 0 0.02003911110408646 0.0090769634820367547 0 0.020020692343027471 0.0093894927573528533 0 0.02003911110408646 0.0090769634820367547 0 0.020158520661730853 0.0092069486529275119 0 0.019585382404255398 0.0092551578406316164 0 0.02003911110408646 0.0090769634820367547 0 0.01972985362919287 0.0089899388573069956 0 0.01972985362919287 0.0089899388573069956 0 0.019603420755491846 0.0087877789010011968 0 0.019973866586501739 0.0087891306593511926 0 0.02003911110408646 0.0090769634820367547 0 0.01972985362919287 0.0089899388573069956 0 0.019973866586501739 0.0087891306593511926 0 0.019215526838542333 0.0091988271596672132 0 0.019585382404255398 0.0092551578406316164 0 0.019379640276894063 0.0090014062173088879 0 0.019585382404255398 0.0092551578406316164 0 0.01972985362919287 0.0089899388573069956 0 0.019379640276894063 0.0090014062173088879 0 0.01972985362919287 0.0089899388573069956 0 0.019379640276894063 0.0090014062173088879 0 0.019603420755491846 0.0087877789010011968 0 0.019973866586501739 0.0087891306593511926 0 0.019693589424096224 0.008376032801905629 0 0.02039512929322522 0.0082591044020747656 0 0.019603420755491846 0.0087877789010011968 0 0.019693589424096224 0.008376032801905629 0 0.019125061103942093 0.0087350694297426684 0 0.019379640276894063 0.0090014062173088879 0 0.019603420755491846 0.0087877789010011968 0 0.019125061103942093 0.0087350694297426684 0 0.019603420755491846 0.0087877789010011968 0 0.019973866586501739 0.0087891306593511926 0 0.019693589424096224 0.008376032801905629 0 0.018875163371265418 0.0081528302787529337 0 0.019693589424096224 0.008376032801905629 0 0.019125061103942093 0.0087350694297426684 0 0.018875163371265418 0.0081528302787529337 0 0.018603190261014344 0.0086558551570508468 0 0.019125061103942093 0.0087350694297426684 0 0.018699962452126098 0.0090604245388537594 0 0.018603190261014344 0.0086558551570508468 0 0.019125061103942093 0.0087350694297426684 0 0.02937724844780713 0.0083318463903321576 0 0.03085600221178357 0.008518189201371925 0 0.029436052890701583 0.0068767007634087055 0 0.025593334155054329 0.0085605039925400819 0 0.0259159220728791 0.0078523369043784642 0 0.019973866586501739 0.0087891306593511926 0 0.02039512929322522 0.0082591044020747656 0 0.020307788196237166 0.009222992108610998 0 0.026954776776953186 0.0059810260885106844 0 0.026957152828509866 0.0059638600993612567 0 0.027030648539274491 0.0059502748487753991 0 0.03085600221178357 0.008518189201371925 0 0.031008004466634286 0.0068422005580513132 0 0.029436052890701583 0.0068767007634087055 0 0.02003911110408646 0.0090769634820367547 0 0.019973866586501739 0.0087891306593511926 0 0.020307788196237166 0.009222992108610998 0 0.020264305326926788 0.0093839307248515698 0 0.020020692343027471 0.0093894927573528533 0 0.020158520661730853 0.0092069486529275119 0 0.02003911110408646 0.0090769634820367547 0 0.020158520661730853 0.0092069486529275119 0 0.020307788196237166 0.009222992108610998 0 0.023443425843014769 0.0080898588394068931 0 0.0259159220728791 0.0078523369043784642 0 0.025918448049940254 0.0059012470514784518 0 0.0259159220728791 0.0078523369043784642 0 0.020264305326926788 0.0093839307248515698 0 0.020158520661730853 0.0092069486529275119 0 0.020289547432850812 0.0091955249299752618 0 0.027029712024600378 0.0059473739957289808 0 0.026954776776953186 0.0059810260885106844 0 0.027030648539274491 0.0059502748487753991 0 0.0259159220728791 0.0078523369043784642 0 0.028882316108138073 0.0062851701393546091 0 0.026939874872458032 0.0059185363798404797 0 0.027029712024600378 0.0059473739957289808 0 0.026961403528764194 0.0059560517194716641 0 0.027029712024600378 0.0059473739957289808 0 0.027030648539274491 0.0059502748487753991 0 0.026961403528764194 0.0059560517194716641 0 0.028882316108138073 0.0062851701393546091 0 0.027242435555210526 0.0064249969995373466 0 0.029436052890701583 0.0068767007634087055 0 0.02785908463986014 0.0069320769037497423 0 0.028324770553903207 0.0079371856216112011 0 0.026939874872458032 0.0059185363798404797 0 0.026961403528764194 0.0059560517194716641 0 0.026818127934140609 0.0059674293586302494 0 0.02785908463986014 0.0069320769037497423 0 0.027228966803211744 0.0080343500111794489 0 0.026303778806447072 0.0069808548498800395 0 0.02785908463986014 0.0069320769037497423 0 0.027228966803211744 0.0080343500111794489 0 0.028324770553903207 0.0079371856216112011 0 0.027228966803211744 0.0080343500111794489 0 0.028324770553903207 0.0079371856216112011 0 0.028155425832184458 0.0090879049068317529 0 0.027346353992350681 0.0080700462653656452 0 0.028084881497412641 0.0089679457527690517 0 0.02937724844780713 0.0083318463903321576 0 0.028324770553903207 0.0079371856216112011 0 0.028155425832184458 0.0090879049068317529 0 0.02937724844780713 0.0083318463903321576 0 0.029436052890701583 0.0068767007634087055 0 0.028324770553903207 0.0079371856216112011 0 0.02937724844780713 0.0083318463903321576 0 0.028155425832184458 0.0090879049068317529 0 0.029455271111805844 0.0097145417204231657 0 0.027453799547526126 0.0080220907046418075 0 0.028155425832184458 0.0090879049068317529 0 0.02691723850074406 0.0087256741601289579 0 0.028155425832184458 0.0090879049068317529 0 0.026611839414154678 0.0099750638949370803 0 0.02691723850074406 0.0087256741601289579 0 0.028155425832184458 0.0090879049068317529 0 0.028076759349462691 0.010742765940674111 0 0.026611839414154678 0.0099750638949370803 0 0.028076759349462691 0.010742765940674111 0 0.027129590166215856 0.011599369596466425 0 0.026611839414154678 0.0099750638949370803 0 0.028076759349462691 0.010742765940674111 0 0.029455271111805844 0.0097145417204231657 0 0.029212247184865654 0.011413460125299587 0 0.028155425832184458 0.0090879049068317529 0 0.028076759349462691 0.010742765940674111 0 0.029455271111805844 0.0097145417204231657 0 0.029455271111805844 0.0097145417204231657 0 0.030772194211189666 0.010374731036304407 0 0.029212247184865654 0.011413460125299587 0 0.03085600221178357 0.008518189201371925 0 0.029455271111805844 0.0097145417204231657 0 0.030772194211189666 0.010374731036304407 0 0.02937724844780713 0.0083318463903321576 0 0.03085600221178357 0.008518189201371925 0 0.029455271111805844 0.0097145417204231657 0 0.019883430836521599 0.0076840071441944841 0 0.02039512929322522 0.0082591044020747656 0 0.020484972593807108 0.0073072312681426955 0 0.025593334155054329 0.0085605039925400819 0 0.025615286498391298 0.0082638216925650949 0 0.019883430836521599 0.0076840071441944841 0 0.020484972593807108 0.0073072312681426955 0 0.02013409708381091 0.0072331936591067767 0 0.019742238633341899 0.0071223423049003309 0 0.02013409708381091 0.0072331936591067767 0 0.020405787941308977 0.0068780820085992903 0 0.020484972593807108 0.0073072312681426955 0 0.02013409708381091 0.0072331936591067767 0 0.020405787941308977 0.0068780820085992903 0 0.020246353957394211 0.0068354751881219552 0 0.020405787941308977 0.0068780820085992903 0 0.02055957472626882 0.0066658731568199963 0 0.025615286498391298 0.0082638216925650949 0 0.026137003768378141 0.012456617101604112 0 0.020484972593807108 0.0073072312681426955 0 0.020405787941308977 0.0068780820085992903 0 0.02055957472626882 0.0066658731568199963 0 0.021958705331760531 0.013617687996476403 0 0.026137003768378141 0.012456617101604112 0 0.030772194211189666 0.010374731036304407 0 0.029212247184865654 0.011413460125299587 0 0.030625604568974944 0.01263385482762024 0 0.029212247184865654 0.011413460125299587 0 0.030625604568974944 0.01263385482762024 0 0.028710017017018363 0.0130444517338878 0 0.026137003768378141 0.012456617101604112 0 0.028533094779639809 0.016704153809773678 0 0.026137003768378141 0.012456617101604112 0 0.030068560572435545 0.012989010176121843 0 0.029085789318455263 0.013471981958776028 0 0.028583523406807684 0.014091678005988147 0 0.028710017017018363 0.0130444517338878 0 0.029085789318455263 0.013471981958776028 0 0.028256358111300953 0.015016560363360762 0 0.028583523406807684 0.014091678005988147 0 0.025617508712804639 0.017376713321907076 0 0.027721417443427883 0.020033914867795221 0 0.028256358111300953 0.015016560363360762 0 0.024159798950747133 0.02037167113205287 0 0.025617508712804639 0.017376713321907076 0 0.027721417443427883 0.020033914867795221 0 0.023450228820620509 0.015376055022941159 0 0.025767289310758799 0.015197707805326765 0 0.025617508712804639 0.017376713321907076 0 0.025439470221295224 0.014302630493504076 0 0.028256358111300953 0.015016560363360762 0 0.025439470221295224 0.014302630493504076 0 0.028256358111300953 0.015016560363360762 0 0.028887619992512052 0.014366671498027356 0 0.028256358111300953 0.015016560363360762 0 0.028887619992512052 0.014366671498027356 0 0.028583523406807684 0.014091678005988147 0 0.022848183261892311 0.016071262508213193 0 0.023041362517794844 0.015404727791902063 0 0.022148045477760992 0.015425312135334761 0 0.021463415078369106 0.016271009966238967 0 0.022848183261892311 0.016071262508213193 0 0.022148045477760992 0.015425312135334761 0 0.021463415078369106 0.016271009966238967 0 0.022148045477760992 0.015425312135334761 0 0.021336610502018329 0.015422888313329467 0 0.023945370050533776 0.015546369616434897 0 0.023547249143894458 0.014934680973035146 0 0.024138371975029022 0.014932902790790693 0 0.023945370050533776 0.015546369616434897 0 0.02453787298395092 0.014904998811477985 0 0.024138371975029022 0.014932902790790693 0 0.022848183261892311 0.016071262508213193 0 0.023041362517794844 0.015404727791902063 0 0.023945370050533776 0.015546369616434897 0 0.023041362517794844 0.015404727791902063 0 0.023945370050533776 0.015546369616434897 0 0.023547249143894458 0.014934680973035146 0 0.028887619992512052 0.014366671498027356 0 0.028583523406807684 0.014091678005988147 0 0.027708570414813651 0.01453164387576515 0 0.028583523406807684 0.014091678005988147 0 0.027708570414813651 0.01453164387576515 0 0.027954839975148887 0.013542499560542433 0 0.025767289310758799 0.015197707805326765 0 0.025795529715273123 0.015025154330109196 0 0.027708570414813651 0.01453164387576515 0 0.026951950852185321 0.013150812039190303 0 0.027954839975148887 0.013542499560542433 0 0.026951950852185321 0.013150812039190303 0 0.027954839975148887 0.013542499560542433 0 0.027966374160620602 0.01229961086172421 0 0.028583523406807684 0.014091678005988147 0 0.027954839975148887 0.013542499560542433 0 0.028710017017018363 0.0130444517338878 0 0.027954839975148887 0.013542499560542433 0 0.028710017017018363 0.0130444517338878 0 0.027966374160620602 0.01229961086172421 0 0.028076759349462691 0.010742765940674111 0 0.029212247184865654 0.011413460125299587 0 0.027966374160620602 0.01229961086172421 0 0.029212247184865654 0.011413460125299587 0 0.028710017017018363 0.0130444517338878 0 0.027966374160620602 0.01229961086172421 0 0.026951950852185321 0.013150812039190303 0 0.027966374160620602 0.01229961086172421 0 0.027129590166215856 0.011599369596466425 0 0.028076759349462691 0.010742765940674111 0 0.027966374160620602 0.01229961086172421 0 0.027129590166215856 0.011599369596466425 0 0.026951950852185321 0.013150812039190303 0 0.027129590166215856 0.011599369596466425 0 0.025346366735961405 0.012126003965144856 0 0.027129590166215856 0.011599369596466425 0 0.025346366735961405 0.012126003965144856 0 0.026611839414154678 0.0099750638949370803 0 0.025945555540163166 0.011096713259203523 0 0.026578288831940331 0.010049838861616891 0 0.025945555540163166 0.011096713259203523 0 0.025470383676416301 0.012227517538327229 0 0.025346366735961405 0.012126003965144856 0 0.025624841955402849 0.013534373520321415 0 0.024776128990643728 0.013604889062462844 0 0.026951950852185321 0.013150812039190303 0 0.025346366735961405 0.012126003965144856 0 0.025624841955402849 0.013534373520321415 0 0.027708570414813651 0.01453164387576515 0 0.026951950852185321 0.013150812039190303 0 0.026049968541947594 0.014474237996037856 0 0.026951950852185321 0.013150812039190303 0 0.025624841955402849 0.013534373520321415 0 0.026049968541947594 0.014474237996037856 0 0.025795529715273123 0.015025154330109196 0 0.025264829654868044 0.014677386069645694 0 0.025624841955402849 0.013534373520321415 0 0.024805072337528739 0.014283366754131742 0 0.024776128990643728 0.013604889062462844 0 0.025624841955402849 0.013534373520321415 0 0.026049968541947594 0.014474237996037856 0 0.024805072337528739 0.014283366754131742 0 0.025264829654868044 0.014677386069645694 0 0.024817778982663918 0.014369248470695229 0 0.02453787298395092 0.014904998811477985 0 0.024805072337528739 0.014283366754131742 0 0.024700358191192706 0.01439274905978432 0 0.02453787298395092 0.014904998811477985 0 0.024447864771971039 0.014537700178271761 0 0.024700358191192706 0.01439274905978432 0 0.02453787298395092 0.014904998811477985 0 0.024447864771971039 0.014537700178271761 0 0.024138371975029022 0.014932902790790693 0 0.024800690386707892 0.014288134084783377 0 0.02474525783257148 0.014101923188929982 0 0.025000051311287606 0.012850459990483119 0 0.025630633343105162 0.011865544578372286 0 0.024999919940302286 0.011537791651077985 0 0.025000018119639887 0.012846431086855731 0 0.025166159212784683 0.013034498698999773 0 0.0250000060455043 0.012846700433270674 0 0.02474525783257148 0.014101923188929982 0 0.024805072337528739 0.014283366754131742 0 0.024700358191192706 0.01439274905978432 0 0.024800690386707892 0.014288134084783377 0 0.02474525783257148 0.014101923188929982 0 0.024805072337528739 0.014283366754131742 0 0.024800690386707892 0.014288134084783377 0 0.024805072337528739 0.014283366754131742 0 0.024776128990643728 0.013604889062462844 0 0.025630633343105162 0.011865544578372286 0 0.026132206014243577 0.010879358773152036 0 0.025524816389633567 0.010889130986980083 0 0.025166159212784683 0.013034498698999773 0 0.025470383676416301 0.012227517538327229 0 0.025630633343105162 0.011865544578372286 0 0.024999919940302286 0.011537791651077985 0 0.025524816389633567 0.010889130986980083 0 0.024999919940302286 0.011537791651077985 0 0.024999913170652435 0.010229305186249994 0 0.025524816389633567 0.010889130986980083 0 0.024999913170652435 0.010229305186249994 0 0.025524816389633567 0.010889130986980083 0 0.025809214776430337 0.010037947014722166 0 0.026132206014243577 0.010879358773152036 0 0.025524816389633567 0.010889130986980083 0 0.025809214776430337 0.010037947014722166 0 0.026473173365764251 0.010101932772438158 0 0.026132206014243577 0.010879358773152036 0 0.025809214776430337 0.010037947014722166 0 0.026473173365764251 0.010101932772438158 0 0.025809214776430337 0.010037947014722166 0 0.025902551139052727 0.0092647542607568866 0 0.024999913170652435 0.010229305186249994 0 0.025809214776430337 0.010037947014722166 0 0.024999897403464581 0.0089211207876238336 0 0.024999897403464581 0.0089211207876238336 0 0.025490511178999472 0.0084949194117530432 0 0.025902551139052727 0.0092647542607568866 0 0.025809214776430337 0.010037947014722166 0 0.024999897403464581 0.0089211207876238336 0 0.025902551139052727 0.0092647542607568866 0 0.024999897403464581 0.0089211207876238336 0 0.025490511178999472 0.0084949194117530432 0 0.024999794450373883 0.0076124896821469293 0 0.025490511178999472 0.0084949194117530432 0 0.024999794450373883 0.0076124896821469293 0 0.025628215010852124 0.007903183043221974 0 0.025490511178999472 0.0084949194117530432 0 0.025973884795213547 0.0085272511935452454 0 0.025902551139052727 0.0092647542607568866 0 0.025490511178999472 0.0084949194117530432 0 0.025973884795213547 0.0085272511935452454 0 0.025628215010852124 0.007903183043221974 0 0.025973884795213547 0.0085272511935452454 0 0.025902551139052727 0.0092647542607568866 0 0.026339383787592409 0.009303548745189627 0 0.026473173365764251 0.010101932772438158 0 0.026339383787592409 0.009303548745189627 0 0.026611839414154678 0.0099750638949370803 0 0.026473173365764251 0.010101932772438158 0 0.025902551139052727 0.0092647542607568866 0 0.026339383787592409 0.009303548745189627 0 0.026339383787592409 0.009303548745189627 0 0.026611839414154678 0.0099750638949370803 0 0.02691723850074406 0.0087256741601289579 0 0.025973884795213547 0.0085272511935452454 0 0.026339383787592409 0.009303548745189627 0 0.026421402045891468 0.0082829546410977846 0 0.026339383787592409 0.009303548745189627 0 0.02691723850074406 0.0087256741601289579 0 0.026421402045891468 0.0082829546410977846 0 0.025973884795213547 0.0085272511935452454 0 0.026421402045891468 0.0082829546410977846 0 0.026042226496052267 0.0076788165376939785 0 0.026421402045891468 0.0082829546410977846 0 0.026456073669766014 0.0076092728779741875 0 0.026807449675203182 0.0079601553480343271 0 0.026421402045891468 0.0082829546410977846 0 0.026456073669766014 0.0076092728779741875 0 0.026042226496052267 0.0076788165376939785 0 0.027453799547526126 0.0080220907046418075 0 0.02691723850074406 0.0087256741601289579 0 0.026807449675203182 0.0079601553480343271 0 0.02691723850074406 0.0087256741601289579 0 0.026421402045891468 0.0082829546410977846 0 0.026807449675203182 0.0079601553480343271 0 0.026456073669766014 0.0076092728779741875 0 0.026807449675203182 0.0079601553480343271 0 0.026858255123855868 0.0072402740082287351 0 0.027453799547526126 0.0080220907046418075 0 0.026807449675203182 0.0079601553480343271 0 0.026858255123855868 0.0072402740082287351 0 0.027242435555210526 0.0064249969995373466 0 0.026751890719205671 0.0068658647153466553 0 0.026939874872458032 0.0059185363798404797 0 0.026818127934140609 0.0059674293586302494 0 0.0267735455917847 0.0059159999529365733 0 0.027346353992350681 0.0080700462653656452 0 0.026751890719205671 0.0068658647153466553 0 0.026751890719205671 0.0068658647153466553 0 0.026438106734546881 0.0055888579347515262 0 0.026751890719205671 0.0068658647153466553 0 0.026176346497496804 0.0071409715258928114 0 0.026438106734546881 0.0055888579347515262 0 0.026068954237185884 0.0065446612344743577 0 0.026456073669766014 0.0076092728779741875 0 0.026858255123855868 0.0072402740082287351 0 0.026068655280190835 0.007086123798325252 0 0.026689104246306893 0.0067477297589899022 0 0.026068655280190835 0.007086123798325252 0 0.025791460003047988 0.0067015320586772372 0 0.026959198558147983 0.00705338623846431 0 0.026689104246306893 0.0067477297589899022 0 0.026068655280190835 0.007086123798325252 0 0.026456073669766014 0.0076092728779741875 0 0.026068655280190835 0.007086123798325252 0 0.026042226496052267 0.0076788165376939785 0 0.026068655280190835 0.007086123798325252 0 0.025596990098949314 0.007201683381130447 0 0.026042226496052267 0.0076788165376939785 0 0.026068655280190835 0.007086123798325252 0 0.025596990098949314 0.007201683381130447 0 0.025791460003047988 0.0067015320586772372 0 0.025596990098949314 0.007201683381130447 0 0.024999878785425166 0.0063044158233091134 0 0.024999794450373883 0.0076124896821469293 0 0.026068954237185884 0.0065446612344743577 0 0.024999990889517796 0.006303751329458842 0 0.025596990098949314 0.007201683381130447 0 0.025791460003047988 0.0067015320586772372 0 0.024999878785425166 0.0063044158233091134 0 0.025596990098949314 0.007201683381130447 0 0.024999794450373883 0.0076124896821469293 0 0.025628215010852124 0.007903183043221974 0 0.025973884795213547 0.0085272511935452454 0 0.025628215010852124 0.007903183043221974 0 0.026042226496052267 0.0076788165376939785 0 0.025596990098949314 0.007201683381130447 0 0.025628215010852124 0.007903183043221974 0 0.026042226496052267 0.0076788165376939785 0 0.02400076699015562 0.015254088515050522 0 0.023962347630849201 0.015261205047167322 0 0.023843820356520103 0.015315131846801347 0 0.023962347630849201 0.015261205047167322 0 0.023964185483756461 0.015247477081023815 0 0.024142890699208743 0.015239547695238874 0 0.02400076699015562 0.015254088515050522 0 0.023962347630849201 0.015261205047167322 0 0.024142890699208743 0.015239547695238874 0 0.02400076699015562 0.015254088515050522 0 0.024197242458346344 0.01518191132757081 0 0.024142890699208743 0.015239547695238874 0 0.02400076699015562 0.015254088515050522 0 0.024197242458346344 0.01518191132757081 0 0.023809097858048054 0.015351570057540299 0 0.025531333684042753 0.017306877670495619 0 0.025000156543326844 0.017844652808965397 0 0.02556321564502571 0.018645123302753017 0 0.025531333684042753 0.017306877670495619 0 0.025000156543326844 0.017844652808965397 0 0.024999531211439288 0.016594048849655849 0 0.025000156543326844 0.017844652808965397 0 0.02556321564502571 0.018645123302753017 0 0.024999909147311674 0.019093538782325649 0 0.024866089918002845 0.016315776747699157 0 0.024707096808932672 0.016847018545476732 0 0.023809097858048054 0.015351570057540299 0 0.023843820356520103 0.015315131846801347 0 0.02372764044555668 0.015366695521219218 0 0.02400076699015562 0.015254088515050522 0 0.023809097858048054 0.015351570057540299 0 0.023843820356520103 0.015315131846801347 0 0.023843820356520103 0.015315131846801347 0 0.02365878720851676 0.015375322869041122 0 0.02372764044555668 0.015366695521219218 0 0.023720499022822458 0.015342004880162699 0 0.023600344068466846 0.015373478104634799 0 0.023528410662632573 0.015408774863723015 0 0.023843820356520103 0.015315131846801347 0 0.023720499022822458 0.015342004880162699 0 0.02365878720851676 0.015375322869041122 0 0.023720499022822458 0.015342004880162699 0 0.023528410662632573 0.015408774863723015 0 0.02365878720851676 0.015375322869041122 0 0.023720499022822458 0.015342004880162699 0 0.023600344068466846 0.015373478104634799 0 0.023744188093457942 0.015308802212518898 0 0.023962347630849201 0.015261205047167322 0 0.023843820356520103 0.015315131846801347 0 0.023720499022822458 0.015342004880162699 0 0.023457325459964023 0.015429052609111295 0 0.023600344068466846 0.015373478104634799 0 0.023528410662632573 0.015408774863723015 0 0.023457325459964023 0.015429052609111295 0 0.023298833083937397 0.015489399931809851 0 0.023341809007921384 0.015464145417608306 0 0.023457325459964023 0.015429052609111295 0 0.023501941107224152 0.015393823554638286 0 0.023298833083937397 0.015489399931809851 0 0.023457325459964023 0.015429052609111295 0 0.023600344068466846 0.015373478104634799 0 0.023501941107224152 0.015393823554638286 0 0.023501941107224152 0.015393823554638286 0 0.023730409665423762 0.015254884805306384 0 0.023505636308494487 0.01533800153838424 0 0.023501941107224152 0.015393823554638286 0 0.023744188093457942 0.015308802212518898 0 0.023730409665423762 0.015254884805306384 0 0.023600344068466846 0.015373478104634799 0 0.023501941107224152 0.015393823554638286 0 0.023744188093457942 0.015308802212518898 0 0.023962347630849201 0.015261205047167322 0 0.023720499022822458 0.015342004880162699 0 0.023744188093457942 0.015308802212518898 0 0.023744188093457942 0.015308802212518898 0 0.023964185483756461 0.015247477081023815 0 0.023730409665423762 0.015254884805306384 0 0.023962347630849201 0.015261205047167322 0 0.023744188093457942 0.015308802212518898 0 0.023964185483756461 0.015247477081023815 0 0.023964185483756461 0.015247477081023815 0 0.023730409665423762 0.015254884805306384 0 0.024055537773783425 0.015183795260784215 0 0.023964185483756461 0.015247477081023815 0 0.024055537773783425 0.015183795260784215 0 0.02422763538513938 0.015263329302262119 0 0.023730409665423762 0.015254884805306384 0 0.023702545292816443 0.015116781600418563 0 0.024055537773783425 0.015183795260784215 0 0.023730409665423762 0.015254884805306384 0 0.023702545292816443 0.015116781600418563 0 0.023505636308494487 0.01533800153838424 0 0.023702545292816443 0.015116781600418563 0 0.02406561778298303 0.015058752789717179 0 0.024055537773783425 0.015183795260784215 0 0.023702545292816443 0.015116781600418563 0 0.02406561778298303 0.015058752789717179 0 0.02388961170061946 0.014930663907669435 0 0.024055537773783425 0.015183795260784215 0 0.024522411312070495 0.015295579544530291 0 0.02422763538513938 0.015263329302262119 0 0.024055537773783425 0.015183795260784215 0 0.024522411312070495 0.015295579544530291 0 0.024419502088567007 0.0150480997616092 0 0.02406561778298303 0.015058752789717179 0 0.024055537773783425 0.015183795260784215 0 0.024419502088567007 0.0150480997616092 0 0.024522411312070495 0.015295579544530291 0 0.024395974942251115 0.015331544811575977 0 0.025021658598145039 0.015668753270702145 0 0.024522411312070495 0.015295579544530291 0 0.02422763538513938 0.015263329302262119 0 0.024395974942251115 0.015331544811575977 0 0.02422763538513938 0.015263329302262119 0 0.024395974942251115 0.015331544811575977 0 0.024142890699208743 0.015239547695238874 0 0.024197242458346344 0.01518191132757081 0 0.024395974942251115 0.015331544811575977 0 0.024142890699208743 0.015239547695238874 0 0.023964185483756461 0.015247477081023815 0 0.02422763538513938 0.015263329302262119 0 0.024142890699208743 0.015239547695238874 0 0.024866089918002845 0.016315776747699157 0 0.024994141952976365 0.01574772853235834 0 0.024197242458346344 0.01518191132757081 0 0.024395974942251115 0.015331544811575977 0 0.025021658598145039 0.015668753270702145 0 0.025531333684042753 0.017306877670495619 0 0.024999531211439288 0.016594048849655849 0 0.025021658598145039 0.015668753270702145 0 0.024999531211439288 0.016594048849655849 0 0.025021658598145039 0.015668753270702145 0 0.024999470717672868 0.01534518859306949 0 0.024522411312070495 0.015295579544530291 0 0.025021658598145039 0.015668753270702145 0 0.024911839209537785 0.015225827991453241 0 0.025021658598145039 0.015668753270702145 0 0.024999470717672868 0.01534518859306949 0 0.024911839209537785 0.015225827991453241 0 0.024999470717672868 0.01534518859306949 0 0.024911839209537785 0.015225827991453241 0 0.024965664413504195 0.014659845968127297 0 0.024522411312070495 0.015295579544530291 0 0.024911839209537785 0.015225827991453241 0 0.024748462440265309 0.014930524343585572 0 0.024522411312070495 0.015295579544530291 0 0.024748462440265309 0.014930524343585572 0 0.024419502088567007 0.0150480997616092 0 0.024911839209537785 0.015225827991453241 0 0.024748462440265309 0.014930524343585572 0 0.024965664413504195 0.014659845968127297 0 0.024748462440265309 0.014930524343585572 0 0.024734894916771701 0.014473894793821173 0 0.024965664413504195 0.014659845968127297 0 0.024734894916771701 0.014473894793821173 0 0.024965664413504195 0.014659845968127297 0 0.02497504457249047 0.014086356405233607 0 0.024999228882228212 0.014095525464604294 0 0.024965664413504195 0.014659845968127297 0 0.02497504457249047 0.014086356405233607 0 0.024999470717672868 0.01534518859306949 0 0.024999228882228212 0.014095525464604294 0 0.024965664413504195 0.014659845968127297 0 0.024999228882228212 0.014095525464604294 0 0.02497504457249047 0.014086356405233607 0 0.025000051311287606 0.012850459990483119 0 0.024734894916771701 0.014473894793821173 0 0.02497504457249047 0.014086356405233607 0 0.02484035173470495 0.014063185872792807 0 0.02474525783257148 0.014101923188929982 0 0.02484035173470495 0.014063185872792807 0 0.025000051311287606 0.012850459990483119 0 0.02474525783257148 0.014101923188929982 0 0.02484035173470495 0.014063185872792807 0 0.024700358191192706 0.01439274905978432 0 0.02497504457249047 0.014086356405233607 0 0.02484035173470495 0.014063185872792807 0 0.025000051311287606 0.012850459990483119 0 0.024447864771971039 0.014537700178271761 0 0.024700358191192706 0.01439274905978432 0 0.024666133187620998 0.014356576761884074 0 0.02484035173470495 0.014063185872792807 0 0.024700358191192706 0.01439274905978432 0 0.024666133187620998 0.014356576761884074 0 0.024734894916771701 0.014473894793821173 0 0.02484035173470495 0.014063185872792807 0 0.024666133187620998 0.014356576761884074 0 0.024734894916771701 0.014473894793821173 0 0.024666133187620998 0.014356576761884074 0 0.024466485478249266 0.01445236742658336 0 0.024447864771971039 0.014537700178271761 0 0.024466485478249266 0.01445236742658336 0 0.024083904910545833 0.014528682684612503 0 0.024447864771971039 0.014537700178271761 0 0.024666133187620998 0.014356576761884074 0 0.024466485478249266 0.01445236742658336 0 0.024466485478249266 0.01445236742658336 0 0.024410070323611532 0.014848617148336657 0 0.02419150334626723 0.014213162203271191 0 0.024317977991208523 0.014835284665950665 0 0.023878833623198471 0.01482534204064615 0 0.024410070323611532 0.014848617148336657 0 0.02388961170061946 0.014930663907669435 0 0.023654764816733627 0.01540604061920995 0 0.024748462440265309 0.014930524343585572 0 0.024734894916771701 0.014473894793821173 0 0.024410070323611532 0.014848617148336657 0 0.024734894916771701 0.014473894793821173 0 0.024466485478249266 0.01445236742658336 0 0.024410070323611532 0.014848617148336657 0 0.024748462440265309 0.014930524343585572 0 0.024410070323611532 0.014848617148336657 0 0.024419502088567007 0.0150480997616092 0 0.02406561778298303 0.015058752789717179 0 0.024410070323611532 0.014848617148336657 0 0.024419502088567007 0.0150480997616092 0 0.02406561778298303 0.015058752789717179 0 0.024410070323611532 0.014848617148336657 0 0.02388961170061946 0.014930663907669435 0 0.02388961170061946 0.014930663907669435 0 0.023374583950787155 0.014773635566830102 0 0.023654764816733627 0.01540604061920995 0 0.022685991689793166 0.015053408165673944 0 0.023374583950787155 0.014773635566830102 0 0.023654764816733627 0.01540604061920995 0 0.022685991689793166 0.015053408165673944 0 0.023374583950787155 0.014773635566830102 0 0.022010518913059815 0.014317483675853591 0 0.022685991689793166 0.015053408165673944 0 0.023654764816733627 0.01540604061920995 0 0.022640960353960085 0.015683516249704422 0 0.023878833623198471 0.01482534204064615 0 0.022943221653041079 0.014900768062753459 0 0.02419150334626723 0.014213162203271191 0 0.024083904910545833 0.014528682684612503 0 0.023260257574894749 0.014122140428624976 0 0.024466485478249266 0.01445236742658336 0 0.02419150334626723 0.014213162203271191 0 0.024083904910545833 0.014528682684612503 0 0.024083904910545833 0.014528682684612503 0 0.023260257574894749 0.014122140428624976 0 0.023547249143894458 0.014934680973035146 0 0.023260257574894749 0.014122140428624976 0 0.023547249143894458 0.014934680973035146 0 0.022780667868138503 0.014820584300587606 0 0.023041362517794844 0.015404727791902063 0 0.023547249143894458 0.014934680973035146 0 0.022780667868138503 0.014820584300587606 0 0.024083904910545833 0.014528682684612503 0 0.023547249143894458 0.014934680973035146 0 0.024138371975029022 0.014932902790790693 0 0.024447864771971039 0.014537700178271761 0 0.024083904910545833 0.014528682684612503 0 0.024138371975029022 0.014932902790790693 0 0.022148045477760992 0.015425312135334761 0 0.021336610502018329 0.015422888313329467 0 0.021999264769266884 0.014417400671232176 0 0.021336610502018329 0.015422888313329467 0 0.021999264769266884 0.014417400671232176 0 0.02072312304778013 0.015267729461562974 0 0.023041362517794844 0.015404727791902063 0 0.022148045477760992 0.015425312135334761 0 0.022780667868138503 0.014820584300587606 0 0.022148045477760992 0.015425312135334761 0 0.022780667868138503 0.014820584300587606 0 0.021999264769266884 0.014417400671232176 0 0.022943221653041079 0.014900768062753459 0 0.021774496232757734 0.015048202595357897 0 0.023260257574894749 0.014122140428624976 0 0.022780667868138503 0.014820584300587606 0 0.021999264769266884 0.014417400671232176 0 0.02182057878566861 0.015020695191371319 0 0.021204149119741913 0.014643639021967032 0 0.021060018675381272 0.015196283469325849 0 0.021488461411594346 0.015671055352055874 0 0.02182057878566861 0.015020695191371319 0 0.021060018675381272 0.015196283469325849 0 0.022685991689793166 0.015053408165673944 0 0.022640960353960085 0.015683516249704422 0 0.02182057878566861 0.015020695191371319 0 0.022640960353960085 0.015683516249704422 0 0.021488461411594346 0.015671055352055874 0 0.02182057878566861 0.015020695191371319 0 0.022685991689793166 0.015053408165673944 0 0.02182057878566861 0.015020695191371319 0 0.022010518913059815 0.014317483675853591 0 0.021204149119741913 0.014643639021967032 0 0.022010518913059815 0.014317483675853591 0 0.021067640059727638 0.014000705965882187 0 0.02182057878566861 0.015020695191371319 0 0.021204149119741913 0.014643639021967032 0 0.022010518913059815 0.014317483675853591 0 0.021750549429296741 0.013256612452977561 0 0.022010518913059815 0.014317483675853591 0 0.021067640059727638 0.014000705965882187 0 0.021750549429296741 0.013256612452977561 0 0.021854945942492099 0.012364155846188314 0 0.021049365319394938 0.013180356062081525 0 0.021750549429296741 0.013256612452977561 0 0.021049365319394938 0.013180356062081525 0 0.021067640059727638 0.014000705965882187 0 0.021750549429296741 0.013256612452977561 0 0.022548852863703409 0.01339314941645588 0 0.021854945942492099 0.012364155846188314 0 0.021750549429296741 0.013256612452977561 0 0.022548852863703409 0.01339314941645588 0 0.022010518913059815 0.014317483675853591 0 0.023374583950787155 0.014773635566830102 0 0.023363245210922784 0.015340362165686315 0 0.023400609909501897 0.015306789932096148 0 0.023368427502210003 0.01482090444042709 0 0.022874659377224146 0.01418622590373664 0 0.023374583950787155 0.014773635566830102 0 0.022548852863703409 0.01339314941645588 0 0.022010518913059815 0.014317483675853591 0 0.023702545292816443 0.015116781600418563 0 0.023374583950787155 0.014773635566830102 0 0.023400609909501897 0.015306789932096148 0 0.023702545292816443 0.015116781600418563 0 0.02388961170061946 0.014930663907669435 0 0.023374583950787155 0.014773635566830102 0 0.023702545292816443 0.015116781600418563 0 0.023400609909501897 0.015306789932096148 0 0.023505636308494487 0.01533800153838424 0 0.023363245210922784 0.015340362165686315 0 0.023400609909501897 0.015306789932096148 0 0.023120522197152979 0.015541222458565446 0 0.023216050731670795 0.015515319173783716 0 0.022920041877057554 0.015652672410631792 0 0.023120522197152979 0.015541222458565446 0 0.023400609909501897 0.015306789932096148 0 0.023216050731670795 0.015515319173783716 0 0.023120522197152979 0.015541222458565446 0 0.023501941107224152 0.015393823554638286 0 0.023216050731670795 0.015515319173783716 0 0.023505636308494487 0.01533800153838424 0 0.023400609909501897 0.015306789932096148 0 0.023216050731670795 0.015515319173783716 0 0.023505636308494487 0.01533800153838424 0 0.023501941107224152 0.015393823554638286 0 0.023216050731670795 0.015515319173783716 0 0.023298833083937397 0.015489399931809851 0 0.023216050731670795 0.015515319173783716 0 0.023298833083937397 0.015489399931809851 0 0.023105863240946663 0.015564674927911816 0 0.023216050731670795 0.015515319173783716 0 0.022948863127792301 0.015631128917781189 0 0.022920041877057554 0.015652672410631792 0 0.023216050731670795 0.015515319173783716 0 0.023105863240946663 0.015564674927911816 0 0.022948863127792301 0.015631128917781189 0 0.02273982957103244 0.015695273083866097 0 0.022920041877057554 0.015652672410631792 0 0.022662156432700108 0.015716463941272435 0 0.022948863127792301 0.015631128917781189 0 0.02273982957103244 0.015695273083866097 0 0.022920041877057554 0.015652672410631792 0 0.022920041877057554 0.015652672410631792 0 0.022829479712275814 0.015690488006556112 0 0.022763269055788262 0.015699772123314772 0 0.022920041877057554 0.015652672410631792 0 0.022829479712275814 0.015690488006556112 0 0.022904408192933493 0.015665538242697567 0 0.022920041877057554 0.015652672410631792 0 0.022763269055788262 0.015699772123314772 0 0.022662156432700108 0.015716463941272435 0 0.022712543916455736 0.015723361108074659 0 0.022684247592541441 0.015717649060432555 0 0.022517289941932726 0.015733954635219038 0 0.022712543916455736 0.015723361108074659 0 0.022790931188589558 0.015712729208469643 0 0.022826303481578703 0.015724052668566062 0 0.022757438481630698 0.015709611705018649 0 0.022712543916455736 0.015723361108074659 0 0.022790931188589558 0.015712729208469643 0 0.022757438481630698 0.015709611705018649 0 0.022790931188589558 0.015712729208469643 0 0.022829479712275814 0.015690488006556112 0 0.022757438481630698 0.015709611705018649 0 0.022829479712275814 0.015690488006556112 0 0.022763269055788262 0.015699772123314772 0 0.022763269055788262 0.015699772123314772 0 0.022684247592541441 0.015717649060432555 0 0.022662156432700108 0.015716463941272435 0 0.022757438481630698 0.015709611705018649 0 0.022763269055788262 0.015699772123314772 0 0.022684247592541441 0.015717649060432555 0 0.022757438481630698 0.015709611705018649 0 0.022712543916455736 0.015723361108074659 0 0.022684247592541441 0.015717649060432555 0 0.022684247592541441 0.015717649060432555 0 0.022662156432700108 0.015716463941272435 0 0.022517289941932726 0.015733954635219038 0 0.02273982957103244 0.015695273083866097 0 0.022662156432700108 0.015716463941272435 0 0.02246296523050588 0.015745551144336265 0 0.022662156432700108 0.015716463941272435 0 0.022517289941932726 0.015733954635219038 0 0.02246296523050588 0.015745551144336265 0 0.022465422770570852 0.014828400331471897 0 0.022193819951222681 0.016161066888627527 0 0.022712543916455736 0.015723361108074659 0 0.022517289941932726 0.015733954635219038 0 0.022052644754546498 0.015761635766531935 0 0.022273320643143871 0.016220238719227183 0 0.021931974523564015 0.016076030471219634 0 0.022052644754546498 0.015761635766531935 0 0.022712543916455736 0.015723361108074659 0 0.022826303481578703 0.015724052668566062 0 0.022052644754546498 0.015761635766531935 0 0.022273320643143871 0.016220238719227183 0 0.021931974523564015 0.016076030471219634 0 0.021932114957736885 0.016540414720526222 0 0.022465422770570852 0.014828400331471897 0 0.02021087979828599 0.015493581500868461 0 0.022874659377224146 0.01418622590373664 0 0.022465422770570852 0.014828400331471897 0 0.023363245210922784 0.015340362165686315 0 0.023120522197152979 0.015541222458565446 0 0.022826303481578703 0.015724052668566062 0 0.022920041877057554 0.015652672410631792 0 0.023120522197152979 0.015541222458565446 0 0.022904408192933493 0.015665538242697567 0 0.022829479712275814 0.015690488006556112 0 0.022904408192933493 0.015665538242697567 0 0.022826303481578703 0.015724052668566062 0 0.023120522197152979 0.015541222458565446 0 0.022904408192933493 0.015665538242697567 0 0.022826303481578703 0.015724052668566062 0 0.022790931188589558 0.015712729208469643 0 0.022829479712275814 0.015690488006556112 0 0.022826303481578703 0.015724052668566062 0 0.016978086828421623 0.01849216860573789 0 0.016970957550203648 0.019159279733983379 0 0.017362896796228378 0.019043883756708759 0 0.016978086828421623 0.01849216860573789 0 0.017362896796228378 0.019043883756708759 0 0.018586396864541554 0.0175123067740274 0 0.019013016552142659 0.017948526874966512 0 0.02021087979828599 0.015493581500868461 0 0.016978086828421623 0.01849216860573789 0 0.016370333518610662 0.019135704070058115 0 0.016042330594913078 0.017792707481328256 0 0.016370333518610662 0.019135704070058115 0 0.016970957550203648 0.019159279733983379 0 0.016844205981099668 0.019534505011638767 0 0.016978086828421623 0.01849216860573789 0 0.016370333518610662 0.019135704070058115 0 0.016970957550203648 0.019159279733983379 0 0.016970957550203648 0.019159279733983379 0 0.017362896796228378 0.019043883756708759 0 0.017207336322928361 0.019484887139879583 0 0.016970957550203648 0.019159279733983379 0 0.017207336322928361 0.019484887139879583 0 0.016844205981099668 0.019534505011638767 0 0.017187112634209797 0.019263492165296173 0 0.017362896796228378 0.019043883756708759 0 0.017384920899178754 0.019477322236632448 0 0.017362896796228378 0.019043883756708759 0 0.017384920899178754 0.019477322236632448 0 0.017207336322928361 0.019484887139879583 0 0.017187112634209797 0.019263492165296173 0 0.016907836912644716 0.019058401473938159 0 0.017010973701027318 0.019249049327327006 0 0.017187112634209797 0.019263492165296173 0 0.016907836912644716 0.019058401473938159 0 0.017362896796228378 0.019043883756708759 0 0.017407092317674688 0.018927267384934422 0 0.017649668375661225 0.018037331004736149 0 0.016907836912644716 0.019058401473938159 0 0.017362896796228378 0.019043883756708759 0 0.016681545737434675 0.018799056870520955 0 0.016681545737434675 0.018799056870520955 0 0.016620285536347278 0.018708954826620116 0 0.016519055560878525 0.018571493392787006 0 0.016907836912644716 0.019058401473938159 0 0.016681545737434675 0.018799056870520955 0 0.016620285536347278 0.018708954826620116 0 0.016519055560878525 0.018571493392787006 0 0.016322085125120709 0.0183637271725095 0 0.016469746188426851 0.018469390419236981 0 0.016620285536347278 0.018708954826620116 0 0.016519055560878525 0.018571493392787006 0 0.016322085125120709 0.0183637271725095 0 0.016681545737434675 0.018799056870520955 0 0.016519055560878525 0.018571493392787006 0 0.016469746188426851 0.018469390419236981 0 0.018586396864541554 0.0175123067740274 0 0.018430216363306828 0.016316146354603388 0 0.019552339060077278 0.015333426459901418 0 0.017649668375661225 0.018037331004736149 0 0.018041265007732506 0.017126386628760319 0 0.018430216363306828 0.016316146354603388 0 0.017254723516957143 0.01623342733113179 0 0.019458479780027953 0.01487211782606571 0 0.018430216363306828 0.016316146354603388 0 0.017254723516957143 0.01623342733113179 0 0.017026105382033196 0.017515262059149491 0 0.018586396864541554 0.0175123067740274 0 0.018430216363306828 0.016316146354603388 0 0.017026105382033196 0.017515262059149491 0 0.016978086828421623 0.01849216860573789 0 0.018586396864541554 0.0175123067740274 0 0.017026105382033196 0.017515262059149491 0 0.017254723516957143 0.01623342733113179 0 0.017026105382033196 0.017515262059149491 0 0.016042330594913078 0.017792707481328256 0 0.018528049447484204 0.015233153983226895 0 0.02021087979828599 0.015493581500868461 0 0.016978086828421623 0.01849216860573789 0 0.017026105382033196 0.017515262059149491 0 0.016042330594913078 0.017792707481328256 0 0.02021087979828599 0.015493581500868461 0 0.021076623762557024 0.013137096673172362 0 0.020295380337530471 0.0139593655132718 0 0.021018456461245373 0.013278000871101286 0 0.021067640059727638 0.014000705965882187 0 0.020295380337530471 0.0139593655132718 0 0.021067640059727638 0.014000705965882187 0 0.020658183608401434 0.014411527429358634 0 0.021204149119741913 0.014643639021967032 0 0.021067640059727638 0.014000705965882187 0 0.020658183608401434 0.014411527429358634 0 0.021204149119741913 0.014643639021967032 0 0.020658183608401434 0.014411527429358634 0 0.020515635289253226 0.014879931015019835 0 0.018528049447484204 0.015233153983226895 0 0.019452328240718703 0.014815097966824946 0 0.020295380337530471 0.0139593655132718 0 0.020182321121033717 0.014621024468000255 0 0.019458479780027953 0.01487211782606571 0 0.020295380337530471 0.0139593655132718 0 0.020658183608401434 0.014411527429358634 0 0.020182321121033717 0.014621024468000255 0 0.020658183608401434 0.014411527429358634 0 0.020182321121033717 0.014621024468000255 0 0.020515635289253226 0.014879931015019835 0 0.020182321121033717 0.014621024468000255 0 0.019878606974063091 0.01492530770174047 0 0.020515635289253226 0.014879931015019835 0 0.020182321121033717 0.014621024468000255 0 0.019878606974063091 0.01492530770174047 0 0.019458479780027953 0.01487211782606571 0 0.019878606974063091 0.01492530770174047 0 0.020069027094649347 0.015062224102980528 0 0.020515635289253226 0.014879931015019835 0 0.020069027094649347 0.015062224102980528 0 0.020515635289253226 0.014879931015019835 0 0.020550399136500364 0.015152451886307351 0 0.021204149119741913 0.014643639021967032 0 0.020515635289253226 0.014879931015019835 0 0.021060018675381272 0.015196283469325849 0 0.020515635289253226 0.014879931015019835 0 0.021060018675381272 0.015196283469325849 0 0.020550399136500364 0.015152451886307351 0 0.021060018675381272 0.015196283469325849 0 0.020550399136500364 0.015152451886307351 0 0.02072312304778013 0.015267729461562974 0 0.021488461411594346 0.015671055352055874 0 0.021060018675381272 0.015196283469325849 0 0.02072312304778013 0.015267729461562974 0 0.021774496232757734 0.015048202595357897 0 0.020857324634905503 0.015245752070532553 0 0.020069027094649347 0.015062224102980528 0 0.020550399136500364 0.015152451886307351 0 0.02031897187144471 0.015261547662897239 0 0.020069027094649347 0.015062224102980528 0 0.02031897187144471 0.015261547662897239 0 0.019954869060636263 0.015350702147112302 0 0.020550399136500364 0.015152451886307351 0 0.02031897187144471 0.015261547662897239 0 0.02072312304778013 0.015267729461562974 0 0.020085866409636378 0.015811296362141267 0 0.020328041982630062 0.015457778105450185 0 0.019954869060636263 0.015350702147112302 0 0.02031897187144471 0.015261547662897239 0 0.020328041982630062 0.015457778105450185 0 0.02072312304778013 0.015267729461562974 0 0.02031897187144471 0.015261547662897239 0 0.020328041982630062 0.015457778105450185 0 0.019954869060636263 0.015350702147112302 0 0.02083399025610656 0.015791398284572187 0 0.020328041982630062 0.015457778105450185 0 0.02072312304778013 0.015267729461562974 0 0.02083399025610656 0.015791398284572187 0 0.021336610502018329 0.015422888313329467 0 0.02072312304778013 0.015267729461562974 0 0.016849818636970937 0.01568087707931564 0 0.016059759010029599 0.016152703922766468 0 0.016405782709365564 0.015994346531204174 0 0.016479418203715072 0.016537910053936029 0 0.016849818636970937 0.01568087707931564 0 0.016405782709365564 0.015994346531204174 0 0.016849818636970937 0.01568087707931564 0 0.018178303640061004 0.015081109840639527 0 0.017330764150272591 0.013654452744249274 0 0.016746414095619611 0.015690600434639216 0 0.016743143011247894 0.01480293360157039 0 0.020047626866422367 0.015913138887743029 0 0.019411414157187404 0.014406041069774445 0 0.018408043928081087 0.015952050565547757 0 0.016849818636970937 0.01568087707931564 0 0.018178303640061004 0.015081109840639527 0 0.020085866409636378 0.015811296362141267 0 0.018178303640061004 0.015081109840639527 0 0.018736872956043382 0.014151213542145331 0 0.018178303640061004 0.015081109840639527 0 0.018736872956043382 0.014151213542145331 0 0.017330764150272591 0.013654452744249274 0 0.020069027094649347 0.015062224102980528 0 0.019954869060636263 0.015350702147112302 0 0.019615911120523261 0.014867666838496595 0 0.019411414157187404 0.014406041069774445 0 0.017338286298954803 0.015597898594859643 0 0.018736872956043382 0.014151213542145331 0 0.017330764150272591 0.013654452744249274 0 0.017629628403615302 0.012004777974781352 0 0.016059759010029599 0.016152703922766468 0 0.016086305848318914 0.016407418247615903 0 0.016405782709365564 0.015994346531204174 0 0.016743143011247894 0.01480293360157039 0 0.017338286298954803 0.015597898594859643 0 0.016059759010029599 0.016152703922766468 0 0.016086305848318914 0.016407418247615903 0 0.015597470251829325 0.016742327409532728 0 0.015597470251829325 0.016742327409532728 0 0.01568977185041933 0.017447126125537948 0 0.016070770550536021 0.016866523860808107 0 0.016086305848318914 0.016407418247615903 0 0.015597470251829325 0.016742327409532728 0 0.016070770550536021 0.016866523860808107 0 0.017338286298954803 0.015597898594859643 0 0.016202630045310296 0.018139878624430717 0 0.01568977185041933 0.017447126125537948 0 0.016140401199378554 0.017459180539895744 0 0.016070770550536021 0.016866523860808107 0 0.019878606974063091 0.01492530770174047 0 0.019615911120523261 0.014867666838496595 0 0.019458479780027953 0.01487211782606571 0 0.019878606974063091 0.01492530770174047 0 0.020069027094649347 0.015062224102980528 0 0.019615911120523261 0.014867666838496595 0 0.017338286298954803 0.015597898594859643 0 0.018041265007732506 0.017126386628760319 0 0.018430216363306828 0.016316146354603388 0 0.019552339060077278 0.015333426459901418 0 0.019458479780027953 0.01487211782606571 0 0.019615911120523261 0.014867666838496595 0 0.019552339060077278 0.015333426459901418 0 0.019458479780027953 0.01487211782606571 0 0.016424074795361981 0.018456980157110434 0 0.016469746188426851 0.018469390419236981 0 0.016413037891731895 0.018472876713686085 0 0.016322085125120709 0.0183637271725095 0 0.01568977185041933 0.017447126125537948 0 0.016140401199378554 0.017459180539895744 0 0.016322085125120709 0.0183637271725095 0 0.016469746188426851 0.018469390419236981 0 0.016413037891731895 0.018472876713686085 0 0.016236969110191336 0.018238805532615893 0 0.016202630045310296 0.018139878624430717 0 0.016322085125120709 0.0183637271725095 0 0.016326303384362958 0.017832103764887444 0 0.016140401199378554 0.017459180539895744 0 0.016326303384362958 0.017832103764887444 0 0.016140401199378554 0.017459180539895744 0 0.016244880438624872 0.016980365570816711 0 0.016326303384362958 0.017832103764887444 0 0.016539585451466835 0.017631031033202346 0 0.016244880438624872 0.016980365570816711 0 0.016326303384362958 0.017832103764887444 0 0.016539585451466835 0.017631031033202346 0 0.016296999874506689 0.018553415507752746 0 0.016244880438624872 0.016980365570816711 0 0.016091016008278759 0.016348928755573755 0 0.01669062204149931 0.017110307579274443 0 0.016539585451466835 0.017631031033202346 0 0.016244880438624872 0.016980365570816711 0 0.01669062204149931 0.017110307579274443 0 0.016140401199378554 0.017459180539895744 0 0.016244880438624872 0.016980365570816711 0 0.016070770550536021 0.016866523860808107 0 0.016244880438624872 0.016980365570816711 0 0.016070770550536021 0.016866523860808107 0 0.016176747970482071 0.016361218310727992 0 0.016086305848318914 0.016407418247615903 0 0.016176747970482071 0.016361218310727992 0 0.016405782709365564 0.015994346531204174 0 0.016086305848318914 0.016407418247615903 0 0.016070770550536021 0.016866523860808107 0 0.016176747970482071 0.016361218310727992 0 0.016176747970482071 0.016361218310727992 0 0.016091016008278759 0.016348928755573755 0 0.01608397556557379 0.016081651754391885 0 0.016244880438624872 0.016980365570816711 0 0.016176747970482071 0.016361218310727992 0 0.016091016008278759 0.016348928755573755 0 0.016091016008278759 0.016348928755573755 0 0.01608397556557379 0.016081651754391885 0 0.015586425081768102 0.015739803928751957 0 0.015720233449169081 0.01663892839501168 0 0.01608397556557379 0.016081651754391885 0 0.015586425081768102 0.015739803928751957 0 0.016071472589197628 0.016484130765451552 0 0.015720233449169081 0.01663892839501168 0 0.01608397556557379 0.016081651754391885 0 0.016071472589197628 0.016484130765451552 0 0.01608397556557379 0.016081651754391885 0 0.016405782709365564 0.015994346531204174 0 0.016176747970482071 0.016361218310727992 0 0.01608397556557379 0.016081651754391885 0 0.016405782709365564 0.015994346531204174 0 0.016231099341695761 0.016598756339295608 0 0.016071472589197628 0.016484130765451552 0 0.016405782709365564 0.015994346531204174 0 0.012562846757940329 0.017067986002761212 0 0.015586425081768102 0.015739803928751957 0 0.012560745750836133 0.013203713370250062 0 0.015720233449169081 0.01663892839501168 0 0.012562846757940329 0.017067986002761212 0 0.015586425081768102 0.015739803928751957 0 0.015559831922021265 0.015693627833408951 0 0.014695805158066825 0.01492079559918392 0 0.016091016008278759 0.016348928755573755 0 0.015586425081768102 0.015739803928751957 0 0.016888912759022195 0.016464565646222163 0 0.012562846757940329 0.017067986002761212 0 0.012560745750836133 0.013203713370250062 0 0.0078587883654303633 0.014159220633154907 0 0.016888912759022195 0.016464565646222163 0 0.01669062204149931 0.017110307579274443 0 0.017423749660582594 0.017088993320180011 0 0.014695805158066825 0.01492079559918392 0 0.013993971176465303 0.014562558262601341 0 0.016091016008278759 0.016348928755573755 0 0.016888912759022195 0.016464565646222163 0 0.01669062204149931 0.017110307579274443 0 0.016539585451466835 0.017631031033202346 0 0.01669062204149931 0.017110307579274443 0 0.017095438008124849 0.017840409847182982 0 0.01669062204149931 0.017110307579274443 0 0.017095438008124849 0.017840409847182982 0 0.017423749660582594 0.017088993320180011 0 0.012489380075749529 0.019581812311011634 0 0.01133681690975597 0.015911441896254732 0 0.0097017888145782671 0.017849065417584031 0 0.012489380075749529 0.019581812311011634 0 0.01133681690975597 0.015911441896254732 0 0.014535085806791481 0.016794657913016868 0 0.013268257137116218 0.018103293388886658 0 0.015473824401503892 0.01829632406730362 0 0.012489380075749529 0.019581812311011634 0 0.014535085806791481 0.016794657913016868 0 0.016296999874506689 0.018553415507752746 0 0.015514587579088249 0.019050626066198232 0 0.015904864512120458 0.018476988048188734 0 0.016539585451466835 0.017631031033202346 0 0.017095438008124849 0.017840409847182982 0 0.016296999874506689 0.018553415507752746 0 0.016326303384362958 0.017832103764887444 0 0.016296999874506689 0.018553415507752746 0 0.016456930911624552 0.018355494586082786 0 0.016296999874506689 0.018553415507752746 0 0.016456930911624552 0.018355494586082786 0 0.01674259962735155 0.018509271449860271 0 0.016620285536347278 0.018708954826620116 0 0.016456930911624552 0.018355494586082786 0 0.01674259962735155 0.018509271449860271 0 0.016620285536347278 0.018708954826620116 0 0.016322085125120709 0.0183637271725095 0 0.016456930911624552 0.018355494586082786 0 0.016322085125120709 0.0183637271725095 0 0.016326303384362958 0.017832103764887444 0 0.016456930911624552 0.018355494586082786 0 0.016907836912644716 0.019058401473938159 0 0.016620285536347278 0.018708954826620116 0 0.016821728341206505 0.019071785717153053 0 0.016620285536347278 0.018708954826620116 0 0.01674259962735155 0.018509271449860271 0 0.016821728341206505 0.019071785717153053 0 0.01674259962735155 0.018509271449860271 0 0.016821728341206505 0.019071785717153053 0 0.016809525847955566 0.019182283440014967 0 0.014535085806791481 0.016794657913016868 0 0.016296999874506689 0.018553415507752746 0 0.01674259962735155 0.018509271449860271 0 0.016628415250876997 0.019787118779520399 0 0.01674259962735155 0.018509271449860271 0 0.016809525847955566 0.019182283440014967 0 0.015473824401503892 0.01829632406730362 0 0.01653342954364519 0.018469868419531282 0 0.016628415250876997 0.019787118779520399 0 0.016809525847955566 0.019182283440014967 0 0.01687012502594951 0.019338074859221645 0 0.01687012502594951 0.019338074859221645 0 0.016892157990716899 0.019305590873045224 0 0.016340342891686201 0.019365262851502141 0 0.01687012502594951 0.019338074859221645 0 0.017010973701027318 0.019249049327327006 0 0.016892157990716899 0.019305590873045224 0 0.016821728341206505 0.019071785717153053 0 0.016809525847955566 0.019182283440014967 0 0.01687012502594951 0.019338074859221645 0 0.016907836912644716 0.019058401473938159 0 0.016821728341206505 0.019071785717153053 0 0.017010973701027318 0.019249049327327006 0 0.016821728341206505 0.019071785717153053 0 0.01687012502594951 0.019338074859221645 0 0.017010973701027318 0.019249049327327006 0 0.017187112634209797 0.019263492165296173 0 0.017010973701027318 0.019249049327327006 0 0.01713341292552863 0.019315375500828093 0 0.01713341292552863 0.019315375500828093 0 0.016892157990716899 0.019305590873045224 0 0.01697680608783568 0.019223985177053003 0 0.017010973701027318 0.019249049327327006 0 0.01713341292552863 0.019315375500828093 0 0.016892157990716899 0.019305590873045224 0 0.016340342891686201 0.019365262851502141 0 0.015817868556852275 0.019333487308961166 0 0.01697680608783568 0.019223985177053003 0 0.016892157990716899 0.019305590873045224 0 0.016340342891686201 0.019365262851502141 0 0.01697680608783568 0.019223985177053003 0 0.014940649895948075 0.018956997145955484 0 0.016340342891686201 0.019365262851502141 0 0.015817868556852275 0.019333487308961166 0 0.015286463995195872 0.020294111988365251 0 0.014940649895948075 0.018956997145955484 0 0.016340342891686201 0.019365262851502141 0 0.016628415250876997 0.019787118779520399 0 0.01687012502594951 0.019338074859221645 0 0.016340342891686201 0.019365262851502141 0 0.015286463995195872 0.020294111988365251 0 0.016628415250876997 0.019787118779520399 0 0.016340342891686201 0.019365262851502141 0 0.017003330316784079 0.018870752233188029 0 0.015337979604927564 0.018682236810607739 0 0.017142553707627458 0.018228276431103467 0 0.015337979604927564 0.018682236810607739 0 0.015817868556852275 0.019333487308961166 0 0.012903141382936027 0.021437823579230551 0 0.017003330316784079 0.018870752233188029 0 0.015337979604927564 0.018682236810607739 0 0.015817868556852275 0.019333487308961166 0 0.017003330316784079 0.018870752233188029 0 0.015817868556852275 0.019333487308961166 0 0.01697680608783568 0.019223985177053003 0 0.01697680608783568 0.019223985177053003 0 0.017430404473862123 0.019478389548330515 0 0.017483197220879147 0.019410507004249507 0 0.01713341292552863 0.019315375500828093 0 0.01697680608783568 0.019223985177053003 0 0.017430404473862123 0.019478389548330515 0 0.017187112634209797 0.019263492165296173 0 0.01713341292552863 0.019315375500828093 0 0.017430404473862123 0.019478389548330515 0 0.017430404473862123 0.019478389548330515 0 0.017620286099203127 0.01982557109822786 0 0.017483197220879147 0.019410507004249507 0 0.017003330316784079 0.018870752233188029 0 0.017483197220879147 0.019410507004249507 0 0.017586799433807917 0.019406283691658983 0 0.017003330316784079 0.018870752233188029 0 0.01697680608783568 0.019223985177053003 0 0.017483197220879147 0.019410507004249507 0 0.017483197220879147 0.019410507004249507 0 0.017586799433807917 0.019406283691658983 0 0.017797097068269891 0.020169874274184398 0 0.017620286099203127 0.01982557109822786 0 0.017483197220879147 0.019410507004249507 0 0.017797097068269891 0.020169874274184398 0 0.017586799433807917 0.019406283691658983 0 0.017797097068269891 0.020169874274184398 0 0.018268054018123342 0.021292468731076319 0 0.017797097068269891 0.020169874274184398 0 0.018268054018123342 0.021292468731076319 0 0.017879382601378724 0.02135579069080731 0 0.017586799433807917 0.019406283691658983 0 0.017697718327795455 0.019926984482186483 0 0.018268054018123342 0.021292468731076319 0 0.017697718327795455 0.019926984482186483 0 0.017142553707627458 0.018228276431103467 0 0.017961262448962914 0.019158857061372495 0 0.01864744305654023 0.020852045199886246 0 0.017186666379122719 0.01746480925066277 0 0.017586799433807917 0.019406283691658983 0 0.017697718327795455 0.019926984482186483 0 0.017142553707627458 0.018228276431103467 0 0.019256477554260666 0.02125309763891078 0 0.019856078771062807 0.021080750248968494 0 0.019763480757580637 0.021555539807112084 0 0.017003330316784079 0.018870752233188029 0 0.017586799433807917 0.019406283691658983 0 0.017142553707627458 0.018228276431103467 0 0.017142553707627458 0.018228276431103467 0 0.014771532916032708 0.017267931911142221 0 0.015963347781504839 0.015171271351691436 0 0.017116568340557817 0.017949671904765787 0 0.017186666379122719 0.01746480925066277 0 0.015337979604927564 0.018682236810607739 0 0.017142553707627458 0.018228276431103467 0 0.014771532916032708 0.017267931911142221 0 0.017186666379122719 0.01746480925066277 0 0.016584933915346559 0.015733469743953607 0 0.019856078771062807 0.021080750248968494 0 0.019763480757580637 0.021555539807112084 0 0.020134805519880887 0.021739330333320324 0 0.019763480757580637 0.021555539807112084 0 0.019519096659594157 0.021870351573960885 0 0.019815751846611392 0.021998738589982861 0 0.019763480757580637 0.021555539807112084 0 0.019815751846611392 0.021998738589982861 0 0.020134805519880887 0.021739330333320324 0 0.019256477554260666 0.02125309763891078 0 0.019519096659594157 0.021870351573960885 0 0.019137433160654842 0.022016724563449396 0 0.019256477554260666 0.02125309763891078 0 0.019763480757580637 0.021555539807112084 0 0.019519096659594157 0.021870351573960885 0 0.01952483035767302 0.022185943574527679 0 0.019837666183129196 0.022347603026313438 0 0.01921078722723726 0.022656011995597598 0 0.01952483035767302 0.022185943574527679 0 0.01921078722723726 0.022656011995597598 0 0.019137433160654842 0.022016724563449396 0 0.019519096659594157 0.021870351573960885 0 0.01952483035767302 0.022185943574527679 0 0.019137433160654842 0.022016724563449396 0 0.019519096659594157 0.021870351573960885 0 0.01952483035767302 0.022185943574527679 0 0.019815751846611392 0.021998738589982861 0 0.019815751846611392 0.021998738589982861 0 0.020084926386189111 0.022111670837943947 0 0.020134805519880887 0.021739330333320324 0 0.01952483035767302 0.022185943574527679 0 0.019815751846611392 0.021998738589982861 0 0.019837666183129196 0.022347603026313438 0 0.019815751846611392 0.021998738589982861 0 0.019837666183129196 0.022347603026313438 0 0.020084926386189111 0.022111670837943947 0 0.013004870572278632 0.025409370827648103 0 0.014699273901106603 0.024935544020577714 0 0.012785835738340514 0.025530758553868077 0 0.013745518499811971 0.025809154627772554 0 0.013015051327109138 0.025365114562390507 0 0.012785835738340514 0.025530758553868077 0 0.013405050982741827 0.025998359382160004 0 0.01556510855470666 0.024015907564360294 0 0.013405050982741827 0.025998359382160004 0 0.01556510855470666 0.024015907564360294 0 0.016444006880805318 0.024812975995164112 0 0.017247703683101787 0.024522619347519495 0 0.017567729743059333 0.023698769488725093 0 0.013745518499811971 0.025809154627772554 0 0.013579146613662576 0.024999857345754606 0 0.014309855967744674 0.025396690505554799 0 0.013745518499811971 0.025809154627772554 0 0.013579146613662576 0.024999857345754606 0 0.013015051327109138 0.025365114562390507 0 0.013579146613662576 0.024999857345754606 0 0.013015051327109138 0.025365114562390507 0 0.01217270200246639 0.024999695359370595 0 0.012785835738340514 0.025530758553868077 0 0.013015051327109138 0.025365114562390507 0 0.012375036888107777 0.025354565300338559 0 0.01562881423560461 0.025349574038371989 0 0.014961103906209387 0.025799405675461629 0 0.01614849579160986 0.025625935482181793 0 0.016428937961024234 0.024552429551353935 0 0.017172818954477597 0.024619164418874118 0 0.014985546646272947 0.025000027837492885 0 0.01562881423560461 0.025349574038371989 0 0.014961103906209387 0.025799405675461629 0 0.013579146613662576 0.024999857345754606 0 0.014985546646272947 0.025000027837492885 0 0.014309855967744674 0.025396690505554799 0 0.013745518499811971 0.025809154627772554 0 0.014309855967744674 0.025396690505554799 0 0.014961103906209387 0.025799405675461629 0 0.014985546646272947 0.025000027837492885 0 0.014309855967744674 0.025396690505554799 0 0.014961103906209387 0.025799405675461629 0 0.016444006880805318 0.024812975995164112 0 0.017932125296955995 0.023213420630007517 0 0.018312103518647194 0.023322771084839478 0 0.01556510855470666 0.024015907564360294 0 0.016444006880805318 0.024812975995164112 0 0.017932125296955995 0.023213420630007517 0 0.017567729743059333 0.023698769488725093 0 0.018239069472847952 0.023414805299813529 0 0.014699273901106603 0.024935544020577714 0 0.016428937961024234 0.024552429551353935 0 0.017932125296955995 0.023213420630007517 0 0.018312103518647194 0.023322771084839478 0 0.018329943028069531 0.023612840688709461 0 0.018653640673616873 0.02241073576556369 0 0.018268054018123342 0.021292468731076319 0 0.018127207188203459 0.022337238675811281 0 0.018312103518647194 0.023322771084839478 0 0.018653640673616873 0.02241073576556369 0 0.018127207188203459 0.022337238675811281 0 0.01921078722723726 0.022656011995597598 0 0.018653640673616873 0.02241073576556369 0 0.019137433160654842 0.022016724563449396 0 0.01921078722723726 0.022656011995597598 0 0.018312103518647194 0.023322771084839478 0 0.018653640673616873 0.02241073576556369 0 0.018653640673616873 0.02241073576556369 0 0.019137433160654842 0.022016724563449396 0 0.018268054018123342 0.021292468731076319 0 0.019256477554260666 0.02125309763891078 0 0.019137433160654842 0.022016724563449396 0 0.018268054018123342 0.021292468731076319 0 0.01864744305654023 0.020852045199886246 0 0.018078860736439491 0.021173780234048114 0 0.017980487234976531 0.022615298060384197 0 0.018127207188203459 0.022337238675811281 0 0.017879382601378724 0.02135579069080731 0 0.018268054018123342 0.021292468731076319 0 0.018127207188203459 0.022337238675811281 0 0.017879382601378724 0.02135579069080731 0 0.017980487234976531 0.022615298060384197 0 0.017896721598227274 0.022128283744345643 0 0.017879382601378724 0.02135579069080731 0 0.017980487234976531 0.022615298060384197 0 0.018058080837910967 0.023487434257536119 0 0.018008990874222749 0.023480486067558062 0 0.017980487234976531 0.022615298060384197 0 0.018159345969087571 0.023169564143950425 0 0.018058080837910967 0.023487434257536119 0 0.017980487234976531 0.022615298060384197 0 0.018127207188203459 0.022337238675811281 0 0.018159345969087571 0.023169564143950425 0 0.018312103518647194 0.023322771084839478 0 0.018127207188203459 0.022337238675811281 0 0.018159345969087571 0.023169564143950425 0 0.018312103518647194 0.023322771084839478 0 0.018159345969087571 0.023169564143950425 0 0.018329943028069531 0.023612840688709461 0 0.018159345969087571 0.023169564143950425 0 0.018058080837910967 0.023487434257536119 0 0.018329943028069531 0.023612840688709461 0 0.018058080837910967 0.023487434257536119 0 0.018329943028069531 0.023612840688709461 0 0.01767573502062017 0.024718372832868117 0 0.017172818954477597 0.024619164418874118 0 0.017536933630828592 0.024702149245969841 0 0.016392921054011134 0.024999552281030384 0 0.01614849579160986 0.025625935482181793 0 0.01767573502062017 0.024718372832868117 0 0.016392921054011134 0.024999552281030384 0 0.01779924720985808 0.024998887324047158 0 0.01767573502062017 0.024718372832868117 0 0.01562881423560461 0.025349574038371989 0 0.016392921054011134 0.024999552281030384 0 0.01614849579160986 0.025625935482181793 0 0.014985546646272947 0.025000027837492885 0 0.01562881423560461 0.025349574038371989 0 0.016392921054011134 0.024999552281030384 0 0.018064822216366325 0.024640382399416742 0 0.01779924720985808 0.024998887324047158 0 0.019204754664228489 0.024999246454556309 0 0.018064822216366325 0.024640382399416742 0 0.01832958475135384 0.024298372177470124 0 0.019204754664228489 0.024999246454556309 0 0.018064822216366325 0.024640382399416742 0 0.01779924720985808 0.024998887324047158 0 0.01767573502062017 0.024718372832868117 0 0.018058080837910967 0.023487434257536119 0 0.01767573502062017 0.024718372832868117 0 0.018008990874222749 0.023480486067558062 0 0.018064822216366325 0.024640382399416742 0 0.01767573502062017 0.024718372832868117 0 0.018008990874222749 0.023480486067558062 0 0.018064822216366325 0.024640382399416742 0 0.01832958475135384 0.024298372177470124 0 0.018008990874222749 0.023480486067558062 0 0.01832958475135384 0.024298372177470124 0 0.018008990874222749 0.023480486067558062 0 0.018485282550594673 0.022553261518736191 0 0.017980487234976531 0.022615298060384197 0 0.018008990874222749 0.023480486067558062 0 0.017896721598227274 0.022128283744345643 0 0.018008990874222749 0.023480486067558062 0 0.017896721598227274 0.022128283744345643 0 0.018485282550594673 0.022553261518736191 0 0.018485282550594673 0.022553261518736191 0 0.020881893879551059 0.018789204754687535 0 0.018030847176408651 0.02040620466007401 0 0.018485282550594673 0.022553261518736191 0 0.016982952334731797 0.021058340315192471 0 0.017549277133953791 0.021251801541005096 0 0.018571073183557989 0.022190335174344822 0 0.018910252212557203 0.019839185264477224 0 0.016982952334731797 0.021058340315192471 0 0.017549277133953791 0.021251801541005096 0 0.017102663200251847 0.02048586652859068 0 0.017549277133953791 0.021251801541005096 0 0.017102663200251847 0.02048586652859068 0 0.017330283653002768 0.020363323507634052 0 0.017549277133953791 0.021251801541005096 0 0.017589760121173283 0.020543793875934031 0 0.017330283653002768 0.020363323507634052 0 0.017896721598227274 0.022128283744345643 0 0.017549277133953791 0.021251801541005096 0 0.017726389165085597 0.021182560670368437 0 0.017896721598227274 0.022128283744345643 0 0.018485282550594673 0.022553261518736191 0 0.017549277133953791 0.021251801541005096 0 0.017896721598227274 0.022128283744345643 0 0.017726389165085597 0.021182560670368437 0 0.017879382601378724 0.02135579069080731 0 0.017726389165085597 0.021182560670368437 0 0.017879382601378724 0.02135579069080731 0 0.017720882006951402 0.02049759364552527 0 0.017797097068269891 0.020169874274184398 0 0.017879382601378724 0.02135579069080731 0 0.017720882006951402 0.02049759364552527 0 0.017620286099203127 0.01982557109822786 0 0.017797097068269891 0.020169874274184398 0 0.017720882006951402 0.02049759364552527 0 0.017620286099203127 0.01982557109822786 0 0.017720882006951402 0.02049759364552527 0 0.017570941644428077 0.01992612853075321 0 0.017549277133953791 0.021251801541005096 0 0.017726389165085597 0.021182560670368437 0 0.017589760121173283 0.020543793875934031 0 0.017720882006951402 0.02049759364552527 0 0.017589760121173283 0.020543793875934031 0 0.017570941644428077 0.01992612853075321 0 0.017726389165085597 0.021182560670368437 0 0.017720882006951402 0.02049759364552527 0 0.017589760121173283 0.020543793875934031 0 0.017589760121173283 0.020543793875934031 0 0.017394914111224565 0.019908069897979053 0 0.017570941644428077 0.01992612853075321 0 0.017589760121173283 0.020543793875934031 0 0.017394914111224565 0.019908069897979053 0 0.017330283653002768 0.020363323507634052 0 0.017394914111224565 0.019908069897979053 0 0.017570941644428077 0.01992612853075321 0 0.017384920899178754 0.019477322236632448 0 0.017430404473862123 0.019478389548330515 0 0.017620286099203127 0.01982557109822786 0 0.017570941644428077 0.01992612853075321 0 0.017187112634209797 0.019263492165296173 0 0.017430404473862123 0.019478389548330515 0 0.017384920899178754 0.019477322236632448 0 0.017430404473862123 0.019478389548330515 0 0.017570941644428077 0.01992612853075321 0 0.017384920899178754 0.019477322236632448 0 0.017394914111224565 0.019908069897979053 0 0.017384920899178754 0.019477322236632448 0 0.017207336322928361 0.019484887139879583 0 0.017394914111224565 0.019908069897979053 0 0.017207336322928361 0.019484887139879583 0 0.017072013555611651 0.019950117798831862 0 0.017207336322928361 0.019484887139879583 0 0.016844205981099668 0.019534505011638767 0 0.017072013555611651 0.019950117798831862 0 0.016370333518610662 0.019135704070058115 0 0.016844205981099668 0.019534505011638767 0 0.016605876576091343 0.01993153218257393 0 0.021931974523564015 0.016076030471219634 0 0.021974825393821722 0.015525583747195098 0 0.022052644754546498 0.015761635766531935 0 0.019013016552142659 0.017948526874966512 0 0.019257153784632167 0.017671079792065732 0 0.016844205981099668 0.019534505011638767 0 0.016605876576091343 0.01993153218257393 0 0.017072013555611651 0.019950117798831862 0 0.018910252212557203 0.019839185264477224 0 0.019257153784632167 0.017671079792065732 0 0.016982952334731797 0.021058340315192471 0 0.016605876576091343 0.01993153218257393 0 0.017102663200251847 0.02048586652859068 0 0.016605876576091343 0.01993153218257393 0 0.017102663200251847 0.02048586652859068 0 0.017072013555611651 0.019950117798831862 0 0.020881893879551059 0.018789204754687535 0 0.021974825393821722 0.015525583747195098 0 0.021079622414594486 0.016544156083524629 0 0.017102663200251847 0.02048586652859068 0 0.017330283653002768 0.020363323507634052 0 0.017072013555611651 0.019950117798831862 0 0.017394914111224565 0.019908069897979053 0 0.017330283653002768 0.020363323507634052 0 0.017072013555611651 0.019950117798831862 0 0.022203643918268057 0.015825709797017341 0 0.022424752761071656 0.015740367809855476 0 0.021936963968097443 0.016025525234849271 0 0.022203643918268057 0.015825709797017341 0 0.022531906436373268 0.015728448204300964 0 0.022424752761071656 0.015740367809855476 0 0.022531906436373268 0.015728448204300964 0 0.022424752761071656 0.015740367809855476 0 0.022748856304371436 0.015635546830760162 0 0.022424752761071656 0.015740367809855476 0 0.021936963968097443 0.016025525234849271 0 0.02212967702142413 0.015775834285035352 0 0.021936963968097443 0.016025525234849271 0 0.021079622414594486 0.016544156083524629 0 0.02212967702142413 0.015775834285035352 0 0.021936963968097443 0.016025525234849271 0 0.021079622414594486 0.016544156083524629 0 0.021862395661240448 0.015807512638366033 0 0.021974825393821722 0.015525583747195098 0 0.021079622414594486 0.016544156083524629 0 0.021862395661240448 0.015807512638366033 0 0.022203643918268057 0.015825709797017341 0 0.021936963968097443 0.016025525234849271 0 0.021862395661240448 0.015807512638366033 0 0.022203643918268057 0.015825709797017341 0 0.021862395661240448 0.015807512638366033 0 0.022207833166120083 0.015789530875473537 0 0.021862395661240448 0.015807512638366033 0 0.022207833166120083 0.015789530875473537 0 0.022052644754546498 0.015761635766531935 0 0.021974825393821722 0.015525583747195098 0 0.021862395661240448 0.015807512638366033 0 0.022052644754546498 0.015761635766531935 0 0.022207833166120083 0.015789530875473537 0 0.022052644754546498 0.015761635766531935 0 0.02246296523050588 0.015745551144336265 0 0.022517289941932726 0.015733954635219038 0 0.022052644754546498 0.015761635766531935 0 0.02246296523050588 0.015745551144336265 0 0.022207833166120083 0.015789530875473537 0 0.02246296523050588 0.015745551144336265 0 0.022481517677405104 0.015751482399513277 0 0.02273982957103244 0.015695273083866097 0 0.02246296523050588 0.015745551144336265 0 0.022481517677405104 0.015751482399513277 0 0.022203643918268057 0.015825709797017341 0 0.022207833166120083 0.015789530875473537 0 0.022481517677405104 0.015751482399513277 0 0.022203643918268057 0.015825709797017341 0 0.022531906436373268 0.015728448204300964 0 0.022481517677405104 0.015751482399513277 0 0.022531906436373268 0.015728448204300964 0 0.022481517677405104 0.015751482399513277 0 0.022725351496269652 0.015686153135795106 0 0.022531906436373268 0.015728448204300964 0 0.022725351496269652 0.015686153135795106 0 0.022748856304371436 0.015635546830760162 0 0.02273982957103244 0.015695273083866097 0 0.022481517677405104 0.015751482399513277 0 0.022725351496269652 0.015686153135795106 0 0.022948863127792301 0.015631128917781189 0 0.02273982957103244 0.015695273083866097 0 0.022725351496269652 0.015686153135795106 0 0.022948863127792301 0.015631128917781189 0 0.022725351496269652 0.015686153135795106 0 0.022951912475979806 0.015607940913064989 0 0.023105863240946663 0.015564674927911816 0 0.022948863127792301 0.015631128917781189 0 0.022951912475979806 0.015607940913064989 0 0.022951912475979806 0.015607940913064989 0 0.023014733172848075 0.015550014164224843 0 0.022748856304371436 0.015635546830760162 0 0.022725351496269652 0.015686153135795106 0 0.022951912475979806 0.015607940913064989 0 0.022748856304371436 0.015635546830760162 0 0.023298833083937397 0.015489399931809851 0 0.023159526946358346 0.015529155910220298 0 0.023341809007921384 0.015464145417608306 0 0.023298833083937397 0.015489399931809851 0 0.023105863240946663 0.015564674927911816 0 0.023159526946358346 0.015529155910220298 0 0.023105863240946663 0.015564674927911816 0 0.022951912475979806 0.015607940913064989 0 0.023159526946358346 0.015529155910220298 0 0.022951912475979806 0.015607940913064989 0 0.023159526946358346 0.015529155910220298 0 0.023014733172848075 0.015550014164224843 0 0.023159526946358346 0.015529155910220298 0 0.023220737562512306 0.015470349998832605 0 0.023014733172848075 0.015550014164224843 0 0.023159526946358346 0.015529155910220298 0 0.023220737562512306 0.015470349998832605 0 0.023341809007921384 0.015464145417608306 0 0.023220737562512306 0.015470349998832605 0 0.023113681266435267 0.015437661113195894 0 0.023311185370607241 0.015394771696636833 0 0.023220737562512306 0.015470349998832605 0 0.023014733172848075 0.015550014164224843 0 0.023113681266435267 0.015437661113195894 0 0.023014733172848075 0.015550014164224843 0 0.023113681266435267 0.015437661113195894 0 0.022934728499055382 0.015510245807844486 0 0.023113681266435267 0.015437661113195894 0 0.022934728499055382 0.015510245807844486 0 0.022971381261845111 0.015424456735755794 0 0.023113681266435267 0.015437661113195894 0 0.023107986659044212 0.015323948400830791 0 0.023311185370607241 0.015394771696636833 0 0.023014733172848075 0.015550014164224843 0 0.022748856304371436 0.015635546830760162 0 0.022934728499055382 0.015510245807844486 0 0.022748856304371436 0.015635546830760162 0 0.022934728499055382 0.015510245807844486 0 0.022765340057259848 0.015521777227956638 0 0.022934728499055382 0.015510245807844486 0 0.022765340057259848 0.015521777227956638 0 0.022971381261845111 0.015424456735755794 0 0.022424752761071656 0.015740367809855476 0 0.022748856304371436 0.015635546830760162 0 0.022765340057259848 0.015521777227956638 0 0.022765340057259848 0.015521777227956638 0 0.022847901800003886 0.015337450041841427 0 0.022552239659959939 0.015445113973273791 0 0.022765340057259848 0.015521777227956638 0 0.022847901800003886 0.015337450041841427 0 0.022971381261845111 0.015424456735755794 0 0.022847901800003886 0.015337450041841427 0 0.022971381261845111 0.015424456735755794 0 0.023107986659044212 0.015323948400830791 0 0.022847901800003886 0.015337450041841427 0 0.023107986659044212 0.015323948400830791 0 0.022947928755716607 0.01518426850798975 0 0.023113681266435267 0.015437661113195894 0 0.022971381261845111 0.015424456735755794 0 0.023107986659044212 0.015323948400830791 0 0.023107986659044212 0.015323948400830791 0 0.022947928755716607 0.01518426850798975 0 0.023111818679991233 0.015152916248962879 0 0.022947928755716607 0.01518426850798975 0 0.022996246557596009 0.015119093439834513 0 0.023111818679991233 0.015152916248962879 0 0.022947928755716607 0.01518426850798975 0 0.022689964224588206 0.015164474322715988 0 0.022847683873186496 0.015096665538795228 0 0.022847901800003886 0.015337450041841427 0 0.022947928755716607 0.01518426850798975 0 0.022689964224588206 0.015164474322715988 0 0.022847901800003886 0.015337450041841427 0 0.022689964224588206 0.015164474322715988 0 0.022552239659959939 0.015445113973273791 0 0.022689964224588206 0.015164474322715988 0 0.022552239659959939 0.015445113973273791 0 0.022107582093789064 0.015123190249057974 0 0.022689964224588206 0.015164474322715988 0 0.022107582093789064 0.015123190249057974 0 0.022584071170158166 0.015032415053759964 0 0.022552239659959939 0.015445113973273791 0 0.02212967702142413 0.015775834285035352 0 0.022107582093789064 0.015123190249057974 0 0.022424752761071656 0.015740367809855476 0 0.022552239659959939 0.015445113973273791 0 0.02212967702142413 0.015775834285035352 0 0.022424752761071656 0.015740367809855476 0 0.022765340057259848 0.015521777227956638 0 0.022552239659959939 0.015445113973273791 0 0.020897485818473893 0.016693851322510049 0 0.020173540863846581 0.017788837228165578 0 0.020881893879551059 0.018789204754687535 0 0.021079622414594486 0.016544156083524629 0 0.018030847176408651 0.02040620466007401 0 0.021079622414594486 0.016544156083524629 0 0.02212967702142413 0.015775834285035352 0 0.022107582093789064 0.015123190249057974 0 0.018485282550594673 0.022553261518736191 0 0.018030847176408651 0.02040620466007401 0 0.017704712924668874 0.022956203306760029 0 0.01832958475135384 0.024298372177470124 0 0.018485282550594673 0.022553261518736191 0 0.018374994163636357 0.024002172889936904 0 0.020173540863846581 0.017788837228165578 0 0.020149851859768697 0.019050835900735863 0 0.017704712924668874 0.022956203306760029 0 0.018374994163636357 0.024002172889936904 0 0.018705205585078592 0.024410025776253962 0 0.020149851859768697 0.019050835900735863 0 0.020895496813715841 0.01919832025615335 0 0.018485282550594673 0.022553261518736191 0 0.017704712924668874 0.022956203306760029 0 0.018374994163636357 0.024002172889936904 0 0.01832958475135384 0.024298372177470124 0 0.018374994163636357 0.024002172889936904 0 0.019421542544364321 0.024826624213689745 0 0.018374994163636357 0.024002172889936904 0 0.018705205585078592 0.024410025776253962 0 0.019421542544364321 0.024826624213689745 0 0.019421542544364321 0.024826624213689745 0 0.019204754664228489 0.024999246454556309 0 0.020608537062841284 0.024999247840935414 0 0.01832958475135384 0.024298372177470124 0 0.019421542544364321 0.024826624213689745 0 0.019204754664228489 0.024999246454556309 0 0.021763434825185005 0.02514432354488777 0 0.020889086867177716 0.02515729906596427 0 0.021570063476506703 0.025443500957715279 0 0.021763434825185005 0.02514432354488777 0 0.020896159003485626 0.025001866083588353 0 0.020889086867177716 0.02515729906596427 0 0.021462883486620017 0.022482542642554129 0 0.022039690090039924 0.019948080618418806 0 0.018705205585078592 0.024410025776253962 0 0.019421542544364321 0.024826624213689745 0 0.020298722678149157 0.024960888521666485 0 0.02089625121589217 0.024999994469383089 0 0.020792842647866173 0.025232557111349047 0 0.020611792269714657 0.024999998709339034 0 0.020896076017786251 0.024998331435104541 0 0.021462883486620017 0.022482542642554129 0 0.019421542544364321 0.024826624213689745 0 0.020298722678149157 0.024960888521666485 0 0.020608537062841284 0.024999247840935414 0 0.021462883486620017 0.022482542642554129 0 0.020613910877700061 0.024997554198804943 0 0.022788943978239679 0.01511978161608896 0 0.022798955908909777 0.015149753154728236 0 0.022818606802031568 0.015087039505717156 0 0.020895496813715841 0.01919832025615335 0 0.021462883486620017 0.022482542642554129 0 0.022788943978239679 0.01511978161608896 0 0.022801892265252973 0.015305284961386782 0 0.022798955908909777 0.015149753154728236 0 0.022039690090039924 0.019948080618418806 0 0.022389145152005841 0.020452937903071192 0 0.022818606802031568 0.015087039505717156 0 0.022847683873186496 0.015096665538795228 0 0.022943496684597345 0.015097978096082518 0 0.022798955908909777 0.015149753154728236 0 0.022818606802031568 0.015087039505717156 0 0.022943496684597345 0.015097978096082518 0 0.022584071170158166 0.015032415053759964 0 0.022818606802031568 0.015087039505717156 0 0.022847683873186496 0.015096665538795228 0 0.022584071170158166 0.015032415053759964 0 0.022788943978239679 0.01511978161608896 0 0.022818606802031568 0.015087039505717156 0 0.022689964224588206 0.015164474322715988 0 0.022584071170158166 0.015032415053759964 0 0.022847683873186496 0.015096665538795228 0 0.022847683873186496 0.015096665538795228 0 0.022996246557596009 0.015119093439834513 0 0.022943496684597345 0.015097978096082518 0 0.022947928755716607 0.01518426850798975 0 0.022847683873186496 0.015096665538795228 0 0.022996246557596009 0.015119093439834513 0 0.021763434825185005 0.02514432354488777 0 0.025001224173650704 0.024994976336743038 0 0.024129157926097419 0.025861191496806799 0 0.021763434825185005 0.02514432354488777 0 0.020896159003485626 0.025001866083588353 0 0.025001224173650704 0.024994976336743038 0 0.023056059719085621 0.015141339374634754 0 0.022996246557596009 0.015119093439834513 0 0.023111818679991233 0.015152916248962879 0 0.023056059719085621 0.015141339374634754 0 0.022996246557596009 0.015119093439834513 0 0.022943496684597345 0.015097978096082518 0 0.023141502151092515 0.018507647927986422 0 0.023707683355589863 0.014581400218846425 0 0.023801632440957444 0.024003524081059775 0 0.025090001163508468 0.020504835351659416 0 0.02468773679702305 0.019951956034780352 0 0.02439763353168287 0.020279469315363965 0 0.024078259960860528 0.019763914004681769 0 0.023141502151092515 0.018507647927986422 0 0.023801632440957444 0.024003524081059775 0 0.023193074779061077 0.02687580530869817 0 0.022509480642269646 0.025945625584538667 0 0.023159771795340491 0.026027344531618209 0 0.023801632440957444 0.024003524081059775 0 0.02203067016968489 0.025953551694407679 0 0.02162428021657422 0.025231631436102943 0 0.021740554712591502 0.025319445816370072 0 0.021736691189203985 0.025390983348944213 0 0.021692684056075821 0.025121034910696786 0 0.02162428021657422 0.025231631436102943 0 0.021740554712591502 0.025319445816370072 0 0.023141502151092515 0.018507647927986422 0 0.022389145152005841 0.020452937903071192 0 0.021763434825185005 0.02514432354488777 0 0.022509480642269646 0.025945625584538667 0 0.023159771795340491 0.026027344531618209 0 0.021763434825185005 0.02514432354488777 0 0.023159771795340491 0.026027344531618209 0 0.024129157926097419 0.025861191496806799 0 0.021763434825185005 0.02514432354488777 0 0.021570063476506703 0.025443500957715279 0 0.021736691189203985 0.025390983348944213 0 0.021570063476506703 0.025443500957715279 0 0.021740554712591502 0.025319445816370072 0 0.021736691189203985 0.025390983348944213 0 0.021768746448588925 0.025064777304807915 0 0.02203067016968489 0.025953551694407679 0 0.025001224173650704 0.024994976336743038 0 0.024997680120805339 0.024753197990028342 0 0.024129157926097419 0.025861191496806799 0 0.024999866609833218 0.024745364401346719 0 0.025167332434541854 0.024900052103524598 0 0.024999999693550667 0.02474530552676258 0 0.025902532941668312 0.023761128434940378 0 0.024999972627126124 0.023332440317660592 0 0.025902532941668312 0.023761128434940378 0 0.024999972627126124 0.023332440317660592 0 0.025790049816150327 0.02260495525070472 0 0.026795431179993282 0.02278858439643024 0 0.025902532941668312 0.023761128434940378 0 0.025790049816150327 0.02260495525070472 0 0.023801632440957444 0.024003524081059775 0 0.025167332434541854 0.024900052103524598 0 0.023193074779061077 0.02687580530869817 0 0.023159771795340491 0.026027344531618209 0 0.024129157926097419 0.025861191496806799 0 0.025790049816150327 0.02260495525070472 0 0.026251579293876042 0.021938149421119352 0 0.025668844056788549 0.021080461521495605 0 0.026795431179993282 0.02278858439643024 0 0.025790049816150327 0.02260495525070472 0 0.026251579293876042 0.021938149421119352 0 0.025790049816150327 0.02260495525070472 0 0.024999985435291392 0.021919590429892975 0 0.025723480299564856 0.021105843456235483 0 0.024999972627126124 0.023332440317660592 0 0.025790049816150327 0.02260495525070472 0 0.024999985435291392 0.021919590429892975 0 0.025921402178395374 0.022721248283082519 0 0.025234255964127483 0.020693227937325056 0 0.024999985435291392 0.021919590429892975 0 0.025723480299564856 0.021105843456235483 0 0.024999989548261558 0.020506659076525879 0 0.025234255964127483 0.020693227937325056 0 0.025369726584092374 0.020553079378671808 0 0.025723480299564856 0.021105843456235483 0 0.024999989548261558 0.020506659076525879 0 0.02519695851338594 0.020313237301259269 0 0.025690570404905445 0.021050092974334474 0 0.02519695851338594 0.020313237301259269 0 0.025644480534586601 0.019986788248378677 0 0.025234255964127483 0.020693227937325056 0 0.024563051162226308 0.018319201863262621 0 0.023792672798639246 0.016816182765358567 0 0.024563051162226308 0.018319201863262621 0 0.02356746744478723 0.015235521381128162 0 0.023714019940058628 0.015371605886271405 0 0.023586221004115754 0.015345049479175062 0 0.023769829021605939 0.019267061885460963 0 0.024206515975155645 0.019272703880723319 0 0.023745905115671668 0.018622060413930792 0 0.024078259960860528 0.019763914004681769 0 0.023769829021605939 0.019267061885460963 0 0.024206515975155645 0.019272703880723319 0 0.025090001163508468 0.020504835351659416 0 0.025234255964127483 0.020693227937325056 0 0.023141502151092515 0.018507647927986422 0 0.023792672798639246 0.016816182765358567 0 0.02468773679702305 0.019951956034780352 0 0.024078259960860528 0.019763914004681769 0 0.024206515975155645 0.019272703880723319 0 0.0232877180973304 0.014985746294555144 0 0.02356746744478723 0.015235521381128162 0 0.023111818679991233 0.015152916248962879 0 0.02356746744478723 0.015235521381128162 0 0.023111818679991233 0.015152916248962879 0 0.023377573823707032 0.015324300745426631 0 0.023107986659044212 0.015323948400830791 0 0.023111818679991233 0.015152916248962879 0 0.023377573823707032 0.015324300745426631 0 0.023107986659044212 0.015323948400830791 0 0.023377573823707032 0.015324300745426631 0 0.023311185370607241 0.015394771696636833 0 0.02356746744478723 0.015235521381128162 0 0.023377573823707032 0.015324300745426631 0 0.023586221004115754 0.015345049479175062 0 0.023377573823707032 0.015324300745426631 0 0.023555978226905645 0.015388223864567891 0 0.023586221004115754 0.015345049479175062 0 0.023555978226905645 0.015388223864567891 0 0.023586221004115754 0.015345049479175062 0 0.023685431188763935 0.015373754555048618 0 0.023555978226905645 0.015388223864567891 0 0.023311185370607241 0.015394771696636833 0 0.02339721954011701 0.015427320010356835 0 0.023377573823707032 0.015324300745426631 0 0.023555978226905645 0.015388223864567891 0 0.023311185370607241 0.015394771696636833 0 0.023220737562512306 0.015470349998832605 0 0.023311185370607241 0.015394771696636833 0 0.02339721954011701 0.015427320010356835 0 0.023220737562512306 0.015470349998832605 0 0.02339721954011701 0.015427320010356835 0 0.023341809007921384 0.015464145417608306 0 0.02339721954011701 0.015427320010356835 0 0.023528410662632573 0.015408774863723015 0 0.023341809007921384 0.015464145417608306 0 0.023457325459964023 0.015429052609111295 0 0.023528410662632573 0.015408774863723015 0 0.023341809007921384 0.015464145417608306 0 0.023555978226905645 0.015388223864567891 0 0.023528410662632573 0.015408774863723015 0 0.02365878720851676 0.015375322869041122 0 0.023555978226905645 0.015388223864567891 0 0.02365878720851676 0.015375322869041122 0 0.02372764044555668 0.015366695521219218 0 0.023555978226905645 0.015388223864567891 0 0.02339721954011701 0.015427320010356835 0 0.023528410662632573 0.015408774863723015 0 0.023809097858048054 0.015351570057540299 0 0.023714019940058628 0.015371605886271405 0 0.023685431188763935 0.015373754555048618 0 0.023809097858048054 0.015351570057540299 0 0.02372764044555668 0.015366695521219218 0 0.023685431188763935 0.015373754555048618 0 0.023555978226905645 0.015388223864567891 0 0.02372764044555668 0.015366695521219218 0 0.023685431188763935 0.015373754555048618 0 0.02556321564502571 0.018645123302753017 0 0.024999909147311674 0.019093538782325649 0 0.025598353092489829 0.019889422151596878 0 0.024707096808932672 0.016847018545476732 0 0.024563051162226308 0.018319201863262621 0 0.024999989548261558 0.020506659076525879 0 0.02519695851338594 0.020313237301259269 0 0.024999994351540794 0.019093832819598405 0 0.02519695851338594 0.020313237301259269 0 0.024999994351540794 0.019093832819598405 0 0.025644480534586601 0.019986788248378677 0 0.025001554536842559 0.019095968215586106 0 0.024563051162226308 0.018319201863262621 0 0.023714019940058628 0.015371605886271405 0 0.023586221004115754 0.015345049479175062 0 0.023685431188763935 0.015373754555048618 0 -0.002951326657013508 0.018274013604129856 0 -0.0027355713496475488 0.018352531971133929 0 -0.0031249298444757079 0.018382988550308246 0 -0.0044113099053921688 0.015832775511124029 0 -0.0059724363938050322 0.014968998452750468 0 -0.0058519082277839205 0.015713304714039249 0 -0.002951326657013508 0.018274013604129856 0 -0.0031249298444757079 0.018382988550308246 0 -0.0035994722766520292 0.018476734070750601 0 -0.0037035930056655967 0.017070310499591179 0 -0.0047758369569644811 0.016749811315696275 0 -0.0044113099053921688 0.015832775511124029 0 -0.0058519082277839205 0.015713304714039249 0 -0.0049731320544961375 0.017316760446842737 0 -0.002951326657013508 0.018274013604129856 0 -0.0028429580029830938 0.017962793801991127 0 -0.0030550617201225991 0.017311704107472393 0 -0.002951326657013508 0.018274013604129856 0 -0.0028429580029830938 0.017962793801991127 0 -0.0027355713496475488 0.018352531971133929 0 -0.0037035930056655967 0.017070310499591179 0 -0.0031312722080806873 0.017326061548214686 0 -0.0028429580029830938 0.017962793801991127 0 -0.0024653153982368663 0.018174688612467366 0 -0.0027355713496475488 0.018352531971133929 0 -0.0024653153982368663 0.018174688612467366 0 -0.0022729128834186028 0.018385204848165675 0 -0.0027355713496475488 0.018352531971133929 0 -0.0024653153982368663 0.018174688612467366 0 -0.0022831127134516297 0.018202043078163116 0 -0.0021997604870176799 0.018334184176717932 0 -0.0024653153982368663 0.018174688612467366 0 -0.0022729128834186028 0.018385204848165675 0 -0.0021997604870176799 0.018334184176717932 0 -0.0022729128834186028 0.018385204848165675 0 -0.002160680827476026 0.018441432512429402 0 -0.0027355713496475488 0.018352531971133929 0 -0.0027355713496475488 0.018352531971133929 0 -0.0024377089365424142 0.018297023221387525 0 -0.0030116729488128828 0.018290187058360989 0 -0.002160680827476026 0.018441432512429402 0 -0.0024377089365424142 0.018297023221387525 0 -0.0017208440640900939 0.018433410286036747 0 -0.002160680827476026 0.018441432512429402 0 -0.0027355713496475488 0.018352531971133929 0 -0.0024377089365424142 0.018297023221387525 0 -0.0024377089365424142 0.018297023221387525 0 -0.0020302942044308982 0.01793954174877271 0 -0.0029006754000181871 0.017979609720791798 0 -0.0024377089365424142 0.018297023221387525 0 -0.0020302942044308982 0.01793954174877271 0 -0.0017208440640900939 0.018433410286036747 0 -0.0024377089365424142 0.018297023221387525 0 -0.0030116729488128828 0.018290187058360989 0 -0.0029006754000181871 0.017979609720791798 0 -0.0030116729488128828 0.018290187058360989 0 -0.0034865046570760898 0.018321380497241191 0 -0.0036879204169719499 0.01803888054823757 0 -0.0030116729488128828 0.018290187058360989 0 -0.0036879204169719499 0.01803888054823757 0 -0.0029006754000181871 0.017979609720791798 0 -0.0031249298444757079 0.018382988550308246 0 -0.0030116729488128828 0.018290187058360989 0 -0.0034865046570760898 0.018321380497241191 0 -0.0027355713496475488 0.018352531971133929 0 -0.0031249298444757079 0.018382988550308246 0 -0.0030116729488128828 0.018290187058360989 0 -0.0031249298444757079 0.018382988550308246 0 -0.0034865046570760898 0.018321380497241191 0 -0.0035994722766520292 0.018476734070750601 0 -0.0034865046570760898 0.018321380497241191 0 -0.0044646775374344444 0.018327339057236641 0 -0.0036879204169719499 0.01803888054823757 0 -0.0070208217835835288 0.01522141996754771 0 -0.0070874777208123265 0.015381514944365352 0 -0.0068506342323480579 0.015030626063907851 0 -0.0070208217835835288 0.01522141996754771 0 -0.0059724363938050322 0.014968998452750468 0 -0.0068506342323480579 0.015030626063907851 0 -0.0034865046570760898 0.018321380497241191 0 -0.0044646775374344444 0.018327339057236641 0 -0.0035994722766520292 0.018476734070750601 0 -0.0057178395497987627 0.01678250979959782 0 -0.0047758369569644811 0.016749811315696275 0 -0.0070874777208123265 0.015381514944365352 0 -0.0070348078455671733 0.015143243786728548 0 -0.0065418850560360481 0.015694901638708274 0 -0.0070874777208123265 0.015381514944365352 0 -0.0076265016125035235 0.014720615179107855 0 -0.0068506342323480579 0.015030626063907851 0 -0.0070874777208123265 0.015381514944365352 0 -0.0070348078455671733 0.015143243786728548 0 -0.0076265016125035235 0.014720615179107855 0 -0.0070348078455671733 0.015143243786728548 0 -0.0076265016125035235 0.014720615179107855 0 -0.0067116659813517632 0.014714478193444415 0 -0.0076265016125035235 0.014720615179107855 0 -0.0083629692493796433 0.012680726313601773 0 -0.0073855731633136485 0.012490956545799327 0 -0.0076265016125035235 0.014720615179107855 0 -0.0068506342323480579 0.015030626063907851 0 -0.0068780868477049915 0.016048325175595932 0 -0.0076265016125035235 0.014720615179107855 0 -0.0092442536429089579 0.012941898388318683 0 -0.0083629692493796433 0.012680726313601773 0 -0.0076539936834358847 0.014744057951964975 0 -0.0079371098101547882 0.014498530294524345 0 -0.0059724363938050322 0.014968998452750468 0 -0.0068506342323480579 0.015030626063907851 0 -0.0058519082277839205 0.015713304714039249 0 -0.0068506342323480579 0.015030626063907851 0 -0.0068780868477049915 0.016048325175595932 0 -0.0058519082277839205 0.015713304714039249 0 -0.0068780868477049915 0.016048325175595932 0 -0.0058519082277839205 0.015713304714039249 0 -0.0049731320544961375 0.017316760446842737 0 -0.0079371098101547882 0.014498530294524345 0 -0.0062152529487713316 0.015027955473244925 0 -0.0092442536429089579 0.012941898388318683 0 -0.0074886367021397724 0.012613207677300923 0 -0.009398693452036793 0.013086721839677564 0 -0.0092442536429089579 0.012941898388318683 0 -0.009398693452036793 0.013086721839677564 0 -0.0088873038411813876 0.012340167522028848 0 -0.009398693452036793 0.013086721839677564 0 -0.0088873038411813876 0.012340167522028848 0 -0.009241790573030326 0.01098083516557467 0 -0.0074886367021397724 0.012613207677300923 0 -0.009398693452036793 0.013086721839677564 0 -0.00701180407526908 0.01498847417992139 0 -0.0083629692493796433 0.012680726313601773 0 -0.0081223996406207359 0.011596662637752695 0 -0.0073855731633136485 0.012490956545799327 0 -0.0092442536429089579 0.012941898388318683 0 -0.0083629692493796433 0.012680726313601773 0 -0.0088873038411813876 0.012340167522028848 0 -0.0088873038411813876 0.012340167522028848 0 -0.0081223996406207359 0.011596662637752695 0 -0.0086344104820504832 0.010950650050355568 0 -0.0083629692493796433 0.012680726313601773 0 -0.0088873038411813876 0.012340167522028848 0 -0.0081223996406207359 0.011596662637752695 0 -0.0081223996406207359 0.011596662637752695 0 -0.0072901901875056839 0.011157190356612601 0 -0.0073855731633136485 0.012490956545799327 0 -0.0081223996406207359 0.011596662637752695 0 -0.0080239140602704918 0.01010738049304955 0 -0.0072901901875056839 0.011157190356612601 0 -0.0081223996406207359 0.011596662637752695 0 -0.0080239140602704918 0.01010738049304955 0 -0.0086344104820504832 0.010950650050355568 0 -0.0080239140602704918 0.01010738049304955 0 -0.0086344104820504832 0.010950650050355568 0 -0.0087434504187915065 0.0095762010043421598 0 -0.0086344104820504832 0.010950650050355568 0 -0.0087434504187915065 0.0095762010043421598 0 -0.009241790573030326 0.01098083516557467 0 -0.0088873038411813876 0.012340167522028848 0 -0.0086344104820504832 0.010950650050355568 0 -0.009241790573030326 0.01098083516557467 0 -0.0090706311739606627 0.0083780192753496272 0 -0.0087434504187915065 0.0095762010043421598 0 -0.0096816344489572582 0.0093096453885972152 0 -0.0087434504187915065 0.0095762010043421598 0 -0.009241790573030326 0.01098083516557467 0 -0.0096816344489572582 0.0093096453885972152 0 -0.0082308786445810054 0.0086064384822765825 0 -0.0080239140602704918 0.01010738049304955 0 -0.0072146901240575049 0.0093123172702046803 0 -0.0082308786445810054 0.0086064384822765825 0 -0.0080239140602704918 0.01010738049304955 0 -0.0087434504187915065 0.0095762010043421598 0 -0.0074099185797559149 0.015943475303378921 0 -0.008855551685386983 0.014634909487007068 0 -0.00701180407526908 0.01498847417992139 0 -0.0083521934351718993 0.017577143196637276 0 -0.0058675955445126908 0.017760816717946215 0 -0.009398693452036793 0.013086721839677564 0 -0.00701180407526908 0.01498847417992139 0 -0.0090876334946045061 0.017349678235035505 0 -0.0096693666270227744 0.012827993388773993 0 -0.008855551685386983 0.014634909487007068 0 -0.009398693452036793 0.013086721839677564 0 -0.009241790573030326 0.01098083516557467 0 -0.010465149497764272 0.010563793501857372 0 -0.0086147231667961805 0.013270270755745968 0 -0.0085051966912223827 0.014224045431109453 0 -0.0079965195084570877 0.013561476405854688 0 -0.008855551685386983 0.014634909487007068 0 -0.0088346943670055446 0.011433230013605609 0 -0.009241790573030326 0.01098083516557467 0 -0.010465149497764272 0.010563793501857372 0 -0.0096816344489572582 0.0093096453885972152 0 -0.0083521934351718993 0.017577143196637276 0 -0.0063009882226591684 0.019438897633662508 0 -0.0058675955445126908 0.017760816717946215 0 -0.0080878174994469983 0.017803617000483198 0 -0.008855551685386983 0.014634909487007068 0 -0.007753003037858754 0.020068773222992886 0 -0.0083521934351718993 0.017577143196637276 0 -0.0063009882226591684 0.019438897633662508 0 -0.0047193751083145661 0.019324226609950815 0 -0.003772271672133808 0.018273345841097861 0 -0.0058675955445126908 0.017760816717946215 0 -0.0063009882226591684 0.019438897633662508 0 -0.0047193751083145661 0.019324226609950815 0 -0.0058675955445126908 0.017760816717946215 0 -0.003458355038081022 0.019903393854872751 0 -0.003772271672133808 0.018273345841097861 0 -0.0019099828207533788 0.018320100176244893 0 -0.003458355038081022 0.019903393854872751 0 -0.0047193751083145661 0.019324226609950815 0 -0.003772271672133808 0.018273345841097861 0 -0.003772271672133808 0.018273345841097861 0 -0.0032910398442138012 0.016924410719696623 0 -0.0019099828207533788 0.018320100176244893 0 -0.00701180407526908 0.01498847417992139 0 -0.0058675955445126908 0.017760816717946215 0 -0.0032910398442138012 0.016924410719696623 0 -0.003772271672133808 0.018273345841097861 0 -0.0058675955445126908 0.017760816717946215 0 -0.0032910398442138012 0.016924410719696623 0 -0.0074886367021397724 0.012613207677300923 0 -0.00701180407526908 0.01498847417992139 0 -0.0032910398442138012 0.016924410719696623 0 -0.0049731320544961375 0.017316760446842737 0 -0.0032910398442138012 0.016924410719696623 0 -0.0030550617201225991 0.017311704107472393 0 -0.0062152529487713316 0.015027955473244925 0 -0.0035429315026790612 0.016768188099359239 0 -0.0032910398442138012 0.016924410719696623 0 -0.0030550617201225991 0.017311704107472393 0 -0.0026205961647386058 0.0173660919519966 0 -0.0044113099053921688 0.015832775511124029 0 -0.0049731320544961375 0.017316760446842737 0 -0.0030550617201225991 0.017311704107472393 0 -0.0024653153982368663 0.018174688612467366 0 -0.0025387983866901678 0.017809678053582315 0 -0.0022831127134516297 0.018202043078163116 0 -0.0025387983866901678 0.017809678053582315 0 -0.0023700553607870407 0.01804143429407935 0 -0.0022831127134516297 0.018202043078163116 0 -0.0028429580029830938 0.017962793801991127 0 -0.0030550617201225991 0.017311704107472393 0 -0.0025387983866901678 0.017809678053582315 0 -0.0028429580029830938 0.017962793801991127 0 -0.0024653153982368663 0.018174688612467366 0 -0.0025387983866901678 0.017809678053582315 0 -0.0025387983866901678 0.017809678053582315 0 -0.0026205961647386058 0.0173660919519966 0 -0.0023361839376748791 0.017629681273459989 0 -0.0030550617201225991 0.017311704107472393 0 -0.0025387983866901678 0.017809678053582315 0 -0.0026205961647386058 0.0173660919519966 0 -0.0025387983866901678 0.017809678053582315 0 -0.0023361839376748791 0.017629681273459989 0 -0.0023700553607870407 0.01804143429407935 0 -0.00033979099631066816 0.016546388558374397 0 0.0013813926544636178 0.015869278771879429 0 0.0016787772290782978 0.015135191810021315 0 -0.0019099828207533788 0.018320100176244893 0 0.0013655194592991759 0.017835526829254433 0 0.0016787772290782978 0.015135191810021315 0 0.0013655194592991759 0.017835526829254433 0 0.0041206054701291364 0.017393110175467769 0 0.0016787772290782978 0.015135191810021315 0 0.0041206054701291364 0.017393110175467769 0 0.0042117760542183611 0.015081728530534988 0 -0.0026205961647386058 0.0173660919519966 0 -0.0023361839376748791 0.017629681273459989 0 -0.0019099828207533788 0.018320100176244893 0 -0.0032910398442138012 0.016924410719696623 0 -0.0026205961647386058 0.0173660919519966 0 -0.0019099828207533788 0.018320100176244893 0 -0.00033979099631066816 0.016546388558374397 0 -0.0018732555140350759 0.018218925059815316 0 0.0014905542171861821 0.02041775179866406 0 0.0013655194592991759 0.017835526829254433 0 0.0041206054701291364 0.017393110175467769 0 0.003891501020204587 0.016863591211729933 0 0.0051438161550044909 0.015602582223436577 0 0.0014905542171861821 0.02041775179866406 0 -0.0019099828207533788 0.018320100176244893 0 0.0013655194592991759 0.017835526829254433 0 0.0059502310708306975 0.013451437503421846 0 0.0061741828733624963 0.013530255748755085 0 0.0062216353981715492 0.013838526135385366 0 0.0041206054701291364 0.017393110175467769 0 0.0042117760542183611 0.015081728530534988 0 0.0060871774505278893 0.014377575991137006 0 0.0051438161550044909 0.015602582223436577 0 0.0060112456295234951 0.014460682113042182 0 0.0061132777595401854 0.013912842499302067 0 0.0060871774505278893 0.014377575991137006 0 0.0062797127059541578 0.014186892700041299 0 0.0062216353981715492 0.013838526135385366 0 0.0061132777595401854 0.013912842499302067 0 0.0060871774505278893 0.014377575991137006 0 0.0059502310708306975 0.013451437503421846 0 0.0062216353981715492 0.013838526135385366 0 0.0061132777595401854 0.013912842499302067 0 0.0061892160923143133 0.013670488959538459 0 0.0059502310708306975 0.013451437503421846 0 0.0061132777595401854 0.013912842499302067 0 0.0061892160923143133 0.013670488959538459 0 0.0061132777595401854 0.013912842499302067 0 0.0062743758009255017 0.013947986007143384 0 0.0063611002804742399 0.013752919865009939 0 0.0061892160923143133 0.013670488959538459 0 0.0063627865000108128 0.0137945239115543 0 0.0061892160923143133 0.013670488959538459 0 0.0063627865000108128 0.0137945239115543 0 0.0062743758009255017 0.013947986007143384 0 0.0063627865000108128 0.0137945239115543 0 0.0062743758009255017 0.013947986007143384 0 0.00635962872547533 0.013937516196531816 0 0.0061132777595401854 0.013912842499302067 0 0.0062743758009255017 0.013947986007143384 0 0.0062797127059541578 0.014186892700041299 0 0.0062743758009255017 0.013947986007143384 0 0.0065033729038200035 0.0141837358985413 0 0.00635962872547533 0.013937516196531816 0 0.0062743758009255017 0.013947986007143384 0 0.0065033729038200035 0.0141837358985413 0 0.0062797127059541578 0.014186892700041299 0 0.00635962872547533 0.013937516196531816 0 0.0066308248875275857 0.014695138354080695 0 0.0064179414317461995 0.014871631088073337 0 0.0065033729038200035 0.0141837358985413 0 0.00635962872547533 0.013937516196531816 0 0.0066308248875275857 0.014695138354080695 0 0.0065033729038200035 0.0141837358985413 0 0.0065953068328903726 0.014399059288650909 0 0.0063030529552542732 0.014086529249254794 0 0.0065033729038200035 0.0141837358985413 0 0.0066308248875275857 0.014695138354080695 0 0.0065953068328903726 0.014399059288650909 0 0.0065953068328903726 0.014399059288650909 0 0.0063030529552542732 0.014086529249254794 0 0.0065916196850587094 0.014346600116892946 0 0.0063030529552542732 0.014086529249254794 0 0.0051741846364075699 0.013568232318335736 0 0.0065916196850587094 0.014346600116892946 0 -0.0023700553607870407 0.01804143429407935 0 -0.0022831127134516297 0.018202043078163116 0 -0.002047692694437091 0.018346715030388934 0 -0.0023700553607870407 0.01804143429407935 0 -0.002047692694437091 0.018346715030388934 0 -0.0019035012805286597 0.018372969954010766 0 0.0013813926544636178 0.015869278771879429 0 0.0020761014421119819 0.016340735804511921 0 0.0042117760542183611 0.015081728530534988 0 0.0051741846364075699 0.013568232318335736 0 0.0060871774505278893 0.014377575991137006 0 0.0016787772290782978 0.015135191810021315 0 0.0042117760542183611 0.015081728530534988 0 0.0051741846364075699 0.013568232318335736 0 0.0063030529552542732 0.014086529249254794 0 0.0051741846364075699 0.013568232318335736 0 0.0060871774505278893 0.014377575991137006 0 0.0065033729038200035 0.0141837358985413 0 0.0063030529552542732 0.014086529249254794 0 0.0062797127059541578 0.014186892700041299 0 0.0063030529552542732 0.014086529249254794 0 0.0060871774505278893 0.014377575991137006 0 0.0062797127059541578 0.014186892700041299 0 0.012560745750836133 0.013203713370250062 0 0.0078587883654303633 0.014159220633154907 0 0.0099093289248279107 0.011898200697279657 0 0.0073639079153370356 0.013978318639130481 0 0.0073415056489183539 0.013967567918275621 0 0.0078587883654303633 0.014159220633154907 0 0.0097048406155199295 0.015403884547747305 0 0.0080421754759933753 0.014266750888541721 0 0.0071237240367058377 0.014010475593937867 0 0.0073639079153370356 0.013978318639130481 0 0.0078587883654303633 0.014159220633154907 0 0.0071237240367058377 0.014010475593937867 0 0.0078587883654303633 0.014159220633154907 0 0.0067676418806826566 0.013672090095245532 0 0.0078587883654303633 0.014159220633154907 0 0.0067676418806826566 0.013672090095245532 0 0.0077126240830586437 0.012777883202987042 0 0.0065016473498323195 0.013890353677498411 0 0.0071237240367058377 0.014010475593937867 0 0.0067676418806826566 0.013672090095245532 0 0.0065016473498323195 0.013890353677498411 0 0.0063627865000108128 0.0137945239115543 0 0.0067676418806826566 0.013672090095245532 0 0.0063611002804742399 0.013752919865009939 0 0.0065016473498323195 0.013890353677498411 0 0.0063627865000108128 0.0137945239115543 0 0.0063627865000108128 0.0137945239115543 0 0.00635962872547533 0.013937516196531816 0 0.0067676418806826566 0.013672090095245532 0 0.00635962872547533 0.013937516196531816 0 0.0067676418806826566 0.013672090095245532 0 0.0067895300305811507 0.012718800142488157 0 0.0066986692724070023 0.013933155105757943 0 0.0058684623177608641 0.013434772577718626 0 0.00635962872547533 0.013937516196531816 0 0.0064179414317461995 0.014871631088073337 0 0.0061032193674233686 0.014779275881377008 0 0.0064179414317461995 0.014871631088073337 0 0.0061032193674233686 0.014779275881377008 0 0.0064204116104169609 0.015522206349174018 0 0.0061032193674233686 0.014779275881377008 0 0.0056223292823200637 0.015643843192022517 0 0.0064204116104169609 0.015522206349174018 0 0.0067676418806826566 0.013672090095245532 0 0.0067895300305811507 0.012718800142488157 0 0.0077126240830586437 0.012777883202987042 0 0.0067895300305811507 0.012718800142488157 0 0.0077126240830586437 0.012777883202987042 0 0.0083521598289215283 0.011343566573056562 0 0.0058684623177608641 0.013434772577718626 0 0.0099670778434840356 0.01596892793234549 0 0.0061032193674233686 0.014779275881377008 0 0.0051891709469874025 0.015167992403284366 0 0.0056223292823200637 0.015643843192022517 0 0.0099670778434840356 0.01596892793234549 0 0.006581578227311792 0.016988816373965262 0 0.017095438008124849 0.017840409847182982 0 0.017748942609465329 0.017504851283542389 0 0.017423749660582594 0.017088993320180011 0 0.0099670778434840356 0.01596892793234549 0 0.013993971176465303 0.014562558262601341 0 0.015514587579088249 0.019050626066198232 0 0.0099670778434840356 0.01596892793234549 0 0.0077126240830586437 0.012777883202987042 0 0.0083521598289215283 0.011343566573056562 0 0.0099093289248279107 0.011898200697279657 0 0.0078587883654303633 0.014159220633154907 0 0.0077126240830586437 0.012777883202987042 0 0.0099093289248279107 0.011898200697279657 0 0.01133681690975597 0.015911441896254732 0 0.0097017888145782671 0.017849065417584031 0 0.0083764015841338163 0.015661159018234085 0 0.012489380075749529 0.019581812311011634 0 0.0088847852396587573 0.020208509213380643 0 0.0097017888145782671 0.017849065417584031 0 0.0088847852396587573 0.020208509213380643 0 0.0097017888145782671 0.017849065417584031 0 0.0075516427458162784 0.018581880956668677 0 0.0097017888145782671 0.017849065417584031 0 0.0075516427458162784 0.018581880956668677 0 0.0077774633750376451 0.016867551548415273 0 0.0075516427458162784 0.018581880956668677 0 0.0077774633750376451 0.016867551548415273 0 0.0065559282442373672 0.016595090747819275 0 0.0077774633750376451 0.016867551548415273 0 0.0070080347664514386 0.01650300996319793 0 0.0083764015841338163 0.015661159018234085 0 0.0097017888145782671 0.017849065417584031 0 0.0077774633750376451 0.016867551548415273 0 0.0083764015841338163 0.015661159018234085 0 0.0070080347664514386 0.01650300996319793 0 0.0065559282442373672 0.016595090747819275 0 0.0066113776755686738 0.016136155407940465 0 0.0077774633750376451 0.016867551548415273 0 0.0070080347664514386 0.01650300996319793 0 0.0065559282442373672 0.016595090747819275 0 0.006581578227311792 0.016988816373965262 0 0.0065729375185150946 0.016779361902454541 0 0.0056223292823200637 0.015643843192022517 0 0.0065559282442373672 0.016595090747819275 0 0.0064204116104169609 0.015522206349174018 0 0.0065559282442373672 0.016595090747819275 0 0.0064204116104169609 0.015522206349174018 0 0.0066113776755686738 0.016136155407940465 0 0.0064204116104169609 0.015522206349174018 0 0.0066113776755686738 0.016136155407940465 0 0.0065855682105770367 0.015370509865378022 0 0.0064179414317461995 0.014871631088073337 0 0.0064204116104169609 0.015522206349174018 0 0.0065855682105770367 0.015370509865378022 0 0.0066113776755686738 0.016136155407940465 0 0.0065855682105770367 0.015370509865378022 0 0.0066968078782330409 0.015961435019486565 0 0.0070080347664514386 0.01650300996319793 0 0.0066113776755686738 0.016136155407940465 0 0.0067906548805763958 0.016341241068175347 0 0.0066113776755686738 0.016136155407940465 0 0.0067906548805763958 0.016341241068175347 0 0.0066968078782330409 0.015961435019486565 0 0.0067906548805763958 0.016341241068175347 0 0.006765671080142031 0.016396764052169568 0 0.0066968078782330409 0.015961435019486565 0 0.0067906548805763958 0.016341241068175347 0 0.006765671080142031 0.016396764052169568 0 0.0070517334383085242 0.016630127227633212 0 0.0070080347664514386 0.01650300996319793 0 0.0067906548805763958 0.016341241068175347 0 0.0070517334383085242 0.016630127227633212 0 0.006765671080142031 0.016396764052169568 0 0.0070517334383085242 0.016630127227633212 0 0.006667132705916852 0.016346835329129367 0 0.0052919751013425619 0.023363188026448937 0 0.0073826565184181257 0.022270349057619238 0 0.0089094298085072143 0.022750697073437378 0 0.0043969158436852982 0.023920639801002799 0 0.0035324749863165743 0.024084906541691816 0 0.0055620398856210656 0.021812619866587928 0 0.0070517334383085242 0.016630127227633212 0 0.006667132705916852 0.016346835329129367 0 0.007859437897392298 0.016116748423391489 0 0.0054358360024571962 0.021055113346680348 0 0.008563623072482162 0.019339123827254168 0 0.0043969158436852982 0.023920639801002799 0 0.006148289482124706 0.022034260317974376 0 0.0055620398856210656 0.021812619866587928 0 0.0054358360024571962 0.021055113346680348 0 0.0063075873215683474 0.022026954764292069 0 0.0037596444383936633 0.022871655968647833 0 0.0051279545403973021 0.022289123739503373 0 0.0033058170877130512 0.023921496865872215 0 0.0037919780667992242 0.022380665804543991 0 0.0055620398856210656 0.021812619866587928 0 0.0037919780667992242 0.022380665804543991 0 0.0055620398856210656 0.021812619866587928 0 0.0042602897585821446 0.021356267210342793 0 0.0052919751013425619 0.023363188026448937 0 0.0073826565184181257 0.022270349057619238 0 0.0069151792043282891 0.021594355805719192 0 0.0073826565184181257 0.022270349057619238 0 0.0069151792043282891 0.021594355805719192 0 0.008389001232159533 0.021378110430492776 0 0.0073826565184181257 0.022270349057619238 0 0.0089094298085072143 0.022750697073437378 0 0.008389001232159533 0.021378110430492776 0 0.0089094298085072143 0.022750697073437378 0 0.010332219489160761 0.020901194724774457 0 0.008389001232159533 0.021378110430492776 0 0.007859437897392298 0.016116748423391489 0 0.007528872742694633 0.016873899713042748 0 0.010196460908033654 0.017682635281682645 0 0.0070080347664514386 0.01650300996319793 0 0.007528872742694633 0.016873899713042748 0 0.0083764015841338163 0.015661159018234085 0 0.0070517334383085242 0.016630127227633212 0 0.007859437897392298 0.016116748423391489 0 0.007528872742694633 0.016873899713042748 0 0.0070080347664514386 0.01650300996319793 0 0.0070517334383085242 0.016630127227633212 0 0.007528872742694633 0.016873899713042748 0 0.007528872742694633 0.016873899713042748 0 0.012185572053736077 0.019890400464697203 0 0.010196460908033654 0.017682635281682645 0 0.0079055738170639381 0.017014718577355242 0 0.010348530766293523 0.017719119656862226 0 0.008563623072482162 0.019339123827254168 0 0.012689671736201939 0.019221990229287184 0 0.007859437897392298 0.016116748423391489 0 0.010196460908033654 0.017682635281682645 0 0.012958058304272648 0.016834144491012316 0 0.0089094298085072143 0.022750697073437378 0 0.012903141382936027 0.021437823579230551 0 0.010332219489160761 0.020901194724774457 0 0.012185572053736077 0.019890400464697203 0 0.010196460908033654 0.017682635281682645 0 0.012958058304272648 0.016834144491012316 0 0.015410536470204022 0.019253343897781827 0 0.012689671736201939 0.019221990229287184 0 0.014940649895948075 0.018956997145955484 0 0.012185572053736077 0.019890400464697203 0 0.012958058304272648 0.016834144491012316 0 0.014940649895948075 0.018956997145955484 0 0.015817868556852275 0.019333487308961166 0 0.012958058304272648 0.016834144491012316 0 0.015286463995195872 0.020294111988365251 0 0.014940649895948075 0.018956997145955484 0 0.012185572053736077 0.019890400464697203 0 0.013268257137116218 0.018103293388886658 0 0.010348530766293523 0.017719119656862226 0 -0.0016349883333931566 0.018614208443521345 0 -0.0014462183889556517 0.01874196968420486 0 -0.0012593579787500669 0.018633175826789767 0 -0.0016349883333931566 0.018614208443521345 0 -0.0019237426889760348 0.01851321533454546 0 -0.0018068986994667197 0.018546554686232855 0 -0.0016349883333931566 0.018614208443521345 0 -0.0018068986994667197 0.018546554686232855 0 -0.0014462183889556517 0.01874196968420486 0 -0.0016349883333931566 0.018614208443521345 0 -0.0017259489079746258 0.018547360934789453 0 -0.0012593579787500669 0.018633175826789767 0 -0.002160680827476026 0.018441432512429402 0 -0.0017259489079746258 0.018547360934789453 0 -0.0019237426889760348 0.01851321533454546 0 -0.0022729128834186028 0.018385204848165675 0 -0.002160680827476026 0.018441432512429402 0 -0.0019237426889760348 0.01851321533454546 0 -0.0016349883333931566 0.018614208443521345 0 -0.0017259489079746258 0.018547360934789453 0 -0.0019237426889760348 0.01851321533454546 0 -0.0019237426889760348 0.01851321533454546 0 -0.0020247518590106959 0.018419687184950399 0 -0.0018068986994667197 0.018546554686232855 0 -0.0019237426889760348 0.01851321533454546 0 -0.0020247518590106959 0.018419687184950399 0 -0.0021997604870176799 0.018334184176717932 0 -0.0022729128834186028 0.018385204848165675 0 -0.0019237426889760348 0.01851321533454546 0 -0.0021997604870176799 0.018334184176717932 0 -0.0022831127134516297 0.018202043078163116 0 -0.0020247518590106959 0.018419687184950399 0 -0.0021997604870176799 0.018334184176717932 0 -0.0020247518590106959 0.018419687184950399 0 -0.002047692694437091 0.018346715030388934 0 -0.0018068986994667197 0.018546554686232855 0 -0.0022831127134516297 0.018202043078163116 0 -0.0020247518590106959 0.018419687184950399 0 -0.002047692694437091 0.018346715030388934 0 -0.0019035012805286597 0.018372969954010766 0 -0.0016733425756880742 0.018119477377908567 0 -0.001321362866156016 0.01798854617632567 0 -0.002047692694437091 0.018346715030388934 0 -0.0019035012805286597 0.018372969954010766 0 -0.0016733425756880742 0.018119477377908567 0 0.0020761014421119819 0.016340735804511921 0 0.0042371507641283867 0.017038534871767826 0 -0.002047692694437091 0.018346715030388934 0 -0.0018068986994667197 0.018546554686232855 0 -0.0014462183889556517 0.01874196968420486 0 -0.0019341306619764965 0.018414828041579814 0 -0.0015496023427702605 0.018246090567741392 0 0.0065953068328903726 0.014399059288650909 0 0.0065916196850587094 0.014346600116892946 0 0.0067775970429258354 0.014765664599824034 0 0.0065916196850587094 0.014346600116892946 0 0.0067775970429258354 0.014765664599824034 0 0.006873586835328121 0.015065312811901512 0 0.0066308248875275857 0.014695138354080695 0 0.0065953068328903726 0.014399059288650909 0 0.0067775970429258354 0.014765664599824034 0 0.0066308248875275857 0.014695138354080695 0 0.0067775970429258354 0.014765664599824034 0 0.0067262727336899059 0.015256136260361377 0 0.0067775970429258354 0.014765664599824034 0 0.0067262727336899059 0.015256136260361377 0 0.007028677537104005 0.015650317558426032 0 0.0067568388210998533 0.014235323239384973 0 0.0042371507641283867 0.017038534871767826 0 0.0066308248875275857 0.014695138354080695 0 0.0064179414317461995 0.014871631088073337 0 0.0065855682105770367 0.015370509865378022 0 0.0066308248875275857 0.014695138354080695 0 0.0065855682105770367 0.015370509865378022 0 0.0067262727336899059 0.015256136260361377 0 0.0065855682105770367 0.015370509865378022 0 0.0067262727336899059 0.015256136260361377 0 0.0066968078782330409 0.015961435019486565 0 0.0067262727336899059 0.015256136260361377 0 0.0066968078782330409 0.015961435019486565 0 0.0068124030940382007 0.015810893107582474 0 0.0066968078782330409 0.015961435019486565 0 0.0068124030940382007 0.015810893107582474 0 0.0068227288267759013 0.016275373287861005 0 -0.0014462183889556517 0.01874196968420486 0 -0.00071213674035898705 0.018802021023260895 0 -0.0012593579787500669 0.018633175826789767 0 -0.0016733425756880742 0.018119477377908567 0 -0.001321362866156016 0.01798854617632567 0 -0.0012235126319994159 0.017800737367688699 0 -0.0015496023427702605 0.018246090567741392 0 0.0011773433032715404 0.020884368728095709 0 0.0067262727336899059 0.015256136260361377 0 0.0068124030940382007 0.015810893107582474 0 0.007028677537104005 0.015650317558426032 0 0.0044811731380691349 0.019189073490686263 0 0.0043922431235212406 0.019565112972982513 0 0.0039608566765950617 0.019861942807027997 0 0.0042371507641283867 0.017038534871767826 0 0.0011773433032715404 0.020884368728095709 0 0.0068124030940382007 0.015810893107582474 0 0.007028677537104005 0.015650317558426032 0 0.0068227288267759013 0.016275373287861005 0 0.0042371507641283867 0.017038534871767826 0 0.0056497109433530941 0.017719054861927073 0 -0.00071213674035898705 0.018802021023260895 0 -0.00080876015450226195 0.018663164727715696 0 -0.0012593579787500669 0.018633175826789767 0 0.0011773433032715404 0.020884368728095709 0 0.0012034702894421552 0.020810663842947896 0 -0.00071213674035898705 0.018802021023260895 0 0.00055854075030057401 0.018513230636654616 0 -0.00041071586694167055 0.018555404997147681 0 -0.00071213674035898705 0.018802021023260895 0 -0.00080876015450226195 0.018663164727715696 0 -0.00041071586694167055 0.018555404997147681 0 0.0043922431235212406 0.019565112972982513 0 0.0039608566765950617 0.019861942807027997 0 0.0036801935022559395 0.020475811254266629 0 0.0011613959254499434 0.026207360866230742 0 0.0031969648357126831 0.023851818699659941 0 0.0025851477840024765 0.023977699502574803 0 0.0011613959254499434 0.026207360866230742 0 0.0025851477840024765 0.023977699502574803 0 0.002056910122252138 0.022565455341974437 0 0.0011773433032715404 0.020884368728095709 0 0.0037596444383936633 0.022871655968647833 0 0.006765671080142031 0.016396764052169568 0 0.0066968078782330409 0.015961435019486565 0 0.0068227288267759013 0.016275373287861005 0 0.0054358360024571962 0.021055113346680348 0 0.0056497109433530941 0.017719054861927073 0 0.006765671080142031 0.016396764052169568 0 0.006667132705916852 0.016346835329129367 0 0.0068227288267759013 0.016275373287861005 0 0.0034403555463463536 0.020531381444650564 0 0.0039608566765950617 0.019861942807027997 0 0.0036801935022559395 0.020475811254266629 0 0.0054358360024571962 0.021055113346680348 0 0.0037596444383936633 0.022871655968647833 0 0.0037596444383936633 0.022871655968647833 0 0.0031304350896744723 0.023187579567631081 0 0.0033058170877130512 0.023921496865872215 0 0.0025851477840024765 0.023977699502574803 0 0.002056910122252138 0.022565455341974437 0 0.002056910122252138 0.022565455341974437 0 0.0037919780667992242 0.022380665804543991 0 0.0042602897585821446 0.021356267210342793 0 0.0033058170877130512 0.023921496865872215 0 0.002056910122252138 0.022565455341974437 0 0.0037919780667992242 0.022380665804543991 0 -0.00041071586694167055 0.018555404997147681 0 -0.00016938361479253299 0.018272515340720497 0 -0.00098252443213346684 0.018402917632824055 0 0.00055854075030057401 0.018513230636654616 0 -0.00041071586694167055 0.018555404997147681 0 -0.00016938361479253299 0.018272515340720497 0 -0.00016938361479253299 0.018272515340720497 0 -0.00098252443213346684 0.018402917632824055 0 -0.0010668670710925264 0.017832615352956657 0 -0.00098252443213346684 0.018402917632824055 0 -0.0012593579787500669 0.018633175826789767 0 -0.0017208440640900939 0.018433410286036747 0 -0.00080876015450226195 0.018663164727715696 0 -0.00041071586694167055 0.018555404997147681 0 -0.00098252443213346684 0.018402917632824055 0 -0.00080876015450226195 0.018663164727715696 0 -0.00098252443213346684 0.018402917632824055 0 -0.0012593579787500669 0.018633175826789767 0 -0.002160680827476026 0.018441432512429402 0 -0.0017259489079746258 0.018547360934789453 0 -0.0017208440640900939 0.018433410286036747 0 -0.0017259489079746258 0.018547360934789453 0 -0.0012593579787500669 0.018633175826789767 0 -0.0017208440640900939 0.018433410286036747 0 -0.0020302942044308982 0.01793954174877271 0 -0.00098252443213346684 0.018402917632824055 0 -0.0010668670710925264 0.017832615352956657 0 -0.0020302942044308982 0.01793954174877271 0 -0.00098252443213346684 0.018402917632824055 0 -0.0017208440640900939 0.018433410286036747 0 -0.0020302942044308982 0.01793954174877271 0 -0.0017026901477889694 0.016993991839494998 0 -0.0010668670710925264 0.017832615352956657 0 -0.0017026901477889694 0.016993991839494998 0 -0.00041565378446049812 0.017276637777389529 0 -0.0010668670710925264 0.017832615352956657 0 -0.0017026901477889694 0.016993991839494998 0 -0.00041565378446049812 0.017276637777389529 0 -0.0013028147061377067 0.015707602259455861 0 -0.00016938361479253299 0.018272515340720497 0 -0.00041565378446049812 0.017276637777389529 0 -0.0010668670710925264 0.017832615352956657 0 0.00055854075030057401 0.018513230636654616 0 -0.00016938361479253299 0.018272515340720497 0 0.0007794572283116156 0.017737468581493915 0 -0.00016938361479253299 0.018272515340720497 0 -0.00041565378446049812 0.017276637777389529 0 0.0007794572283116156 0.017737468581493915 0 0.00055854075030057401 0.018513230636654616 0 0.0007794572283116156 0.017737468581493915 0 0.0030523301361143613 0.017501467582730069 0 0.002056910122252138 0.022565455341974437 0 0.0039975539418191167 0.019901739486407583 0 0.0030523301361143613 0.017501467582730069 0 0.0012034702894421552 0.020810663842947896 0 0.0029821249290877378 0.017331971652895312 0 0.002056910122252138 0.022565455341974437 0 0.0039975539418191167 0.019901739486407583 0 0.0042602897585821446 0.021356267210342793 0 -0.00041565378446049812 0.017276637777389529 0 0.0007794572283116156 0.017737468581493915 0 0.00077025462322705953 0.016119229281162786 0 0.0007794572283116156 0.017737468581493915 0 0.0030523301361143613 0.017501467582730069 0 0.00077025462322705953 0.016119229281162786 0 0.0030523301361143613 0.017501467582730069 0 0.00077025462322705953 0.016119229281162786 0 0.0030340424945456126 0.013723148185828173 0 0.0030523301361143613 0.017501467582730069 0 0.0030340424945456126 0.013723148185828173 0 0.0055082910488668318 0.015184932846739779 0 0.00077025462322705953 0.016119229281162786 0 0.0030340424945456126 0.013723148185828173 0 0.00011046073268067692 0.01323814064720202 0 0.00077025462322705953 0.016119229281162786 0 0.00011046073268067692 0.01323814064720202 0 -0.0013028147061377067 0.015707602259455861 0 -0.00037884426203262691 0.014485864056781249 0 -0.0012009347448188748 0.015502310296053078 0 -0.00083582340978079022 0.015474607028650486 0 -0.0013067665814827107 0.015422151264405605 0 -0.0013028147061377067 0.015707602259455861 0 -0.0013067665814827107 0.015422151264405605 0 -0.0013028147061377067 0.015707602259455861 0 -0.001901481470420113 0.015376480442605096 0 -0.0017026901477889694 0.016993991839494998 0 -0.0013028147061377067 0.015707602259455861 0 -0.0025033710449719414 0.016207879171802064 0 -0.00041565378446049812 0.017276637777389529 0 0.00077025462322705953 0.016119229281162786 0 -0.0013028147061377067 0.015707602259455861 0 0.015337979604927564 0.018682236810607739 0 0.014771532916032708 0.017267931911142221 0 0.012177085001011639 0.018724506984544292 0 0.015337979604927564 0.018682236810607739 0 0.012903141382936027 0.021437823579230551 0 0.012177085001011639 0.018724506984544292 0 0.010332219489160761 0.020901194724774457 0 0.012177085001011639 0.018724506984544292 0 0.0083305491977456129 0.019864792699201279 0 0.012903141382936027 0.021437823579230551 0 0.010332219489160761 0.020901194724774457 0 0.012177085001011639 0.018724506984544292 0 0.0083305491977456129 0.019864792699201279 0 0.0060634878401506793 0.018018703950773169 0 0.0083931316994826539 0.01633227795996418 0 0.012177085001011639 0.018724506984544292 0 0.0083305491977456129 0.019864792699201279 0 0.0083931316994826539 0.01633227795996418 0 0.010332219489160761 0.020901194724774457 0 0.008389001232159533 0.021378110430492776 0 0.0083305491977456129 0.019864792699201279 0 0.0063075873215683474 0.022026954764292069 0 0.0081780426885854646 0.0200031519501069 0 0.0069151792043282891 0.021594355805719192 0 0.008389001232159533 0.021378110430492776 0 0.0083305491977456129 0.019864792699201279 0 0.0083305491977456129 0.019864792699201279 0 0.0059991268062535574 0.020402558938549448 0 0.0060634878401506793 0.018018703950773169 0 0.006148289482124706 0.022034260317974376 0 0.0083305491977456129 0.019864792699201279 0 0.0059991268062535574 0.020402558938549448 0 0.006148289482124706 0.022034260317974376 0 0.0059991268062535574 0.020402558938549448 0 0.0055620398856210656 0.021812619866587928 0 0.0039975539418191167 0.019901739486407583 0 0.0059991268062535574 0.020402558938549448 0 0.0042602897585821446 0.021356267210342793 0 0.0059991268062535574 0.020402558938549448 0 0.0055620398856210656 0.021812619866587928 0 0.0042602897585821446 0.021356267210342793 0 0.0039975539418191167 0.019901739486407583 0 0.0059991268062535574 0.020402558938549448 0 0.0060634878401506793 0.018018703950773169 0 0.0039975539418191167 0.019901739486407583 0 0.0030523301361143613 0.017501467582730069 0 0.0060634878401506793 0.018018703950773169 0 0.0030523301361143613 0.017501467582730069 0 0.0060634878401506793 0.018018703950773169 0 0.0055082910488668318 0.015184932846739779 0 0.0060634878401506793 0.018018703950773169 0 0.0055082910488668318 0.015184932846739779 0 0.0083931316994826539 0.01633227795996418 0 0.0030340424945456126 0.013723148185828173 0 0.0055082910488668318 0.015184932846739779 0 0.0064604921656005732 0.012182946766509092 0 0.0055082910488668318 0.015184932846739779 0 0.008784296781376065 0.013806277904786626 0 0.0064604921656005732 0.012182946766509092 0 0.0055082910488668318 0.015184932846739779 0 0.008784296781376065 0.013806277904786626 0 0.0083931316994826539 0.01633227795996418 0 0.008784296781376065 0.013806277904786626 0 0.0083931316994826539 0.01633227795996418 0 0.011276611401196504 0.015151325488101006 0 0.012177085001011639 0.018724506984544292 0 0.0083931316994826539 0.01633227795996418 0 0.012591957981580066 0.01570971453119684 0 0.0086902008041013518 0.016394979053272189 0 0.011529386739069203 0.015181850603243348 0 0.008784296781376065 0.013806277904786626 0 0.011083103338614814 0.012870780613499709 0 0.011276611401196504 0.015151325488101006 0 0.017186666379122719 0.01746480925066277 0 0.011529386739069203 0.015181850603243348 0 0.014424439792262593 0.013993553166644709 0 0.011083103338614814 0.012870780613499709 0 0.011276611401196504 0.015151325488101006 0 0.014771532916032708 0.017267931911142221 0 0.012177085001011639 0.018724506984544292 0 0.012591957981580066 0.01570971453119684 0 0.014771532916032708 0.017267931911142221 0 0.015963347781504839 0.015171271351691436 0 0.012591957981580066 0.01570971453119684 0 0.016584933915346559 0.015733469743953607 0 0.012938589279831457 0.020112148133208909 0 0.020084926386189111 0.022111670837943947 0 0.020134805519880887 0.021739330333320324 0 0.020305305643374783 0.022248296139871591 0 0.019837666183129196 0.022347603026313438 0 0.020084926386189111 0.022111670837943947 0 0.020305305643374783 0.022248296139871591 0 0.012808024863745054 0.01117536020312844 0 0.0097274831803196033 0.011094814850850411 0 0.011180321830554112 0.0083489534026943198 0 0.014424439792262593 0.013993553166644709 0 0.011083103338614814 0.012870780613499709 0 0.012808024863745054 0.01117536020312844 0 0.011083103338614814 0.012870780613499709 0 0.012808024863745054 0.01117536020312844 0 0.0097274831803196033 0.011094814850850411 0 0.008784296781376065 0.013806277904786626 0 0.011083103338614814 0.012870780613499709 0 0.0097274831803196033 0.011094814850850411 0 0.0097274831803196033 0.011094814850850411 0 0.0091606622577731778 0.009485463823667507 0 0.011180321830554112 0.0083489534026943198 0 0.0091606622577731778 0.009485463823667507 0 0.0077733317780240866 0.0083625798418706567 0 0.011180321830554112 0.0083489534026943198 0 0.0091606622577731778 0.009485463823667507 0 0.0078387115154983401 0.010250155591217797 0 0.0077733317780240866 0.0083625798418706567 0 0.0078387115154983401 0.010250155591217797 0 0.0060760340039464561 0.010097554059313641 0 0.0077733317780240866 0.0083625798418706567 0 0.0097274831803196033 0.011094814850850411 0 0.0091606622577731778 0.009485463823667507 0 0.0078387115154983401 0.010250155591217797 0 0.0097274831803196033 0.011094814850850411 0 0.0078387115154983401 0.010250155591217797 0 0.0064604921656005732 0.012182946766509092 0 0.0078387115154983401 0.010250155591217797 0 0.0064604921656005732 0.012182946766509092 0 0.0060760340039464561 0.010097554059313641 0 0.008784296781376065 0.013806277904786626 0 0.0097274831803196033 0.011094814850850411 0 0.0064604921656005732 0.012182946766509092 0 0.0030340424945456126 0.013723148185828173 0 0.0064604921656005732 0.012182946766509092 0 0.0043936621531741977 0.011057518933696468 0 0.0064604921656005732 0.012182946766509092 0 0.0060760340039464561 0.010097554059313641 0 0.0043936621531741977 0.011057518933696468 0 0.0060760340039464561 0.010097554059313641 0 0.0043936621531741977 0.011057518933696468 0 0.0042950380564404011 0.0084627913485327694 0 0.0060760340039464561 0.010097554059313641 0 0.0077733317780240866 0.0083625798418706567 0 0.0042950380564404011 0.0084627913485327694 0 0.0091136986813694747 0.016728611020225485 0 0.006185377388143635 0.018900661102382407 0 0.010348248761088584 0.025486630643925142 0 0.010688736190830057 0.026000418351759945 0 0.0098105773068842186 0.02594542349013039 0 0.010122404336357952 0.026369977303113683 0 0.006185377388143635 0.018900661102382407 0 0.010017153636981661 0.025751556272337998 0 0.010766122928440088 0.025000000467265769 0 0.0093366495132828544 0.024999961139081539 0 0.01076657811603164 0.024999817191844562 0 0.010867097728494979 0.025544293047857252 0 0.011212165986090936 0.02538961766293275 0 0.010348248761088584 0.025486630643925142 0 0.01076657811603164 0.024999817191844562 0 0.010867097728494979 0.025544293047857252 0 0.010122404336357952 0.026369977303113683 0 0.010766419341423071 0.024999543939438498 0 0.010867097728494979 0.025544293047857252 0 0.010688736190830057 0.026000418351759945 0 0.011462582606892171 0.025698210381126584 0 0.010348248761088584 0.025486630643925142 0 0.010867097728494979 0.025544293047857252 0 0.010688736190830057 0.026000418351759945 0 0.0091136986813694747 0.016728611020225485 0 0.012938589279831457 0.020112148133208909 0 0.010688736190830057 0.026000418351759945 0 0.011462582606892171 0.025698210381126584 0 0.011660613228297536 0.026010411337117536 0 0.013045813860988837 0.025620785064406446 0 0.012938589279831457 0.020112148133208909 0 0.010867097728494979 0.025544293047857252 0 0.011462582606892171 0.025698210381126584 0 0.011212165986090936 0.02538961766293275 0 0.01076657811603164 0.024999817191844562 0 0.011212165986090936 0.02538961766293275 0 0.011768850746374232 0.025290428490352276 0 0.01076657811603164 0.024999817191844562 0 0.011768850746374232 0.025290428490352276 0 0.01217270200246639 0.024999695359370595 0 0.011462582606892171 0.025698210381126584 0 0.011212165986090936 0.02538961766293275 0 0.011768850746374232 0.025290428490352276 0 0.011768850746374232 0.025290428490352276 0 0.012375036888107777 0.025354565300338559 0 0.01204493460621096 0.025576933121611592 0 0.013015051327109138 0.025365114562390507 0 0.01217270200246639 0.024999695359370595 0 0.012375036888107777 0.025354565300338559 0 0.011768850746374232 0.025290428490352276 0 0.01217270200246639 0.024999695359370595 0 0.012375036888107777 0.025354565300338559 0 0.012785835738340514 0.025530758553868077 0 0.01204493460621096 0.025576933121611592 0 0.011714391460427846 0.026179027714080219 0 0.012785835738340514 0.025530758553868077 0 0.012375036888107777 0.025354565300338559 0 0.01204493460621096 0.025576933121611592 0 0.012785835738340514 0.025530758553868077 0 0.013405050982741827 0.025998359382160004 0 0.011714391460427846 0.026179027714080219 0 0.017247703683101787 0.024522619347519495 0 0.012938589279831457 0.020112148133208909 0 0.011462582606892171 0.025698210381126584 0 0.01204493460621096 0.025576933121611592 0 0.011714391460427846 0.026179027714080219 0 0.011462582606892171 0.025698210381126584 0 0.011768850746374232 0.025290428490352276 0 0.01204493460621096 0.025576933121611592 0 -0.0015663598440729799 0.014501153795852772 0 -0.0010913147976579856 0.015015811089700076 0 -0.00059648631827869444 0.014437009235628859 0 0.0025694355291861434 0.020504281179219375 0 0.0033641619629023638 0.020675102634036342 0 -0.0015663598440729799 0.014501153795852772 0 -0.0010913147976579856 0.015015811089700076 0 -0.001901481470420113 0.015376480442605096 0 -0.0013067665814827107 0.015422151264405605 0 -0.0010913147976579856 0.015015811089700076 0 -0.001901481470420113 0.015376480442605096 0 -0.00083582340978079022 0.015474607028650486 0 -0.0013067665814827107 0.015422151264405605 0 -0.0010913147976579856 0.015015811089700076 0 -0.00083582340978079022 0.015474607028650486 0 -0.0010913147976579856 0.015015811089700076 0 -0.00017484368048328237 0.014991239705809829 0 0.0030340424945456126 0.013723148185828173 0 0.00011046073268067692 0.01323814064720202 0 0.0021206484173932126 0.010786822332001376 0 -0.00037884426203262691 0.014485864056781249 0 0.00094385972931613083 0.012028879009819336 0 0.0030340424945456126 0.013723148185828173 0 0.0021206484173932126 0.010786822332001376 0 0.0043936621531741977 0.011057518933696468 0 0.0021206484173932126 0.010786822332001376 0 0.0043936621531741977 0.011057518933696468 0 0.0042950380564404011 0.0084627913485327694 0 -0.00017484368048328237 0.014991239705809829 0 -0.00059648631827869444 0.014437009235628859 0 0.00049711067627526554 0.014416279207867198 0 0.0033641619629023638 0.020675102634036342 0 0.006185377388143635 0.018900661102382407 0 0.00094385972931613083 0.012028879009819336 0 0.006185377388143635 0.018900661102382407 0 -0.0010913147976579856 0.015015811089700076 0 -0.00017484368048328237 0.014991239705809829 0 -0.00059648631827869444 0.014437009235628859 0 0.0079138216834104876 0.026519555085099407 0 0.0086024370352221022 0.025736819987184145 0 0.0072260846692671406 0.025773372067199835 0 0.010017153636981661 0.025751556272337998 0 0.0092677891471139428 0.026477653017835449 0 0.0086024370352221022 0.025736819987184145 0 0.0079138216834104876 0.026519555085099407 0 0.0092677891471139428 0.026477653017835449 0 0.0086024370352221022 0.025736819987184145 0 0.010017153636981661 0.025751556272337998 0 0.0093366495132828544 0.024999961139081539 0 0.0086024370352221022 0.025736819987184145 0 0.0093366495132828544 0.024999961139081539 0 0.0086024370352221022 0.025736819987184145 0 0.007907203070063892 0.024999965738438566 0 0.0086024370352221022 0.025736819987184145 0 0.007907203070063892 0.024999965738438566 0 0.0072260846692671406 0.025773372067199835 0 0.007907203070063892 0.024999965738438566 0 0.0072260846692671406 0.025773372067199835 0 0.0064777434500525172 0.024999953151829915 0 0.0065649828568900594 0.02655704275655258 0 0.0079138216834104876 0.026519555085099407 0 0.0072260846692671406 0.025773372067199835 0 0.0065649828568900594 0.02655704275655258 0 0.0072260846692671406 0.025773372067199835 0 0.0058461215591729537 0.025796862521429452 0 0.0072260846692671406 0.025773372067199835 0 0.0064777434500525172 0.024999953151829915 0 0.0058461215591729537 0.025796862521429452 0 0.0064777434500525172 0.024999953151829915 0 0.0050482997638291874 0.024999991998315107 0 0.0058461215591729537 0.025796862521429452 0 0.0050482997638291874 0.024999991998315107 0 0.0058461215591729537 0.025796862521429452 0 0.0044803457013981619 0.025839056136894679 0 0.0058461215591729537 0.025796862521429452 0 0.0044803457013981619 0.025839056136894679 0 0.0052172904934076796 0.026590612590788685 0 0.0065649828568900594 0.02655704275655258 0 0.0058461215591729537 0.025796862521429452 0 0.0052172904934076796 0.026590612590788685 0 0.0036188014531851808 0.024999817667020374 0 0.0032808272049815105 0.026038451026832291 0 0.0023432921152350262 0.025777240148922763 0 0.0036188014531851808 0.024999817667020374 0 0.0044803457013981619 0.025839056136894679 0 0.0032808272049815105 0.026038451026832291 0 0.0050482997638291874 0.024999991998315107 0 0.0036188014531851808 0.024999817667020374 0 0.0044803457013981619 0.025839056136894679 0 0.0044803457013981619 0.025839056136894679 0 0.0032808272049815105 0.026038451026832291 0 0.003866864929327263 0.026620016938272859 0 0.0044803457013981619 0.025839056136894679 0 0.003866864929327263 0.026620016938272859 0 0.0052172904934076796 0.026590612590788685 0 0.0032808272049815105 0.026038451026832291 0 0.003866864929327263 0.026620016938272859 0 0.0024794477475830533 0.026646217077717325 0 -0.0037188568195548103 0.01471643223269405 0 -0.0043245017620336243 0.015347078373615803 0 -0.0047654619892583969 0.014931601169717805 0 0.00011761353440302758 0.020700314843912691 0 -0.0012780693548794058 0.020543529878797054 0 0.00011761353440302758 0.020700314843912691 0 0.0012994658789101787 0.020585583268635094 0 -0.0037188568195548103 0.01471643223269405 0 -0.0037128187118485052 0.015644202931787407 0 -0.0029360822348014422 0.015476079591100563 0 -0.0037188568195548103 0.01471643223269405 0 -0.0037128187118485052 0.015644202931787407 0 -0.0043245017620336243 0.015347078373615803 0 -0.0037128187118485052 0.015644202931787407 0 -0.0042914939463071372 0.015800446559467066 0 -0.003896306483772735 0.016009419178507987 0 -0.0037128187118485052 0.015644202931787407 0 -0.0042914939463071372 0.015800446559467066 0 -0.0043245017620336243 0.015347078373615803 0 -0.0015663598440729799 0.014501153795852772 0 -0.002577939175820471 0.014577236051815502 0 -0.001901481470420113 0.015376480442605096 0 0.0025694355291861434 0.020504281179219375 0 0.0012994658789101787 0.020585583268635094 0 -0.0037188568195548103 0.01471643223269405 0 -0.002577939175820471 0.014577236051815502 0 -0.0029360822348014422 0.015476079591100563 0 -0.002577939175820471 0.014577236051815502 0 -0.0029360822348014422 0.015476079591100563 0 -0.001901481470420113 0.015376480442605096 0 -0.0029360822348014422 0.015476079591100563 0 -0.001901481470420113 0.015376480442605096 0 -0.0025033710449719414 0.016207879171802064 0 -0.0013028147061377067 0.015707602259455861 0 -0.001901481470420113 0.015376480442605096 0 -0.0025033710449719414 0.016207879171802064 0 -0.0025033710449719414 0.016207879171802064 0 -0.0033747658200145832 0.01665895050188692 0 -0.0026939293424901689 0.017232075102310049 0 -0.0025033710449719414 0.016207879171802064 0 -0.0035016396528233119 0.016191345449153561 0 -0.0033747658200145832 0.01665895050188692 0 -0.0029360822348014422 0.015476079591100563 0 -0.0025033710449719414 0.016207879171802064 0 -0.0035016396528233119 0.016191345449153561 0 -0.0037128187118485052 0.015644202931787407 0 -0.0029360822348014422 0.015476079591100563 0 -0.0035016396528233119 0.016191345449153561 0 -0.0037128187118485052 0.015644202931787407 0 -0.0035016396528233119 0.016191345449153561 0 -0.003896306483772735 0.016009419178507987 0 -0.0035016396528233119 0.016191345449153561 0 -0.003896306483772735 0.016009419178507987 0 -0.0043042601835263155 0.016368331296711152 0 -0.0042914939463071372 0.015800446559467066 0 -0.003896306483772735 0.016009419178507987 0 -0.0043042601835263155 0.016368331296711152 0 -0.0043573938174573607 0.01647944222514856 0 -0.0046541382049742801 0.016927995247511242 0 -0.0050863239259787809 0.016990380680863535 0 -0.0043042601835263155 0.016368331296711152 0 -0.0043573938174573607 0.01647944222514856 0 -0.0040860158052447451 0.017101484249812435 0 -0.0042460256074616891 0.016362204546916077 0 -0.0034483865201248285 0.016898290682855581 0 -0.0040860158052447451 0.017101484249812435 0 -0.0044614243691792396 0.017692215443372759 0 -0.0048798061396488224 0.017230954447850281 0 -0.0046541382049742801 0.016927995247511242 0 -0.0040860158052447451 0.017101484249812435 0 -0.0048798061396488224 0.017230954447850281 0 -0.0043042601835263155 0.016368331296711152 0 -0.0040860158052447451 0.017101484249812435 0 -0.0034622356750520587 0.017158950103559886 0 -0.0043573938174573607 0.01647944222514856 0 -0.0046541382049742801 0.016927995247511242 0 -0.0040860158052447451 0.017101484249812435 0 -0.0035016396528233119 0.016191345449153561 0 -0.0043042601835263155 0.016368331296711152 0 -0.0033747658200145832 0.01665895050188692 0 -0.0040860158052447451 0.017101484249812435 0 -0.0034622356750520587 0.017158950103559886 0 -0.0035227652067800022 0.017614056578418663 0 -0.0034622356750520587 0.017158950103559886 0 -0.0035227652067800022 0.017614056578418663 0 -0.0027706721935451878 0.017530080982163264 0 -0.0040860158052447451 0.017101484249812435 0 -0.0035227652067800022 0.017614056578418663 0 -0.0044614243691792396 0.017692215443372759 0 -0.0035227652067800022 0.017614056578418663 0 -0.0036879204169719499 0.01803888054823757 0 -0.0044614243691792396 0.017692215443372759 0 -0.0035227652067800022 0.017614056578418663 0 -0.0036879204169719499 0.01803888054823757 0 -0.0029006754000181871 0.017979609720791798 0 -0.0035227652067800022 0.017614056578418663 0 -0.0029006754000181871 0.017979609720791798 0 -0.0027706721935451878 0.017530080982163264 0 -0.0020719080909027089 0.017920957576232223 0 -0.002710725340222576 0.017404093123272252 0 -0.0020302942044308982 0.01793954174877271 0 -0.0029006754000181871 0.017979609720791798 0 -0.0027706721935451878 0.017530080982163264 0 -0.0020302942044308982 0.01793954174877271 0 -0.0017026901477889694 0.016993991839494998 0 -0.0026939293424901689 0.017232075102310049 0 -0.0017026901477889694 0.016993991839494998 0 -0.0025033710449719414 0.016207879171802064 0 -0.0026939293424901689 0.017232075102310049 0 -0.0034483865201248285 0.016898290682855581 0 -0.002710725340222576 0.017404093123272252 0 -0.006625084327365729 0.016475111891980778 0 -0.0072346391995016012 0.016164320174796756 0 -0.0065156015461349933 0.017347782470738496 0 -0.0070874777208123265 0.015381514944365352 0 -0.006625084327365729 0.016475111891980778 0 -0.0065418850560360481 0.015694901638708274 0 -0.0070874777208123265 0.015381514944365352 0 -0.006625084327365729 0.016475111891980778 0 -0.0072346391995016012 0.016164320174796756 0 -0.0057178395497987627 0.01678250979959782 0 -0.0063135219509185556 0.017031806531868792 0 -0.0070208217835835288 0.01522141996754771 0 -0.0070874777208123265 0.015381514944365352 0 -0.0072346391995016012 0.016164320174796756 0 -0.0044646775374344444 0.018327339057236641 0 -0.0036879204169719499 0.01803888054823757 0 -0.0044614243691792396 0.017692215443372759 0 -0.0044646775374344444 0.018327339057236641 0 -0.0044614243691792396 0.017692215443372759 0 -0.0054236985067823915 0.01794505852007329 0 -0.0044614243691792396 0.017692215443372759 0 -0.0054236985067823915 0.01794505852007329 0 -0.0052930190475013045 0.017531252722936354 0 -0.0044614243691792396 0.017692215443372759 0 -0.0052930190475013045 0.017531252722936354 0 -0.0048798061396488224 0.017230954447850281 0 -0.0054236985067823915 0.01794505852007329 0 -0.0052930190475013045 0.017531252722936354 0 -0.0065156015461349933 0.017347782470738496 0 -0.0063135219509185556 0.017031806531868792 0 -0.0064961903916468059 0.017275208094897399 0 -0.0055911393520783215 0.017229441136328103 0 -0.0060860808085879238 0.01734575619250182 0 -0.0065156015461349933 0.017347782470738496 0 -0.0052930190475013045 0.017531252722936354 0 -0.0055911393520783215 0.017229441136328103 0 -0.0065156015461349933 0.017347782470738496 0 -0.0052930190475013045 0.017531252722936354 0 -0.0055911393520783215 0.017229441136328103 0 -0.0048798061396488224 0.017230954447850281 0 -0.0055911393520783215 0.017229441136328103 0 -0.0048798061396488224 0.017230954447850281 0 -0.0050863239259787809 0.016990380680863535 0 -0.0046541382049742801 0.016927995247511242 0 -0.0048798061396488224 0.017230954447850281 0 -0.0050863239259787809 0.016990380680863535 0 -0.0043042601835263155 0.016368331296711152 0 -0.0043573938174573607 0.01647944222514856 0 -0.0050458249651669611 0.015599676172307923 0 -0.0042449070401293773 0.016754933210362161 0 -0.0057546812523031681 0.016059145441023839 0 -0.0043573938174573607 0.01647944222514856 0 -0.0050863239259787809 0.016990380680863535 0 -0.0055977674330135001 0.017123368977859883 0 -0.0043573938174573607 0.01647944222514856 0 -0.0055977674330135001 0.017123368977859883 0 -0.0060887495292068199 0.017326108377673795 0 -0.0042914939463071372 0.015800446559467066 0 -0.0043042601835263155 0.016368331296711152 0 -0.0050458249651669611 0.015599676172307923 0 -0.0055911393520783215 0.017229441136328103 0 -0.0050863239259787809 0.016990380680863535 0 -0.0055977674330135001 0.017123368977859883 0 -0.0055911393520783215 0.017229441136328103 0 -0.0055977674330135001 0.017123368977859883 0 -0.0060860808085879238 0.01734575619250182 0 -0.0055977674330135001 0.017123368977859883 0 -0.0060860808085879238 0.01734575619250182 0 -0.0060887495292068199 0.017326108377673795 0 -0.0062905689008077026 0.017642454293444684 0 -0.0065156015461349933 0.017347782470738496 0 -0.0062902271633924877 0.017772124246761018 0 -0.0060860808085879238 0.01734575619250182 0 -0.0062905689008077026 0.017642454293444684 0 -0.0065156015461349933 0.017347782470738496 0 -0.0060860808085879238 0.01734575619250182 0 -0.0062905689008077026 0.017642454293444684 0 -0.0062493348430794557 0.01793014514254784 0 -0.0062905689008077026 0.017642454293444684 0 -0.0062902271633924877 0.017772124246761018 0 -0.0062648811487051427 0.018000229926049972 0 -0.0065156015461349933 0.017347782470738496 0 -0.0062902271633924877 0.017772124246761018 0 -0.0062804073959207745 0.017524437090411377 0 -0.006625084327365729 0.016475111891980778 0 -0.0065156015461349933 0.017347782470738496 0 -0.0062804073959207745 0.017524437090411377 0 -0.0062902271633924877 0.017772124246761018 0 -0.0062804073959207745 0.017524437090411377 0 -0.0061559480094592186 0.017961883136463037 0 -0.0062902271633924877 0.017772124246761018 0 -0.0061583132165486422 0.018263388367293978 0 -0.0062648811487051427 0.018000229926049972 0 -0.0062902271633924877 0.017772124246761018 0 -0.0061583132165486422 0.018263388367293978 0 -0.0061559480094592186 0.017961883136463037 0 -0.0058905442714409515 0.019347575118562461 0 -0.0061583132165486422 0.018263388367293978 0 -0.0050341557415606031 0.020091758738268673 0 -0.0058905442714409515 0.019347575118562461 0 -0.0061583132165486422 0.018263388367293978 0 -0.0062662842435782006 0.01852977491531228 0 -0.0061583132165486422 0.018263388367293978 0 -0.0062648811487051427 0.018000229926049972 0 -0.0062662842435782006 0.01852977491531228 0 -0.0062493348430794557 0.01793014514254784 0 -0.0063302652797159915 0.01873066374835337 0 -0.0060887495292068199 0.017326108377673795 0 -0.0062905689008077026 0.017642454293444684 0 -0.0062648811487051427 0.018000229926049972 0 -0.0062493348430794557 0.01793014514254784 0 -0.0062648811487051427 0.018000229926049972 0 -0.0062493348430794557 0.01793014514254784 0 -0.0062662842435782006 0.01852977491531228 0 -0.0062493348430794557 0.01793014514254784 0 -0.0062662842435782006 0.01852977491531228 0 -0.0063302652797159915 0.01873066374835337 0 -0.0056391991355050561 0.01517394905256717 0 -0.005512061228270808 0.015068483340939402 0 -0.0050458249651669611 0.015599676172307923 0 -0.003337646265291636 0.022573832949722168 0 -0.0027083130838542798 0.022101419184916548 0 -0.0039630356907244023 0.022142922086304608 0 -0.0015596001764230029 0.022811480330225627 0 -0.0031114528330072164 0.02243464204206444 0 0.0011879041638759367 0.026733492547434221 0 0.00068536955917606723 0.026740623131496003 0 0.00056640763677878302 0.026223786274639862 0 -0.0051106882757153711 0.019290118925325644 0 -0.0031114528330072164 0.02243464204206444 0 -0.0051106882757153711 0.019290118925325644 0 -0.0015596001764230029 0.022811480330225627 0 -0.0039521505941540287 0.021835676440541768 0 -0.0039623835941699128 0.021835685607768697 0 -0.0039640418280036168 0.021812131651833967 0 -0.006658791607401425 0.02091360554480428 0 -0.0055144315182964502 0.02043459326266411 0 -0.0048115381337477513 0.021024331441363411 0 -0.0031114528330072164 0.02243464204206444 0 -0.0047926047582514987 0.021420137074110366 0 -0.0031114528330072164 0.02243464204206444 0 -0.0017152413244393482 0.024236396071128097 0 -0.0058905442714409515 0.019347575118562461 0 -0.0055144315182964502 0.02043459326266411 0 -0.0050341557415606031 0.020091758738268673 0 -0.0058905442714409515 0.019347575118562461 0 -0.0055144315182964502 0.02043459326266411 0 -0.0062129056808320187 0.020320189333703997 0 -0.006658791607401425 0.02091360554480428 0 -0.0055144315182964502 0.02043459326266411 0 -0.0062129056808320187 0.020320189333703997 0 -0.0072923839060685652 0.020569114309966576 0 -0.006658791607401425 0.02091360554480428 0 -0.0062129056808320187 0.020320189333703997 0 -0.0058905442714409515 0.019347575118562461 0 -0.0062662842435782006 0.01852977491531228 0 -0.0063302652797159915 0.01873066374835337 0 -0.0058905442714409515 0.019347575118562461 0 -0.0072923839060685652 0.020569114309966576 0 -0.0062129056808320187 0.020320189333703997 0 -0.0063114532918959751 0.019598858187447908 0 -0.0051106882757153711 0.019290118925325644 0 -0.0043245017620336243 0.015347078373615803 0 -0.0050458249651669611 0.015599676172307923 0 -0.0047654619892583969 0.014931601169717805 0 -0.0042914939463071372 0.015800446559467066 0 -0.0043245017620336243 0.015347078373615803 0 -0.0050458249651669611 0.015599676172307923 0 -0.0060860808085879238 0.01734575619250182 0 -0.0062493348430794557 0.01793014514254784 0 -0.0060887495292068199 0.017326108377673795 0 -0.0051106882757153711 0.019290118925325644 0 -0.0057546812523031681 0.016059145441023839 0 -0.0015596001764230029 0.022811480330225627 0 -0.0012780693548794058 0.020543529878797054 0 -0.005512061228270808 0.015068483340939402 0 -0.0050458249651669611 0.015599676172307923 0 -0.0047654619892583969 0.014931601169717805 0 0.0032808272049815105 0.026038451026832291 0 0.0024794477475830533 0.026646217077717325 0 0.0023432921152350262 0.025777240148922763 0 0.0011879041638759367 0.026733492547434221 0 0.0024109435444356485 0.025885085930409404 0 0.0016756698640596267 0.025704608160424358 0 -0.0015596001764230029 0.022811480330225627 0 0.0027388636084371585 0.026396398741289163 0 0.0010215727772331362 0.026636832972928355 0 0.0024794477475830533 0.026646217077717325 0 0.0023432921152350262 0.025777240148922763 0 0.0024109435444356485 0.025885085930409404 0 0.0016756698640596267 0.025704608160424358 0 0.0025560110263120727 0.024999980107784727 0 0.0016756698640596267 0.025704608160424358 0 0.0025560110263120727 0.024999980107784727 0 0.0014931499915881922 0.024999992421697804 0 0.0036188897060071387 0.025000011548843262 0 0.0024109435444356485 0.025885085930409404 0 0.0025560110263120727 0.024999980107784727 0 0.0036184573693211937 0.024999735053089184 0 0.0027388636084371585 0.026396398741289163 0 0.00025953127219888883 0.025807418230950504 0 0.00056640763677878302 0.026223786274639862 0 0.00093476666499053374 0.025719583270436445 0 0.00025953127219888883 0.025807418230950504 0 2.0563564803708549e-05 0.026281453130716902 0 0.00056640763677878302 0.026223786274639862 0 0.00068536955917606723 0.026740623131496003 0 2.0563564803708549e-05 0.026281453130716902 0 0.00056640763677878302 0.026223786274639862 0 0.0011879041638759367 0.026733492547434221 0 0.0016756698640596267 0.025704608160424358 0 0.00093476666499053374 0.025719583270436445 0 0.0011879041638759367 0.026733492547434221 0 0.00056640763677878302 0.026223786274639862 0 0.00093476666499053374 0.025719583270436445 0 0.00093476666499053374 0.025719583270436445 0 0.0014931499915881922 0.024999992421697804 0 0.00043029995301241181 0.024999945099190925 0 0.0016756698640596267 0.025704608160424358 0 0.00093476666499053374 0.025719583270436445 0 0.0014931499915881922 0.024999992421697804 0 0.00025953127219888883 0.025807418230950504 0 0.00043029995301241181 0.024999945099190925 0 -0.00065710458014935048 0.025811667760426871 0 0.00025953127219888883 0.025807418230950504 0 0.00093476666499053374 0.025719583270436445 0 0.00043029995301241181 0.024999945099190925 0 0.00043031208716003307 0.024999999658698539 0 -0.00073243702961925145 0.024999988847299943 0 -0.00065936549571364231 0.025853075820765105 0 0.0004314336302338825 0.025000579581295135 0 -0.0023073496510580072 0.024504725375696319 0 -0.0017152413244393482 0.024236396071128097 0 -0.0023073496510580072 0.024504725375696319 0 0.00025953127219888883 0.025807418230950504 0 2.0563564803708549e-05 0.026281453130716902 0 -0.00065710458014935048 0.025811667760426871 0 -0.0039623835941699128 0.021835685607768697 0 -0.0039300605039216509 0.02189056480822547 0 -0.0039365733922347365 0.021822341441400998 0 -0.0039623835941699128 0.021835685607768697 0 -0.0039365733922347365 0.021822341441400998 0 -0.0039640418280036168 0.021812131651833967 0 -0.0039300605039216509 0.02189056480822547 0 -0.0039365733922347365 0.021822341441400998 0 -0.0038536598774724469 0.021843865273917049 0 -0.0023073496510580072 0.024504725375696319 0 -0.0038623145410783431 0.02252212920232716 0 -0.004636202687520994 0.023950578163980118 0 -0.0037434885630822858 0.023151577402791959 0 -0.0019029973426964272 0.024998902342599352 0 -0.0023073496510580072 0.024504725375696319 0 -0.0018957589563377095 0.025000159118568531 0 -0.00073243702961925145 0.024999988847299943 0 -0.00065936549571364231 0.025853075820765105 0 -0.001895154617190921 0.024999999371853529 0 -0.0030239658677146306 0.024999447704013456 0 -0.0025716394754954678 0.023537705122372351 0 -0.0028891540659555411 0.023739863102753923 0 -0.0030299805644517421 0.024999437364224317 0 -0.0033989984076812189 0.023841217161415806 0 -0.0019029973426964272 0.024998902342599352 0 -0.0030239658677146306 0.024999447704013456 0 -0.0028891540659555411 0.023739863102753923 0 -0.0025716394754954678 0.023537705122372351 0 -0.0028891540659555411 0.023739863102753923 0 -0.0032335995566943679 0.022679683381774656 0 -0.0037434885630822858 0.023151577402791959 0 -0.0019029973426964272 0.024998902342599352 0 -0.0028891540659555411 0.023739863102753923 0 -0.0037434885630822858 0.023151577402791959 0 -0.0028891540659555411 0.023739863102753923 0 -0.0035308524937282893 0.022189161478734048 0 -0.0038623145410783431 0.02252212920232716 0 -0.0034514688274275437 0.022156826604543826 0 -0.0028891540659555411 0.023739863102753923 0 -0.0035308524937282893 0.022189161478734048 0 -0.0032335995566943679 0.022679683381774656 0 -0.0033989984076812189 0.023841217161415806 0 -0.0037480460211450958 0.022643377637022392 0 -0.0025716394754954678 0.023537705122372351 0 -0.0032335995566943679 0.022679683381774656 0 -0.0038677591489679054 0.022386618193891566 0 -0.0035308524937282893 0.022189161478734048 0 -0.0032335995566943679 0.022679683381774656 0 -0.0036112396745414384 0.02208121507235521 0 -0.0032335995566943679 0.022679683381774656 0 -0.0038677591489679054 0.022386618193891566 0 -0.0036112396745414384 0.02208121507235521 0 -0.0044311853254659561 0.020728968699522458 0 -0.0047360074443172735 0.020013224456792041 0 -0.0036112396745414384 0.02208121507235521 0 -0.0039293449292444734 0.022141976703585357 0 -0.0036288107076261657 0.021390567937388701 0 -0.0051385328600263638 0.019472117426453661 0 -0.0057505844987946206 0.018649264218777051 0 -0.0054793077819864471 0.01867614937422191 0 -0.0038677591489679054 0.022386618193891566 0 -0.0036112396745414384 0.02208121507235521 0 -0.0039293449292444734 0.022141976703585357 0 -0.0035308524937282893 0.022189161478734048 0 -0.0036112396745414384 0.02208121507235521 0 -0.0036288107076261657 0.021390567937388701 0 -0.0035308524937282893 0.022189161478734048 0 -0.0036288107076261657 0.021390567937388701 0 -0.0039105570557954189 0.02124752002078957 0 -0.0047360074443172735 0.020013224456792041 0 -0.0053551652200490964 0.01908584910544878 0 -0.0036288107076261657 0.021390567937388701 0 -0.0039105570557954189 0.02124752002078957 0 -0.0044388840257906384 0.019994361558094347 0 -0.0039105570557954189 0.02124752002078957 0 -0.0044388840257906384 0.019994361558094347 0 -0.0043578279049021253 0.020804359986473515 0 -0.0061583132165486422 0.018263388367293978 0 -0.0044388840257906384 0.019994361558094347 0 -0.0050341557415606031 0.020091758738268673 0 -0.0061583132165486422 0.018263388367293978 0 -0.0060854283139406403 0.018187271698538489 0 -0.0061559480094592186 0.017961883136463037 0 -0.006198063844623799 0.018436390056524588 0 -0.0053551652200490964 0.01908584910544878 0 -0.0044388840257906384 0.019994361558094347 0 -0.0050341557415606031 0.020091758738268673 0 -0.0043578279049021253 0.020804359986473515 0 -0.0047926047582514987 0.021420137074110366 0 -0.0037180793581588815 0.021614202324057356 0 -0.0039365733922347365 0.021822341441400998 0 -0.0039640418280036168 0.021812131651833967 0 -0.0038917765037405332 0.021702164118300841 0 -0.0043578279049021253 0.020804359986473515 0 -0.0048115381337477513 0.021024331441363411 0 -0.0038917765037405332 0.021702164118300841 0 -0.0055144315182964502 0.02043459326266411 0 -0.0050341557415606031 0.020091758738268673 0 -0.0048115381337477513 0.021024331441363411 0 -0.0050341557415606031 0.020091758738268673 0 -0.0043578279049021253 0.020804359986473515 0 -0.0048115381337477513 0.021024331441363411 0 -0.0039365733922347365 0.021822341441400998 0 -0.0038536598774724469 0.021843865273917049 0 -0.0038917765037405332 0.021702164118300841 0 -0.0038536598774724469 0.021843865273917049 0 -0.0035308524937282893 0.022189161478734048 0 -0.0038917765037405332 0.021702164118300841 0 -0.0035308524937282893 0.022189161478734048 0 -0.0039105570557954189 0.02124752002078957 0 -0.0038917765037405332 0.021702164118300841 0 -0.0039105570557954189 0.02124752002078957 0 -0.0043578279049021253 0.020804359986473515 0 -0.0038917765037405332 0.021702164118300841 0 -0.0058310629030926741 0.025718033086822505 0 -0.0048781834652657924 0.024985539479995034 0 -0.0054074331388920789 0.025294761825029537 0 -0.0048550492559865342 0.024946361546205137 0 -0.0046881872991601523 0.024842862466295763 0 -0.0052085251419980369 0.02464170767588262 0 -0.0046881872991601523 0.024842862466295763 0 -0.0050271926495358034 0.024942026201711976 0 -0.0054112850569161325 0.025309161276413954 0 -0.0054074331388920789 0.025294761825029537 0 -0.0046881872991601523 0.024842862466295763 0 -0.0054074331388920789 0.025294761825029537 0 -0.0052550777117037805 0.025071360143813937 0 -0.0048550492559865342 0.024946361546205137 0 -0.0058465057359023279 0.025305748861331388 0 -0.0054074331388920789 0.025294761825029537 0 -0.0057253487517615453 0.025155099098814689 0 -0.0057180900603803278 0.025655715721900427 0 -0.0058465057359023279 0.025305748861331388 0 -0.0054074331388920789 0.025294761825029537 0 -0.0058310629030926741 0.025718033086822505 0 -0.0056168646745973026 0.025472225759944924 0 -0.0057253487517615453 0.025155099098814689 0 -0.0057046431984551652 0.024999445994133389 0 -0.0063085366403512495 0.025222707406858266 0 -0.0058465057359023279 0.025305748861331388 0 -0.0057253487517615453 0.025155099098814689 0 -0.0063085366403512495 0.025222707406858266 0 -0.0057253487517615453 0.025155099098814689 0 -0.0057046431984551652 0.024999445994133389 0 -0.0052550777117037805 0.025071360143813937 0 -0.0054074331388920789 0.025294761825029537 0 -0.0057253487517615453 0.025155099098814689 0 -0.0052550777117037805 0.025071360143813937 0 -0.0057046431984551652 0.024999445994133389 0 -0.0046684205967321476 0.024932740248581418 0 -0.0043664321799768042 0.024999102758831566 0 -0.0057046431984551652 0.024999445994133389 0 -0.0052550777117037805 0.025071360143813937 0 -0.0046684205967321476 0.024932740248581418 0 -0.0042904736607900914 0.024564635994484267 0 -0.0037840862925149358 0.023838338323396123 0 -0.0046881872991601523 0.024842862466295763 0 -0.0052550777117037805 0.025071360143813937 0 -0.0046684205967321476 0.024932740248581418 0 -0.0048550492559865342 0.024946361546205137 0 -0.0046684205967321476 0.024932740248581418 0 -0.0048550492559865342 0.024946361546205137 0 -0.0042904736607900914 0.024564635994484267 0 -0.0048550492559865342 0.024946361546205137 0 -0.0042904736607900914 0.024564635994484267 0 -0.0046881872991601523 0.024842862466295763 0 -0.0040393899070563762 0.024710048034483113 0 -0.0040114892074002645 0.023520145722046228 0 -0.0037840862925149358 0.023838338323396123 0 -0.0046684205967321476 0.024932740248581418 0 -0.0042904736607900914 0.024564635994484267 0 -0.0040393899070563762 0.024710048034483113 0 -0.0042904736607900914 0.024564635994484267 0 -0.0040393899070563762 0.024710048034483113 0 -0.0037840862925149358 0.023838338323396123 0 -0.0046684205967321476 0.024932740248581418 0 -0.0040393899070563762 0.024710048034483113 0 -0.0043664321799768042 0.024999102758831566 0 -0.0030330406279275935 0.024999672858359599 0 -0.0041730890623728947 0.02427519501117037 0 -0.0040393899070563762 0.024710048034483113 0 -0.0030330406279275935 0.024999672858359599 0 -0.0040393899070563762 0.024710048034483113 0 -0.0043664321799768042 0.024999102758831566 0 -0.0041730890623728947 0.02427519501117037 0 -0.0040393899070563762 0.024710048034483113 0 -0.0040114892074002645 0.023520145722046228 0 -0.0041730890623728947 0.02427519501117037 0 -0.0038677591489679054 0.022386618193891566 0 -0.0040114892074002645 0.023520145722046228 0 -0.0038677591489679054 0.022386618193891566 0 -0.0040114892074002645 0.023520145722046228 0 -0.0040825763214134203 0.022232674715500198 0 -0.0039293449292444734 0.022141976703585357 0 -0.0040825763214134203 0.022232674715500198 0 -0.0038593901091652011 0.020839713618569202 0 -0.0044311853254659561 0.020728968699522458 0 -0.0037465088368482994 0.020846186948649637 0 -0.0038677591489679054 0.022386618193891566 0 -0.0039293449292444734 0.022141976703585357 0 -0.0040825763214134203 0.022232674715500198 0 -0.0038593901091652011 0.020839713618569202 0 -0.0031086801445096308 0.021417788438619252 0 -0.0032585584081341527 0.019857576010806531 0 -0.0040825763214134203 0.022232674715500198 0 -0.0038593901091652011 0.020839713618569202 0 -0.0031086801445096308 0.021417788438619252 0 -0.0040825763214134203 0.022232674715500198 0 -0.0037840862925149358 0.023838338323396123 0 -0.0031086801445096308 0.021417788438619252 0 -0.0040114892074002645 0.023520145722046228 0 -0.0040825763214134203 0.022232674715500198 0 -0.0037840862925149358 0.023838338323396123 0 -0.0038851795469107683 0.02386555538300264 0 -0.0035268562646716219 0.023742471223473057 0 -0.0037840862925149358 0.023838338323396123 0 -0.0031086801445096308 0.021417788438619252 0 -0.0020620716966284428 0.022188114469828001 0 -0.0037840862925149358 0.023838338323396123 0 -0.0046881872991601523 0.024842862466295763 0 -0.0048357819983721063 0.025253940293758475 0 -0.0031086801445096308 0.021417788438619252 0 -0.0020447729494870674 0.021076028699988422 0 -0.0020620716966284428 0.022188114469828001 0 -0.0031086801445096308 0.021417788438619252 0 -0.0020447729494870674 0.021076028699988422 0 -0.0024374930876751195 0.020279016108385645 0 -0.0031086801445096308 0.021417788438619252 0 -0.0024374930876751195 0.020279016108385645 0 -0.0032585584081341527 0.019857576010806531 0 -0.0020447729494870674 0.021076028699988422 0 -0.0020620716966284428 0.022188114469828001 0 -0.0013181408358010091 0.021011024392980818 0 -0.0020447729494870674 0.021076028699988422 0 -0.0016444688163891334 0.020363850879868629 0 -0.0024374930876751195 0.020279016108385645 0 -0.0020447729494870674 0.021076028699988422 0 -0.0016444688163891334 0.020363850879868629 0 -0.0013181408358010091 0.021011024392980818 0 -0.0020620716966284428 0.022188114469828001 0 -0.0013181408358010091 0.021011024392980818 0 -0.0009243381233706489 0.021220118045643149 0 -0.0035268562646716219 0.023742471223473057 0 -0.0033711311763611521 0.022979014888595967 0 -0.0048357819983721063 0.025253940293758475 0 -0.0053011439430032531 0.025097763600114301 0 -0.0056121618182012585 0.025418748208588193 0 -0.0046881872991601523 0.024842862466295763 0 -0.0048357819983721063 0.025253940293758475 0 -0.0050271926495358034 0.024942026201711976 0 -0.0052085251419980369 0.02464170767588262 0 -0.0050271926495358034 0.024942026201711976 0 -0.0053011439430032531 0.025097763600114301 0 -0.0048357819983721063 0.025253940293758475 0 -0.0050271926495358034 0.024942026201711976 0 -0.0053011439430032531 0.025097763600114301 0 -0.0021215247073156436 0.018682632832346825 0 -0.0026802748248473387 0.019148698143756363 0 -0.002753520626735435 0.017859465259297335 0 -0.0021215247073156436 0.018682632832346825 0 -0.002753520626735435 0.017859465259297335 0 -0.001877586777922717 0.017857580716557603 0 -0.0021215247073156436 0.018682632832346825 0 -0.001877586777922717 0.017857580716557603 0 -0.001524695597818694 0.018805147927140296 0 -0.0021215247073156436 0.018682632832346825 0 -0.0019309144881816355 0.019521741677053058 0 -0.001524695597818694 0.018805147927140296 0 -0.0016444688163891334 0.020363850879868629 0 -0.0019309144881816355 0.019521741677053058 0 -0.0012842512227113356 0.019702581972872776 0 -0.0016444688163891334 0.020363850879868629 0 -0.0019309144881816355 0.019521741677053058 0 -0.0024374930876751195 0.020279016108385645 0 -0.0019309144881816355 0.019521741677053058 0 -0.0026802748248473387 0.019148698143756363 0 -0.0024374930876751195 0.020279016108385645 0 -0.0021215247073156436 0.018682632832346825 0 -0.0019309144881816355 0.019521741677053058 0 -0.0026802748248473387 0.019148698143756363 0 -0.0026802748248473387 0.019148698143756363 0 -0.0032585584081341527 0.019857576010806531 0 -0.0035720617577762077 0.018372224390264074 0 -0.0026802748248473387 0.019148698143756363 0 -0.0024374930876751195 0.020279016108385645 0 -0.0032585584081341527 0.019857576010806531 0 -0.0026802748248473387 0.019148698143756363 0 -0.0035720617577762077 0.018372224390264074 0 -0.002753520626735435 0.017859465259297335 0 -0.0038593901091652011 0.020839713618569202 0 -0.0032585584081341527 0.019857576010806531 0 -0.004613000570778545 0.018885770706956736 0 -0.0032585584081341527 0.019857576010806531 0 -0.0035720617577762077 0.018372224390264074 0 -0.004613000570778545 0.018885770706956736 0 -0.0051385328600263638 0.019472117426453661 0 -0.0038593901091652011 0.020839713618569202 0 -0.004613000570778545 0.018885770706956736 0 -0.004613000570778545 0.018885770706956736 0 -0.0045958141004743174 0.017487062295550096 0 -0.0054687323717999593 0.01790396677264908 0 -0.0035720617577762077 0.018372224390264074 0 -0.004613000570778545 0.018885770706956736 0 -0.0045958141004743174 0.017487062295550096 0 -0.0045958141004743174 0.017487062295550096 0 -0.0047712320843570355 0.016434484930608985 0 -0.0042744892448961609 0.016652423205795693 0 -0.0047712320843570355 0.016434484930608985 0 -0.0042744892448961609 0.016652423205795693 0 -0.0040891010750991712 0.015752194858131698 0 -0.0042744892448961609 0.016652423205795693 0 -0.0036217643304065537 0.016937917415258002 0 -0.0040891010750991712 0.015752194858131698 0 -0.0036217643304065537 0.016937917415258002 0 -0.0040891010750991712 0.015752194858131698 0 -0.0033298284213995207 0.015551555188947786 0 -0.0035720617577762077 0.018372224390264074 0 -0.0045958141004743174 0.017487062295550096 0 -0.0036217643304065537 0.016937917415258002 0 -0.0045958141004743174 0.017487062295550096 0 -0.0042744892448961609 0.016652423205795693 0 -0.0036217643304065537 0.016937917415258002 0 -0.0036217643304065537 0.016937917415258002 0 -0.002753520626735435 0.017859465259297335 0 -0.0025642371247640667 0.016536160793538798 0 -0.0035720617577762077 0.018372224390264074 0 -0.0036217643304065537 0.016937917415258002 0 -0.002753520626735435 0.017859465259297335 0 -0.0036217643304065537 0.016937917415258002 0 -0.0025642371247640667 0.016536160793538798 0 -0.0033298284213995207 0.015551555188947786 0 -0.002753520626735435 0.017859465259297335 0 -0.0025642371247640667 0.016536160793538798 0 -0.001877586777922717 0.017857580716557603 0 -0.0062804073959207745 0.017524437090411377 0 -0.0059683050095910547 0.018037894072459291 0 -0.0059772291522626284 0.017286614702612984 0 -0.0060854283139406403 0.018187271698538489 0 -0.0061559480094592186 0.017961883136463037 0 -0.0059683050095910547 0.018037894072459291 0 -0.0062804073959207745 0.017524437090411377 0 -0.0061559480094592186 0.017961883136463037 0 -0.0059683050095910547 0.018037894072459291 0 -0.0057505844987946206 0.018649264218777051 0 -0.0060854283139406403 0.018187271698538489 0 -0.0059683050095910547 0.018037894072459291 0 -0.0057505844987946206 0.018649264218777051 0 -0.0059683050095910547 0.018037894072459291 0 -0.0054793077819864471 0.01867614937422191 0 -0.0059683050095910547 0.018037894072459291 0 -0.0054793077819864471 0.01867614937422191 0 -0.0054687323717999593 0.01790396677264908 0 -0.0051385328600263638 0.019472117426453661 0 -0.004613000570778545 0.018885770706956736 0 -0.0054793077819864471 0.01867614937422191 0 -0.004613000570778545 0.018885770706956736 0 -0.0054793077819864471 0.01867614937422191 0 -0.0054687323717999593 0.01790396677264908 0 -0.0059683050095910547 0.018037894072459291 0 -0.0054687323717999593 0.01790396677264908 0 -0.0059772291522626284 0.017286614702612984 0 -0.0054687323717999593 0.01790396677264908 0 -0.0054285969401307206 0.016912359574777006 0 -0.0059772291522626284 0.017286614702612984 0 -0.0054285969401307206 0.016912359574777006 0 -0.0059417861868321983 0.016379450418896564 0 -0.0059772291522626284 0.017286614702612984 0 -0.0045958141004743174 0.017487062295550096 0 -0.0047712320843570355 0.016434484930608985 0 -0.0054285969401307206 0.016912359574777006 0 -0.0045958141004743174 0.017487062295550096 0 -0.0054687323717999593 0.01790396677264908 0 -0.0054285969401307206 0.016912359574777006 0 -0.0047712320843570355 0.016434484930608985 0 -0.0054285969401307206 0.016912359574777006 0 -0.0054107934041172428 0.016037304369805647 0 -0.0047712320843570355 0.016434484930608985 0 -0.0054107934041172428 0.016037304369805647 0 -0.0047275407534956649 0.015603428627969771 0 -0.0054107934041172428 0.016037304369805647 0 -0.0059417861868321983 0.016379450418896564 0 -0.0058804183361668254 0.015669999635613437 0 -0.0054285969401307206 0.016912359574777006 0 -0.0054107934041172428 0.016037304369805647 0 -0.0059417861868321983 0.016379450418896564 0 -0.0059417861868321983 0.016379450418896564 0 -0.0063049154434545009 0.016624571210616518 0 -0.0065418850560360481 0.015694901638708274 0 -0.0059417861868321983 0.016379450418896564 0 -0.0059772291522626284 0.017286614702612984 0 -0.0063049154434545009 0.016624571210616518 0 -0.0062804073959207745 0.017524437090411377 0 -0.0059772291522626284 0.017286614702612984 0 -0.0063049154434545009 0.016624571210616518 0 -0.006625084327365729 0.016475111891980778 0 -0.0062804073959207745 0.017524437090411377 0 -0.0063049154434545009 0.016624571210616518 0 -0.006625084327365729 0.016475111891980778 0 -0.0063049154434545009 0.016624571210616518 0 -0.0065418850560360481 0.015694901638708274 0 -0.0065418850560360481 0.015694901638708274 0 -0.006043109812680152 0.014944261041524029 0 -0.0058804183361668254 0.015669999635613437 0 -0.0059417861868321983 0.016379450418896564 0 -0.0065418850560360481 0.015694901638708274 0 -0.0058804183361668254 0.015669999635613437 0 -0.0065418850560360481 0.015694901638708274 0 -0.006043109812680152 0.014944261041524029 0 -0.0067116659813517632 0.014714478193444415 0 -0.0070348078455671733 0.015143243786728548 0 -0.0065418850560360481 0.015694901638708274 0 -0.0067116659813517632 0.014714478193444415 0 -0.0076265016125035235 0.014720615179107855 0 -0.0067283408459521002 0.013543081034702219 0 -0.0073855731633136485 0.012490956545799327 0 -0.0076265016125035235 0.014720615179107855 0 -0.0067116659813517632 0.014714478193444415 0 -0.0067283408459521002 0.013543081034702219 0 -0.006043109812680152 0.014944261041524029 0 -0.0067116659813517632 0.014714478193444415 0 -0.006103971852297275 0.013990906934545915 0 -0.0067116659813517632 0.014714478193444415 0 -0.006103971852297275 0.013990906934545915 0 -0.0067283408459521002 0.013543081034702219 0 -0.006103971852297275 0.013990906934545915 0 -0.0067283408459521002 0.013543081034702219 0 -0.0060967709820141658 0.01306061604516307 0 -0.0067283408459521002 0.013543081034702219 0 -0.0060967709820141658 0.01306061604516307 0 -0.0064978680637997211 0.012262239297442488 0 -0.0054689786782161466 0.013447390575527199 0 -0.0043361692113636253 0.013500447668365915 0 -0.0048507040200571989 0.012218538356830245 0 -0.006103971852297275 0.013990906934545915 0 -0.0054689786782161466 0.013447390575527199 0 -0.0060967709820141658 0.01306061604516307 0 -0.0054689786782161466 0.013447390575527199 0 -0.0060967709820141658 0.01306061604516307 0 -0.0056960737545835487 0.012043884074396988 0 -0.006043109812680152 0.014944261041524029 0 -0.006103971852297275 0.013990906934545915 0 -0.0052222983048227497 0.014356480197994429 0 -0.006103971852297275 0.013990906934545915 0 -0.0054689786782161466 0.013447390575527199 0 -0.0052222983048227497 0.014356480197994429 0 -0.0054689786782161466 0.013447390575527199 0 -0.0052222983048227497 0.014356480197994429 0 -0.0043361692113636253 0.013500447668365915 0 -0.0052222983048227497 0.014356480197994429 0 -0.0053699370484897885 0.015258281776005861 0 -0.0047988139423821938 0.014899589265396942 0 -0.006043109812680152 0.014944261041524029 0 -0.0052222983048227497 0.014356480197994429 0 -0.0053699370484897885 0.015258281776005861 0 -0.0054107934041172428 0.016037304369805647 0 -0.0058804183361668254 0.015669999635613437 0 -0.0053699370484897885 0.015258281776005861 0 -0.006043109812680152 0.014944261041524029 0 -0.0058804183361668254 0.015669999635613437 0 -0.0053699370484897885 0.015258281776005861 0 -0.0054107934041172428 0.016037304369805647 0 -0.0053699370484897885 0.015258281776005861 0 -0.0047275407534956649 0.015603428627969771 0 -0.0053699370484897885 0.015258281776005861 0 -0.0047275407534956649 0.015603428627969771 0 -0.0047988139423821938 0.014899589265396942 0 -0.0047712320843570355 0.016434484930608985 0 -0.0047275407534956649 0.015603428627969771 0 -0.0040891010750991712 0.015752194858131698 0 -0.0047275407534956649 0.015603428627969771 0 -0.0040891010750991712 0.015752194858131698 0 -0.0042915401469805214 0.015050440986541598 0 -0.0040891010750991712 0.015752194858131698 0 -0.003691927504009655 0.014809317190646909 0 -0.0042915401469805214 0.015050440986541598 0 -0.0040891010750991712 0.015752194858131698 0 -0.003691927504009655 0.014809317190646909 0 -0.0033298284213995207 0.015551555188947786 0 -0.003691927504009655 0.014809317190646909 0 -0.0042915401469805214 0.015050440986541598 0 -0.0042617672492193531 0.014402992674071894 0 -0.0047988139423821938 0.014899589265396942 0 -0.0042915401469805214 0.015050440986541598 0 -0.0042617672492193531 0.014402992674071894 0 -0.0052222983048227497 0.014356480197994429 0 -0.0047988139423821938 0.014899589265396942 0 -0.0042617672492193531 0.014402992674071894 0 -0.0047275407534956649 0.015603428627969771 0 -0.0047988139423821938 0.014899589265396942 0 -0.0042915401469805214 0.015050440986541598 0 -0.0025642371247640667 0.016536160793538798 0 -0.0024979532072703782 0.015104988839630728 0 -0.0018689889290201575 0.016121851688868861 0 -0.0033298284213995207 0.015551555188947786 0 -0.0031893512742157018 0.014602933253712237 0 -0.0023219256158424685 0.014832451555811968 0 -0.0026024528849728818 0.01643189574161661 0 -0.002421727295529091 0.014969137330883946 0 -0.0025642371247640667 0.016536160793538798 0 -0.0033298284213995207 0.015551555188947786 0 -0.0023219256158424685 0.014832451555811968 0 -0.003691927504009655 0.014809317190646909 0 -0.0033298284213995207 0.015551555188947786 0 -0.0031893512742157018 0.014602933253712237 0 -0.003691927504009655 0.014809317190646909 0 -0.0031893512742157018 0.014602933253712237 0 -0.0031563160600086839 0.013749130798544716 0 -0.0031893512742157018 0.014602933253712237 0 -0.0032389263514098592 0.012761575081270611 0 -0.0023219256158424685 0.014832451555811968 0 -0.0032389263514098592 0.012761575081270611 0 -0.0038519154107271524 0.010499180957045424 0 -0.0021269678850368359 0.012286641956067868 0 -0.0031893512742157018 0.014602933253712237 0 -0.0032389263514098592 0.012761575081270611 0 -0.0049271489770085081 0.011742740189683175 0 -0.0032568008123326797 0.014478790795081681 0 -0.0040030913089152218 0.012739667142037359 0 -0.0049271489770085081 0.011742740189683175 0 -0.0038519154107271524 0.010499180957045424 0 -0.0053581496207417778 0.0095923091020060219 0 -0.0040030913089152218 0.012739667142037359 0 -0.0044063678381897229 0.010903950608634973 0 -0.0032389263514098592 0.012761575081270611 0 -0.0049271489770085081 0.011742740189683175 0 -0.0038519154107271524 0.010499180957045424 0 -0.0052222983048227497 0.014356480197994429 0 -0.0042617672492193531 0.014402992674071894 0 -0.0043361692113636253 0.013500447668365915 0 -0.0031563160600086839 0.013749130798544716 0 -0.0042617672492193531 0.014402992674071894 0 -0.0043361692113636253 0.013500447668365915 0 -0.003691927504009655 0.014809317190646909 0 -0.0031563160600086839 0.013749130798544716 0 -0.0042617672492193531 0.014402992674071894 0 -0.0031563160600086839 0.013749130798544716 0 -0.0043361692113636253 0.013500447668365915 0 -0.0034451323426633595 0.012169719512350853 0 -0.0048507040200571989 0.012218538356830245 0 -0.0034451323426633595 0.012169719512350853 0 -0.0046069344459876071 0.011115373193193419 0 -0.0043361692113636253 0.013500447668365915 0 -0.0048507040200571989 0.012218538356830245 0 -0.0034451323426633595 0.012169719512350853 0 -0.0034451323426633595 0.012169719512350853 0 -0.0046069344459876071 0.011115373193193419 0 -0.0046334001801446997 0.0097270498740442829 0 -0.0044063678381897229 0.010903950608634973 0 -0.0046337793482401626 0.009817856433914935 0 -0.0053581496207417778 0.0095923091020060219 0 -0.0050139722060568697 0.0092375753900178301 0 -0.0046334001801446997 0.0097270498740442829 0 -0.0046059324113091318 0.0098830444659585119 0 -0.005505783043683655 0.010870715993302076 0 -0.0050846674469169481 0.011160351528617012 0 -0.0048507040200571989 0.012218538356830245 0 -0.0046069344459876071 0.011115373193193419 0 -0.0050846674469169481 0.011160351528617012 0 -0.0046069344459876071 0.011115373193193419 0 -0.0046334001801446997 0.0097270498740442829 0 -0.0046059324113091318 0.0098830444659585119 0 -0.0046069344459876071 0.011115373193193419 0 -0.0046059324113091318 0.0098830444659585119 0 -0.0050846674469169481 0.011160351528617012 0 -0.0038519154107271524 0.010499180957045424 0 -0.0046473083392392991 0.0091120740907202936 0 -0.0037330638460084599 0.0091690236985475029 0 -0.0038519154107271524 0.010499180957045424 0 -0.0053581496207417778 0.0095923091020060219 0 -0.0046473083392392991 0.0091120740907202936 0 -0.0053581496207417778 0.0095923091020060219 0 -0.0050139722060568697 0.0092375753900178301 0 -0.0046473083392392991 0.0091120740907202936 0 -0.0050139722060568697 0.0092375753900178301 0 -0.0046473083392392991 0.0091120740907202936 0 -0.0049586944078065971 0.008479868824087855 0 -0.0046473083392392991 0.0091120740907202936 0 -0.0037330638460084599 0.0091690236985475029 0 -0.0043934927393070849 0.0078321062102172899 0 -0.0043934927393070849 0.0078321062102172899 0 -0.0049586944078065971 0.008479868824087855 0 -0.0050072725671578494 0.0075101354406209766 0 -0.0046473083392392991 0.0091120740907202936 0 -0.0043934927393070849 0.0078321062102172899 0 -0.0049586944078065971 0.008479868824087855 0 -0.0043934927393070849 0.0078321062102172899 0 -0.0050072725671578494 0.0075101354406209766 0 -0.0047204954353066535 0.0069192694203267218 0 -0.0050072725671578494 0.0075101354406209766 0 -0.0047204954353066535 0.0069192694203267218 0 -0.0050756368864256253 0.0066253329972236104 0 -0.0043934927393070849 0.0078321062102172899 0 -0.0047204954353066535 0.0069192694203267218 0 -0.0043370231174347691 0.0067276347925865187 0 -0.0056449756389791821 0.0083157558469892211 0 -0.0055216441718857366 0.0083892305315917352 0 -0.0058910910746687046 0.0089613901306833856 0 -0.0050276171129737812 0.0091252556180757161 0 -0.0057010257662533544 0.0099012246729498331 0 -0.0055072720739017447 0.0081951508132848492 0 -0.0055216441718857366 0.0083892305315917352 0 -0.0053350094778965062 0.0081039162118736012 0 -0.0055072720739017447 0.0081951508132848492 0 -0.0053350094778965062 0.0081039162118736012 0 -0.0055187526951411764 0.0079513573136255813 0 -0.0055072720739017447 0.0081951508132848492 0 -0.0056449756389791821 0.0083157558469892211 0 -0.0055216441718857366 0.0083892305315917352 0 -0.0055072720739017447 0.0081951508132848492 0 -0.0056449756389791821 0.0083157558469892211 0 -0.0055187526951411764 0.0079513573136255813 0 -0.0049586944078065971 0.008479868824087855 0 -0.0055216441718857366 0.0083892305315917352 0 -0.0053350094778965062 0.0081039162118736012 0 -0.0050139722060568697 0.0092375753900178301 0 -0.0049586944078065971 0.008479868824087855 0 -0.0046334001801446997 0.0097270498740442829 0 -0.0049586944078065971 0.008479868824087855 0 -0.0046334001801446997 0.0097270498740442829 0 -0.0046059324113091318 0.0098830444659585119 0 -0.0048440490388865368 0.0086066906782585675 0 -0.0050276171129737812 0.0091252556180757161 0 -0.0049586944078065971 0.008479868824087855 0 -0.0050072725671578494 0.0075101354406209766 0 -0.0053350094778965062 0.0081039162118736012 0 -0.0050072725671578494 0.0075101354406209766 0 -0.0053659177039646127 0.0073079058373770435 0 -0.0050756368864256253 0.0066253329972236104 0 -0.0053350094778965062 0.0081039162118736012 0 -0.0053659177039646127 0.0073079058373770435 0 -0.0055187526951411764 0.0079513573136255813 0 -0.0050072725671578494 0.0075101354406209766 0 -0.0053350094778965062 0.0081039162118736012 0 -0.0053659177039646127 0.0073079058373770435 0 -0.0053659177039646127 0.0073079058373770435 0 -0.0055187526951411764 0.0079513573136255813 0 -0.0056170392918392497 0.007386730170121333 0 -0.0055187526951411764 0.0079513573136255813 0 -0.0057796147627855888 0.0081076429479055474 0 -0.0056170392918392497 0.007386730170121333 0 -0.0056449756389791821 0.0083157558469892211 0 -0.0055187526951411764 0.0079513573136255813 0 -0.0057796147627855888 0.0081076429479055474 0 -0.0057796147627855888 0.0081076429479055474 0 -0.0060895500208493986 0.0085445524852176269 0 -0.0059613217101084802 0.0072084824441601726 0 -0.0057796147627855888 0.0081076429479055474 0 -0.0059613217101084802 0.0072084824441601726 0 -0.0056170392918392497 0.007386730170121333 0 -0.0057796147627855888 0.0081076429479055474 0 -0.0058910910746687046 0.0089613901306833856 0 -0.0060895500208493986 0.0085445524852176269 0 -0.0056449756389791821 0.0083157558469892211 0 -0.0057796147627855888 0.0081076429479055474 0 -0.0058910910746687046 0.0089613901306833856 0 -0.0058910910746687046 0.0089613901306833856 0 -0.0060895500208493986 0.0085445524852176269 0 -0.0064240888547370317 0.0098876510356656119 0 -0.0060895500208493986 0.0085445524852176269 0 -0.0065394743885163857 0.0083799550378742798 0 -0.0064240888547370317 0.0098876510356656119 0 -0.0060895500208493986 0.0085445524852176269 0 -0.0065394743885163857 0.0083799550378742798 0 -0.0059613217101084802 0.0072084824441601726 0 -0.0065394743885163857 0.0083799550378742798 0 -0.0072146901240575049 0.0093123172702046803 0 -0.0073605641713214492 0.0081757756417425807 0 -0.0082308786445810054 0.0086064384822765825 0 -0.0072146901240575049 0.0093123172702046803 0 -0.0073605641713214492 0.0081757756417425807 0 -0.0072146901240575049 0.0093123172702046803 0 -0.0064240888547370317 0.0098876510356656119 0 -0.0072901901875056839 0.011157190356612601 0 -0.0080239140602704918 0.01010738049304955 0 -0.0072146901240575049 0.0093123172702046803 0 -0.0072901901875056839 0.011157190356612601 0 -0.0065394743885163857 0.0083799550378742798 0 -0.0072146901240575049 0.0093123172702046803 0 -0.0064240888547370317 0.0098876510356656119 0 -0.0062613045860932699 0.011226204197403555 0 -0.0072901901875056839 0.011157190356612601 0 -0.0064978680637997211 0.012262239297442488 0 -0.0064256979833885236 0.010569423133227791 0 -0.0073059979735719564 0.01105679800854009 0 -0.0067283408459521002 0.013543081034702219 0 -0.0073855731633136485 0.012490956545799327 0 -0.0064978680637997211 0.012262239297442488 0 -0.0072901901875056839 0.011157190356612601 0 -0.0073855731633136485 0.012490956545799327 0 -0.0064978680637997211 0.012262239297442488 0 -0.0060967709820141658 0.01306061604516307 0 -0.0064978680637997211 0.012262239297442488 0 -0.0056960737545835487 0.012043884074396988 0 -0.0054689786782161466 0.013447390575527199 0 -0.0048507040200571989 0.012218538356830245 0 -0.0056960737545835487 0.012043884074396988 0 -0.0048507040200571989 0.012218538356830245 0 -0.0056960737545835487 0.012043884074396988 0 -0.0050846674469169481 0.011160351528617012 0 -0.005505783043683655 0.010870715993302076 0 -0.0056960737545835487 0.012043884074396988 0 -0.0050846674469169481 0.011160351528617012 0 -0.005505783043683655 0.010870715993302076 0 -0.0062613045860932699 0.011226204197403555 0 -0.0056960737545835487 0.012043884074396988 0 -0.0057010257662533544 0.0099012246729498331 0 -0.0064256979833885236 0.010569423133227791 0 -0.0062613045860932699 0.011226204197403555 0 -0.0064978680637997211 0.012262239297442488 0 -0.0056960737545835487 0.012043884074396988 0 -0.0058603270788488175 0.0043228627746527814 0 -0.0056204021419782244 0.0044404638563484491 0 -0.0057221790716330146 0.0040851583749066962 0 -0.0055759150190587631 0.0045354526922899282 0 -0.0058804863980517338 0.0040302293476929714 0 -0.0058603270788488175 0.0043228627746527814 0 -0.0059626436738412459 0.0046347877588837558 0 -0.0056761119225801479 0.0049700859905050365 0 -0.0058603270788488175 0.0043228627746527814 0 -0.0059662308344804694 0.004243679048569933 0 -0.0059070469967361754 0.0041179134232322764 0 -0.0059662308344804694 0.004243679048569933 0 -0.0059626436738412459 0.0046347877588837558 0 -0.0062069510046212631 0.0050884929054090776 0 -0.0059662308344804694 0.004243679048569933 0 -0.0051733252962395428 0.0061117922542519151 0 -0.0061422782111800328 0.0051534959963097579 0 -0.0059367476418865578 0.0043449237812622386 0 -0.005695560872229494 0.0056772940456774846 0 -0.0058603270788488175 0.0043228627746527814 0 -0.0059662308344804694 0.004243679048569933 0 -0.0059626436738412459 0.0046347877588837558 0 -0.0059626436738412459 0.0046347877588837558 0 -0.0062069510046212631 0.0050884929054090776 0 -0.0056761119225801479 0.0049700859905050365 0 -0.0062069510046212631 0.0050884929054090776 0 -0.0056761119225801479 0.0049700859905050365 0 -0.0056858252454365004 0.0055907775995299412 0 -0.0058603270788488175 0.0043228627746527814 0 -0.0056761119225801479 0.0049700859905050365 0 -0.0053729905546175396 0.0048689643811858753 0 -0.0058603270788488175 0.0043228627746527814 0 -0.0053729905546175396 0.0048689643811858753 0 -0.0050314318326122442 0.0047989698986338584 0 -0.0056761119225801479 0.0049700859905050365 0 -0.0053729905546175396 0.0048689643811858753 0 -0.005353619674412417 0.0052420696161128016 0 -0.0056761119225801479 0.0049700859905050365 0 -0.005353619674412417 0.0052420696161128016 0 -0.0056858252454365004 0.0055907775995299412 0 -0.0053729905546175396 0.0048689643811858753 0 -0.005353619674412417 0.0052420696161128016 0 -0.0050921211434849737 0.0050902275644824349 0 -0.0058804863980517338 0.0040302293476929714 0 -0.0079017286343443793 0.0052847612603279057 0 -0.0047847331639711277 0.0051335945330574133 0 -0.0050238431600258537 0.0047901349950251002 0 -0.0041178953384230169 0.0053310052962960682 0 -0.005353619674412417 0.0052420696161128016 0 -0.0050894024091241181 0.0053146458155357177 0 -0.0050921211434849737 0.0050902275644824349 0 -0.0050921211434849737 0.0050902275644824349 0 -0.0047847331639711277 0.0051335945330574133 0 -0.0049985669686322971 0.0048961534415650383 0 -0.0050894024091241181 0.0053146458155357177 0 -0.0050921211434849737 0.0050902275644824349 0 -0.0047847331639711277 0.0051335945330574133 0 -0.0050894024091241181 0.0053146458155357177 0 -0.0047847331639711277 0.0051335945330574133 0 -0.0046822713303834203 0.0055464928086127714 0 -0.0053729905546175396 0.0048689643811858753 0 -0.0050314318326122442 0.0047989698986338584 0 -0.0051247076958134147 0.0049129750032354327 0 -0.0053729905546175396 0.0048689643811858753 0 -0.0050921211434849737 0.0050902275644824349 0 -0.0051247076958134147 0.0049129750032354327 0 -0.0047847331639711277 0.0051335945330574133 0 -0.0050238431600258537 0.0047901349950251002 0 -0.0049985669686322971 0.0048961534415650383 0 -0.0050921211434849737 0.0050902275644824349 0 -0.0051247076958134147 0.0049129750032354327 0 -0.0049985669686322971 0.0048961534415650383 0 -0.0058804863980517338 0.0040302293476929714 0 -0.0058018180454857205 0.0042108241389163612 0 -0.0050314318326122442 0.0047989698986338584 0 -0.0051247076958134147 0.0049129750032354327 0 -0.0049985669686322971 0.0048961534415650383 0 -0.0077090244514330403 0.0031321700586090144 0 -0.0081957573586849356 0.0028689070899676678 0 -0.0080178786324660786 0.0032286668365293252 0 -0.0079017286343443793 0.0052847612603279057 0 -0.0088279180006078685 0.0040739458033538329 0 -0.0081957573586849356 0.0028689070899676678 0 -0.0083327346935491205 0.0034556464039861528 0 -0.0080178786324660786 0.0032286668365293252 0 -0.0047847331639711277 0.0051335945330574133 0 -0.0041178953384230169 0.0053310052962960682 0 -0.0046822713303834203 0.0055464928086127714 0 -0.0083327346935491205 0.0034556464039861528 0 -0.0080178786324660786 0.0032286668365293252 0 -0.0078476955158081532 0.0034893708348293379 0 -0.0077090244514330403 0.0031321700586090144 0 -0.0078476955158081532 0.0034893708348293379 0 -0.0075585746290872365 0.0037287634521997273 0 -0.0058804863980517338 0.0040302293476929714 0 -0.0067464866864257759 0.0038393644927654158 0 -0.0077090244514330403 0.0031321700586090144 0 -0.0080178786324660786 0.0032286668365293252 0 -0.0078476955158081532 0.0034893708348293379 0 -0.0078476955158081532 0.0034893708348293379 0 -0.0078465408588351132 0.0040332757612496235 0 -0.0075585746290872365 0.0037287634521997273 0 -0.0088279180006078685 0.0040739458033538329 0 -0.0086255466445212137 0.0044879700431295138 0 -0.0083327346935491205 0.0034556464039861528 0 -0.0078465408588351132 0.0040332757612496235 0 -0.0085910413964207944 0.0043568235923274936 0 -0.0083327346935491205 0.0034556464039861528 0 -0.0078476955158081532 0.0034893708348293379 0 -0.0078465408588351132 0.0040332757612496235 0 -0.0078465408588351132 0.0040332757612496235 0 -0.0085910413964207944 0.0043568235923274936 0 -0.0080431106812143306 0.0042627885056827691 0 -0.0078465408588351132 0.0040332757612496235 0 -0.0073825765731359736 0.0040299548020907607 0 -0.0074691897987602621 0.0041536829577166106 0 -0.0078465408588351132 0.0040332757612496235 0 -0.0073825765731359736 0.0040299548020907607 0 -0.0075585746290872365 0.0037287634521997273 0 -0.0061492763816761338 0.0038028357898678557 0 -0.0059511151873906029 0.0039525092574447382 0 -0.0060038872639133888 0.0038487654425649995 0 -0.0067305925774678449 0.003987580506578217 0 -0.0067464866864257759 0.0038393644927654158 0 -0.0058603270788488175 0.0043228627746527814 0 -0.0057221790716330146 0.0040851583749066962 0 -0.0059070469967361754 0.0041179134232322764 0 -0.0057221790716330146 0.0040851583749066962 0 -0.0059511151873906029 0.0039525092574447382 0 -0.0059070469967361754 0.0041179134232322764 0 -0.0061492763816761338 0.0038028357898678557 0 -0.0057221790716330146 0.0040851583749066962 0 -0.0059511151873906029 0.0039525092574447382 0 -0.0059511151873906029 0.0039525092574447382 0 -0.005978775717940958 0.0040044329113264792 0 -0.0059070469967361754 0.0041179134232322764 0 -0.0059662308344804694 0.004243679048569933 0 -0.005978775717940958 0.0040044329113264792 0 -0.0059070469967361754 0.0041179134232322764 0 -0.0059511151873906029 0.0039525092574447382 0 -0.005978775717940958 0.0040044329113264792 0 -0.0060038872639133888 0.0038487654425649995 0 -0.005978775717940958 0.0040044329113264792 0 -0.0060038872639133888 0.0038487654425649995 0 -0.0060565527473717511 0.003880588585985432 0 -0.0060038872639133888 0.0038487654425649995 0 -0.0059520066176648231 0.0037858696492308456 0 -0.0060565527473717511 0.003880588585985432 0 -0.0061492763816761338 0.0038028357898678557 0 -0.0060038872639133888 0.0038487654425649995 0 -0.0060331017150805936 0.0038427677601130016 0 -0.0060331017150805936 0.0038427677601130016 0 -0.0059520066176648231 0.0037858696492308456 0 -0.0058131449140345773 0.0038952119753368781 0 -0.0060038872639133888 0.0038487654425649995 0 -0.0060331017150805936 0.0038427677601130016 0 -0.0059520066176648231 0.0037858696492308456 0 -0.0059520066176648231 0.0037858696492308456 0 -0.0058203172746929951 0.0036858488033218325 0 -0.0058131449140345773 0.0038952119753368781 0 -0.0059520066176648231 0.0037858696492308456 0 -0.0058203172746929951 0.0036858488033218325 0 -0.0060565527473717511 0.003880588585985432 0 -0.0021697991100274759 0.0065634840409639732 0 -0.0026869386084805726 0.0070538599487832785 0 -0.0035401182306671873 0.0060417954311714501 0 -0.0026869386084805726 0.0070538599487832785 0 -0.0035186430540336509 0.0066960930527413635 0 -0.0035401182306671873 0.0060417954311714501 0 -0.0026869386084805726 0.0070538599487832785 0 -0.0023298573872871696 0.0093661561718080284 0 -0.00074942297697833463 0.0091243721243314015 0 -0.0025509512269260518 0.0071804335905767897 0 -0.0024548954785466753 0.0089302256611029796 0 -0.0026869386084805726 0.0070538599487832785 0 -0.0032090673794345106 0.0075732755539644541 0 -0.002544816918861395 0.0085823970002885351 0 -0.0059662308344804694 0.004243679048569933 0 -0.005978775717940958 0.0040044329113264792 0 -0.0065028691428152619 0.0041929933518633673 0 -0.0040397958360165282 0.0052646863605041823 0 -0.0036245821027747946 0.0067345714425647903 0 -0.005978775717940958 0.0040044329113264792 0 -0.0060565527473717511 0.003880588585985432 0 -0.0065028691428152619 0.0041929933518633673 0 -0.0058203172746929951 0.0036858488033218325 0 -0.0060565527473717511 0.003880588585985432 0 -0.0065028691428152619 0.0041929933518633673 0 -0.0021697991100274759 0.0065634840409639732 0 -0.0026869386084805726 0.0070538599487832785 0 -0.00074942297697833463 0.0091243721243314015 0 -0.0043370231174347691 0.0067276347925865187 0 -0.0037992252450970414 0.0071697175899144462 0 -0.0041112223997379696 0.0058561355439244022 0 -0.0043934927393070849 0.0078321062102172899 0 -0.0043370231174347691 0.0067276347925865187 0 -0.0037992252450970414 0.0071697175899144462 0 -0.0037992252450970414 0.0071697175899144462 0 -0.0035186430540336509 0.0066960930527413635 0 -0.0041112223997379696 0.0058561355439244022 0 -0.0037992252450970414 0.0071697175899144462 0 -0.0035186430540336509 0.0066960930527413635 0 -0.0032090673794345106 0.0075732755539644541 0 -0.0026869386084805726 0.0070538599487832785 0 -0.0035186430540336509 0.0066960930527413635 0 -0.0032090673794345106 0.0075732755539644541 0 -0.0037992252450970414 0.0071697175899144462 0 -0.0032090673794345106 0.0075732755539644541 0 -0.0033844269842961557 0.0083889395228342514 0 -0.0032090673794345106 0.0075732755539644541 0 -0.0033844269842961557 0.0083889395228342514 0 -0.002544816918861395 0.0085823970002885351 0 -0.0037330638460084599 0.0091690236985475029 0 -0.0043934927393070849 0.0078321062102172899 0 -0.0033844269842961557 0.0083889395228342514 0 -0.0043934927393070849 0.0078321062102172899 0 -0.0037992252450970414 0.0071697175899144462 0 -0.0033844269842961557 0.0083889395228342514 0 -0.0037330638460084599 0.0091690236985475029 0 -0.0033844269842961557 0.0083889395228342514 0 -0.0022861127489159209 0.010179602420772585 0 -0.0033844269842961557 0.0083889395228342514 0 -0.002544816918861395 0.0085823970002885351 0 -0.0022861127489159209 0.010179602420772585 0 -0.0023298573872871696 0.0093661561718080284 0 -0.0023165902848309157 0.011443944814316702 0 -0.0011085159532451185 0.010394086732658505 0 -0.0024548954785466753 0.0089302256611029796 0 -0.0023080120263466596 0.010832162317098619 0 -0.0038519154107271524 0.010499180957045424 0 -0.0037330638460084599 0.0091690236985475029 0 -0.0022861127489159209 0.010179602420772585 0 -0.0059662308344804694 0.004243679048569933 0 -0.0061422782111800328 0.0051534959963097579 0 -0.0065028691428152619 0.0041929933518633673 0 -0.0023298573872871696 0.0093661561718080284 0 -0.00074942297697833463 0.0091243721243314015 0 -0.0011085159532451185 0.010394086732658505 0 -0.0023165902848309157 0.011443944814316702 0 -0.0011085159532451185 0.010394086732658505 0 -0.001008986612428284 0.01153679906149044 0 -0.0011085159532451185 0.010394086732658505 0 -0.001008986612428284 0.01153679906149044 0 0.00011279466046422975 0.011464992799408215 0 -0.0051733252962395428 0.0061117922542519151 0 -0.0061422782111800328 0.0051534959963097579 0 -0.0068019333214510242 0.006304747812591726 0 -0.00074942297697833463 0.0091243721243314015 0 -0.0011085159532451185 0.010394086732658505 0 0.00011279466046422975 0.011464992799408215 0 -0.0061422782111800328 0.0051534959963097579 0 -0.0065028691428152619 0.0041929933518633673 0 -0.0068019333214510242 0.006304747812591726 0 -0.0036245821027747946 0.0067345714425647903 0 -0.003337849416698744 0.0089235642461334697 0 -0.0068019333214510242 0.006304747812591726 0 -0.0067242955432186106 0.0094579672240768693 0 -0.0057962347906975195 0.0076507525905272055 0 0.00011279466046422975 0.011464992799408215 0 -0.00093560013545776195 0.012547299609563307 0 0.00065949806824574543 0.013592113368131514 0 -0.003337849416698744 0.0089235642461334697 0 -0.0030535629051766525 0.011564716205337793 0 -0.0023165902848309157 0.011443944814316702 0 -0.001008986612428284 0.01153679906149044 0 -0.00093560013545776195 0.012547299609563307 0 -0.001008986612428284 0.01153679906149044 0 0.00011279466046422975 0.011464992799408215 0 -0.00093560013545776195 0.012547299609563307 0 -0.00093560013545776195 0.012547299609563307 0 0.00065949806824574543 0.013592113368131514 0 -0.00084467297181128333 0.013958149649723414 0 -0.0023080120263466596 0.010832162317098619 0 -0.0022885519869273829 0.012834032619948648 0 -0.0038519154107271524 0.010499180957045424 0 -0.0022861127489159209 0.010179602420772585 0 -0.0021269678850368359 0.012286641956067868 0 -0.0023165902848309157 0.011443944814316702 0 -0.00093560013545776195 0.012547299609563307 0 -0.0024243779053088285 0.013357241689243307 0 -0.0024243779053088285 0.013357241689243307 0 -0.0016199809152698762 0.014537639557322967 0 -0.00084467297181128333 0.013958149649723414 0 -0.00093560013545776195 0.012547299609563307 0 -0.0024243779053088285 0.013357241689243307 0 -0.00084467297181128333 0.013958149649723414 0 -0.0024243779053088285 0.013357241689243307 0 -0.0024979532072703782 0.015104988839630728 0 -0.0016199809152698762 0.014537639557322967 0 -0.0032389263514098592 0.012761575081270611 0 -0.0021269678850368359 0.012286641956067868 0 -0.0023219256158424685 0.014832451555811968 0 -0.0024979532072703782 0.015104988839630728 0 -0.0016199809152698762 0.014537639557322967 0 -0.0014464632753309107 0.015518797769255344 0 -0.0022885519869273829 0.012834032619948648 0 -0.002421727295529091 0.014969137330883946 0 -0.0016199809152698762 0.014537639557322967 0 -0.00084467297181128333 0.013958149649723414 0 -0.00068578425845355027 0.01496948728660436 0 -0.0016199809152698762 0.014537639557322967 0 -0.0014464632753309107 0.015518797769255344 0 -0.00068578425845355027 0.01496948728660436 0 -0.00064491071289066106 0.01580698198978055 0 -0.0014464632753309107 0.015518797769255344 0 -0.00072672683685870822 0.016607985386816418 0 -0.00064491071289066106 0.01580698198978055 0 -0.0014464632753309107 0.015518797769255344 0 -0.00068578425845355027 0.01496948728660436 0 -0.0024979532072703782 0.015104988839630728 0 -0.0014464632753309107 0.015518797769255344 0 -0.0018689889290201575 0.016121851688868861 0 -0.0067242955432186106 0.0094579672240768693 0 -0.0064951865850255853 0.012902975458295607 0 -0.0056504950534269714 0.011578862161297492 0 0.00065949806824574543 0.013592113368131514 0 0.00013199095704355176 0.014690645894825596 0 0.0010512480274981796 0.015539046868194073 0 -0.0030535629051766525 0.011564716205337793 0 -0.0025481412918638164 0.014122678778099354 0 0.00065949806824574543 0.013592113368131514 0 -0.00084467297181128333 0.013958149649723414 0 0.00013199095704355176 0.014690645894825596 0 -0.00084467297181128333 0.013958149649723414 0 -0.00068578425845355027 0.01496948728660436 0 0.00013199095704355176 0.014690645894825596 0 -0.00064491071289066106 0.01580698198978055 0 2.8839891715587989e-05 0.015515970152250542 0 0.00012661819936457465 0.016616950156931591 0 -0.00068578425845355027 0.01496948728660436 0 0.00013199095704355176 0.014690645894825596 0 2.8839891715587989e-05 0.015515970152250542 0 -0.00064491071289066106 0.01580698198978055 0 -0.00068578425845355027 0.01496948728660436 0 2.8839891715587989e-05 0.015515970152250542 0 0.00013199095704355176 0.014690645894825596 0 2.8839891715587989e-05 0.015515970152250542 0 0.0010512480274981796 0.015539046868194073 0 2.8839891715587989e-05 0.015515970152250542 0 0.0010512480274981796 0.015539046868194073 0 0.00063392236181190106 0.01625746683800958 0 -0.0051397964107309461 0.013019147725443493 0 -0.0037028184808760261 0.013171752527956796 0 -0.0051832224926879307 0.015077881560874879 0 -0.0064951865850255853 0.012902975458295607 0 -0.0051397964107309461 0.013019147725443493 0 -0.0059988925259066199 0.014248512726660729 0 -0.0051397964107309461 0.013019147725443493 0 -0.0044297949812509519 0.012473982993115976 0 -0.0049466135694752871 0.012013372821109937 0 -0.0051397964107309461 0.013019147725443493 0 -0.0044297949812509519 0.012473982993115976 0 -0.0037028184808760261 0.013171752527956796 0 -0.0044297949812509519 0.012473982993115976 0 -0.0049466135694752871 0.012013372821109937 0 -0.0044115825525813763 0.011708035983056579 0 -0.0044297949812509519 0.012473982993115976 0 -0.0039175228375620489 0.011892889962168914 0 -0.0044115825525813763 0.011708035983056579 0 -0.0064951865850255853 0.012902975458295607 0 -0.0051397964107309461 0.013019147725443493 0 -0.0056504950534269714 0.011578862161297492 0 -0.0051397964107309461 0.013019147725443493 0 -0.0049466135694752871 0.012013372821109937 0 -0.0056504950534269714 0.011578862161297492 0 -0.011977187148848975 0.016446034545061775 0 -0.011793566012682086 0.016184239235272926 0 -0.011599320998885937 0.016593297373709088 0 -0.008048246640112576 0.014408324734420401 0 -0.0061357112916238538 0.010869010393610341 0 -0.0044297949812509519 0.012473982993115976 0 -0.0037028184808760261 0.013171752527956796 0 -0.0039175228375620489 0.011892889962168914 0 -0.0077084279935379753 0.01260248522967887 0 -0.0070996523209466145 0.011824616629257918 0 -0.0078865672488153907 0.011535550172767728 0 -0.0090676179141906503 0.011193322886724472 0 -0.0061357112916238538 0.010869010393610341 0 -0.008048246640112576 0.014408324734420401 0 -0.0090676179141906503 0.011193322886724472 0 -0.0059842112766610341 0.0076716110508400623 0 -0.0055306723840149018 0.0070450471177449011 0 -0.0061429689853203361 0.0063590476770067532 0 -0.0055895423038424853 0.0078190156328058844 0 -0.0055306723840149018 0.0070450471177449011 0 -0.004842855324773185 0.0068090520064031865 0 -0.0055895423038424853 0.0078190156328058844 0 -0.0059842112766610341 0.0076716110508400623 0 -0.0055306723840149018 0.0070450471177449011 0 -0.0039276687299430379 0.011879598983515597 0 -0.0050573899682255508 0.010790222941265802 0 -0.0045010924828407422 0.0088447213791988631 0 -0.0061357112916238538 0.010869010393610341 0 -0.0052107486405349986 0.007402781239471249 0 -0.0067242955432186106 0.0094579672240768693 0 -0.0056504950534269714 0.011578862161297492 0 -0.0050573899682255508 0.010790222941265802 0 -0.0056504950534269714 0.011578862161297492 0 -0.0050397694765151168 0.011456004991106692 0 -0.0050573899682255508 0.010790222941265802 0 -0.0049466135694752871 0.012013372821109937 0 -0.0056504950534269714 0.011578862161297492 0 -0.0050397694765151168 0.011456004991106692 0 -0.0039276687299430379 0.011879598983515597 0 -0.0044115825525813763 0.011708035983056579 0 -0.0050573899682255508 0.010790222941265802 0 -0.0049466135694752871 0.012013372821109937 0 -0.0044115825525813763 0.011708035983056579 0 -0.0050397694765151168 0.011456004991106692 0 -0.0061357112916238538 0.010869010393610341 0 -0.0052022912354051922 0.011242208007241601 0 -0.0044115825525813763 0.011708035983056579 0 -0.0050397694765151168 0.011456004991106692 0 -0.0050573899682255508 0.010790222941265802 0 -0.0067242955432186106 0.0094579672240768693 0 -0.0050573899682255508 0.010790222941265802 0 -0.0045010924828407422 0.0088447213791988631 0 -0.0067242955432186106 0.0094579672240768693 0 -0.0045010924828407422 0.0088447213791988631 0 -0.0057962347906975195 0.0076507525905272055 0 -0.0055306723840149018 0.0070450471177449011 0 -0.0061429689853203361 0.0063590476770067532 0 -0.0054156512945519649 0.0062796991038661766 0 -0.0061429689853203361 0.0063590476770067532 0 -0.0054156512945519649 0.0062796991038661766 0 -0.0056858252454365004 0.0055907775995299412 0 -0.0054156512945519649 0.0062796991038661766 0 -0.0056858252454365004 0.0055907775995299412 0 -0.0052020592251350575 0.0056490070357117124 0 -0.005353619674412417 0.0052420696161128016 0 -0.0056858252454365004 0.0055907775995299412 0 -0.0052020592251350575 0.0056490070357117124 0 -0.0062069510046212631 0.0050884929054090776 0 -0.0061429689853203361 0.0063590476770067532 0 -0.0056858252454365004 0.0055907775995299412 0 -0.005695560872229494 0.0056772940456774846 0 -0.0052107486405349986 0.007402781239471249 0 -0.0051733252962395428 0.0061117922542519151 0 -0.0045010924828407422 0.0088447213791988631 0 -0.0057962347906975195 0.0076507525905272055 0 -0.0051733252962395428 0.0061117922542519151 0 -0.0068019333214510242 0.006304747812591726 0 -0.0057962347906975195 0.0076507525905272055 0 -0.009274929238396094 0.0080856785709804372 0 -0.0089412205780734205 0.0076647531597661064 0 -0.0088505003156217153 0.0081020019901343852 0 -0.009274929238396094 0.0080856785709804372 0 -0.0088505003156217153 0.0081020019901343852 0 -0.0088792906566094957 0.0086496772715868829 0 -0.0080382994725156868 0.0073472032262068146 0 -0.0089595023012094457 0.0080002132903189208 0 -0.0091664549081688397 0.0074792500781433536 0 -0.0092304712312401092 0.0080370808765212968 0 -0.0089412205780734205 0.0076647531597661064 0 -0.0079017286343443793 0.0052847612603279057 0 -0.0080382994725156868 0.0073472032262068146 0 -0.0041178953384230169 0.0053310052962960682 0 -0.0041848965019521712 0.0058809698580960176 0 -0.0046822713303834203 0.0055464928086127714 0 -0.005353619674412417 0.0052420696161128016 0 -0.0050894024091241181 0.0053146458155357177 0 -0.0052020592251350575 0.0056490070357117124 0 -0.0050894024091241181 0.0053146458155357177 0 -0.0046822713303834203 0.0055464928086127714 0 -0.0052020592251350575 0.0056490070357117124 0 -0.0046822713303834203 0.0055464928086127714 0 -0.0052020592251350575 0.0056490070357117124 0 -0.0048805618080800719 0.0060479244703444948 0 -0.0054156512945519649 0.0062796991038661766 0 -0.0052020592251350575 0.0056490070357117124 0 -0.0048805618080800719 0.0060479244703444948 0 -0.0041848965019521712 0.0058809698580960176 0 -0.0046822713303834203 0.0055464928086127714 0 -0.0048805618080800719 0.0060479244703444948 0 -0.0041848965019521712 0.0058809698580960176 0 -0.0048805618080800719 0.0060479244703444948 0 -0.004842855324773185 0.0068090520064031865 0 -0.0054156512945519649 0.0062796991038661766 0 -0.0048805618080800719 0.0060479244703444948 0 -0.004842855324773185 0.0068090520064031865 0 -0.0055306723840149018 0.0070450471177449011 0 -0.0054156512945519649 0.0062796991038661766 0 -0.004842855324773185 0.0068090520064031865 0 -0.0092625149421973821 0.0080816338353355104 0 -0.010003184350111993 0.0090558345654815284 0 -0.0093630791856571614 0.0087426854598905198 0 -0.010003184350111993 0.0090558345654815284 0 -0.0093630791856571614 0.0087426854598905198 0 -0.0094655278086632905 0.0092644453906933818 0 -0.0080382994725156868 0.0073472032262068146 0 -0.006981686066136656 0.0073893702657724493 0 -0.0080382994725156868 0.0073472032262068146 0 -0.0091438140294957254 0.0088553836686458484 0 -0.009274929238396094 0.0080856785709804372 0 -0.0093630791856571614 0.0087426854598905198 0 -0.0088792906566094957 0.0086496772715868829 0 -0.0093630791856571614 0.0087426854598905198 0 -0.0089910143680332951 0.0091518465647419441 0 -0.0088792906566094957 0.0086496772715868829 0 -0.0093630791856571614 0.0087426854598905198 0 -0.0089910143680332951 0.0091518465647419441 0 -0.0094655278086632905 0.0092644453906933818 0 -0.0089910143680332951 0.0091518465647419441 0 -0.0092332721016794763 0.0096192270211339585 0 -0.008676179422180165 0.009680207595795496 0 -0.0089910143680332951 0.0091518465647419441 0 -0.0094655278086632905 0.0092644453906933818 0 -0.0092332721016794763 0.0096192270211339585 0 -0.0092332721016794763 0.0096192270211339585 0 -0.0096790877398686779 0.0097619837589187231 0 -0.0091877519799707045 0.010047374782624699 0 -0.0094655278086632905 0.0092644453906933818 0 -0.0092332721016794763 0.0096192270211339585 0 -0.0096790877398686779 0.0097619837589187231 0 -0.0092332721016794763 0.0096192270211339585 0 -0.0091877519799707045 0.010047374782624699 0 -0.008676179422180165 0.009680207595795496 0 -0.010728667827294982 0.010015956567186766 0 -0.010003184350111993 0.0090558345654815284 0 -0.0096790877398686779 0.0097619837589187231 0 -0.0090676179141906503 0.011193322886724472 0 -0.006981686066136656 0.0073893702657724493 0 -0.010003184350111993 0.0090558345654815284 0 -0.0094655278086632905 0.0092644453906933818 0 -0.0096790877398686779 0.0097619837589187231 0 -0.010728667827294982 0.010015956567186766 0 -0.0096790877398686779 0.0097619837589187231 0 -0.0094262040434687187 0.010495769003714695 0 -0.011599320998885937 0.016593297373709088 0 -0.01090706681099677 0.016507693537016459 0 -0.011274666316860164 0.016768870693245251 0 -0.011793566012682086 0.016184239235272926 0 -0.011599320998885937 0.016593297373709088 0 -0.01090706681099677 0.016507693537016459 0 -0.0090676179141906503 0.011193322886724472 0 -0.010267769439542707 0.01370158177430514 0 -0.0091877519799707045 0.010047374782624699 0 -0.008676179422180165 0.009680207595795496 0 -0.0089331852982432094 0.010496588503762705 0 -0.0096790877398686779 0.0097619837589187231 0 -0.0091877519799707045 0.010047374782624699 0 -0.0094262040434687187 0.010495769003714695 0 -0.0091877519799707045 0.010047374782624699 0 -0.0094262040434687187 0.010495769003714695 0 -0.0089331852982432094 0.010496588503762705 0 -0.01090706681099677 0.016507693537016459 0 -0.010741093426685295 0.017002605846925211 0 -0.0097472220875030914 0.016909986968258444 0 -0.01090706681099677 0.016507693537016459 0 -0.010741093426685295 0.017002605846925211 0 -0.011274666316860164 0.016768870693245251 0 -0.010741093426685295 0.017002605846925211 0 -0.010618909453980191 0.017446688077294645 0 -0.011112273513499473 0.017381035709740179 0 -0.010741093426685295 0.017002605846925211 0 -0.011112273513499473 0.017381035709740179 0 -0.011274666316860164 0.016768870693245251 0 -0.010618909453980191 0.017446688077294645 0 -0.011206626292096592 0.018026097605832993 0 -0.011112273513499473 0.017381035709740179 0 -0.010618909453980191 0.017446688077294645 0 -0.011206626292096592 0.018026097605832993 0 -0.010633438917235342 0.018166550116595549 0 -0.010618909453980191 0.017446688077294645 0 -0.010633438917235342 0.018166550116595549 0 -0.0099769384936284379 0.017937771910443712 0 -0.011618808572112043 0.01770201172249574 0 -0.011274666316860164 0.016768870693245251 0 -0.012152565220764971 0.017776154704715837 0 -0.011206626292096592 0.018026097605832993 0 -0.011618808572112043 0.01770201172249574 0 -0.012116406778342741 0.017951925476534687 0 -0.011206626292096592 0.018026097605832993 0 -0.011618808572112043 0.01770201172249574 0 -0.011112273513499473 0.017381035709740179 0 -0.011618808572112043 0.01770201172249574 0 -0.011112273513499473 0.017381035709740179 0 -0.011274666316860164 0.016768870693245251 0 -0.011599320998885937 0.016593297373709088 0 -0.011274666316860164 0.016768870693245251 0 -0.011798427963702351 0.0174034159160718 0 -0.011791840400509282 0.016738873840598099 0 -0.010292413755253861 0.018227602522747525 0 -0.008048246640112576 0.014408324734420401 0 -0.010292413755253861 0.018227602522747525 0 -0.011977187148848975 0.016446034545061775 0 -0.011599320998885937 0.016593297373709088 0 -0.011798427963702351 0.0174034159160718 0 -0.0080076015185739421 0.015277624039607836 0 -0.0087993375958726992 0.016288721713258448 0 -0.0076865159408108681 0.017233912516707868 0 -0.0059988925259066199 0.014248512726660729 0 -0.0051445402033640647 0.015103647069083726 0 -0.0061840794890073107 0.016429711528680981 0 -0.0051397964107309461 0.013019147725443493 0 -0.0059988925259066199 0.014248512726660729 0 -0.0051832224926879307 0.015077881560874879 0 -0.0061808713143818757 0.01493440158715726 0 -0.0062467242545248313 0.015989501474357817 0 -0.008048246640112576 0.014408324734420401 0 -0.0062467242545248313 0.015989501474357817 0 -0.0062467242545248313 0.015989501474357817 0 -0.003802062511553819 0.017389524753871087 0 -0.0062467242545248313 0.015989501474357817 0 -0.0092224869029468321 0.018568518043749701 0 -0.0068623077744556695 0.01767141883652892 0 -0.0068274826157879919 0.018246334078657743 0 -0.0071279709790980006 0.018015422292599826 0 -0.0068623077744556695 0.01767141883652892 0 -0.0068274826157879919 0.018246334078657743 0 -0.0063678385205137239 0.018196766725848874 0 -0.0068274826157879919 0.018246334078657743 0 -0.0063678385205137239 0.018196766725848874 0 -0.0067039081140449919 0.018615066510408642 0 -0.0068274826157879919 0.018246334078657743 0 -0.0070932185572289618 0.018527056802009566 0 -0.0071279709790980006 0.018015422292599826 0 -0.0087993375958726992 0.016288721713258448 0 -0.0076865159408108681 0.017233912516707868 0 -0.0077765931724018402 0.017340689341983816 0 -0.008872599118541144 0.01998089047139455 0 -0.0088463188964371282 0.020008904827842799 0 -0.0090077360525196923 0.020154922593159232 0 -0.011618808572112043 0.01770201172249574 0 -0.012152565220764971 0.017776154704715837 0 -0.012116406778342741 0.017951925476534687 0 -0.0092224869029468321 0.018568518043749701 0 -0.010137321024848163 0.019347234403426838 0 -0.010292413755253861 0.018227602522747525 0 -0.010137321024848163 0.019347234403426838 0 -0.010504522103916239 0.018405840722645436 0 -0.010781991130901482 0.018734091017206831 0 -0.010377848483686457 0.019140166983560084 0 -0.010292413755253861 0.018227602522747525 0 -0.0092224869029468321 0.018568518043749701 0 -0.01076295716724068 0.021358689933483575 0 -0.010623583303137127 0.02219716344593017 0 -0.010530680746293753 0.022170279444783 0 -0.010137321024848163 0.019347234403426838 0 -0.010002923676721542 0.021665398569874445 0 -0.0088463188964371282 0.020008904827842799 0 -0.0090077360525196923 0.020154922593159232 0 -0.0087921197658450637 0.02036472610360655 0 -0.0092224869029468321 0.018568518043749701 0 -0.0078833775090563322 0.019407932338272225 0 -0.0068274826157879919 0.018246334078657743 0 -0.0070932185572289618 0.018527056802009566 0 -0.0067039081140449919 0.018615066510408642 0 -0.0078833775090563322 0.019407932338272225 0 -0.0066871366480615825 0.019758069062552421 0 -0.0053429717130011583 0.018917433812364392 0 -0.0066871366480615825 0.019758069062552421 0 -0.0070932185572289618 0.018527056802009566 0 -0.0067039081140449919 0.018615066510408642 0 -0.007050997253271545 0.01904298096313873 0 -0.0090077360525196923 0.020154922593159232 0 -0.0091410681545987978 0.02032567207073005 0 -0.0087921197658450637 0.02036472610360655 0 -0.0091410681545987978 0.02032567207073005 0 -0.0091306505356261412 0.020469977923247812 0 -0.0087921197658450637 0.02036472610360655 0 -0.0066871366480615825 0.019758069062552421 0 -0.0089914842679053187 0.021852330671511981 0 -0.0089914842679053187 0.021852330671511981 0 -0.010002923676721542 0.021665398569874445 0 -0.01091149360805892 0.022459533530930813 0 -0.010539545447305983 0.022318028546912498 0 -0.010660810551747462 0.022460190898809056 0 -0.010002923676721542 0.021665398569874445 0 -0.010188631287531126 0.021751807213738684 0 -0.010539545447305983 0.022318028546912498 0 -0.010660810551747462 0.022460190898809056 0 -0.010528038458208124 0.022411941382167119 0 -0.010002923676721542 0.021665398569874445 0 -0.010174935925475073 0.022230427184110509 0 -0.010528038458208124 0.022411941382167119 0 -0.010363753378045168 0.022442894804909668 0 -0.01043743936644771 0.022313191534152375 0 -0.010363753378045168 0.022442894804909668 0 -0.01043743936644771 0.022313191534152375 0 -0.010248159045524995 0.022319657680069677 0 -0.010602453438034416 0.022198091263233771 0 -0.010528038458208124 0.022411941382167119 0 -0.01043743936644771 0.022313191534152375 0 -0.01043743936644771 0.022313191534152375 0 -0.010530680746293753 0.022170279444783 0 -0.010205206340719534 0.021998220639469584 0 -0.010602453438034416 0.022198091263233771 0 -0.01043743936644771 0.022313191534152375 0 -0.010530680746293753 0.022170279444783 0 -0.010248159045524995 0.022319657680069677 0 -0.01005572755646071 0.022289985882878227 0 -0.010205206340719534 0.021998220639469584 0 -0.01043743936644771 0.022313191534152375 0 -0.010248159045524995 0.022319657680069677 0 -0.010205206340719534 0.021998220639469584 0 -0.010248159045524995 0.022319657680069677 0 -0.01005572755646071 0.022289985882878227 0 -0.010203988054970428 0.022448100793482272 0 -0.010363753378045168 0.022442894804909668 0 -0.010248159045524995 0.022319657680069677 0 -0.010203988054970428 0.022448100793482272 0 -0.010689503788766805 0.019288327756166686 0 -0.010704534642074246 0.018605788863011077 0 -0.011199639367390537 0.018847842009249303 0 -0.010772240591249871 0.019966221460275928 0 -0.011914320137091136 0.024030849317509498 0 -0.010689503788766805 0.019288327756166686 0 -0.011199639367390537 0.018847842009249303 0 -0.010644098944447468 0.019353585870765445 0 -0.01005572755646071 0.022289985882878227 0 -0.010205206340719534 0.021998220639469584 0 -0.0097788329520122862 0.022555788827211695 0 -0.010704534642074246 0.018605788863011077 0 -0.010971284863354861 0.018428604711202539 0 -0.011199639367390537 0.018847842009249303 0 -0.010689503788766805 0.019288327756166686 0 -0.010704534642074246 0.018605788863011077 0 -0.010374595371137472 0.018562139315208556 0 -0.010704534642074246 0.018605788863011077 0 -0.010633438917235342 0.018166550116595549 0 -0.010155673017687935 0.01853198725657846 0 -0.010704534642074246 0.018605788863011077 0 -0.010633438917235342 0.018166550116595549 0 -0.010971284863354861 0.018428604711202539 0 -0.011206626292096592 0.018026097605832993 0 -0.010633438917235342 0.018166550116595549 0 -0.010971284863354861 0.018428604711202539 0 -0.011206626292096592 0.018026097605832993 0 -0.010971284863354861 0.018428604711202539 0 -0.011199639367390537 0.018847842009249303 0 -0.010137321024848163 0.019347234403426838 0 -0.010772240591249871 0.019966221460275928 0 -0.01076295716724068 0.021358689933483575 0 -0.010530680746293753 0.022170279444783 0 -0.010205206340719534 0.021998220639469584 0 -0.011206626292096592 0.018026097605832993 0 -0.012116406778342741 0.017951925476534687 0 -0.011199639367390537 0.018847842009249303 0 -0.001877586777922717 0.017857580716557603 0 -0.0015849007318038896 0.017015626927475377 0 -0.0010149307191085449 0.018105913164564103 0 -0.0025642371247640667 0.016536160793538798 0 -0.001877586777922717 0.017857580716557603 0 -0.0015849007318038896 0.017015626927475377 0 -0.0025642371247640667 0.016536160793538798 0 -0.0018689889290201575 0.016121851688868861 0 -0.0015849007318038896 0.017015626927475377 0 -0.0018689889290201575 0.016121851688868861 0 -0.0015849007318038896 0.017015626927475377 0 -0.00072672683685870822 0.016607985386816418 0 -0.0014464632753309107 0.015518797769255344 0 -0.0018689889290201575 0.016121851688868861 0 -0.00072672683685870822 0.016607985386816418 0 -0.0015849007318038896 0.017015626927475377 0 -0.00072672683685870822 0.016607985386816418 0 -0.00088301032319690722 0.01734606625844394 0 -0.0015849007318038896 0.017015626927475377 0 -0.00088301032319690722 0.01734606625844394 0 -0.0010149307191085449 0.018105913164564103 0 -0.00072672683685870822 0.016607985386816418 0 -0.00088301032319690722 0.01734606625844394 0 -0.00021396907627252592 0.01766089901145259 0 -0.00088301032319690722 0.01734606625844394 0 -0.00021396907627252592 0.01766089901145259 0 -0.0010149307191085449 0.018105913164564103 0 -0.00021396907627252592 0.01766089901145259 0 0.0004241617560903347 0.017542490855400984 0 0.00012661819936457465 0.016616950156931591 0 -0.00021396907627252592 0.01766089901145259 0 0.0004241617560903347 0.017542490855400984 0 0.00050062177173672154 0.018554472159779303 0 2.8839891715587989e-05 0.015515970152250542 0 0.00012661819936457465 0.016616950156931591 0 0.00063392236181190106 0.01625746683800958 0 -0.00072672683685870822 0.016607985386816418 0 -0.00021396907627252592 0.01766089901145259 0 0.00012661819936457465 0.016616950156931591 0 -0.00064491071289066106 0.01580698198978055 0 -0.00072672683685870822 0.016607985386816418 0 0.00012661819936457465 0.016616950156931591 0 0.0010512480274981796 0.015539046868194073 0 0.00063392236181190106 0.01625746683800958 0 0.0012961720952104423 0.017319186751427712 0 -0.0064951865850255853 0.012902975458295607 0 -0.0059988925259066199 0.014248512726660729 0 -0.0061840794890073107 0.016429711528680981 0 0.00012661819936457465 0.016616950156931591 0 0.00063392236181190106 0.01625746683800958 0 0.0012961720952104423 0.017319186751427712 0 -0.0025481412918638164 0.014122678778099354 0 -0.003802062511553819 0.017389524753871087 0 0.0004241617560903347 0.017542490855400984 0 0.0012961720952104423 0.017319186751427712 0 0.00050062177173672154 0.018554472159779303 0 -0.003802062511553819 0.017389524753871087 0 -0.0014240175045657198 0.018879839699880104 0 0.0004241617560903347 0.017542490855400984 0 0.00012661819936457465 0.016616950156931591 0 0.0012961720952104423 0.017319186751427712 0 -0.0053429717130011583 0.018917433812364392 0 -0.003802062511553819 0.017389524753871087 0 -0.0036266080934384774 0.019159577970960996 0 -0.0036048265835207879 0.019584837068257654 0 -0.0040827940869136436 0.019298122316653583 0 -0.0036266080934384774 0.019159577970960996 0 -0.0036616020342246768 0.018721707910524764 0 -0.0040827940869136436 0.019298122316653583 0 -0.0036048265835207879 0.019584837068257654 0 -0.0040227656931098657 0.019740561456870517 0 -0.0040827940869136436 0.019298122316653583 0 -0.0036048265835207879 0.019584837068257654 0 -0.0040227656931098657 0.019740561456870517 0 -0.0039361130542342028 0.01997918348802551 0 -0.0066871366480615825 0.019758069062552421 0 -0.0063991768880865196 0.022355234570900294 0 -0.0070244984070732463 0.021074242095685706 0 -0.0069900584091834028 0.021497306902670581 0 -0.0075036593768900116 0.021660562299906497 0 -0.0040227656931098657 0.019740561456870517 0 -0.0039361130542342028 0.01997918348802551 0 -0.0040018233702349675 0.019997749048549819 0 -0.0014240175045657198 0.018879839699880104 0 -0.0023090952724530269 0.02006730539159397 0 0.00050062177173672154 0.018554472159779303 0 -0.00036905632173261368 0.0189020488053647 0 -0.00016924017015715055 0.019817216254841768 0 -0.0040227656931098657 0.019740561456870517 0 -0.0044756034288265549 0.019837164981150835 0 -0.0040018233702349675 0.019997749048549819 0 -0.0040227656931098657 0.019740561456870517 0 -0.0040827940869136436 0.019298122316653583 0 -0.0044756034288265549 0.019837164981150835 0 -0.00021396907627252592 0.01766089901145259 0 0.00050062177173672154 0.018554472159779303 0 -0.00036905632173261368 0.0189020488053647 0 -0.00021396907627252592 0.01766089901145259 0 -0.0010149307191085449 0.018105913164564103 0 -0.00036905632173261368 0.0189020488053647 0 -0.0010149307191085449 0.018105913164564103 0 -0.00036905632173261368 0.0189020488053647 0 -0.0009581676641844209 0.019013583283428202 0 -0.00036905632173261368 0.0189020488053647 0 -0.00016924017015715055 0.019817216254841768 0 -0.00046773471159900539 0.019749882354925558 0 -0.0023090952724530269 0.02006730539159397 0 -0.00075297575000096966 0.02021881518813768 0 -0.00046773471159900539 0.019749882354925558 0 -0.00079378588290560049 0.019455911404806431 0 -0.00092127912147746513 0.019911871723744128 0 -0.00036905632173261368 0.0189020488053647 0 -0.00079378588290560049 0.019455911404806431 0 -0.0009581676641844209 0.019013583283428202 0 -0.00036905632173261368 0.0189020488053647 0 -0.00046773471159900539 0.019749882354925558 0 -0.00079378588290560049 0.019455911404806431 0 -0.0012842512227113356 0.019702581972872776 0 -0.001524695597818694 0.018805147927140296 0 -0.0009581676641844209 0.019013583283428202 0 -0.00079378588290560049 0.019455911404806431 0 -0.0012842512227113356 0.019702581972872776 0 -0.0009581676641844209 0.019013583283428202 0 -0.00046773471159900539 0.019749882354925558 0 -0.00092127912147746513 0.019911871723744128 0 -0.0010131203269492567 0.020537026977886993 0 -0.00092127912147746513 0.019911871723744128 0 -0.0012842512227113356 0.019702581972872776 0 -0.0010131203269492567 0.020537026977886993 0 -0.00079378588290560049 0.019455911404806431 0 -0.00092127912147746513 0.019911871723744128 0 -0.0012842512227113356 0.019702581972872776 0 -0.0019309144881816355 0.019521741677053058 0 -0.0012842512227113356 0.019702581972872776 0 -0.001524695597818694 0.018805147927140296 0 -0.001877586777922717 0.017857580716557603 0 -0.0010149307191085449 0.018105913164564103 0 -0.001524695597818694 0.018805147927140296 0 -0.0010149307191085449 0.018105913164564103 0 -0.001524695597818694 0.018805147927140296 0 -0.0009581676641844209 0.019013583283428202 0 -0.0058310629030926741 0.025718033086822505 0 -0.0054747666483950059 0.024492446156712457 0 -0.0052085251419980369 0.02464170767588262 0 -0.0053011439430032531 0.025097763600114301 0 -0.0057456254290310605 0.025341233243921797 0 -0.0063082784911459178 0.026081618135311856 0 -0.0070021246385186444 0.026929423812428945 0 -0.0073712712183049553 0.026129945472989732 0 -0.0054747666483950059 0.024492446156712457 0 -0.0033711311763611521 0.022979014888595967 0 -0.0053011439430032531 0.025097763600114301 0 -0.0057456254290310605 0.025341233243921797 0 -0.0056121618182012585 0.025418748208588193 0 -0.0013181408358010091 0.021011024392980818 0 -0.0010131203269492567 0.020537026977886993 0 -0.0010645898618086389 0.0211102119997068 0 -0.0020555864990076203 0.02234160553088781 0 -0.0033711311763611521 0.022979014888595967 0 -0.0016444688163891334 0.020363850879868629 0 -0.0012842512227113356 0.019702581972872776 0 -0.0010131203269492567 0.020537026977886993 0 -0.0016444688163891334 0.020363850879868629 0 -0.0013181408358010091 0.021011024392980818 0 -0.0010131203269492567 0.020537026977886993 0 -0.0043527561337439692 0.023011405598744251 0 -0.0044893391511385628 0.022927073548587976 0 -0.0042197339394929971 0.022840404060006609 0 -0.0033711311763611521 0.022979014888595967 0 -0.0034427797025895776 0.022194539882814449 0 -0.0010131203269492567 0.020537026977886993 0 -0.0010645898618086389 0.0211102119997068 0 -0.0006758092618170576 0.020956286039564363 0 -0.0054747666483950059 0.024492446156712457 0 -0.0034427797025895776 0.022194539882814449 0 -0.0038227089822859394 0.021901471984799047 0 -0.0034114676431264944 0.021388500710129998 0 -0.003944468158781439 0.021540640660972263 0 -4.0695471152412551e-05 0.019888952102129945 0 -0.00046773471159900539 0.019749882354925558 0 -0.0006758092618170576 0.020956286039564363 0 -0.00046773471159900539 0.019749882354925558 0 -0.0010131203269492567 0.020537026977886993 0 -0.0006758092618170576 0.020956286039564363 0 -0.0034427797025895776 0.022194539882814449 0 -0.0049318184989474208 0.022568952935345485 0 -0.0056390063082206576 0.023545689160754293 0 -0.0056099773067144363 0.023559412183918077 0 -0.0055863805580490759 0.023518562554844136 0 -0.0023090952724530269 0.02006730539159397 0 -0.0034427797025895776 0.022194539882814449 0 -0.0056540692603526477 0.023566025576570979 0 -0.0056099773067144363 0.023559412183918077 0 -0.0056039441881446071 0.023611714623008671 0 -0.0070021246385186444 0.026929423812428945 0 -0.0076912927172740645 0.026511683602684698 0 -0.0073712712183049553 0.026129945472989732 0 -0.0054747666483950059 0.024492446156712457 0 -0.0071234022804548261 0.02528822251824369 0 -0.0056540692603526477 0.023566025576570979 0 -0.0056390063082206576 0.023545689160754293 0 -0.0056099773067144363 0.023559412183918077 0 -0.0079975149225767744 0.024767619835087681 0 -0.0079404688407559067 0.024760892064451825 0 -0.0079551215018429655 0.024706843943965367 0 -0.0079404688407559067 0.024760892064451825 0 -0.0079551215018429655 0.024706843943965367 0 -0.0078920834435665266 0.024731499303057548 0 -0.0071234022804548261 0.02528822251824369 0 -0.006814021389340643 0.024223359990739487 0 -0.0056099773067144363 0.023559412183918077 0 -0.0056039441881446071 0.023611714623008671 0 -0.0055589720306611226 0.023555370697022744 0 -0.0038227089822859394 0.021901471984799047 0 -0.003944468158781439 0.021540640660972263 0 -0.0044883015997673349 0.021699984897337689 0 -0.0055589720306611226 0.023555370697022744 0 -0.0055863805580490759 0.023518562554844136 0 -0.0055196299387519692 0.023480703027999365 0 -0.0056099773067144363 0.023559412183918077 0 -0.0055589720306611226 0.023555370697022744 0 -0.0055863805580490759 0.023518562554844136 0 -0.0049318184989474208 0.022568952935345485 0 -0.005233903559127475 0.021958079403148985 0 -0.0023090952724530269 0.02006730539159397 0 -0.005233903559127475 0.021958079403148985 0 -0.0055589720306611226 0.023555370697022744 0 -0.0055075502765653817 0.023474548476196368 0 -0.0055196299387519692 0.023480703027999365 0 -0.006814021389340643 0.024223359990739487 0 -0.0063991768880865196 0.022355234570900294 0 -0.0079551215018429655 0.024706843943965367 0 -0.0079024203187584748 0.024634161452971898 0 -0.0078920834435665266 0.024731499303057548 0 -0.0079024203187584748 0.024634161452971898 0 -0.0078920834435665266 0.024731499303057548 0 -0.0078443616319367835 0.024670261544365257 0 -0.0063991768880865196 0.022355234570900294 0 -0.005233903559127475 0.021958079403148985 0 -0.0089914842679053187 0.021852330671511981 0 -0.0063991768880865196 0.022355234570900294 0 -0.0086716763993486979 0.023313662427849213 0 -0.0075580615166156474 0.022980012419282502 0 -0.0087442300117931623 0.022481778298128585 0 -0.0063991768880865196 0.022355234570900294 0 -0.0094786302152511208 0.024472346811059763 0 -0.0078920834435665266 0.024731499303057548 0 -0.007920550582907377 0.02482507930052423 0 -0.0078425848061763233 0.024784528528637748 0 -0.0079404688407559067 0.024760892064451825 0 -0.0078920834435665266 0.024731499303057548 0 -0.007920550582907377 0.02482507930052423 0 -0.007920550582907377 0.02482507930052423 0 -0.0078425848061763233 0.024784528528637748 0 -0.0078465912739009037 0.024883141769382576 0 -0.00836596914792599 0.025467417241218392 0 -0.0091380593462721729 0.025187091618954507 0 -0.0089150290418599822 0.025470652106758855 0 -0.0083809588728776998 0.024999937803160972 0 -0.0097603526444699825 0.024999995711415202 0 -0.0087145324753289035 0.026059177186292429 0 -0.0089150290418599822 0.025470652106758855 0 -0.009701953420929799 0.025499089618011412 0 -0.0089150290418599822 0.025470652106758855 0 -0.0083809588728776998 0.024999937803160972 0 -0.0080435608452274591 0.025776560392403815 0 -0.0083809588728776998 0.024999937803160972 0 -0.0080435608452274591 0.025776560392403815 0 -0.0072910556705251088 0.025558840303426658 0 -0.0087145324753289035 0.026059177186292429 0 -0.0089150290418599822 0.025470652106758855 0 -0.0080435608452274591 0.025776560392403815 0 -0.0077589203345265036 0.026597706814597517 0 -0.0087145324753289035 0.026059177186292429 0 -0.0080435608452274591 0.025776560392403815 0 -0.0071234022804548261 0.02528822251824369 0 -0.00836596914792599 0.025467417241218392 0 -0.0079975149225767744 0.024767619835087681 0 -0.0079404688407559067 0.024760892064451825 0 -0.007920550582907377 0.02482507930052423 0 -0.0080435608452274591 0.025776560392403815 0 -0.0073712712183049553 0.026129945472989732 0 -0.0072910556705251088 0.025558840303426658 0 -0.0077589203345265036 0.026597706814597517 0 -0.0080435608452274591 0.025776560392403815 0 -0.0073712712183049553 0.026129945472989732 0 -0.0071234022804548261 0.02528822251824369 0 -0.0076877615220420966 0.026378499196692516 0 -0.008380660708875937 0.02500010513667153 0 -0.0072776603016853313 0.025513135412933988 0 -0.0083809592497903224 0.025000113620956766 0 -0.0070428601657997547 0.024999716240852635 0 -0.0071846461568398469 0.025496133228210958 0 -0.0057046431984551652 0.024999445994133389 0 -0.0070428601657997547 0.024999716240852635 0 -0.0063085366403512495 0.025222707406858266 0 -0.0057180900603803278 0.025655715721900427 0 -0.0071846461568398469 0.025496133228210958 0 -0.0063085366403512495 0.025222707406858266 0 -0.0070428601657997547 0.024999716240852635 0 -0.0071846461568398469 0.025496133228210958 0 -0.0063085366403512495 0.025222707406858266 0 -0.0057180900603803278 0.025655715721900427 0 -0.0058465057359023279 0.025305748861331388 0 -0.0063085366403512495 0.025222707406858266 0 -0.0063082784911459178 0.026081618135311856 0 -0.0073712712183049553 0.026129945472989732 0 -0.0072910556705251088 0.025558840303426658 0 -0.0058310629030926741 0.025718033086822505 0 -0.0072776603016853313 0.025513135412933988 0 -0.012042461112358606 0.026729177942242662 0 -0.010833147346905015 0.027071378354933187 0 -0.011114757517363329 0.026437027518131418 0 -0.0115859885594644 0.026531361981322197 0 -0.010763146031701781 0.025407488390161909 0 -0.010949285795388031 0.02545080539837875 0 -0.010955353898444703 0.025373658329729116 0 -0.01104206919824896 0.025413662752022316 0 -0.0115859885594644 0.026531361981322197 0 -0.010797771505394979 0.024520236125714637 0 -0.012209364015076952 0.026722014466465629 0 -0.012516653823407853 0.027166232416000878 0 -0.012121104570181274 0.027513747960487119 0 -0.012516653823407853 0.027166232416000878 0 -0.012121104570181274 0.027513747960487119 0 -0.012577783894211211 0.027683435555873857 0 -0.01005572755646071 0.022289985882878227 0 -0.010040530261485778 0.022650861122912608 0 -0.0097788329520122862 0.022555788827211695 0 -0.010797771505394979 0.024520236125714637 0 -0.011914320137091136 0.024030849317509498 0 -0.010310934952242227 0.021970877587727582 0 -0.010797771505394979 0.024520236125714637 0 -0.01005572755646071 0.022289985882878227 0 -0.010053655399458414 0.022598522142552542 0 -0.010203988054970428 0.022448100793482272 0 -0.010053655399458414 0.022598522142552542 0 -0.010203988054970428 0.022448100793482272 0 -0.010303846912754617 0.022548659963339455 0 -0.010797771505394979 0.024520236125714637 0 -0.010722135362242858 0.025023733976064815 0 -0.010053655399458414 0.022598522142552542 0 -0.010303846912754617 0.022548659963339455 0 -0.010435059534050292 0.02262436731483207 0 -0.010053655399458414 0.022598522142552542 0 -0.010435059534050292 0.02262436731483207 0 -0.010576906369880627 0.02275259995900256 0 -0.010955353898444703 0.025373658329729116 0 -0.01104206919824896 0.025413662752022316 0 -0.011049205896032794 0.025411134382290972 0 -0.010363753378045168 0.022442894804909668 0 -0.010203988054970428 0.022448100793482272 0 -0.010303846912754617 0.022548659963339455 0 -0.010435059534050292 0.02262436731483207 0 -0.010463616008486351 0.022532107269661619 0 -0.010509257196960848 0.022591823163880038 0 -0.010303846912754617 0.022548659963339455 0 -0.010435059534050292 0.02262436731483207 0 -0.010463616008486351 0.022532107269661619 0 -0.010363753378045168 0.022442894804909668 0 -0.010303846912754617 0.022548659963339455 0 -0.010463616008486351 0.022532107269661619 0 -0.010528038458208124 0.022411941382167119 0 -0.010363753378045168 0.022442894804909668 0 -0.010463616008486351 0.022532107269661619 0 -0.010657266480761029 0.02264931169341854 0 -0.010902885971232552 0.022606391071490411 0 -0.010576906369880627 0.02275259995900256 0 -0.010528038458208124 0.022411941382167119 0 -0.010463616008486351 0.022532107269661619 0 -0.010588827742443956 0.022567237464700827 0 -0.010660810551747462 0.022460190898809056 0 -0.010528038458208124 0.022411941382167119 0 -0.010588827742443956 0.022567237464700827 0 -0.010463616008486351 0.022532107269661619 0 -0.010509257196960848 0.022591823163880038 0 -0.010588827742443956 0.022567237464700827 0 -0.010509257196960848 0.022591823163880038 0 -0.010588827742443956 0.022567237464700827 0 -0.01054592746705574 0.022635836870961077 0 -0.010660810551747462 0.022460190898809056 0 -0.010588827742443956 0.022567237464700827 0 -0.010737266314919346 0.022548972476884328 0 -0.010588827742443956 0.022567237464700827 0 -0.010657266480761029 0.02264931169341854 0 -0.010737266314919346 0.022548972476884328 0 -0.010657266480761029 0.02264931169341854 0 -0.010598729440063027 0.022674434413776239 0 -0.010576906369880627 0.02275259995900256 0 -0.010598729440063027 0.022674434413776239 0 -0.010540125350847151 0.022669587695311973 0 -0.010576906369880627 0.02275259995900256 0 -0.010435059534050292 0.02262436731483207 0 -0.010540125350847151 0.022669587695311973 0 -0.010576906369880627 0.02275259995900256 0 -0.010435059534050292 0.02262436731483207 0 -0.010509257196960848 0.022591823163880038 0 -0.01054592746705574 0.022635836870961077 0 -0.010598729440063027 0.022674434413776239 0 -0.01054592746705574 0.022635836870961077 0 -0.010540125350847151 0.022669587695311973 0 -0.010435059534050292 0.02262436731483207 0 -0.01054592746705574 0.022635836870961077 0 -0.010540125350847151 0.022669587695311973 0 -0.010588827742443956 0.022567237464700827 0 -0.010657266480761029 0.02264931169341854 0 -0.010598729440063027 0.022674434413776239 0 -0.010588827742443956 0.022567237464700827 0 -0.010598729440063027 0.022674434413776239 0 -0.01054592746705574 0.022635836870961077 0 -0.0094786302152511208 0.024472346811059763 0 -0.010722135362242858 0.025023733976064815 0 -0.010657266480761029 0.02264931169341854 0 -0.010737266314919346 0.022548972476884328 0 -0.010902885971232552 0.022606391071490411 0 -0.01091149360805892 0.022459533530930813 0 -0.010660810551747462 0.022460190898809056 0 -0.010737266314919346 0.022548972476884328 0 -0.0089914842679053187 0.021852330671511981 0 -0.0094786302152511208 0.024472346811059763 0 -0.01091149360805892 0.022459533530930813 0 -0.010737266314919346 0.022548972476884328 0 -0.010902885971232552 0.022606391071490411 0 -0.0094786302152511208 0.024472346811059763 0 -0.0087032382788168987 0.025929980358270831 0 -0.0078920834435665266 0.024731499303057548 0 -0.0078443616319367835 0.024670261544365257 0 -0.0078425848061763233 0.024784528528637748 0 -0.0096702098921524864 0.027396256514389154 0 -0.0097429779144211914 0.026453872979666674 0 -0.010743014648344987 0.027096287561938579 0 -0.0097429779144211914 0.026453872979666674 0 -0.010833147346905015 0.027071378354933187 0 -0.010743014648344987 0.027096287561938579 0 -0.010833147346905015 0.027071378354933187 0 -0.010580216533215331 0.026102406934284391 0 -0.011114757517363329 0.026437027518131418 0 -0.0097429779144211914 0.026453872979666674 0 -0.010833147346905015 0.027071378354933187 0 -0.010580216533215331 0.026102406934284391 0 -0.010763146031701781 0.025407488390161909 0 -0.010722135362242858 0.025023733976064815 0 -0.010580216533215331 0.026102406934284391 0 -0.010224140251491673 0.025753829212929794 0 -0.010731455834299236 0.025540997300799922 0 -0.010580216533215331 0.026102406934284391 0 -0.010731455834299236 0.025540997300799922 0 -0.011317653871778806 0.025804973162387591 0 -0.0087032382788168987 0.025929980358270831 0 -0.0091380593462721729 0.025187091618954507 0 -0.0097429779144211914 0.026453872979666674 0 -0.010580216533215331 0.026102406934284391 0 -0.010224140251491673 0.025753829212929794 0 -0.0097429779144211914 0.026453872979666674 0 -0.010224140251491673 0.025753829212929794 0 -0.0098077003948957107 0.025484863595439368 0 -0.0089150290418599822 0.025470652106758855 0 -0.009701953420929799 0.025499089618011412 0 -0.0097603526444699825 0.024999995711415202 0 -0.010224140251491673 0.025753829212929794 0 -0.0098077003948957107 0.025484863595439368 0 -0.010272565468996377 0.025177233745623168 0 -0.009714594480946798 0.025519263341977218 0 -0.0097604975726690076 0.024999989749028326 0 -0.010272565468996377 0.025177233745623168 0 -0.0091380593462721729 0.025187091618954507 0 -0.010182216974484496 0.025086714993929473 0 -0.0091380593462721729 0.025187091618954507 0 -0.0097600383255209613 0.025000266423399725 0 -0.010731455834299236 0.025540997300799922 0 -0.010272565468996377 0.025177233745623168 0 -0.011051733522133449 0.024999977252602217 0 -0.0097604975726690076 0.024999989749028326 0 -0.010272565468996377 0.025177233745623168 0 -0.011051733522133449 0.024999977252602217 0 -0.010224140251491673 0.025753829212929794 0 -0.010731455834299236 0.025540997300799922 0 -0.010272565468996377 0.025177233745623168 0 -0.011051733522133449 0.024999977252602217 0 -0.011317653871778806 0.025804973162387591 0 -0.011722370209286757 0.02542475804800419 0 -0.010731455834299236 0.025540997300799922 0 -0.011051733522133449 0.024999977252602217 0 -0.011317653871778806 0.025804973162387591 0 -0.011051733522133449 0.024999977252602217 0 -0.012342837998311155 0.024999974388461209 0 -0.011722370209286757 0.02542475804800419 0 -0.012042461112358606 0.026729177942242662 0 -0.011317653871778806 0.025804973162387591 0 -0.011114757517363329 0.026437027518131418 0 -0.010580216533215331 0.026102406934284391 0 -0.011317653871778806 0.025804973162387591 0 -0.011114757517363329 0.026437027518131418 0 -0.012042461112358606 0.026729177942242662 0 -0.011317653871778806 0.025804973162387591 0 -0.012171243778103304 0.025876836860231497 0 -0.0115859885594644 0.026531361981322197 0 -0.012243424312512957 0.02589307407492503 0 -0.011317653871778806 0.025804973162387591 0 -0.012171243778103304 0.025876836860231497 0 -0.011722370209286757 0.02542475804800419 0 -0.012171243778103304 0.025876836860231497 0 -0.012342837998311155 0.024999974388461209 0 -0.011722370209286757 0.02542475804800419 0 -0.012243424312512957 0.02589307407492503 0 -0.012342942667875608 0.025000189319415878 0 -0.012343114332949072 0.025000004962505623 0 -0.013400440311676916 0.024999974708755302 0 -0.013249954436542985 0.025958204578780564 0 -0.012287386464319074 0.025877284092370573 0 -0.012343114332949072 0.025000004962505623 0 -0.013249954436542985 0.025958204578780564 0 -0.013899169325769041 0.025481981150281784 0 -0.013400440311676916 0.024999974708755302 0 -0.013249954436542985 0.025958204578780564 0 -0.013899169325769041 0.025481981150281784 0 -0.013400440311676916 0.024999974708755302 0 -0.014457970106722166 0.024999976779681916 0 -0.013899169325769041 0.025481981150281784 0 -0.013249954436542985 0.025958204578780564 0 -0.014493980025280228 0.025960408568399346 0 -0.013249954436542985 0.025958204578780564 0 -0.013500187416193774 0.026850986246464897 0 -0.014493980025280228 0.025960408568399346 0 -0.014253872364206424 0.026871194598287219 0 -0.014775020341240201 0.025713000235005383 0 -0.012209364015076952 0.026722014466465629 0 -0.012287386464319074 0.025877284092370573 0 -0.013249954436542985 0.025958204578780564 0 -0.012209364015076952 0.026722014466465629 0 -0.013249954436542985 0.025958204578780564 0 -0.013500187416193774 0.026850986246464897 0 -0.012209364015076952 0.026722014466465629 0 -0.012516653823407853 0.027166232416000878 0 -0.013500187416193774 0.026850986246464897 0 -0.01471915825515298 0.025984859290037087 0 -0.01493697273461091 0.026209422607595626 0 -0.01472461172486492 0.026382377693104968 0 -0.01471915825515298 0.025984859290037087 0 -0.014379240297447702 0.026258282170713833 0 -0.01472461172486492 0.026382377693104968 0 -0.012516653823407853 0.027166232416000878 0 -0.013500187416193774 0.026850986246464897 0 -0.012577783894211211 0.027683435555873857 0 -0.014253872364206424 0.026871194598287219 0 -0.011914320137091136 0.024030849317509498 0 -0.015174110474588807 0.026199314420255554 0 -0.015447432231133868 0.025912993526449397 0 -0.015453076885234342 0.026242375179871893 0 -0.015174110474588807 0.026199314420255554 0 -0.01493697273461091 0.026209422607595626 0 -0.015061474119585095 0.026481360948120862 0 -0.015174110474588807 0.026199314420255554 0 -0.01493697273461091 0.026209422607595626 0 -0.015087948826514907 0.026046640021799936 0 -0.01471915825515298 0.025984859290037087 0 -0.015087948826514907 0.026046640021799936 0 -0.015058548870307451 0.025635954292766543 0 -0.01471915825515298 0.025984859290037087 0 -0.01493697273461091 0.026209422607595626 0 -0.015087948826514907 0.026046640021799936 0 -0.015181712277232548 0.026046379217353442 0 -0.015502071434045098 0.026075244198158477 0 -0.015087948826514907 0.026046640021799936 0 -0.015390482586876038 0.025876173947753905 0 -0.015732535263722286 0.026181281644467008 0 -0.015174110474588807 0.026199314420255554 0 -0.015087948826514907 0.026046640021799936 0 -0.015447432231133868 0.025912993526449397 0 -0.015390482586876038 0.025876173947753905 0 -0.015746199406436658 0.02562456585597837 0 -0.015732535263722286 0.026181281644467008 0 -0.015390482586876038 0.025876173947753905 0 -0.015058548870307451 0.025635954292766543 0 -0.015746199406436658 0.02562456585597837 0 -0.015087948826514907 0.026046640021799936 0 -0.015390482586876038 0.025876173947753905 0 -0.015058548870307451 0.025635954292766543 0 -0.014493980025280228 0.025960408568399346 0 -0.014457970106722166 0.024999976779681916 0 -0.015515484324871603 0.025000007351487843 0 -0.013899169325769041 0.025481981150281784 0 -0.014493980025280228 0.025960408568399346 0 -0.014457970106722166 0.024999976779681916 0 -0.015058548870307451 0.025635954292766543 0 -0.015516481718443763 0.024999893434843039 0 -0.015746199406436658 0.02562456585597837 0 -0.014775020341240201 0.025713000235005383 0 -0.015515362248200786 0.025000211893530203 0 -0.016594005401266796 0.024999911158320707 0 -0.016502263769978355 0.025576729967755681 0 -0.015746199406436658 0.02562456585597837 0 -0.015516481718443763 0.024999893434843039 0 -0.016594005401266796 0.024999911158320707 0 -0.015746199406436658 0.02562456585597837 0 -0.016595025943658737 0.024999997752580754 0 -0.01668077198610745 0.025748805398461454 0 -0.016595181823851092 0.025000493532071563 0 -0.017536923029969367 0.024998687574115448 0 -0.017411327412023121 0.02546953069505618 0 -0.016595181823851092 0.025000493532071563 0 -0.016835386458435481 0.02570377851558486 0 -0.017411327412023121 0.02546953069505618 0 -0.016502263769978355 0.025576729967755681 0 -0.016118501581305823 0.025896357826085275 0 -0.016517565530471547 0.026168648230019523 0 -0.016835386458435481 0.02570377851558486 0 -0.017251832757376826 0.026238797323021132 0 -0.016958104173781182 0.026568795079404146 0 -0.01668077198610745 0.025748805398461454 0 -0.016626506286519641 0.025671035230773062 0 -0.016835386458435481 0.02570377851558486 0 -0.017411327412023121 0.02546953069505618 0 -0.017379508972216507 0.025906951562077177 0 -0.016835386458435481 0.02570377851558486 0 -0.017251832757376826 0.026238797323021132 0 -0.017379508972216507 0.025906951562077177 0 -0.016502263769978355 0.025576729967755681 0 -0.016118501581305823 0.025896357826085275 0 -0.015746199406436658 0.02562456585597837 0 -0.016118501581305823 0.025896357826085275 0 -0.015746199406436658 0.02562456585597837 0 -0.015732535263722286 0.026181281644467008 0 -0.019050204421709006 0.025102399666771288 0 -0.017536923029969367 0.024998687574115448 0 -0.018400843175366794 0.025438551583852748 0 -0.019050204421709006 0.025102399666771288 0 -0.017536923029969367 0.024998687574115448 0 -0.019574227155819635 0.024617497895835554 0 -0.017536990289501751 0.024999929302161571 0 -0.019297087572850823 0.024943198539843961 0 -0.017536568342288072 0.02499989284779254 0 -0.018781999943375493 0.025000189586771235 0 -0.01900516984796953 0.025204518141020309 0 -0.019050204421709006 0.025102399666771288 0 -0.018400843175366794 0.025438551583852748 0 -0.019327152585236238 0.025362344277941571 0 -0.017536923029969367 0.024998687574115448 0 -0.017411327412023121 0.02546953069505618 0 -0.018400843175366794 0.025438551583852748 0 -0.017411327412023121 0.02546953069505618 0 -0.017885213372855188 0.02578517611546571 0 -0.018400843175366794 0.025438551583852748 0 -0.017411327412023121 0.02546953069505618 0 -0.017379508972216507 0.025906951562077177 0 -0.017885213372855188 0.02578517611546571 0 -0.017251832757376826 0.026238797323021132 0 -0.017379508972216507 0.025906951562077177 0 -0.017752489838820745 0.026347663512261078 0 -0.017379508972216507 0.025906951562077177 0 -0.017885213372855188 0.02578517611546571 0 -0.017752489838820745 0.026347663512261078 0 -0.017885213372855188 0.02578517611546571 0 -0.019218313240236616 0.02613659264242699 0 -0.017752489838820745 0.026347663512261078 0 -0.017885213372855188 0.02578517611546571 0 -0.018400843175366794 0.025438551583852748 0 -0.019218313240236616 0.02613659264242699 0 -0.018400843175366794 0.025438551583852748 0 -0.019218313240236616 0.02613659264242699 0 -0.019327152585236238 0.025362344277941571 0 -0.019017092245763704 0.024875787775324936 0 -0.017446269352497327 0.025198729817992722 0 -0.018832485199300825 0.023549012410104514 0 -0.018033795433800914 0.023918945688418587 0 -0.01767555737382432 0.023835832122626896 0 -0.018832485199300825 0.023549012410104514 0 -0.018033795433800914 0.023918945688418587 0 -0.01930469933515189 0.024475810777798843 0 -0.019218313240236616 0.02613659264242699 0 -0.017752489838820745 0.026347663512261078 0 -0.017457411264543376 0.026597627539652724 0 -0.018033795433800914 0.023918945688418587 0 -0.01767555737382432 0.023835832122626896 0 -0.01774240382468531 0.023942966224883074 0 -0.017251832757376826 0.026238797323021132 0 -0.017752489838820745 0.026347663512261078 0 -0.017501530924604655 0.026517842322945507 0 -0.017322303985198347 0.025644500738793936 0 -0.017446269352497327 0.025198729817992722 0 -0.01767555737382432 0.023835832122626896 0 -0.01774240382468531 0.023942966224883074 0 -0.017972409775388474 0.024004720699000295 0 -0.01774240382468531 0.023942966224883074 0 -0.017487028613989986 0.024087631179583159 0 -0.018203863151012661 0.023158501959114324 0 -0.018033795433800914 0.023918945688418587 0 -0.01774240382468531 0.023942966224883074 0 -0.017487028613989986 0.024087631179583159 0 -0.017487028613989986 0.024087631179583159 0 -0.01930469933515189 0.024475810777798843 0 -0.019138572573112557 0.025379135549192654 0 -0.018033795433800914 0.023918945688418587 0 -0.017487028613989986 0.024087631179583159 0 -0.01930469933515189 0.024475810777798843 0 -0.016118501581305823 0.025896357826085275 0 -0.015732535263722286 0.026181281644467008 0 -0.016517565530471547 0.026168648230019523 0 -0.015447432231133868 0.025912993526449397 0 -0.015897511280397725 0.025935441253145914 0 -0.015453076885234342 0.026242375179871893 0 -0.015502071434045098 0.026075244198158477 0 -0.016626506286519641 0.025671035230773062 0 -0.015447432231133868 0.025912993526449397 0 -0.015884718935665607 0.025826092703848419 0 -0.015897511280397725 0.025935441253145914 0 -0.017446269352497327 0.025198729817992722 0 -0.016626506286519641 0.025671035230773062 0 -0.017446269352497327 0.025198729817992722 0 -0.016576189091227829 0.023162517200031554 0 -0.017018952342368741 0.024665431905355358 0 -0.016614523974912407 0.024712441597832861 0 -0.016642583339026157 0.024926403185044691 0 -0.017251832757376826 0.026238797323021132 0 -0.017501530924604655 0.026517842322945507 0 -0.016958104173781182 0.026568795079404146 0 -0.016626506286519641 0.025671035230773062 0 -0.016576189091227829 0.023162517200031554 0 -0.016707032397686762 0.018536335313597815 0 -0.015765921817538556 0.019189483898763834 0 -0.016840010364644852 0.019280302908962172 0 -0.016576189091227829 0.023162517200031554 0 -0.0174863693713346 0.020831523275543343 0 -0.01774240382468531 0.023942966224883074 0 -0.017972409775388474 0.024004720699000295 0 -0.018203863151012661 0.023158501959114324 0 -0.016576189091227829 0.023162517200031554 0 -0.015678311319014884 0.022851761509387638 0 -0.015765921817538556 0.019189483898763834 0 -0.016195500526951272 0.019822264060098981 0 -0.016840010364644852 0.019280302908962172 0 -0.015765921817538556 0.019189483898763834 0 -0.015814974430155348 0.019737392938763691 0 -0.015635880045492653 0.019676804380458528 0 -0.015765921817538556 0.019189483898763834 0 -0.015814974430155348 0.019737392938763691 0 -0.016195500526951272 0.019822264060098981 0 -0.015814974430155348 0.019737392938763691 0 -0.015727126887490294 0.019832654931132475 0 -0.015635880045492653 0.019676804380458528 0 -0.015814974430155348 0.019737392938763691 0 -0.016195500526951272 0.019822264060098981 0 -0.015721006466934914 0.01985492396075994 0 -0.0174863693713346 0.020831523275543343 0 -0.017353103327396518 0.020968074753326307 0 -0.016195500526951272 0.019822264060098981 0 -0.016840010364644852 0.019280302908962172 0 -0.017277521074717847 0.020716341978700072 0 -0.017277521074717847 0.020716341978700072 0 -0.016335456121251993 0.020197891308784008 0 -0.016965574773566968 0.020734312465041618 0 -0.016195500526951272 0.019822264060098981 0 -0.017277521074717847 0.020716341978700072 0 -0.016335456121251993 0.020197891308784008 0 -0.016335456121251993 0.020197891308784008 0 -0.015164997783051375 0.019604447205310994 0 -0.015721006466934914 0.01985492396075994 0 -0.015164997783051375 0.019604447205310994 0 -0.013708405712930265 0.018088418817409052 0 -0.016679786368450591 0.019456982924843519 0 -0.016335456121251993 0.020197891308784008 0 -0.015164997783051375 0.019604447205310994 0 -0.016965574773566968 0.020734312465041618 0 -0.015164997783051375 0.019604447205310994 0 -0.015721006466934914 0.01985492396075994 0 -0.015665861384662503 0.019905765445620376 0 -0.015164997783051375 0.019604447205310994 0 -0.015665861384662503 0.019905765445620376 0 -0.015835028939434791 0.019811898226510184 0 -0.015814974430155348 0.019737392938763691 0 -0.015721006466934914 0.01985492396075994 0 -0.015727126887490294 0.019832654931132475 0 -0.015721006466934914 0.01985492396075994 0 -0.015665861384662503 0.019905765445620376 0 -0.015727126887490294 0.019832654931132475 0 -0.016195500526951272 0.019822264060098981 0 -0.016335456121251993 0.020197891308784008 0 -0.015721006466934914 0.01985492396075994 0 -0.017400204898622606 0.024050865768663249 0 -0.017167946267512155 0.023839247873747124 0 -0.017487028613989986 0.024087631179583159 0 -0.018133046687729092 0.026082849850115081 0 -0.019138572573112557 0.025379135549192654 0 -0.017487028613989986 0.024087631179583159 0 -0.016136019040290356 0.021717428778428999 0 -0.017240278541573388 0.022138441129471779 0 -0.017487028613989986 0.024087631179583159 0 -0.018203863151012661 0.023158501959114324 0 -0.017240278541573388 0.022138441129471779 0 -0.018203863151012661 0.023158501959114324 0 -0.017277521074717847 0.020716341978700072 0 -0.017240278541573388 0.022138441129471779 0 -0.017277521074717847 0.020716341978700072 0 -0.016777315048461687 0.020651479160066721 0 -0.016965574773566968 0.020734312465041618 0 -0.016136019040290356 0.021717428778428999 0 -0.017240278541573388 0.022138441129471779 0 -0.016777315048461687 0.020651479160066721 0 -0.017277521074717847 0.020716341978700072 0 -0.017240278541573388 0.022138441129471779 0 -0.016777315048461687 0.020651479160066721 0 -0.018133046687729092 0.026082849850115081 0 -0.018636765251978885 0.027422216697403044 0 -0.019492423589685767 0.026481111177951537 0 -0.017167946267512155 0.023839247873747124 0 -0.017398692804713019 0.024122914375096016 0 -0.016136019040290356 0.021717428778428999 0 -0.016777315048461687 0.020651479160066721 0 -0.015915004956980547 0.020436864332462827 0 -0.01574961698750358 0.020007995563501163 0 -0.015915004956980547 0.020436864332462827 0 -0.016601243322839503 0.020042113255674537 0 -0.016777315048461687 0.020651479160066721 0 -0.015915004956980547 0.020436864332462827 0 -0.016601243322839503 0.020042113255674537 0 -0.0167737564140088 0.019986195344509929 0 -0.017398692804713019 0.024122914375096016 0 -0.0089323580758966618 0.01396439354031055 0 -0.010909053568521676 0.016066756490887797 0 -0.01057136392181555 0.013726905601353406 0 -0.016777315048461687 0.020651479160066721 0 -0.016601243322839503 0.020042113255674537 0 -0.016965574773566968 0.020734312465041618 0 -0.012733239652707404 0.017143970313976541 0 -0.01401962311788396 0.018413317412743799 0 -0.0089323580758966618 0.01396439354031055 0 -0.0088490695385327178 0.011526210614939459 0 -0.010170672157761901 0.011854884595651686 0 -0.0089323580758966618 0.01396439354031055 0 -0.01057136392181555 0.013726905601353406 0 -0.010170672157761901 0.011854884595651686 0 -0.012733239652707404 0.017143970313976541 0 -0.011840391613618989 0.014918133933473994 0 -0.01574961698750358 0.020007995563501163 0 -0.016601243322839503 0.020042113255674537 0 -0.01555716876121732 0.019383134783439119 0 -0.0089323580758966618 0.01396439354031055 0 -0.007233298283124974 0.012538646515413827 0 -0.0088490695385327178 0.011526210614939459 0 -0.012367724809108461 0.014905916321946431 0 -0.014035956406976448 0.016972305541089173 0 -0.013911296689963933 0.01364765016821415 0 -0.014035956406976448 0.016972305541089173 0 -0.013708405712930265 0.018088418817409052 0 -0.017009355446397381 0.018349435231483354 0 -0.015200443088111125 0.0194883638427365 0 -0.01401962311788396 0.018413317412743799 0 -0.014035956406976448 0.016972305541089173 0 -0.013911296689963933 0.01364765016821415 0 -0.015759738172726516 0.015587993890554042 0 -0.014505454281897236 0.018322259378367615 0 -0.015200510604464083 0.018254512957730732 0 -0.015164997783051375 0.019604447205310994 0 -0.013708405712930265 0.018088418817409052 0 -0.010909053568521676 0.016066756490887797 0 -0.012367724809108461 0.014905916321946431 0 -0.014035956406976448 0.016972305541089173 0 -0.013708405712930265 0.018088418817409052 0 -0.012367724809108461 0.014905916321946431 0 -0.013708405712930265 0.018088418817409052 0 -0.010909053568521676 0.016066756490887797 0 -0.012367724809108461 0.014905916321946431 0 -0.010909053568521676 0.016066756490887797 0 -0.01057136392181555 0.013726905601353406 0 -0.012367724809108461 0.014905916321946431 0 -0.01057136392181555 0.013726905601353406 0 -0.01194677772854422 0.012593935446858891 0 -0.01057136392181555 0.013726905601353406 0 -0.01194677772854422 0.012593935446858891 0 -0.010170672157761901 0.011854884595651686 0 -0.012367724809108461 0.014905916321946431 0 -0.01194677772854422 0.012593935446858891 0 -0.013911296689963933 0.01364765016821415 0 -0.013808049926288231 0.015247901365601422 0 -0.013332022537158612 0.011904992679328189 0 -0.013911296689963933 0.01364765016821415 0 -0.015759738172726516 0.015587993890554042 0 -0.015514352830672975 0.011827677923145498 0 -0.014035956406976448 0.016972305541089173 0 -0.017405587784985098 0.015747936887787639 0 -0.017009355446397381 0.018349435231483354 0 -0.013159960691906976 0.016606915040266693 0 -0.013474931764384036 0.01642557216006563 0 -0.012924975214078887 0.0163532625950705 0 -0.014994274653516982 0.016487639027167614 0 -0.013808049926288231 0.015247901365601422 0 -0.013405396834881055 0.016815287985788008 0 -0.013159960691906976 0.016606915040266693 0 -0.013474931764384036 0.01642557216006563 0 -0.013808049926288231 0.015247901365601422 0 -0.015200510604464083 0.018254512957730732 0 -0.013159960691906976 0.016606915040266693 0 -0.0127628770191963 0.017031777902206599 0 -0.012924975214078887 0.0163532625950705 0 -0.013808049926288231 0.015247901365601422 0 -0.01226563856400114 0.015022593630355895 0 -0.0127628770191963 0.017031777902206599 0 -0.012427875715256078 0.016702088041407916 0 -0.012924975214078887 0.0163532625950705 0 -0.013405396834881055 0.016815287985788008 0 -0.013159960691906976 0.016606915040266693 0 -0.0127628770191963 0.017031777902206599 0 -0.011743232869993981 0.012958750006449367 0 -0.011866118990077159 0.011987727015894782 0 -0.010920659029848623 0.011925534490307834 0 -0.010726719645705292 0.013348552884824224 0 -0.011743232869993981 0.012958750006449367 0 -0.010920659029848623 0.011925534490307834 0 -0.01226563856400114 0.015022593630355895 0 -0.010522709987980921 0.014250930761847927 0 -0.011743232869993981 0.012958750006449367 0 -0.012767077720089538 0.012579215563196831 0 -0.011866118990077159 0.011987727015894782 0 -0.0127628770191963 0.017031777902206599 0 -0.012136288956545095 0.017236091775772761 0 -0.012427875715256078 0.016702088041407916 0 -0.010267769439542707 0.01370158177430514 0 -0.010522709987980921 0.014250930761847927 0 -0.010741093426685295 0.017002605846925211 0 -0.010618909453980191 0.017446688077294645 0 -0.0097472220875030914 0.016909986968258444 0 -0.010618909453980191 0.017446688077294645 0 -0.0097472220875030914 0.016909986968258444 0 -0.010023071978571767 0.017866426348838411 0 -0.010522709987980921 0.014250930761847927 0 -0.011084357271275665 0.017936376545912652 0 -0.010328654737722634 0.017671390580049396 0 -0.011084357271275665 0.017936376545912652 0 -0.012136288956545095 0.017236091775772761 0 -0.011948620683407967 0.01659180077414945 0 -0.012427875715256078 0.016702088041407916 0 -0.011948620683407967 0.01659180077414945 0 -0.012427875715256078 0.016702088041407916 0 -0.012381602022411262 0.016286995351614486 0 -0.012432431421808278 0.018845200884823596 0 -0.01388951915231754 0.018332550500934391 0 -0.012427875715256078 0.016702088041407916 0 -0.012381602022411262 0.016286995351614486 0 -0.012924975214078887 0.0163532625950705 0 -0.011084357271275665 0.017936376545912652 0 -0.012432431421808278 0.018845200884823596 0 -0.011319511287074492 0.018846098803434335 0 -0.011813580317534163 0.018497794429843464 0 -0.011192320221936841 0.018412848942227823 0 -0.012432431421808278 0.018845200884823596 0 -0.010770044021393354 0.018878341064444745 0 -0.011436817326311095 0.020131216202748037 0 -0.010838526454156788 0.020024553408240588 0 -0.010958886978548302 0.019593952560344598 0 -0.010633438917235342 0.018166550116595549 0 -0.0099769384936284379 0.017937771910443712 0 -0.010155673017687935 0.01853198725657846 0 -0.011084357271275665 0.017936376545912652 0 -0.010770044021393354 0.018878341064444745 0 -0.010514334473587171 0.018673832709297303 0 -0.010770044021393354 0.018878341064444745 0 -0.010666635172013111 0.019437789396890906 0 -0.010770044021393354 0.018878341064444745 0 -0.010644098944447468 0.019353585870765445 0 -0.010958886978548302 0.019593952560344598 0 -0.011370022493529126 0.019415329530917461 0 -0.011914320137091136 0.024030849317509498 0 -0.013058272533607949 0.022961492725626816 0 -0.010689503788766805 0.019288327756166686 0 -0.010838526454156788 0.020024553408240588 0 -0.010958886978548302 0.019593952560344598 0 -0.010689503788766805 0.019288327756166686 0 -0.010644098944447468 0.019353585870765445 0 -0.010958886978548302 0.019593952560344598 0 -0.011436817326311095 0.020131216202748037 0 -0.011370022493529126 0.019415329530917461 0 -0.012131035491017123 0.019679993659474024 0 -0.011436817326311095 0.020131216202748037 0 -0.010958886978548302 0.019593952560344598 0 -0.011370022493529126 0.019415329530917461 0 -0.013058272533607949 0.022961492725626816 0 -0.014306593286060791 0.021202012460355857 0 -0.01493697273461091 0.026209422607595626 0 -0.01472461172486492 0.026382377693104968 0 -0.015061474119585095 0.026481360948120862 0 -0.015765921817538556 0.019189483898763834 0 -0.015159097948848193 0.019761035532989621 0 -0.015635880045492653 0.019676804380458528 0 -0.015159097948848193 0.019761035532989621 0 -0.015635880045492653 0.019676804380458528 0 -0.01571906564925939 0.019873890117890803 0 -0.015174110474588807 0.026199314420255554 0 -0.015453076885234342 0.026242375179871893 0 -0.015061474119585095 0.026481360948120862 0 -0.015678311319014884 0.022851761509387638 0 -0.014306593286060791 0.021202012460355857 0 -0.014306593286060791 0.021202012460355857 0 -0.015704841988170851 0.019828719756433126 0 -0.015727126887490294 0.019832654931132475 0 -0.015635880045492653 0.019676804380458528 0 -0.01571906564925939 0.019873890117890803 0 -0.015401692773784177 0.020006291744867916 0 -0.015691080140257423 0.020419559870770744 0 -0.014833104914892044 0.020301473149301707 0 -0.015200510604464083 0.018254512957730732 0 -0.01388951915231754 0.018332550500934391 0 -0.014959707789419296 0.019520951293559238 0 -0.015401692773784177 0.020006291744867916 0 -0.01571906564925939 0.019873890117890803 0 -0.015665861384662503 0.019905765445620376 0 -0.015727126887490294 0.019832654931132475 0 -0.01571906564925939 0.019873890117890803 0 -0.015401692773784177 0.020006291744867916 0 -0.01571906564925939 0.019873890117890803 0 -0.015779412577990315 0.019991178582048557 0 -0.015665861384662503 0.019905765445620376 0 -0.01571906564925939 0.019873890117890803 0 -0.015779412577990315 0.019991178582048557 0 -0.015779412577990315 0.019991178582048557 0 -0.016679786368450591 0.019456982924843519 0 -0.015835028939434791 0.019811898226510184 0 -0.015401692773784177 0.020006291744867916 0 -0.015779412577990315 0.019991178582048557 0 -0.015691080140257423 0.020419559870770744 0 -0.015164997783051375 0.019604447205310994 0 -0.016679786368450591 0.019456982924843519 0 -0.015835028939434791 0.019811898226510184 0 -0.015435793979680746 0.019738792426147216 0 -0.015200510604464083 0.018254512957730732 0 -0.015665861384662503 0.019905765445620376 0 -0.015779412577990315 0.019991178582048557 0 -0.015835028939434791 0.019811898226510184 0 -0.012432431421808278 0.018845200884823596 0 -0.014306593286060791 0.021202012460355857 0 -0.014959707789419296 0.019520951293559238 0 -0.015401692773784177 0.020006291744867916 0 -0.014833104914892044 0.020301473149301707 0 -0.013967743934089292 0.020178789418859398 0 -0.014959707789419296 0.019520951293559238 0 -0.014833104914892044 0.020301473149301707 0 -0.025382080064421664 0.022471724187748902 0 -0.024999797678538136 0.023143253606634964 0 -0.02499962642756692 0.02170512602713328 0 -0.025382080064421664 0.022471724187748902 0 -0.025042360272402781 0.022213045970535934 0 -0.02499962642756692 0.02170512602713328 0 -0.024487617507443427 0.023825119928604341 0 -0.024709189789978867 0.024070908331428064 0 -0.024566400535066639 0.022783359445959866 0 -0.023997294783830701 0.024182425385949068 0 -0.024487617507443427 0.023825119928604341 0 -0.024566400535066639 0.022783359445959866 0 -0.024682584407894 0.023354185573087872 0 -0.024608918167634539 0.022887318747564545 0 -0.025382080064421664 0.022471724187748902 0 -0.024566400535066639 0.022783359445959866 0 -0.025042360272402781 0.022213045970535934 0 -0.024487617507443427 0.023825119928604341 0 -0.024373952546974172 0.024156897767032615 0 -0.024709189789978867 0.024070908331428064 0 -0.023997294783830701 0.024182425385949068 0 -0.024487617507443427 0.023825119928604341 0 -0.024373952546974172 0.024156897767032615 0 -0.023997294783830701 0.024182425385949068 0 -0.024373952546974172 0.024156897767032615 0 -0.024171532500140452 0.024405091534860528 0 -0.024373952546974172 0.024156897767032615 0 -0.024171532500140452 0.024405091534860528 0 -0.024176794986553431 0.024289416786544393 0 -0.024682584407894 0.023354185573087872 0 -0.024811286859184246 0.024046222100628855 0 -0.025382080064421664 0.022471724187748902 0 -0.024999797678538136 0.023143253606634964 0 -0.025341412207784571 0.023573903299208318 0 -0.023997294783830701 0.024182425385949068 0 -0.024171532500140452 0.024405091534860528 0 -0.024250651197370129 0.024602184445850949 0 -0.024250651197370129 0.024602184445850949 0 -0.024998635115473965 0.02458673444490905 0 -0.024081872454379382 0.024587120514951998 0 -0.024811286859184246 0.024046222100628855 0 -0.024999909497902397 0.024584371472077343 0 -0.024999797678538136 0.023143253606634964 0 -0.025341412207784571 0.023573903299208318 0 -0.025000073599655562 0.024584973871834833 0 -0.024998635115473965 0.02458673444490905 0 -0.024999499724416438 0.024998894332913753 0 -0.023766323952652213 0.024998619956466264 0 -0.024998635115473965 0.02458673444490905 0 -0.023766323952652213 0.024998619956466264 0 -0.024081872454379382 0.024587120514951998 0 -0.023766323952652213 0.024998619956466264 0 -0.024081872454379382 0.024587120514951998 0 -0.024042785986616352 0.024317817823504419 0 -0.024171532500140452 0.024405091534860528 0 -0.024250651197370129 0.024602184445850949 0 -0.024081872454379382 0.024587120514951998 0 -0.024171532500140452 0.024405091534860528 0 -0.024081872454379382 0.024587120514951998 0 -0.024176794986553431 0.024289416786544393 0 -0.024081872454379382 0.024587120514951998 0 -0.024176794986553431 0.024289416786544393 0 -0.024042785986616352 0.024317817823504419 0 -0.024176794986553431 0.024289416786544393 0 -0.024042785986616352 0.024317817823504419 0 -0.023984762669380381 0.024052440315246941 0 -0.024042785986616352 0.024317817823504419 0 -0.024024680720245856 0.023992199340904258 0 -0.023984762669380381 0.024052440315246941 0 -0.023766323952652213 0.024998619956466264 0 -0.024042785986616352 0.024317817823504419 0 -0.024024680720245856 0.023992199340904258 0 -0.023764017780821271 0.02499993882594095 0 -0.023196326414400108 0.024761062970319811 0 -0.023764276660624965 0.025000097160888492 0 -0.022518388751874546 0.024999787295160749 0 -0.022493893077674427 0.025547222973584676 0 -0.022518388751874546 0.024999787295160749 0 -0.022493893077674427 0.025547222973584676 0 -0.021615275333296515 0.025273642173367212 0 -0.024024680720245856 0.023992199340904258 0 -0.023984762669380381 0.024052440315246941 0 -0.022729778689723631 0.023520530709225808 0 -0.022493893077674427 0.025547222973584676 0 -0.021014438044240705 0.025511721106714857 0 -0.021615275333296515 0.025273642173367212 0 -0.023196326414400108 0.024761062970319811 0 -0.021881487416621267 0.024514733579631437 0 -0.023984762669380381 0.024052440315246941 0 -0.023687343965295149 0.024187249973402266 0 -0.022729778689723631 0.023520530709225808 0 -0.023984762669380381 0.024052440315246941 0 -0.023687343965295149 0.024187249973402266 0 -0.024224899754559336 0.02415978356391827 0 -0.024176794986553431 0.024289416786544393 0 -0.023984762669380381 0.024052440315246941 0 -0.024224899754559336 0.02415978356391827 0 -0.024373952546974172 0.024156897767032615 0 -0.024176794986553431 0.024289416786544393 0 -0.024224899754559336 0.02415978356391827 0 -0.024373952546974172 0.024156897767032615 0 -0.024224899754559336 0.02415978356391827 0 -0.024709189789978867 0.024070908331428064 0 -0.023687343965295149 0.024187249973402266 0 -0.024224899754559336 0.02415978356391827 0 -0.024709189789978867 0.024070908331428064 0 -0.023371039594926455 0.024605662690590713 0 -0.022417134340193712 0.025094250678626903 0 -0.023559580318851605 0.025237354428374287 0 -0.023687343965295149 0.024187249973402266 0 -0.023371039594926455 0.024605662690590713 0 -0.022417231140801977 0.024474179075933414 0 -0.023687343965295149 0.024187249973402266 0 -0.024709189789978867 0.024070908331428064 0 -0.023371039594926455 0.024605662690590713 0 -0.024709189789978867 0.024070908331428064 0 -0.023371039594926455 0.024605662690590713 0 -0.023559580318851605 0.025237354428374287 0 -0.023371039594926455 0.024605662690590713 0 -0.022417134340193712 0.025094250678626903 0 -0.022417231140801977 0.024474179075933414 0 -0.022417134340193712 0.025094250678626903 0 -0.021208004707957306 0.02493693191683008 0 -0.022417231140801977 0.024474179075933414 0 -0.022417231140801977 0.024474179075933414 0 -0.022729778689723631 0.023520530709225808 0 -0.020570364683923446 0.024396691192424279 0 -0.021881487416621267 0.024514733579631437 0 -0.020725747017704667 0.024450614144297889 0 -0.021208004707957306 0.02493693191683008 0 -0.022417231140801977 0.024474179075933414 0 -0.020570364683923446 0.024396691192424279 0 -0.023687343965295149 0.024187249973402266 0 -0.022417231140801977 0.024474179075933414 0 -0.022729778689723631 0.023520530709225808 0 -0.021014438044240705 0.025511721106714857 0 -0.021615275333296515 0.025273642173367212 0 -0.020708728564453514 0.025277932048556311 0 -0.022518388751874546 0.024999787295160749 0 -0.021615275333296515 0.025273642173367212 0 -0.021272799949076871 0.024999756313865435 0 -0.021615275333296515 0.025273642173367212 0 -0.021272799949076871 0.024999756313865435 0 -0.020708728564453514 0.025277932048556311 0 -0.021272799949076871 0.024999756313865435 0 -0.020530441896746451 0.025145694018389765 0 -0.020708728564453514 0.025277932048556311 0 -0.021272799949076871 0.024999756313865435 0 -0.020530441896746451 0.025145694018389765 0 -0.02002802138031123 0.024999557018553629 0 -0.020530441896746451 0.025145694018389765 0 -0.020708728564453514 0.025277932048556311 0 -0.020457690918492057 0.025105016844121524 0 -0.021014438044240705 0.025511721106714857 0 -0.020708728564453514 0.025277932048556311 0 -0.020570364683923446 0.024396691192424279 0 -0.020708728564453514 0.025277932048556311 0 -0.020532578770188305 0.024758520495854287 0 -0.020570364683923446 0.024396691192424279 0 -0.020708728564453514 0.025277932048556311 0 -0.020532578770188305 0.024758520495854287 0 -0.020457690918492057 0.025105016844121524 0 -0.020532578770188305 0.024758520495854287 0 -0.020293198731155346 0.025051442838309044 0 -0.019953805942083 0.025215235114556901 0 -0.020293198731155346 0.025051442838309044 0 -0.020126575773751994 0.025027142519488468 0 -0.019953805942083 0.025215235114556901 0 -0.020293198731155346 0.025051442838309044 0 -0.020457690918492057 0.025105016844121524 0 -0.020126575773751994 0.025027142519488468 0 -0.020532578770188305 0.024758520495854287 0 -0.020293198731155346 0.025051442838309044 0 -0.020457690918492057 0.025105016844121524 0 -0.020530441896746451 0.025145694018389765 0 -0.020126575773751994 0.025027142519488468 0 -0.019574227155819635 0.024617497895835554 0 -0.020530441896746451 0.025145694018389765 0 -0.020457690918492057 0.025105016844121524 0 -0.020126575773751994 0.025027142519488468 0 -0.020436877749438781 0.025114213909816795 0 -0.019297087572850823 0.024943198539843961 0 -0.020530441896746451 0.025145694018389765 0 -0.02002802138031123 0.024999557018553629 0 -0.01900516984796953 0.025204518141020309 0 -0.02002802138031123 0.024999557018553629 0 -0.018781999943375493 0.025000189586771235 0 -0.01900516984796953 0.025204518141020309 0 -0.020126575773751994 0.025027142519488468 0 -0.019574227155819635 0.024617497895835554 0 -0.019650767349418889 0.025071701291621142 0 -0.019050204421709006 0.025102399666771288 0 -0.019574227155819635 0.024617497895835554 0 -0.019650767349418889 0.025071701291621142 0 -0.019050204421709006 0.025102399666771288 0 -0.019650767349418889 0.025071701291621142 0 -0.019327152585236238 0.025362344277941571 0 -0.019650767349418889 0.025071701291621142 0 -0.019327152585236238 0.025362344277941571 0 -0.019953805942083 0.025215235114556901 0 -0.019218313240236616 0.02613659264242699 0 -0.020532578770188305 0.024758520495854287 0 -0.019953805942083 0.025215235114556901 0 -0.019218313240236616 0.02613659264242699 0 -0.019327152585236238 0.025362344277941571 0 -0.019953805942083 0.025215235114556901 0 -0.019017092245763704 0.024875787775324936 0 -0.020294204114478683 0.024762971989537037 0 -0.020126575773751994 0.025027142519488468 0 -0.019650767349418889 0.025071701291621142 0 -0.019953805942083 0.025215235114556901 0 -0.018832485199300825 0.023549012410104514 0 -0.020532578770188305 0.024758520495854287 0 -0.01999518972709757 0.024317438319530513 0 -0.01999518972709757 0.024317438319530513 0 -0.020379257922792406 0.024694122562061646 0 -0.01930469933515189 0.024475810777798843 0 -0.018832485199300825 0.023549012410104514 0 -0.01999518972709757 0.024317438319530513 0 -0.01930469933515189 0.024475810777798843 0 -0.020532578770188305 0.024758520495854287 0 -0.020570364683923446 0.024396691192424279 0 -0.01999518972709757 0.024317438319530513 0 -0.020570364683923446 0.024396691192424279 0 -0.01999518972709757 0.024317438319530513 0 -0.020379257922792406 0.024694122562061646 0 -0.020379257922792406 0.024694122562061646 0 -0.01930469933515189 0.024475810777798843 0 -0.020314998660656242 0.025463999674568166 0 -0.021208004707957306 0.02493693191683008 0 -0.020379257922792406 0.024694122562061646 0 -0.020314998660656242 0.025463999674568166 0 -0.021208004707957306 0.02493693191683008 0 -0.020570364683923446 0.024396691192424279 0 -0.020379257922792406 0.024694122562061646 0 -0.01930469933515189 0.024475810777798843 0 -0.019138572573112557 0.025379135549192654 0 -0.020314998660656242 0.025463999674568166 0 -0.018133046687729092 0.026082849850115081 0 -0.019138572573112557 0.025379135549192654 0 -0.019492423589685767 0.026481111177951537 0 -0.019138572573112557 0.025379135549192654 0 -0.020314998660656242 0.025463999674568166 0 -0.019492423589685767 0.026481111177951537 0 -0.020314998660656242 0.025463999674568166 0 -0.020773578155049852 0.026488288067041208 0 -0.019492423589685767 0.026481111177951537 0 -0.020314998660656242 0.025463999674568166 0 -0.020773578155049852 0.026488288067041208 0 -0.021565314260680233 0.025785122696707897 0 -0.020773578155049852 0.026488288067041208 0 -0.019492423589685767 0.026481111177951537 0 -0.020605427139653722 0.027553841510565176 0 -0.018636765251978885 0.027422216697403044 0 -0.019492423589685767 0.026481111177951537 0 -0.020605427139653722 0.027553841510565176 0 -0.011950719858117435 0.012095704841790029 0 -0.015442964391433441 0.013152013630902763 0 -0.017154876026196732 0.010446508867757769 0 -0.0167737564140088 0.019986195344509929 0 -0.018531826742982743 0.019109990585078316 0 -0.018820270853496125 0.02805424398363679 0 -0.018636765251978885 0.027422216697403044 0 -0.020605427139653722 0.027553841510565176 0 -0.011950719858117435 0.012095704841790029 0 -0.012550942544067578 0.014169963939458899 0 -0.015442964391433441 0.013152013630902763 0 -0.012550942544067578 0.014169963939458899 0 -0.015442964391433441 0.013152013630902763 0 -0.016366554691140144 0.015978943057207106 0 -0.0167737564140088 0.019986195344509929 0 -0.011840391613618989 0.014918133933473994 0 -0.015442964391433441 0.013152013630902763 0 -0.019714411545281155 0.014641102016951015 0 -0.016366554691140144 0.015978943057207106 0 -0.015442964391433441 0.013152013630902763 0 -0.017154876026196732 0.010446508867757769 0 -0.020298776287977414 0.011544123626256638 0 -0.018531826742982743 0.019109990585078316 0 -0.022755256235896099 0.017714269223619978 0 -0.017154876026196732 0.010446508867757769 0 -0.020298776287977414 0.011544123626256638 0 -0.022644077399701597 0.0090921484285526842 0 -0.015442964391433441 0.013152013630902763 0 -0.020298776287977414 0.011544123626256638 0 -0.019714411545281155 0.014641102016951015 0 -0.020298776287977414 0.011544123626256638 0 -0.019714411545281155 0.014641102016951015 0 -0.023419582133971648 0.013137001005888242 0 -0.023419582133971648 0.013137001005888242 0 -0.024587575659871973 0.01403843746529768 0 -0.024288904524207736 0.014771978259289829 0 -0.023419582133971648 0.013137001005888242 0 -0.022644077399701597 0.0090921484285526842 0 -0.024596548802329216 0.011801815948919256 0 -0.020298776287977414 0.011544123626256638 0 -0.023419582133971648 0.013137001005888242 0 -0.022644077399701597 0.0090921484285526842 0 -0.022405836675993999 0.027010910681271441 0 -0.021565314260680233 0.025785122696707897 0 -0.02259129414288048 0.025811556171886733 0 -0.020773578155049852 0.026488288067041208 0 -0.020605427139653722 0.027553841510565176 0 -0.022405836675993999 0.027010910681271441 0 -0.020773578155049852 0.026488288067041208 0 -0.022405836675993999 0.027010910681271441 0 -0.021565314260680233 0.025785122696707897 0 -0.021208004707957306 0.02493693191683008 0 -0.020314998660656242 0.025463999674568166 0 -0.021565314260680233 0.025785122696707897 0 -0.022417134340193712 0.025094250678626903 0 -0.021208004707957306 0.02493693191683008 0 -0.021565314260680233 0.025785122696707897 0 -0.022417134340193712 0.025094250678626903 0 -0.021565314260680233 0.025785122696707897 0 -0.02259129414288048 0.025811556171886733 0 -0.022417134340193712 0.025094250678626903 0 -0.02259129414288048 0.025811556171886733 0 -0.023559580318851605 0.025237354428374287 0 -0.02259129414288048 0.025811556171886733 0 -0.023559580318851605 0.025237354428374287 0 -0.024325607539477889 0.026415358167298321 0 -0.024709189789978867 0.024070908331428064 0 -0.025403095784245575 0.022454164186560054 0 -0.024465911365744025 0.022705122813944646 0 -0.02442760761910653 0.026173427095439326 0 -0.02523104112190705 0.019387889201449036 0 -0.024709189789978867 0.024070908331428064 0 -0.023559580318851605 0.025237354428374287 0 -0.024325607539477889 0.026415358167298321 0 -0.02523104112190705 0.019387889201449036 0 -0.025398176131338549 0.021940964538068465 0 -0.027076847965074355 0.02067909974180052 0 -0.026198557262616953 0.020325455612349923 0 -0.02614722973467961 0.02105764058929542 0 -0.027076847965074355 0.02067909974180052 0 -0.026700671839904558 0.0199962737895726 0 -0.026198557262616953 0.020325455612349923 0 -0.022755256235896099 0.017714269223619978 0 -0.02523104112190705 0.019387889201449036 0 -0.022405836675993999 0.027010910681271441 0 -0.02259129414288048 0.025811556171886733 0 -0.024325607539477889 0.026415358167298321 0 -0.02523104112190705 0.019387889201449036 0 -0.027217153277278271 0.014600317415262272 0 -0.022644077399701597 0.0090921484285526842 0 -0.027355026675979027 0.0079303105118711439 0 -0.026468474329164892 0.011553641346027575 0 -0.022644077399701597 0.0090921484285526842 0 -0.026468474329164892 0.011553641346027575 0 -0.024596548802329216 0.011801815948919256 0 -0.023419582133971648 0.013137001005888242 0 -0.024596548802329216 0.011801815948919256 0 -0.025760170969611133 0.01325205441779824 0 -0.027217153277278271 0.014600317415262272 0 -0.025806238818418974 0.016379716933342277 0 -0.026468474329164892 0.011553641346027575 0 -0.025760170969611133 0.01325205441779824 0 -0.025423292297361438 0.015042949299453091 0 -0.027303515727296272 0.019578464887990074 0 -0.026980829094791586 0.018930007461808937 0 -0.027462891759951029 0.018475736180859691 0 -0.026468474329164892 0.011553641346027575 0 -0.024596548802329216 0.011801815948919256 0 -0.025760170969611133 0.01325205441779824 0 -0.025874308264712136 0.013414761450454067 0 -0.025806238818418974 0.016379716933342277 0 -0.026980829094791586 0.018930007461808937 0 -0.02691385539276708 0.018408983011893216 0 -0.027462891759951029 0.018475736180859691 0 -0.025760170969611133 0.01325205441779824 0 -0.024587575659871973 0.01403843746529768 0 -0.025389121847880038 0.014560302228450599 0 -0.023419582133971648 0.013137001005888242 0 -0.025760170969611133 0.01325205441779824 0 -0.024587575659871973 0.01403843746529768 0 -0.026471707483570462 0.018783093831305425 0 -0.026980829094791586 0.018930007461808937 0 -0.02691385539276708 0.018408983011893216 0 -0.027303515727296272 0.019578464887990074 0 -0.026980829094791586 0.018930007461808937 0 -0.026751825027997618 0.019393555742528646 0 -0.026471707483570462 0.018783093831305425 0 -0.026751825027997618 0.019393555742528646 0 -0.026132986539538477 0.019508155260976576 0 -0.026471707483570462 0.018783093831305425 0 -0.026980829094791586 0.018930007461808937 0 -0.026751825027997618 0.019393555742528646 0 -0.027076847965074355 0.02067909974180052 0 -0.027303515727296272 0.019578464887990074 0 -0.026700671839904558 0.0199962737895726 0 -0.026751825027997618 0.019393555742528646 0 -0.026700671839904558 0.0199962737895726 0 -0.026132986539538477 0.019508155260976576 0 -0.027303515727296272 0.019578464887990074 0 -0.026751825027997618 0.019393555742528646 0 -0.026700671839904558 0.0199962737895726 0 -0.026700671839904558 0.0199962737895726 0 -0.026132986539538477 0.019508155260976576 0 -0.026198557262616953 0.020325455612349923 0 -0.026132986539538477 0.019508155260976576 0 -0.025641111019871786 0.02002026311308026 0 -0.026198557262616953 0.020325455612349923 0 -0.026132986539538477 0.019508155260976576 0 -0.025494071406908944 0.019438532632026807 0 -0.025641111019871786 0.02002026311308026 0 -0.026471707483570462 0.018783093831305425 0 -0.026132986539538477 0.019508155260976576 0 -0.025716362586681973 0.018585011825461326 0 -0.026132986539538477 0.019508155260976576 0 -0.025494071406908944 0.019438532632026807 0 -0.025716362586681973 0.018585011825461326 0 -0.024999918522424249 0.018822308910838262 0 -0.025494071406908944 0.019438532632026807 0 -0.025716362586681973 0.018585011825461326 0 -0.024999918522424249 0.018822308910838262 0 -0.025494071406908944 0.019438532632026807 0 -0.024999863382018327 0.02026271264213917 0 -0.025494071406908944 0.019438532632026807 0 -0.025641111019871786 0.02002026311308026 0 -0.024999863382018327 0.02026271264213917 0 -0.02557930487052483 0.020653791810432125 0 -0.02614722973467961 0.02105764058929542 0 -0.025122383624724055 0.021563844342166672 0 -0.024999863382018327 0.02026271264213917 0 -0.02557930487052483 0.020653791810432125 0 -0.025122383624724055 0.021563844342166672 0 -0.025641111019871786 0.02002026311308026 0 -0.024999863382018327 0.02026271264213917 0 -0.02557930487052483 0.020653791810432125 0 -0.02557930487052483 0.020653791810432125 0 -0.026198557262616953 0.020325455612349923 0 -0.02614722973467961 0.02105764058929542 0 -0.025641111019871786 0.02002026311308026 0 -0.02557930487052483 0.020653791810432125 0 -0.026198557262616953 0.020325455612349923 0 -0.024709189789978867 0.024070908331428064 0 -0.024465911365744025 0.022705122813944646 0 -0.024566400535066639 0.022783359445959866 0 -0.024465911365744025 0.022705122813944646 0 -0.024566400535066639 0.022783359445959866 0 -0.025122383624724055 0.021563844342166672 0 -0.024999863382018327 0.02026271264213917 0 -0.02499962642756692 0.02170512602713328 0 -0.025122383624724055 0.021563844342166672 0 -0.024566400535066639 0.022783359445959866 0 -0.025042360272402781 0.022213045970535934 0 -0.025122383624724055 0.021563844342166672 0 -0.025398176131338549 0.021940964538068465 0 -0.025040348863532735 0.021673995011131188 0 -0.025042360272402781 0.022213045970535934 0 -0.02499962642756692 0.02170512602713328 0 -0.025122383624724055 0.021563844342166672 0 -0.024999853159617308 0.015941181082300623 0 -0.02565072736212301 0.01595036035858351 0 -0.025671788494015919 0.016783457870499681 0 -0.024999853159617308 0.015941181082300623 0 -0.02565072736212301 0.01595036035858351 0 -0.025456307183732894 0.015239232770025148 0 -0.026016295565801886 0.015566658487595499 0 -0.02565072736212301 0.01595036035858351 0 -0.026159867816457526 0.016276542098176743 0 -0.02565072736212301 0.01595036035858351 0 -0.025671788494015919 0.016783457870499681 0 -0.026159867816457526 0.016276542098176743 0 -0.025671788494015919 0.016783457870499681 0 -0.026388872142552092 0.017051214415649711 0 -0.026159867816457526 0.016276542098176743 0 -0.024999853159617308 0.015941181082300623 0 -0.025671788494015919 0.016783457870499681 0 -0.024999817353821608 0.017381605328126857 0 -0.025671788494015919 0.016783457870499681 0 -0.024999817353821608 0.017381605328126857 0 -0.026133944807744246 0.017820869891107226 0 -0.024999817353821608 0.017381605328126857 0 -0.025716362586681973 0.018585011825461326 0 -0.026133944807744246 0.017820869891107226 0 -0.024999918522424249 0.018822308910838262 0 -0.024999817353821608 0.017381605328126857 0 -0.025716362586681973 0.018585011825461326 0 -0.026471707483570462 0.018783093831305425 0 -0.025716362586681973 0.018585011825461326 0 -0.026133944807744246 0.017820869891107226 0 -0.025671788494015919 0.016783457870499681 0 -0.026133944807744246 0.017820869891107226 0 -0.026388872142552092 0.017051214415649711 0 -0.026388872142552092 0.017051214415649711 0 -0.026805651061889459 0.017752436647230904 0 -0.026915181932676377 0.017187963268173474 0 -0.026133944807744246 0.017820869891107226 0 -0.026388872142552092 0.017051214415649711 0 -0.026805651061889459 0.017752436647230904 0 -0.026133944807744246 0.017820869891107226 0 -0.026805651061889459 0.017752436647230904 0 -0.02691385539276708 0.018408983011893216 0 -0.026471707483570462 0.018783093831305425 0 -0.026133944807744246 0.017820869891107226 0 -0.02691385539276708 0.018408983011893216 0 -0.027462891759951029 0.018475736180859691 0 -0.027161543493627125 0.017683752641549914 0 -0.027456961122242551 0.017308218666953253 0 -0.025806238818418974 0.016379716933342277 0 -0.026277896720668999 0.016870857436470418 0 -0.024867505198026978 0.016681261535471045 0 -0.025053800625705884 0.016161270127442954 0 -0.025069622425867553 0.015894683149063348 0 -0.024587575659871973 0.01403843746529768 0 -0.025389121847880038 0.014560302228450599 0 -0.024288904524207736 0.014771978259289829 0 -0.026805651061889459 0.017752436647230904 0 -0.02691385539276708 0.018408983011893216 0 -0.027462891759951029 0.018475736180859691 0 -0.026805651061889459 0.017752436647230904 0 -0.027462891759951029 0.018475736180859691 0 -0.027161543493627125 0.017683752641549914 0 -0.025389121847880038 0.014560302228450599 0 -0.025166541611358024 0.01570956062930845 0 -0.0247460659536065 0.015447117706044516 0 -0.025806238818418974 0.016379716933342277 0 -0.025195867063819127 0.01581400538772398 0 -0.027161543493627125 0.017683752641549914 0 -0.026915181932676377 0.017187963268173474 0 -0.027456961122242551 0.017308218666953253 0 -0.026805651061889459 0.017752436647230904 0 -0.027161543493627125 0.017683752641549914 0 -0.026915181932676377 0.017187963268173474 0 -0.026915181932676377 0.017187963268173474 0 -0.027456961122242551 0.017308218666953253 0 -0.02708419211200357 0.016773404519996652 0 -0.025053800625705884 0.016161270127442954 0 -0.025069622425867553 0.015894683149063348 0 -0.025331241617136176 0.015653896106987582 0 -0.025195867063819127 0.01581400538772398 0 -0.025259280720298274 0.015724625624744793 0 -0.026277896720668999 0.016870857436470418 0 -0.026468660613463878 0.01565503646071302 0 -0.025069622425867553 0.015894683149063348 0 -0.025704931067886842 0.015166791895046126 0 -0.025331241617136176 0.015653896106987582 0 -0.027235104639052508 0.01608629525555956 0 -0.02708419211200357 0.016773404519996652 0 -0.026728451289761711 0.016537188292867315 0 -0.027456961122242551 0.017308218666953253 0 -0.027235104639052508 0.01608629525555956 0 -0.02708419211200357 0.016773404519996652 0 -0.026915181932676377 0.017187963268173474 0 -0.02708419211200357 0.016773404519996652 0 -0.026728451289761711 0.016537188292867315 0 -0.026388872142552092 0.017051214415649711 0 -0.026159867816457526 0.016276542098176743 0 -0.026728451289761711 0.016537188292867315 0 -0.026388872142552092 0.017051214415649711 0 -0.026915181932676377 0.017187963268173474 0 -0.026728451289761711 0.016537188292867315 0 -0.026016295565801886 0.015566658487595499 0 -0.026159867816457526 0.016276542098176743 0 -0.026470788576299101 0.015755906734515483 0 -0.026159867816457526 0.016276542098176743 0 -0.026728451289761711 0.016537188292867315 0 -0.026470788576299101 0.015755906734515483 0 -0.027235104639052508 0.01608629525555956 0 -0.026470788576299101 0.015755906734515483 0 -0.026580273509540269 0.015202869305908679 0 -0.027235104639052508 0.01608629525555956 0 -0.026728451289761711 0.016537188292867315 0 -0.026470788576299101 0.015755906734515483 0 -0.027235104639052508 0.01608629525555956 0 -0.02666655791037802 0.015022441114427583 0 -0.026580273509540269 0.015202869305908679 0 -0.026007795649210446 0.015114262904408005 0 -0.026248831841397386 0.015003882685888282 0 -0.02666655791037802 0.015022441114427583 0 -0.026468660613463878 0.01565503646071302 0 -0.026618675607221462 0.015177256069218267 0 -0.025704931067886842 0.015166791895046126 0 -0.026007795649210446 0.015114262904408005 0 -0.02666655791037802 0.015022441114427583 0 -0.026007795649210446 0.015114262904408005 0 -0.026248831841397386 0.015003882685888282 0 -0.025862817703859495 0.015311519421883654 0 -0.026408494804571636 0.015044121088443092 0 -0.026248831841397386 0.015003882685888282 0 -0.026290165145121436 0.015375787187225235 0 -0.026486882570288695 0.01490617876903896 0 -0.026408494804571636 0.015044121088443092 0 -0.026248831841397386 0.015003882685888282 0 -0.026408494804571636 0.015044121088443092 0 -0.026290165145121436 0.015375787187225235 0 -0.026608604263171121 0.014936127363386217 0 -0.026486882570288695 0.01490617876903896 0 -0.026248831841397386 0.015003882685888282 0 -0.026551977695748942 0.014898678132478003 0 -0.026486882570288695 0.01490617876903896 0 -0.026408494804571636 0.015044121088443092 0 -0.026608604263171121 0.014936127363386217 0 -0.026290165145121436 0.015375787187225235 0 -0.025862817703859495 0.015311519421883654 0 -0.025585100209024093 0.015616333101091831 0 -0.026248831841397386 0.015003882685888282 0 -0.026290165145121436 0.015375787187225235 0 -0.025862817703859495 0.015311519421883654 0 -0.025704931067886842 0.015166791895046126 0 -0.026007795649210446 0.015114262904408005 0 -0.025862817703859495 0.015311519421883654 0 -0.025704931067886842 0.015166791895046126 0 -0.025862817703859495 0.015311519421883654 0 -0.025331241617136176 0.015653896106987582 0 -0.025862817703859495 0.015311519421883654 0 -0.025331241617136176 0.015653896106987582 0 -0.025585100209024093 0.015616333101091831 0 -0.025331241617136176 0.015653896106987582 0 -0.025585100209024093 0.015616333101091831 0 -0.024994793993853594 0.015893715323656042 0 -0.025766483867868194 0.016736508608768807 0 -0.0191430585463741 0.014904607739990139 0 -0.024994793993853594 0.015893715323656042 0 -0.0247460659536065 0.015447117706044516 0 -0.023743116390250788 0.015696825777731998 0 -0.025585100209024093 0.015616333101091831 0 -0.024994793993853594 0.015893715323656042 0 -0.02573945298756088 0.016214822859829725 0 -0.025166541611358024 0.01570956062930845 0 -0.025331241617136176 0.015653896106987582 0 -0.024994793993853594 0.015893715323656042 0 -0.025166541611358024 0.01570956062930845 0 -0.024994793993853594 0.015893715323656042 0 -0.0247460659536065 0.015447117706044516 0 -0.024150867163121224 0.013765825825668227 0 -0.0191430585463741 0.014904607739990139 0 -0.023419582133971648 0.013137001005888242 0 -0.024288904524207736 0.014771978259289829 0 -0.023743116390250788 0.015696825777731998 0 -0.019714411545281155 0.014641102016951015 0 -0.023419582133971648 0.013137001005888242 0 -0.020275821200022585 0.017915733191026604 0 -0.0247460659536065 0.015447117706044516 0 -0.024288904524207736 0.014771978259289829 0 -0.023743116390250788 0.015696825777731998 0 -0.025389121847880038 0.014560302228450599 0 -0.0247460659536065 0.015447117706044516 0 -0.024288904524207736 0.014771978259289829 0 -0.019714411545281155 0.014641102016951015 0 -0.020275821200022585 0.017915733191026604 0 -0.016366554691140144 0.015978943057207106 0 -0.0191430585463741 0.014904607739990139 0 -0.01222590813315903 0.015572206498023048 0 -0.0069779897729425125 0.013979991713971084 0 -0.0087549852134425881 0.013112925889040658 0 -0.0097171400852868878 0.01527416483471067 0 -0.016648172671183525 0.013175489625706535 0 -0.0191430585463741 0.014904607739990139 0 -0.026290165145121436 0.015375787187225235 0 -0.025585100209024093 0.015616333101091831 0 -0.02573945298756088 0.016214822859829725 0 -0.0075574137979346903 0.010786795498206854 0 -0.0069779897729425125 0.013979991713971084 0 -0.0087549852134425881 0.013112925889040658 0 -0.0087549852134425881 0.013112925889040658 0 -0.011675767942532958 0.01382193754436287 0 -0.010599345110279027 0.01073698606299534 0 -0.0087549852134425881 0.013112925889040658 0 -0.0097171400852868878 0.01527416483471067 0 -0.011675767942532958 0.01382193754436287 0 -0.007233298283124974 0.012538646515413827 0 -0.0071200603284155423 0.010297991692950498 0 -0.0078344204277878693 0.011204972783981193 0 -0.011840391613618989 0.014918133933473994 0 -0.01222590813315903 0.015572206498023048 0 -0.011840391613618989 0.014918133933473994 0 -0.009262200270429316 0.011954270223756209 0 -0.012415461639586638 0.016498382528780008 0 -0.0097171400852868878 0.01527416483471067 0 -0.011675767942532958 0.01382193754436287 0 -0.009262200270429316 0.011954270223756209 0 -0.0090516759674396756 0.0096768492909264786 0 -0.0071200603284155423 0.010297991692950498 0 -0.0074986004644630941 0.00835925084994848 0 -0.0083821191543645528 0.008915905502726116 0 -0.0074986004644630941 0.00835925084994848 0 -0.008286664785753824 0.0075598916910154341 0 -0.0084935177555581134 0.0078010397277003644 0 -0.0074986004644630941 0.00835925084994848 0 -0.0083821191543645528 0.008915905502726116 0 -0.0084935177555581134 0.0078010397277003644 0 -0.010599345110279027 0.01073698606299534 0 -0.008879416830497382 0.0093741487250508376 0 -0.0085162974836934403 0.007523838085467029 0 -0.0090516759674396756 0.0096768492909264786 0 -0.0085951225480981192 0.0078178363201565418 0 -0.0075574137979346903 0.010786795498206854 0 -0.010599345110279027 0.01073698606299534 0 -0.008879416830497382 0.0093741487250508376 0 -0.016648172671183525 0.013175489625706535 0 -0.01749514764528827 0.011294922004235011 0 -0.0075574137979346903 0.010786795498206854 0 -0.0087549852134425881 0.013112925889040658 0 -0.010599345110279027 0.01073698606299534 0 -0.0075574137979346903 0.010786795498206854 0 -0.008879416830497382 0.0093741487250508376 0 -0.0082106108904136874 0.0075417853673848713 0 -0.008879416830497382 0.0093741487250508376 0 -0.0082106108904136874 0.0075417853673848713 0 -0.0085162974836934403 0.007523838085467029 0 -0.026486882570288695 0.01490617876903896 0 -0.026608604263171121 0.014936127363386217 0 -0.026589376022668577 0.014848437449814464 0 -0.0082106108904136874 0.0075417853673848713 0 -0.0085162974836934403 0.007523838085467029 0 -0.0084666010132098679 0.007130316925954238 0 -0.0074986004644630941 0.00835925084994848 0 -0.0085162974836934403 0.007523838085467029 0 -0.008286664785753824 0.0075598916910154341 0 -0.0086036770350673315 0.0071684935827643634 0 -0.008286664785753824 0.0075598916910154341 0 -0.0084666010132098679 0.007130316925954238 0 -0.0085162974836934403 0.007523838085467029 0 -0.008286664785753824 0.0075598916910154341 0 -0.0084666010132098679 0.007130316925954238 0 -0.0086036770350673315 0.0071684935827643634 0 -0.008286664785753824 0.0075598916910154341 0 -0.0084935177555581134 0.0078010397277003644 0 -0.0084523389678473095 0.0066621016057591617 0 -0.0087378074263174035 0.0064376265308201666 0 -0.0083059654033520169 0.0064808101483042301 0 -0.0084523389678473095 0.0066621016057591617 0 -0.0084666010132098679 0.007130316925954238 0 -0.0083062672640970957 0.0065474571297673336 0 -0.012166753949355276 0.0069474999091588361 0 -0.016865690053367875 0.010049559891594798 0 -0.0087378074263174035 0.0064376265308201666 0 -0.008614665362589341 0.0068479383371045019 0 -0.0089812209968310897 0.0067275315641875241 0 -0.0084523389678473095 0.0066621016057591617 0 -0.0087378074263174035 0.0064376265308201666 0 -0.008614665362589341 0.0068479383371045019 0 -0.0086036770350673315 0.0071684935827643634 0 -0.008614665362589341 0.0068479383371045019 0 -0.0089812209968310897 0.0067275315641875241 0 -0.0086036770350673315 0.0071684935827643634 0 -0.008614665362589341 0.0068479383371045019 0 -0.0084666010132098679 0.007130316925954238 0 -0.0084523389678473095 0.0066621016057591617 0 -0.008614665362589341 0.0068479383371045019 0 -0.0084666010132098679 0.007130316925954238 0 -0.026608604263171121 0.014936127363386217 0 -0.026589376022668577 0.014848437449814464 0 -0.026637575176240456 0.014788927212500708 0 -0.0082106108904136874 0.0075417853673848713 0 -0.0084666010132098679 0.007130316925954238 0 -0.0083062672640970957 0.0065474571297673336 0 -0.026608604263171121 0.014936127363386217 0 -0.026637575176240456 0.014788927212500708 0 -0.026667878824124192 0.014737068518015321 0 -0.01749514764528827 0.011294922004235011 0 -0.016865690053367875 0.010049559891594798 0 -0.026589376022668577 0.014848437449814464 0 -0.026637575176240456 0.014788927212500708 0 -0.026626647293159469 0.014798763272947435 0 -0.026637575176240456 0.014788927212500708 0 -0.02672083755009429 0.014685405555488171 0 -0.026626647293159469 0.014798763272947435 0 -0.026637575176240456 0.014788927212500708 0 -0.026667878824124192 0.014737068518015321 0 -0.02672083755009429 0.014685405555488171 0 -0.021372859134853168 0.0080302797609663433 0 -0.019029131024225984 0.013157751818038608 0 -0.0233900690562188 0.013292713209258828 0 -0.021372859134853168 0.0080302797609663433 0 -0.02456754068395043 0.010720365495482083 0 -0.0233900690562188 0.013292713209258828 0 -0.016865690053367875 0.010049559891594798 0 -0.026607920077400524 0.013403349082222224 0 -0.016865690053367875 0.010049559891594798 0 -0.017209087146169956 0.0085589736794757388 0 -0.0083059654033520169 0.0064808101483042301 0 -0.0088304509640791621 0.0060626805580475751 0 -0.0087328842850128152 0.0055649024237840261 0 -0.0087378074263174035 0.0064376265308201666 0 -0.0083059654033520169 0.0064808101483042301 0 -0.0088304509640791621 0.0060626805580475751 0 -0.017209087146169956 0.0085589736794757388 0 -0.027258486355607833 0.012953880993159523 0 -0.028868442351868664 0.012273250741913046 0 -0.028728021273277168 0.011771717809267824 0 -0.028384392303276593 0.012289201975572733 0 -0.028868442351868664 0.012273250741913046 0 -0.028728021273277168 0.011771717809267824 0 -0.02926556632239995 0.011544502970549986 0 -0.028728021273277168 0.011771717809267824 0 -0.028276576131315845 0.011902086178126426 0 -0.028384392303276593 0.012289201975572733 0 -0.028728021273277168 0.011771717809267824 0 -0.028276576131315845 0.011902086178126426 0 -0.028549984495663854 0.0114057923228294 0 -0.028276576131315845 0.011902086178126426 0 -0.028384392303276593 0.012289201975572733 0 -0.027869648751858222 0.012321260702842072 0 -0.026607920077400524 0.013403349082222224 0 -0.027103368077399919 0.013498985294483644 0 -0.02672083755009429 0.014685405555488171 0 -0.026851948815649413 0.014531356377724593 0 -0.026838772722536229 0.014568830823419292 0 -0.027258486355607833 0.012953880993159523 0 -0.027103368077399919 0.013498985294483644 0 -0.02456754068395043 0.010720365495482083 0 -0.0233900690562188 0.013292713209258828 0 -0.027746300778135023 0.013416758364487172 0 -0.027878938750761664 0.011910487611123096 0 -0.027636594912952991 0.01169165672355889 0 -0.028183749602793393 0.011516353174343795 0 -0.028276576131315845 0.011902086178126426 0 -0.027869648751858222 0.012321260702842072 0 -0.027878938750761664 0.011910487611123096 0 -0.028276576131315845 0.011902086178126426 0 -0.027878938750761664 0.011910487611123096 0 -0.028183749602793393 0.011516353174343795 0 -0.027878938750761664 0.011910487611123096 0 -0.027434811959633779 0.012030117748315829 0 -0.027636594912952991 0.01169165672355889 0 -0.027869648751858222 0.012321260702842072 0 -0.027878938750761664 0.011910487611123096 0 -0.027434811959633779 0.012030117748315829 0 -0.026994051959031363 0.013736940173604975 0 -0.02696053497941911 0.014326258574923105 0 -0.026694983330487348 0.014082703264004655 0 -0.027103368077399919 0.013498985294483644 0 -0.02698081037298913 0.014093705258780212 0 -0.027367169819927754 0.014350546918869429 0 -0.026994051959031363 0.013736940173604975 0 -0.02696053497941911 0.014326258574923105 0 -0.027103368077399919 0.013498985294483644 0 -0.027257826702307125 0.012877257116335991 0 -0.026851948815649413 0.014531356377724593 0 -0.02696053497941911 0.014326258574923105 0 -0.026838772722536229 0.014568830823419292 0 -0.02696053497941911 0.014326258574923105 0 -0.026838772722536229 0.014568830823419292 0 -0.026760430364326983 0.014410384936762778 0 -0.026838772722536229 0.014568830823419292 0 -0.026673094671396537 0.014708883285370754 0 -0.026760430364326983 0.014410384936762778 0 -0.026725743031356806 0.014773104635656276 0 -0.02666655791037802 0.015022441114427583 0 -0.026673094671396537 0.014708883285370754 0 -0.026725743031356806 0.014773104635656276 0 -0.026838772722536229 0.014568830823419292 0 -0.026673094671396537 0.014708883285370754 0 -0.02672083755009429 0.014685405555488171 0 -0.026725743031356806 0.014773104635656276 0 -0.026626647293159469 0.014798763272947435 0 -0.02672083755009429 0.014685405555488171 0 -0.026725743031356806 0.014773104635656276 0 -0.026838772722536229 0.014568830823419292 0 -0.026725743031356806 0.014773104635656276 0 -0.026626647293159469 0.014798763272947435 0 -0.026551977695748942 0.014898678132478003 0 -0.026486882570288695 0.01490617876903896 0 -0.026589376022668577 0.014848437449814464 0 -0.026626647293159469 0.014798763272947435 0 -0.026486882570288695 0.01490617876903896 0 -0.026626647293159469 0.014798763272947435 0 -0.026551977695748942 0.014898678132478003 0 -0.026248831841397386 0.015003882685888282 0 -0.026551977695748942 0.014898678132478003 0 -0.02666655791037802 0.015022441114427583 0 -0.026725743031356806 0.014773104635656276 0 -0.026551977695748942 0.014898678132478003 0 -0.02666655791037802 0.015022441114427583 0 -0.02666655791037802 0.015022441114427583 0 -0.026580273509540269 0.015202869305908679 0 -0.026673094671396537 0.014708883285370754 0 -0.026470788576299101 0.015755906734515483 0 -0.026580273509540269 0.015202869305908679 0 -0.026238382367852239 0.01510958924590609 0 -0.026580273509540269 0.015202869305908679 0 -0.026238382367852239 0.01510958924590609 0 -0.02636824277865461 0.01475822243973835 0 -0.026016295565801886 0.015566658487595499 0 -0.026470788576299101 0.015755906734515483 0 -0.026238382367852239 0.01510958924590609 0 -0.026238382367852239 0.01510958924590609 0 -0.025799226137830783 0.014975182549030817 0 -0.025957488559294629 0.014603713181222517 0 -0.026238382367852239 0.01510958924590609 0 -0.02636824277865461 0.01475822243973835 0 -0.025957488559294629 0.014603713181222517 0 -0.02636824277865461 0.01475822243973835 0 -0.026377660258397141 0.014242789485739817 0 -0.025957488559294629 0.014603713181222517 0 -0.026580273509540269 0.015202869305908679 0 -0.02636824277865461 0.01475822243973835 0 -0.026673094671396537 0.014708883285370754 0 -0.02636824277865461 0.01475822243973835 0 -0.026673094671396537 0.014708883285370754 0 -0.026377660258397141 0.014242789485739817 0 -0.026673094671396537 0.014708883285370754 0 -0.026760430364326983 0.014410384936762778 0 -0.026377660258397141 0.014242789485739817 0 -0.026760430364326983 0.014410384936762778 0 -0.026694983330487348 0.014082703264004655 0 -0.026377660258397141 0.014242789485739817 0 -0.02696053497941911 0.014326258574923105 0 -0.026760430364326983 0.014410384936762778 0 -0.026694983330487348 0.014082703264004655 0 -0.026694983330487348 0.014082703264004655 0 -0.026611967178568577 0.013699500468664215 0 -0.026377660258397141 0.014242789485739817 0 -0.027434811959633779 0.012030117748315829 0 -0.026910494441267946 0.01180908800699098 0 -0.027636594912952991 0.01169165672355889 0 -0.026994051959031363 0.013736940173604975 0 -0.026694983330487348 0.014082703264004655 0 -0.026611967178568577 0.013699500468664215 0 -0.027257826702307125 0.012877257116335991 0 -0.026767588039169225 0.012299196286744444 0 -0.026994051959031363 0.013736940173604975 0 -0.026611967178568577 0.013699500468664215 0 -0.026776518055080967 0.012898025651229942 0 -0.026611967178568577 0.013699500468664215 0 -0.026086173342626022 0.01345218673369661 0 -0.026377660258397141 0.014242789485739817 0 -0.026086173342626022 0.01345218673369661 0 -0.025840174495353505 0.012541613199108924 0 -0.026776518055080967 0.012898025651229942 0 -0.026611967178568577 0.013699500468664215 0 -0.026086173342626022 0.01345218673369661 0 -0.026776518055080967 0.012898025651229942 0 -0.026086173342626022 0.01345218673369661 0 -0.026377660258397141 0.014242789485739817 0 -0.025795919897314428 0.013977707350349247 0 -0.026377660258397141 0.014242789485739817 0 -0.025795919897314428 0.013977707350349247 0 -0.025957488559294629 0.014603713181222517 0 -0.025795919897314428 0.013977707350349247 0 -0.0251261829563551 0.013042580441642923 0 -0.025273099669707203 0.014337926083235187 0 -0.025795919897314428 0.013977707350349247 0 -0.025273099669707203 0.014337926083235187 0 -0.025957488559294629 0.014603713181222517 0 -0.025493954127169857 0.012806769921240127 0 -0.025484363000827622 0.01411768910064265 0 -0.026086173342626022 0.01345218673369661 0 -0.0251261829563551 0.013042580441642923 0 -0.025840174495353505 0.012541613199108924 0 -0.026086173342626022 0.01345218673369661 0 -0.025795919897314428 0.013977707350349247 0 -0.0251261829563551 0.013042580441642923 0 -0.025834612988009022 0.012598083912619375 0 -0.025000018090588199 0.013060116271395217 0 -0.025704778225098777 0.013912465008773712 0 -0.025000018090588199 0.013060116271395217 0 -0.025704778225098777 0.013912465008773712 0 -0.024999895050017578 0.01450082928355982 0 -0.025704778225098777 0.013912465008773712 0 -0.024999895050017578 0.01450082928355982 0 -0.025456307183732894 0.015239232770025148 0 -0.025484363000827622 0.01411768910064265 0 -0.025451623043361127 0.015157456638564899 0 -0.025273099669707203 0.014337926083235187 0 -0.025799226137830783 0.014975182549030817 0 -0.025456307183732894 0.015239232770025148 0 -0.025273099669707203 0.014337926083235187 0 -0.025799226137830783 0.014975182549030817 0 -0.025957488559294629 0.014603713181222517 0 -0.026016295565801886 0.015566658487595499 0 -0.02565072736212301 0.01595036035858351 0 -0.025456307183732894 0.015239232770025148 0 -0.026016295565801886 0.015566658487595499 0 -0.025799226137830783 0.014975182549030817 0 -0.025456307183732894 0.015239232770025148 0 -0.026016295565801886 0.015566658487595499 0 -0.026238382367852239 0.01510958924590609 0 -0.025799226137830783 0.014975182549030817 0 -0.024999853159617308 0.015941181082300623 0 -0.024999895050017578 0.01450082928355982 0 -0.025456307183732894 0.015239232770025148 0 -0.0097309525246904883 0.0084757896558601206 0 -0.010046431889928839 0.0082868604135130416 0 -0.010196463789327516 0.0088231109831284158 0 -0.0097287311564496892 0.0050878828887490598 0 -0.0095718169125554205 0.0051013718481524939 0 -0.0096899625004000997 0.0050084419491615798 0 -0.010994045387358316 0.0054668114388747779 0 -0.011504920242831769 0.0073651575217019609 0 -0.0097287311564496892 0.0050878828887490598 0 -0.0096899625004000997 0.0050084419491615798 0 -0.0097522054972853447 0.0049454887801146496 0 -0.0097287311564496892 0.0050878828887490598 0 -0.0095718169125554205 0.0051013718481524939 0 -0.0095668727260658781 0.0052653532498442585 0 -0.0094510699151222812 0.0052262301084051704 0 -0.0095718169125554205 0.0051013718481524939 0 -0.0093135569317529567 0.0051345911246242727 0 -0.0094510699151222812 0.0052262301084051704 0 -0.0095718169125554205 0.0051013718481524939 0 -0.0095668727260658781 0.0052653532498442585 0 -0.0095718169125554205 0.0051013718481524939 0 -0.0096940631851008853 0.0048929177096240515 0 -0.0093135569317529567 0.0051345911246242727 0 -0.01125523486364036 0.0082853158986510005 0 -0.0090562823417388062 0.0072402298277231946 0 -0.0095718169125554205 0.0051013718481524939 0 -0.0096940631851008853 0.0048929177096240515 0 -0.0096899625004000997 0.0050084419491615798 0 -0.0096940631851008853 0.0048929177096240515 0 -0.0096899625004000997 0.0050084419491615798 0 -0.0097522054972853447 0.0049454887801146496 0 -0.01125523486364036 0.0082853158986510005 0 -0.011504920242831769 0.0073651575217019609 0 -0.011504920242831769 0.0073651575217019609 0 -0.011881394246605609 0.0087801181286024637 0 -0.011757475753074995 0.0083759485338723658 0 -0.011957411273417417 0.008516989518061813 0 -0.01200340428747668 0.0082344291312958784 0 -0.01125523486364036 0.0082853158986510005 0 -0.011881394246605609 0.0087801181286024637 0 -0.015736559453420593 0.0079860906781012101 0 -0.013121294146742915 0.0077472403768821842 0 -0.011245093456933527 0.0061404407714295249 0 -0.015736559453420593 0.0079860906781012101 0 -0.015533136149700226 0.008561606630954538 0 -0.014887044254575082 0.0082288172892327014 0 -0.011504920242831769 0.0073651575217019609 0 -0.01179276720405999 0.0058523436697547199 0 -0.015736559453420593 0.0079860906781012101 0 -0.014887044254575082 0.0082288172892327014 0 -0.013121294146742915 0.0077472403768821842 0 -0.0097287311564496892 0.0050878828887490598 0 -0.0098180417618282338 0.004592760338421889 0 -0.011245093456933527 0.0061404407714295249 0 -0.015533136149700226 0.008561606630954538 0 -0.014887044254575082 0.0082288172892327014 0 -0.014800667528785772 0.00875423496392971 0 -0.014887044254575082 0.0082288172892327014 0 -0.014097413173840615 0.0086300518569866359 0 -0.014800667528785772 0.00875423496392971 0 -0.014097413173840615 0.0086300518569866359 0 -0.013121294146742915 0.0077472403768821842 0 -0.01283362867136119 0.008637228403583613 0 -0.014887044254575082 0.0082288172892327014 0 -0.014097413173840615 0.0086300518569866359 0 -0.013121294146742915 0.0077472403768821842 0 -0.0097287311564496892 0.0050878828887490598 0 -0.009940673783252767 0.0055843493715974895 0 -0.011245093456933527 0.0061404407714295249 0 -0.009940673783252767 0.0055843493715974895 0 -0.011245093456933527 0.0061404407714295249 0 -0.010118929525071475 0.0058360553130309707 0 -0.009940673783252767 0.0055843493715974895 0 -0.0096336843895980361 0.0055523544178534886 0 -0.010118929525071475 0.0058360553130309707 0 -0.009940673783252767 0.0055843493715974895 0 -0.0096336843895980361 0.0055523544178534886 0 -0.0096064409590060733 0.0054492977185395131 0 -0.0097287311564496892 0.0050878828887490598 0 -0.009940673783252767 0.0055843493715974895 0 -0.0095668727260658781 0.0052653532498442585 0 -0.009940673783252767 0.0055843493715974895 0 -0.0096064409590060733 0.0054492977185395131 0 -0.0095668727260658781 0.0052653532498442585 0 -0.0094510699151222812 0.0052262301084051704 0 -0.0094360256840777743 0.0053295390580695452 0 -0.0093540371422072624 0.0052671150648407701 0 -0.0094510699151222812 0.0052262301084051704 0 -0.0094360256840777743 0.0053295390580695452 0 -0.0095668727260658781 0.0052653532498442585 0 -0.0096064409590060733 0.0054492977185395131 0 -0.0094360256840777743 0.0053295390580695452 0 -0.0095668727260658781 0.0052653532498442585 0 -0.0096064409590060733 0.0054492977185395131 0 -0.0094360256840777743 0.0053295390580695452 0 -0.0094432764482900704 0.0054281723015646354 0 -0.0094360256840777743 0.0053295390580695452 0 -0.0094432764482900704 0.0054281723015646354 0 -0.0093075196342626721 0.0053638377158506763 0 -0.0096336843895980361 0.0055523544178534886 0 -0.0096064409590060733 0.0054492977185395131 0 -0.0094432764482900704 0.0054281723015646354 0 -0.0096336843895980361 0.0055523544178534886 0 -0.0094432764482900704 0.0054281723015646354 0 -0.0094664709924195817 0.0055168459618957152 0 -0.0094432764482900704 0.0054281723015646354 0 -0.0094664709924195817 0.0055168459618957152 0 -0.0093291261005446751 0.0054552188589675971 0 -0.0093075196342626721 0.0053638377158506763 0 -0.0091776542354596157 0.0053882707214905016 0 -0.0093351599325796394 0.0052265793934044612 0 -0.0088036526558470385 0.0067188187449492244 0 -0.0090562823417388062 0.0072402298277231946 0 -0.0093291261005446751 0.0054552188589675971 0 -0.0092242424329399483 0.005418112172965609 0 -0.0093075196342626721 0.0053638377158506763 0 -0.0094432764482900704 0.0054281723015646354 0 -0.0093291261005446751 0.0054552188589675971 0 -0.0093075196342626721 0.0053638377158506763 0 -0.0092242424329399483 0.005418112172965609 0 -0.0093075196342626721 0.0053638377158506763 0 -0.0091776542354596157 0.0053882707214905016 0 -0.0093075196342626721 0.0053638377158506763 0 -0.0093351599325796394 0.0052265793934044612 0 -0.0093540371422072624 0.0052671150648407701 0 -0.0094360256840777743 0.0053295390580695452 0 -0.0093075196342626721 0.0053638377158506763 0 -0.0093540371422072624 0.0052671150648407701 0 -0.0092242424329399483 0.005418112172965609 0 -0.0091776542354596157 0.0053882707214905016 0 -0.0091771670164601752 0.0053854823750710563 0 -0.0092477832927476359 0.0054066699114405413 0 -0.0091776542354596157 0.0053882707214905016 0 -0.0091771670164601752 0.0053854823750710563 0 -0.0079017286343443793 0.0052847612603279057 0 -0.0088036526558470385 0.0067188187449492244 0 -0.0091664549081688397 0.0074792500781433536 0 -0.0089412205780734205 0.0076647531597661064 0 -0.0083129108190063659 0.0080068078015370168 0 -0.0089412205780734205 0.0076647531597661064 0 -0.0083129108190063659 0.0080068078015370168 0 -0.0088505003156217153 0.0081020019901343852 0 -0.0083129108190063659 0.0080068078015370168 0 -0.0088505003156217153 0.0081020019901343852 0 -0.0088792906566094957 0.0086496772715868829 0 -0.0083129108190063659 0.0080068078015370168 0 -0.0088792906566094957 0.0086496772715868829 0 -0.0083217527264178304 0.0089487036689622039 0 -0.0089910143680332951 0.0091518465647419441 0 -0.0088792906566094957 0.0086496772715868829 0 -0.0083217527264178304 0.0089487036689622039 0 -0.0083217527264178304 0.0089487036689622039 0 -0.0074367269678886801 0.0085235669423253998 0 -0.0077593473607999444 0.0096775537256294786 0 -0.0083129108190063659 0.0080068078015370168 0 -0.0083217527264178304 0.0089487036689622039 0 -0.0074367269678886801 0.0085235669423253998 0 -0.0094510699151222812 0.0052262301084051704 0 -0.0093135569317529567 0.0051345911246242727 0 -0.0093540371422072624 0.0052671150648407701 0 -0.0090562823417388062 0.0072402298277231946 0 -0.008934376006004054 0.0063294451913485841 0 -0.0090562823417388062 0.0072402298277231946 0 -0.0096480651833087856 0.0098602723174725723 0 -0.0083217527264178304 0.0089487036689622039 0 -0.0077593473607999444 0.0096775537256294786 0 -0.008676179422180165 0.009680207595795496 0 -0.0089910143680332951 0.0091518465647419441 0 -0.0083217527264178304 0.0089487036689622039 0 -0.008676179422180165 0.009680207595795496 0 -0.0096480651833087856 0.0098602723174725723 0 -0.0082425650722744055 0.010296601713287716 0 -0.0083389424252075049 0.010918027701920368 0 -0.0080809544757831763 0.0099073574066094582 0 -0.0089331852982432094 0.010496588503762705 0 -0.0094262040434687187 0.010495769003714695 0 -0.0083389424252075049 0.010918027701920368 0 -0.0089331852982432094 0.010496588503762705 0 -0.0077593473607999444 0.0096775537256294786 0 -0.008676179422180165 0.009680207595795496 0 -0.0089331852982432094 0.010496588503762705 0 -0.012377878159428191 0.011180795087380901 0 -0.011866118990077159 0.011987727015894782 0 -0.011517425285914377 0.011191184208185451 0 -0.010522709987980921 0.014250930761847927 0 -0.0096480651833087856 0.0098602723174725723 0 -0.012767077720089538 0.012579215563196831 0 -0.012377878159428191 0.011180795087380901 0 -0.011866118990077159 0.011987727015894782 0 -0.011866118990077159 0.011987727015894782 0 -0.011517425285914377 0.011191184208185451 0 -0.010920659029848623 0.011925534490307834 0 -0.011291829083433022 0.010379613032042113 0 -0.012377878159428191 0.011180795087380901 0 -0.011517425285914377 0.011191184208185451 0 -0.01125523486364036 0.0082853158986510005 0 -0.0096480651833087856 0.0098602723174725723 0 -0.011127660211645508 0.010475831529211244 0 -0.011517425285914377 0.011191184208185451 0 -0.010920659029848623 0.011925534490307834 0 -0.011291829083433022 0.010379613032042113 0 -0.011127660211645508 0.010475831529211244 0 -0.011517425285914377 0.011191184208185451 0 -0.014764808806727356 0.0095055182109720516 0 -0.013878955794218656 0.0097468317548803692 0 -0.015514352830672975 0.011827677923145498 0 -0.015533136149700226 0.008561606630954538 0 -0.014764808806727356 0.0095055182109720516 0 -0.015514352830672975 0.011827677923145498 0 -0.011881394246605609 0.0087801181286024637 0 -0.013332022537158612 0.011904992679328189 0 -0.014097413173840615 0.0086300518569866359 0 -0.014764808806727356 0.0095055182109720516 0 -0.013878955794218656 0.0097468317548803692 0 -0.014097413173840615 0.0086300518569866359 0 -0.013878955794218656 0.0097468317548803692 0 -0.01283362867136119 0.008637228403583613 0 -0.014097413173840615 0.0086300518569866359 0 -0.014800667528785772 0.00875423496392971 0 -0.014764808806727356 0.0095055182109720516 0 -0.015533136149700226 0.008561606630954538 0 -0.014800667528785772 0.00875423496392971 0 -0.014764808806727356 0.0095055182109720516 0 -0.013911296689963933 0.01364765016821415 0 -0.015514352830672975 0.011827677923145498 0 -0.013142351423747109 0.011250887768911179 0 -0.013878955794218656 0.0097468317548803692 0 -0.015514352830672975 0.011827677923145498 0 -0.013142351423747109 0.011250887768911179 0 -0.01194677772854422 0.012593935446858891 0 -0.013142351423747109 0.011250887768911179 0 -0.011271328249651848 0.010452901542232884 0 -0.01194677772854422 0.012593935446858891 0 -0.013911296689963933 0.01364765016821415 0 -0.013142351423747109 0.011250887768911179 0 -0.01194677772854422 0.012593935446858891 0 -0.011271328249651848 0.010452901542232884 0 -0.010170672157761901 0.011854884595651686 0 -0.011271328249651848 0.010452901542232884 0 -0.010170672157761901 0.011854884595651686 0 -0.0096583438813482286 0.0095065250836848299 0 -0.011271328249651848 0.010452901542232884 0 -0.01090153296040397 0.0088835411839331517 0 -0.0096583438813482286 0.0095065250836848299 0 -0.011271328249651848 0.010452901542232884 0 -0.01090153296040397 0.0088835411839331517 0 -0.012299316882330564 0.0093458091512705361 0 -0.013878955794218656 0.0097468317548803692 0 -0.012299316882330564 0.0093458091512705361 0 -0.01283362867136119 0.008637228403583613 0 -0.013878955794218656 0.0097468317548803692 0 -0.013142351423747109 0.011250887768911179 0 -0.012299316882330564 0.0093458091512705361 0 -0.013142351423747109 0.011250887768911179 0 -0.011271328249651848 0.010452901542232884 0 -0.012299316882330564 0.0093458091512705361 0 -0.007233298283124974 0.012538646515413827 0 -0.0078344204277878693 0.011204972783981193 0 -0.0088490695385327178 0.011526210614939459 0 -0.0071200603284155423 0.010297991692950498 0 -0.0078344204277878693 0.011204972783981193 0 -0.008576959705790194 0.010126561268226994 0 -0.0078344204277878693 0.011204972783981193 0 -0.0088490695385327178 0.011526210614939459 0 -0.008576959705790194 0.010126561268226994 0 -0.0088490695385327178 0.011526210614939459 0 -0.010170672157761901 0.011854884595651686 0 -0.0096583438813482286 0.0095065250836848299 0 -0.0088490695385327178 0.011526210614939459 0 -0.0096583438813482286 0.0095065250836848299 0 -0.008576959705790194 0.010126561268226994 0 -0.0071200603284155423 0.010297991692950498 0 -0.008576959705790194 0.010126561268226994 0 -0.0083821191543645528 0.008915905502726116 0 -0.0096583438813482286 0.0095065250836848299 0 -0.008576959705790194 0.010126561268226994 0 -0.0083821191543645528 0.008915905502726116 0 -0.0096583438813482286 0.0095065250836848299 0 -0.0083821191543645528 0.008915905502726116 0 -0.0091490507670363586 0.00808258267719421 0 -0.0083821191543645528 0.008915905502726116 0 -0.0084935177555581134 0.0078010397277003644 0 -0.0091490507670363586 0.00808258267719421 0 -0.0096583438813482286 0.0095065250836848299 0 -0.010035818227973651 0.007603059116132997 0 -0.0091490507670363586 0.00808258267719421 0 -0.010035818227973651 0.007603059116132997 0 -0.0091490507670363586 0.00808258267719421 0 -0.0091319532197220565 0.0072146175169963992 0 -0.010035818227973651 0.007603059116132997 0 -0.0091319532197220565 0.0072146175169963992 0 -0.0097689565330093611 0.0064469955303042524 0 -0.0084935177555581134 0.0078010397277003644 0 -0.0091490507670363586 0.00808258267719421 0 -0.0091319532197220565 0.0072146175169963992 0 -0.0086036770350673315 0.0071684935827643634 0 -0.0091319532197220565 0.0072146175169963992 0 -0.0089812209968310897 0.0067275315641875241 0 -0.0086036770350673315 0.0071684935827643634 0 -0.0084935177555581134 0.0078010397277003644 0 -0.0091319532197220565 0.0072146175169963992 0 -0.013121294146742915 0.0077472403768821842 0 -0.011518948082333055 0.0078113055065777738 0 -0.011245093456933527 0.0061404407714295249 0 -0.013121294146742915 0.0077472403768821842 0 -0.01283362867136119 0.008637228403583613 0 -0.011518948082333055 0.0078113055065777738 0 -0.012299316882330564 0.0093458091512705361 0 -0.01283362867136119 0.008637228403583613 0 -0.011518948082333055 0.0078113055065777738 0 -0.01090153296040397 0.0088835411839331517 0 -0.012299316882330564 0.0093458091512705361 0 -0.011518948082333055 0.0078113055065777738 0 -0.010035818227973651 0.007603059116132997 0 -0.011518948082333055 0.0078113055065777738 0 -0.010431222537376432 0.0065315753973235312 0 -0.01090153296040397 0.0088835411839331517 0 -0.010035818227973651 0.007603059116132997 0 -0.011518948082333055 0.0078113055065777738 0 -0.01090153296040397 0.0088835411839331517 0 -0.0096583438813482286 0.0095065250836848299 0 -0.010035818227973651 0.007603059116132997 0 -0.010035818227973651 0.007603059116132997 0 -0.010431222537376432 0.0065315753973235312 0 -0.0097689565330093611 0.0064469955303042524 0 -0.010431222537376432 0.0065315753973235312 0 -0.011245093456933527 0.0061404407714295249 0 -0.010355814567593009 0.005933818374504525 0 -0.011518948082333055 0.0078113055065777738 0 -0.010431222537376432 0.0065315753973235312 0 -0.011245093456933527 0.0061404407714295249 0 -0.010355814567593009 0.005933818374504525 0 -0.0099080718078762061 0.0056974804399209161 0 -0.010118929525071475 0.0058360553130309707 0 -0.011245093456933527 0.0061404407714295249 0 -0.010355814567593009 0.005933818374504525 0 -0.010118929525071475 0.0058360553130309707 0 -0.010431222537376432 0.0065315753973235312 0 -0.010355814567593009 0.005933818374504525 0 -0.0097689565330093611 0.0064469955303042524 0 -0.010355814567593009 0.005933818374504525 0 -0.0098771244189393669 0.005809476952692216 0 -0.0097689565330093611 0.0064469955303042524 0 -0.010355814567593009 0.005933818374504525 0 -0.0098771244189393669 0.005809476952692216 0 -0.0099085319301418593 0.0056265029479905995 0 -0.0098771244189393669 0.005809476952692216 0 -0.0099085319301418593 0.0056265029479905995 0 -0.009988335545581031 0.0055997199306998795 0 -0.010355814567593009 0.005933818374504525 0 -0.0099085319301418593 0.0056265029479905995 0 -0.0099080718078762061 0.0056974804399209161 0 -0.0099085319301418593 0.0056265029479905995 0 -0.0093660321210194269 0.0055299282666051528 0 -0.0095084126437914671 0.0055501434065803367 0 -0.0099085319301418593 0.0056265029479905995 0 -0.0099080718078762061 0.0056974804399209161 0 -0.0095084126437914671 0.0055501434065803367 0 -0.0091319532197220565 0.0072146175169963992 0 -0.0089812209968310897 0.0067275315641875241 0 -0.0097689565330093611 0.0064469955303042524 0 -0.0089812209968310897 0.0067275315641875241 0 -0.0097689565330093611 0.0064469955303042524 0 -0.0092245484642854841 0.0062270792367251108 0 -0.0087378074263174035 0.0064376265308201666 0 -0.0089812209968310897 0.0067275315641875241 0 -0.0092245484642854841 0.0062270792367251108 0 -0.0098771244189393669 0.005809476952692216 0 -0.0097689565330093611 0.0064469955303042524 0 -0.0092245484642854841 0.0062270792367251108 0 -0.0098771244189393669 0.005809476952692216 0 -0.0092245484642854841 0.0062270792367251108 0 -0.0095812572828015887 0.0055497146115385653 0 -0.0088304509640791621 0.0060626805580475751 0 -0.0092245484642854841 0.0062270792367251108 0 -0.0095812572828015887 0.0055497146115385653 0 -0.0087378074263174035 0.0064376265308201666 0 -0.0088304509640791621 0.0060626805580475751 0 -0.0092245484642854841 0.0062270792367251108 0 -0.017209087146169956 0.0085589736794757388 0 -0.0092212374629097177 0.0051845914905096846 0 -0.0088304509640791621 0.0060626805580475751 0 -0.0087328842850128152 0.0055649024237840261 0 -0.0095812572828015887 0.0055497146115385653 0 -0.011743770083455818 0.0055532299793628276 0 -0.011191921174354257 0.0070120648740262526 0 -0.012699539503866287 0.0071744333559015236 0 -0.011743770083455818 0.0055532299793628276 0 -0.011191921174354257 0.0070120648740262526 0 -0.010525718900320041 0.0063507421441848398 0 -0.013467336011066689 0.0056036664825798548 0 -0.011743770083455818 0.0055532299793628276 0 -0.012699539503866287 0.0071744333559015236 0 -0.017209087146169956 0.0085589736794757388 0 -0.021804569836213133 0.0092823537072802918 0 -0.0093660321210194269 0.0055299282666051528 0 -0.0084787570973515088 0.004914241942910038 0 -0.0092003265869399879 0.0053510942701004956 0 -0.0093660321210194269 0.0055299282666051528 0 -0.009988335545581031 0.0055997199306998795 0 -0.0097924168473255777 0.0068057519680878066 0 -0.0099085319301418593 0.0056265029479905995 0 -0.0093660321210194269 0.0055299282666051528 0 -0.009988335545581031 0.0055997199306998795 0 -0.011743770083455818 0.0055532299793628276 0 -0.009988335545581031 0.0055997199306998795 0 -0.010525718900320041 0.0063507421441848398 0 -0.0098771244189393669 0.005809476952692216 0 -0.0095812572828015887 0.0055497146115385653 0 -0.009988335545581031 0.0055997199306998795 0 -0.0092212374629097177 0.0051845914905096846 0 -0.010638230375501736 0.0056820145912900655 0 -0.011191921174354257 0.0070120648740262526 0 -0.010525718900320041 0.0063507421441848398 0 -0.0097924168473255777 0.0068057519680878066 0 -0.009988335545581031 0.0055997199306998795 0 -0.010525718900320041 0.0063507421441848398 0 -0.0097924168473255777 0.0068057519680878066 0 -0.0092871301579519217 0.005521260328701285 0 -0.0091592982019227335 0.005824334005578212 0 -0.0084787570973515088 0.004914241942910038 0 -0.0089156257155181932 0.0049958161513499163 0 -0.0085479165726152686 0.0045573476920766189 0 -0.0084787570973515088 0.004914241942910038 0 -0.0089156257155181932 0.0049958161513499163 0 -0.0092003265869399879 0.0053510942701004956 0 -0.0089156257155181932 0.0049958161513499163 0 -0.0087329634099027609 0.0047165372608093965 0 -0.0089601590422183283 0.0050152709438912096 0 -0.0089601590422183283 0.0050152709438912096 0 -0.0092473692541034554 0.0053667267495421016 0 -0.0091465129334848197 0.0052977598876699219 0 -0.0089156257155181932 0.0049958161513499163 0 -0.0089601590422183283 0.0050152709438912096 0 -0.0092473692541034554 0.0053667267495421016 0 -0.0089156257155181932 0.0049958161513499163 0 -0.0092473692541034554 0.0053667267495421016 0 -0.0092003265869399879 0.0053510942701004956 0 -0.0092473692541034554 0.0053667267495421016 0 -0.0092003265869399879 0.0053510942701004956 0 -0.0095084126437914671 0.0055501434065803367 0 -0.0093660321210194269 0.0055299282666051528 0 -0.0092003265869399879 0.0053510942701004956 0 -0.0095084126437914671 0.0055501434065803367 0 -0.0099080718078762061 0.0056974804399209161 0 -0.0095084126437914671 0.0055501434065803367 0 -0.0096084260373061198 0.0055991111754427336 0 -0.0092473692541034554 0.0053667267495421016 0 -0.0095084126437914671 0.0055501434065803367 0 -0.0096084260373061198 0.0055991111754427336 0 -0.0092473692541034554 0.0053667267495421016 0 -0.009355647643655346 0.0054634455394008434 0 -0.0091465129334848197 0.0052977598876699219 0 -0.0092473692541034554 0.0053667267495421016 0 -0.0096084260373061198 0.0055991111754427336 0 -0.009355647643655346 0.0054634455394008434 0 -0.0093436155480218028 0.0054824526307832352 0 -0.009355647643655346 0.0054634455394008434 0 -0.0091465129334848197 0.0052977598876699219 0 -0.0096084260373061198 0.0055991111754427336 0 -0.009355647643655346 0.0054634455394008434 0 -0.0095752778384216638 0.0056128385773121254 0 -0.0093436155480218028 0.0054824526307832352 0 -0.009355647643655346 0.0054634455394008434 0 -0.0095752778384216638 0.0056128385773121254 0 -0.0095752778384216638 0.0056128385773121254 0 -0.0094024574099018255 0.0055259145285779486 0 -0.0096151815264408271 0.0056237004055865649 0 -0.0093436155480218028 0.0054824526307832352 0 -0.0095752778384216638 0.0056128385773121254 0 -0.0094024574099018255 0.0055259145285779486 0 -0.0094664709924195817 0.0055168459618957152 0 -0.0094024574099018255 0.0055259145285779486 0 -0.0096151815264408271 0.0056237004055865649 0 -0.0094664709924195817 0.0055168459618957152 0 -0.0093291261005446751 0.0054552188589675971 0 -0.0094024574099018255 0.0055259145285779486 0 -0.0096336843895980361 0.0055523544178534886 0 -0.0094664709924195817 0.0055168459618957152 0 -0.0096151815264408271 0.0056237004055865649 0 -0.0096336843895980361 0.0055523544178534886 0 -0.0096151815264408271 0.0056237004055865649 0 -0.010118929525071475 0.0058360553130309707 0 -0.0099080718078762061 0.0056974804399209161 0 -0.0096084260373061198 0.0055991111754427336 0 -0.010118929525071475 0.0058360553130309707 0 -0.0096084260373061198 0.0055991111754427336 0 -0.0095752778384216638 0.0056128385773121254 0 -0.010118929525071475 0.0058360553130309707 0 -0.0095752778384216638 0.0056128385773121254 0 -0.0096151815264408271 0.0056237004055865649 0 -0.010118929525071475 0.0058360553130309707 0 -0.0092477832927476359 0.0054066699114405413 0 -0.0092138769237837311 0.0051578432066875981 0 -0.0091771670164601752 0.0053854823750710563 0 -0.0092242424329399483 0.005418112172965609 0 -0.0091771670164601752 0.0053854823750710563 0 -0.0092266398872898822 0.0054312590018277453 0 -0.0093291261005446751 0.0054552188589675971 0 -0.0094024574099018255 0.0055259145285779486 0 -0.0092266398872898822 0.0054312590018277453 0 -0.0093291261005446751 0.0054552188589675971 0 -0.0092242424329399483 0.005418112172965609 0 -0.0092266398872898822 0.0054312590018277453 0 -0.0093436155480218028 0.0054824526307832352 0 -0.0094024574099018255 0.0055259145285779486 0 -0.0092266398872898822 0.0054312590018277453 0 -0.0091771670164601752 0.0053854823750710563 0 -0.0092266398872898822 0.0054312590018277453 0 -0.0090983777621968746 0.0052688812505706254 0 -0.0093436155480218028 0.0054824526307832352 0 -0.0092266398872898822 0.0054312590018277453 0 -0.0091465129334848197 0.0052977598876699219 0 -0.0090983777621968746 0.0052688812505706254 0 -0.0091465129334848197 0.0052977598876699219 0 -0.0088785348012568564 0.0049060806691066366 0 -0.0092266398872898822 0.0054312590018277453 0 -0.0090983777621968746 0.0052688812505706254 0 -0.0091465129334848197 0.0052977598876699219 0 -0.0092138769237837311 0.0051578432066875981 0 -0.0091771670164601752 0.0053854823750710563 0 -0.0090983777621968746 0.0052688812505706254 0 -0.0092138769237837311 0.0051578432066875981 0 -0.0090983777621968746 0.0052688812505706254 0 -0.0088785348012568564 0.0049060806691066366 0 -0.0092138769237837311 0.0051578432066875981 0 -0.0088785348012568564 0.0049060806691066366 0 -0.0085910413964207944 0.0043568235923274936 0 -0.0089601590422183283 0.0050152709438912096 0 -0.0088785348012568564 0.0049060806691066366 0 -0.0086777340789808057 0.0045937967267949851 0 -0.0089601590422183283 0.0050152709438912096 0 -0.0091465129334848197 0.0052977598876699219 0 -0.0088785348012568564 0.0049060806691066366 0 -0.0087329634099027609 0.0047165372608093965 0 -0.0089601590422183283 0.0050152709438912096 0 -0.0086777340789808057 0.0045937967267949851 0 -0.0086777340789808057 0.0045937967267949851 0 -0.0085910413964207944 0.0043568235923274936 0 -0.0083171327873493572 0.004362694389358936 0 -0.0088785348012568564 0.0049060806691066366 0 -0.0086777340789808057 0.0045937967267949851 0 -0.0085910413964207944 0.0043568235923274936 0 -0.0087329634099027609 0.0047165372608093965 0 -0.0086777340789808057 0.0045937967267949851 0 -0.0084699623825736318 0.004433614670522181 0 -0.0086777340789808057 0.0045937967267949851 0 -0.0083171327873493572 0.004362694389358936 0 -0.0084699623825736318 0.004433614670522181 0 -0.0084699623825736318 0.004433614670522181 0 -0.008082287819947874 0.0042201976012896103 0 -0.0082812890154738139 0.0042591440698627444 0 -0.0083171327873493572 0.004362694389358936 0 -0.008082287819947874 0.0042201976012896103 0 -0.0078760195182835998 0.0042517501473506225 0 -0.0083171327873493572 0.004362694389358936 0 -0.0084699623825736318 0.004433614670522181 0 -0.008082287819947874 0.0042201976012896103 0 -0.008082287819947874 0.0042201976012896103 0 -0.007993632883739419 0.0040191634037194147 0 -0.0082812890154738139 0.0042591440698627444 0 -0.008082287819947874 0.0042201976012896103 0 -0.007993632883739419 0.0040191634037194147 0 -0.0077097008171734451 0.0040494734132689499 0 -0.007993632883739419 0.0040191634037194147 0 -0.0077434109620022114 0.0038525643037984544 0 -0.0077097008171734451 0.0040494734132689499 0 -0.0080757049831791088 0.0040602999419491626 0 -0.0081765229290108859 0.0041240760834039261 0 -0.0080455536605742728 0.0039632830019811355 0 -0.0080757049831791088 0.0040602999419491626 0 -0.0080175048448649974 0.0039735953001601345 0 -0.0080455536605742728 0.0039632830019811355 0 -0.007993632883739419 0.0040191634037194147 0 -0.0081765229290108859 0.0041240760834039261 0 -0.0079980263363183344 0.0039198990886418527 0 -0.0081765229290108859 0.0041240760834039261 0 -0.0079980263363183344 0.0039198990886418527 0 -0.0080455536605742728 0.0039632830019811355 0 -0.0081765229290108859 0.0041240760834039261 0 -0.0082812890154738139 0.0042591440698627444 0 -0.008309773331542895 0.0042992529500680511 0 -0.007993632883739419 0.0040191634037194147 0 -0.0081765229290108859 0.0041240760834039261 0 -0.0082812890154738139 0.0042591440698627444 0 -0.0081765229290108859 0.0041240760834039261 0 -0.008309773331542895 0.0042992529500680511 0 -0.0081288109996065228 0.0041950979123023171 0 -0.0080757049831791088 0.0040602999419491626 0 -0.0081765229290108859 0.0041240760834039261 0 -0.0081288109996065228 0.0041950979123023171 0 -0.008309773331542895 0.0042992529500680511 0 -0.0085479165726152686 0.0045573476920766189 0 -0.0081266783419656659 0.0044949222638011339 0 -0.0082812890154738139 0.0042591440698627444 0 -0.008309773331542895 0.0042992529500680511 0 -0.0085479165726152686 0.0045573476920766189 0 -0.0084699623825736318 0.004433614670522181 0 -0.0082812890154738139 0.0042591440698627444 0 -0.0085479165726152686 0.0045573476920766189 0 -0.0087329634099027609 0.0047165372608093965 0 -0.0084699623825736318 0.004433614670522181 0 -0.0085479165726152686 0.0045573476920766189 0 -0.0089156257155181932 0.0049958161513499163 0 -0.0087329634099027609 0.0047165372608093965 0 -0.0085479165726152686 0.0045573476920766189 0 -0.0084787570973515088 0.004914241942910038 0 -0.0085479165726152686 0.0045573476920766189 0 -0.0081266783419656659 0.0044949222638011339 0 -0.0091592982019227335 0.005824334005578212 0 -0.0092289523197448316 0.0062793802262769245 0 -0.011191921174354257 0.0070120648740262526 0 -0.010282646130449349 0.0081000228941655681 0 -0.011197730614628131 0.0079168107482120893 0 -0.011191921174354257 0.0070120648740262526 0 -0.0097924168473255777 0.0068057519680878066 0 -0.010282646130449349 0.0081000228941655681 0 -0.010282646130449349 0.0081000228941655681 0 -0.011197730614628131 0.0079168107482120893 0 -0.011212813220271527 0.0085759364509695873 0 -0.010282646130449349 0.0081000228941655681 0 -0.011212813220271527 0.0085759364509695873 0 -0.010752208791089728 0.0091991099131454139 0 -0.0092289523197448316 0.0062793802262769245 0 -0.009086255392625215 0.0067396683723977471 0 -0.008309773331542895 0.0042992529500680511 0 -0.0081266783419656659 0.0044949222638011339 0 -0.0081288109996065228 0.0041950979123023171 0 -0.02926556632239995 0.011544502970549986 0 -0.029636543011492461 0.010757172986422741 0 -0.028956951280439108 0.011168536796618302 0 -0.012699539503866287 0.0071744333559015236 0 -0.011905000166343783 0.0074759953071496651 0 -0.011765660225711275 0.0082423764004585579 0 -0.021804569836213133 0.0092823537072802918 0 -0.018921952251592475 0.0094741204564983712 0 -0.011191921174354257 0.0070120648740262526 0 -0.012699539503866287 0.0071744333559015236 0 -0.011905000166343783 0.0074759953071496651 0 -0.011191921174354257 0.0070120648740262526 0 -0.011905000166343783 0.0074759953071496651 0 -0.011197730614628131 0.0079168107482120893 0 -0.011905000166343783 0.0074759953071496651 0 -0.011197730614628131 0.0079168107482120893 0 -0.011765660225711275 0.0082423764004585579 0 -0.011197730614628131 0.0079168107482120893 0 -0.011212813220271527 0.0085759364509695873 0 -0.011765660225711275 0.0082423764004585579 0 -0.011212813220271527 0.0085759364509695873 0 -0.011891154549069596 0.0085689459136087543 0 -0.011765660225711275 0.0082423764004585579 0 -0.018921952251592475 0.0094741204564983712 0 -0.015363543473778595 0.0073028074298101568 0 -0.029636543011492461 0.010757172986422741 0 -0.028956951280439108 0.011168536796618302 0 -0.029059671510857085 0.010639831999366469 0 -0.012699539503866287 0.0071744333559015236 0 -0.011957700077260597 0.0086410701038281239 0 -0.011765660225711275 0.0082423764004585579 0 -0.029636543011492461 0.010757172986422741 0 -0.02932136126638956 0.010325034978311141 0 -0.029059671510857085 0.010639831999366469 0 -0.018921952251592475 0.0094741204564983712 0 -0.026526876224112199 0.009885812416245832 0 -0.029636543011492461 0.010757172986422741 0 -0.02932136126638956 0.010325034978311141 0 -0.029370130564567026 0.0098680136557918567 0 -0.02932136126638956 0.010325034978311141 0 -0.02927760091403022 0.0099999330049731199 0 -0.029042910685122107 0.010241717729044437 0 -0.01983482351281644 0.0083602225701141751 0 -0.01953115256681048 0.0090139340603278273 0 -0.020427568448655155 0.0096112373392341285 0 -0.018921952251592475 0.0094741204564983712 0 -0.015519133050878054 0.0093453660104100625 0 -0.011212813220271527 0.0085759364509695873 0 -0.011891154549069596 0.0085689459136087543 0 -0.011508719837021751 0.0092494639840567088 0 -0.019215593767492396 0.0096715920519727556 0 -0.019787842229518775 0.0096136457082631362 0 -0.01997609412965079 0.010159805916974339 0 -0.015477819619946898 0.0088178164862740636 0 -0.021141246783571117 0.0077740621592741086 0 -0.01953115256681048 0.0090139340603278273 0 -0.019787842229518775 0.0096136457082631362 0 -0.020427568448655155 0.0096112373392341285 0 -0.01953115256681048 0.0090139340603278273 0 -0.019215593767492396 0.0096715920519727556 0 -0.019787842229518775 0.0096136457082631362 0 -0.015519133050878054 0.0093453660104100625 0 -0.015477819619946898 0.0088178164862740636 0 -0.017154096101243538 0.0059633710349851869 0 -0.016970573427812982 0.006360421402841032 0 -0.017426632937260492 0.006641618169746592 0 -0.019787842229518775 0.0096136457082631362 0 -0.020427568448655155 0.0096112373392341285 0 -0.01997609412965079 0.010159805916974339 0 -0.026526876224112199 0.009885812416245832 0 -0.021141246783571117 0.0077740621592741086 0 -0.029460239619216996 0.009799880267733126 0 -0.02927760091403022 0.0099999330049731199 0 -0.029059340058390393 0.0095230058691494791 0 -0.026526876224112199 0.009885812416245832 0 -0.027713469888124936 0.0093327146727398887 0 -0.02932136126638956 0.010325034978311141 0 -0.029370130564567026 0.0098680136557918567 0 -0.02927760091403022 0.0099999330049731199 0 -0.0081266783419656659 0.0044949222638011339 0 -0.0081288109996065228 0.0041950979123023171 0 -0.0079424499786213461 0.0042072360637801344 0 -0.0081288109996065228 0.0041950979123023171 0 -0.0079424499786213461 0.0042072360637801344 0 -0.0079822076528646545 0.004055232018891259 0 -0.011508719837021751 0.0092494639840567088 0 -0.011203063791715491 0.0098366895077196398 0 -0.010752208791089728 0.0091991099131454139 0 -0.011212813220271527 0.0085759364509695873 0 -0.011508719837021751 0.0092494639840567088 0 -0.010752208791089728 0.0091991099131454139 0 -0.011203063791715491 0.0098366895077196398 0 -0.010752208791089728 0.0091991099131454139 0 -0.011095420769208508 0.010094666705545324 0 -0.0079424499786213461 0.0042072360637801344 0 -0.0079822076528646545 0.004055232018891259 0 -0.0078826059196752309 0.0039934816883570399 0 -0.009086255392625215 0.0067396683723977471 0 -0.012461717096257607 0.0063294262762992022 0 -0.015477819619946898 0.0088178164862740636 0 -0.012461717096257607 0.0063294262762992022 0 -0.0079822076528646545 0.004055232018891259 0 -0.0079361100193318691 0.0039700269443441079 0 -0.0078826059196752309 0.0039934816883570399 0 -0.0080757049831791088 0.0040602999419491626 0 -0.0079822076528646545 0.004055232018891259 0 -0.0080175048448649974 0.0039735953001601345 0 -0.0080757049831791088 0.0040602999419491626 0 -0.0081288109996065228 0.0041950979123023171 0 -0.0079822076528646545 0.004055232018891259 0 -0.0080175048448649974 0.0039735953001601345 0 -0.0079804365033506186 0.0038688866737631496 0 -0.0079582874949381006 0.0039210279367229948 0 -0.0079822076528646545 0.004055232018891259 0 -0.0080175048448649974 0.0039735953001601345 0 -0.0079582874949381006 0.0039210279367229948 0 -0.0079804365033506186 0.0038688866737631496 0 -0.0079582874949381006 0.0039210279367229948 0 -0.0079411437381504968 0.0038491702686482381 0 -0.0079822076528646545 0.004055232018891259 0 -0.0079582874949381006 0.0039210279367229948 0 -0.0079361100193318691 0.0039700269443441079 0 -0.0079582874949381006 0.0039210279367229948 0 -0.0079361100193318691 0.0039700269443441079 0 -0.0079214369161892898 0.0039242269686527989 0 -0.0079361100193318691 0.0039700269443441079 0 -0.0078826059196752309 0.0039934816883570399 0 -0.0079214369161892898 0.0039242269686527989 0 -0.012461717096257607 0.0063294262762992022 0 -0.015354926771377567 0.0048444932717709053 0 -0.012461717096257607 0.0063294262762992022 0 -0.010700407887687564 0.0040329623291773791 0 -0.012906713265987703 0.0052864256437066669 0 -0.013164238320906917 0.0047161308581925698 0 -0.01272927516438903 0.004614382048585176 0 -0.012962185885996364 0.0033436086439417828 0 -0.012975625137624248 0.0036299105825941015 0 -0.01314762511376779 0.0033836897683274009 0 -0.010700407887687564 0.0040329623291773791 0 -0.015354926771377567 0.0048444932717709053 0 -0.0075718130210212708 0.0036660668466015059 0 -0.010700407887687564 0.0040329623291773791 0 -0.0079582874949381006 0.0039210279367229948 0 -0.0079008619513610389 0.00389384343509829 0 -0.0079411437381504968 0.0038491702686482381 0 -0.017218656351248546 0.0032643723874807057 0 -0.014210554522694853 0.0033810694415569594 0 -0.012962185885996364 0.0033436086439417828 0 -0.012975625137624248 0.0036299105825941015 0 -0.012671700288326218 0.0039240994551294562 0 -0.012975625137624248 0.0036299105825941015 0 -0.013205292366466597 0.0035711461649295473 0 -0.012892459979347555 0.0039270480336421401 0 -0.0079008619513610389 0.00389384343509829 0 -0.0079411437381504968 0.0038491702686482381 0 -0.0079424650545367164 0.0037428655520036895 0 -0.010700407887687564 0.0040329623291773791 0 -0.010085686996220535 0.0037768729335184285 0 -0.012975625137624248 0.0036299105825941015 0 -0.01314762511376779 0.0033836897683274009 0 -0.013205292366466597 0.0035711461649295473 0 -0.0079411437381504968 0.0038491702686482381 0 -0.007951777922592846 0.003814531417348195 0 -0.0079424650545367164 0.0037428655520036895 0 -0.007951777922592846 0.003814531417348195 0 -0.0079547504285980286 0.0037662388228908161 0 -0.0079424650545367164 0.0037428655520036895 0 -0.007951777922592846 0.003814531417348195 0 -0.0079547504285980286 0.0037662388228908161 0 -0.0079655561746172603 0.003800794564640175 0 -0.0079804365033506186 0.0038688866737631496 0 -0.007951777922592846 0.003814531417348195 0 -0.0079655561746172603 0.003800794564640175 0 -0.0079804365033506186 0.0038688866737631496 0 -0.0079411437381504968 0.0038491702686482381 0 -0.007951777922592846 0.003814531417348195 0 -0.02479504734417905 0.0082011566924369509 0 -0.024788235759921243 0.0081887513180688778 0 -0.02479885124849077 0.0081703928453980505 0 -0.021901112109753193 0.0048623843035041211 0 -0.022907800813334451 0.0066571241133226442 0 -0.024837944177140824 0.0068106281429536784 0 -0.021141246783571117 0.0077740621592741086 0 -0.026132424404343612 0.0070746046917688696 0 -0.021901112109753193 0.0048623843035041211 0 -0.020840865938268224 0.0061822236192433004 0 -0.022907800813334451 0.0066571241133226442 0 -0.017154096101243538 0.0059633710349851869 0 -0.018152934097717521 0.0066109064902817221 0 -0.017426632937260492 0.006641618169746592 0 -0.021141246783571117 0.0077740621592741086 0 -0.019817669856492914 0.0049404196870102106 0 -0.018152934097717521 0.0066109064902817221 0 -0.017674279619594318 0.0071928450037485542 0 -0.017426632937260492 0.006641618169746592 0 -0.016970573427812982 0.006360421402841032 0 -0.017426632937260492 0.006641618169746592 0 -0.017182924709410109 0.007079943686310812 0 -0.017348920107182864 0.0045986333076355858 0 -0.017255554709525833 0.0045788503277370473 0 -0.017285249200338325 0.0046687415803713184 0 -0.019817669856492914 0.0049404196870102106 0 -0.015354926771377567 0.0048444932717709053 0 -0.017674279619594318 0.0071928450037485542 0 -0.017426632937260492 0.006641618169746592 0 -0.017182924709410109 0.007079943686310812 0 -0.022119988589003773 0.0029030270441086576 0 -0.022718344035165743 0.0030607438016976934 0 -0.022494765853935863 0.0042723335201871361 0 -0.02365308324674947 0.0029766786688738152 0 -0.021400395259091324 0.0034134543853919026 0 -0.022718344035165743 0.0030607438016976934 0 -0.023453781229323376 0.0029213101148234028 0 -0.022494765853935863 0.0042723335201871361 0 -0.023453781229323376 0.0029213101148234028 0 -0.023382397260705425 0.0033530821453262687 0 -0.023081729276004367 0.00353430144524341 0 -0.017218656351248546 0.0032643723874807057 0 -0.021400395259091324 0.0034134543853919026 0 -0.015354926771377567 0.0048444932717709053 0 -0.017218656351248546 0.0032643723874807057 0 -0.022546917081538585 0.0023985851846571454 0 -0.022119988589003773 0.0029030270441086576 0 -0.022718344035165743 0.0030607438016976934 0 -0.019817669856492914 0.0049404196870102106 0 -0.017218656351248546 0.0032643723874807057 0 -0.022546917081538585 0.0023985851846571454 0 -0.022718344035165743 0.0030607438016976934 0 -0.023453781229323376 0.0029213101148234028 0 -0.019817669856492914 0.0049404196870102106 0 -0.023421277319978857 0.0047564029844540225 0 -0.022546917081538585 0.0023985851846571454 0 -0.023453781229323376 0.0029213101148234028 0 -0.023633689823149902 0.0026940513929986322 0 -0.023453781229323376 0.0029213101148234028 0 -0.02353828386956007 0.003247136143757766 0 -0.02368817965420213 0.0031179590349029547 0 -0.023453781229323376 0.0029213101148234028 0 -0.02353828386956007 0.003247136143757766 0 -0.023382397260705425 0.0033530821453262687 0 -0.023453781229323376 0.0029213101148234028 0 -0.02368817965420213 0.0031179590349029547 0 -0.023842218813390756 0.0029657523375129164 0 -0.02353828386956007 0.003247136143757766 0 -0.02368817965420213 0.0031179590349029547 0 -0.023757237538105578 0.0033489929547343123 0 -0.02368817965420213 0.0031179590349029547 0 -0.023919207342701181 0.0031618555290147191 0 -0.023757237538105578 0.0033489929547343123 0 -0.02368817965420213 0.0031179590349029547 0 -0.023919207342701181 0.0031618555290147191 0 -0.023842218813390756 0.0029657523375129164 0 -0.023919207342701181 0.0031618555290147191 0 -0.023842218813390756 0.0029657523375129164 0 -0.024035665474936244 0.0030378293275030548 0 -0.023421277319978857 0.0047564029844540225 0 -0.025017870172630442 0.0051167554738068667 0 -0.023633689823149902 0.0026940513929986322 0 -0.023842218813390756 0.0029657523375129164 0 -0.024262393381472829 0.0028809282734855654 0 -0.023453781229323376 0.0029213101148234028 0 -0.023633689823149902 0.0026940513929986322 0 -0.023842218813390756 0.0029657523375129164 0 -0.023788385783084544 0.0038411243594164029 0 -0.023630550764722116 0.0036750681753877179 0 -0.02356679977313153 0.0038070660795521028 0 -0.023788385783084544 0.0038411243594164029 0 -0.023800291981879124 0.003590989640082606 0 -0.023630550764722116 0.0036750681753877179 0 -0.023800291981879124 0.003590989640082606 0 -0.023542916867572043 0.0034902158819979131 0 -0.023630550764722116 0.0036750681753877179 0 -0.023788385783084544 0.0038411243594164029 0 -0.023800291981879124 0.003590989640082606 0 -0.024015905087944357 0.0037138937321645701 0 -0.023800291981879124 0.003590989640082606 0 -0.023757237538105578 0.0033489929547343123 0 -0.024068979213985958 0.0034655630190554955 0 -0.023919207342701181 0.0031618555290147191 0 -0.023757237538105578 0.0033489929547343123 0 -0.024068979213985958 0.0034655630190554955 0 -0.023800291981879124 0.003590989640082606 0 -0.023757237538105578 0.0033489929547343123 0 -0.023542916867572043 0.0034902158819979131 0 -0.02353828386956007 0.003247136143757766 0 -0.023542916867572043 0.0034902158819979131 0 -0.023382397260705425 0.0033530821453262687 0 -0.02353828386956007 0.003247136143757766 0 -0.023757237538105578 0.0033489929547343123 0 -0.023542916867572043 0.0034902158819979131 0 -0.023542916867572043 0.0034902158819979131 0 -0.023382397260705425 0.0033530821453262687 0 -0.023298863793052824 0.0035634090260247666 0 -0.023542916867572043 0.0034902158819979131 0 -0.023448773221048474 0.0036797918409291761 0 -0.023298863793052824 0.0035634090260247666 0 -0.023448773221048474 0.0036797918409291761 0 -0.023294636439541074 0.0037051533137933083 0 -0.023298863793052824 0.0035634090260247666 0 -0.023542916867572043 0.0034902158819979131 0 -0.023448773221048474 0.0036797918409291761 0 -0.023630550764722116 0.0036750681753877179 0 -0.023448773221048474 0.0036797918409291761 0 -0.023630550764722116 0.0036750681753877179 0 -0.02356679977313153 0.0038070660795521028 0 -0.023448773221048474 0.0036797918409291761 0 -0.023294636439541074 0.0037051533137933083 0 -0.023405466822364097 0.0038560050870166964 0 -0.023448773221048474 0.0036797918409291761 0 -0.02356679977313153 0.0038070660795521028 0 -0.023405466822364097 0.0038560050870166964 0 -0.016794281788125913 0.0016897962655409598 0 -0.017105329628979964 0.0027768648718164749 0 -0.015973251632889558 0.0026741706135715126 0 -0.023098006936390764 0.0035995255909308872 0 -0.023078833356815369 0.003516110312403752 0 -0.022473932677820618 0.0041119523818515819 0 -0.023294636439541074 0.0037051533137933083 0 -0.023098006936390764 0.0035995255909308872 0 -0.023214121619288548 0.0038517713304797394 0 -0.023098006936390764 0.0035995255909308872 0 -0.023298863793052824 0.0035634090260247666 0 -0.023081729276004367 0.00353430144524341 0 -0.02153465956909513 0.0035187517284539786 0 -0.021400395259091324 0.0034134543853919026 0 -0.023294636439541074 0.0037051533137933083 0 -0.023098006936390764 0.0035995255909308872 0 -0.023298863793052824 0.0035634090260247666 0 -0.023382397260705425 0.0033530821453262687 0 -0.023298863793052824 0.0035634090260247666 0 -0.023081729276004367 0.00353430144524341 0 -0.023098006936390764 0.0035995255909308872 0 -0.02301595074671442 0.0040392855192524797 0 -0.022473932677820618 0.0041119523818515819 0 -0.021400395259091324 0.0034134543853919026 0 -0.01947046232256373 0.0043208524452707066 0 -0.02301595074671442 0.0040392855192524797 0 -0.023106273716686585 0.0043983418350082544 0 -0.022833661345158313 0.0043880938222430619 0 -0.02301595074671442 0.0040392855192524797 0 -0.022473932677820618 0.0041119523818515819 0 -0.022833661345158313 0.0043880938222430619 0 -0.02301595074671442 0.0040392855192524797 0 -0.023243972233519161 0.0042256190102098502 0 -0.023106273716686585 0.0043983418350082544 0 -0.02301595074671442 0.0040392855192524797 0 -0.023243972233519161 0.0042256190102098502 0 -0.023311064236063286 0.0040420576011745545 0 -0.023098006936390764 0.0035995255909308872 0 -0.02301595074671442 0.0040392855192524797 0 -0.023214121619288548 0.0038517713304797394 0 -0.02301595074671442 0.0040392855192524797 0 -0.023311064236063286 0.0040420576011745545 0 -0.023214121619288548 0.0038517713304797394 0 -0.023311064236063286 0.0040420576011745545 0 -0.023214121619288548 0.0038517713304797394 0 -0.023405466822364097 0.0038560050870166964 0 -0.023294636439541074 0.0037051533137933083 0 -0.023214121619288548 0.0038517713304797394 0 -0.023405466822364097 0.0038560050870166964 0 -0.02356679977313153 0.0038070660795521028 0 -0.023405466822364097 0.0038560050870166964 0 -0.023563551907458829 0.0039827626674584383 0 -0.023788385783084544 0.0038411243594164029 0 -0.02356679977313153 0.0038070660795521028 0 -0.023563551907458829 0.0039827626674584383 0 -0.023311064236063286 0.0040420576011745545 0 -0.023405466822364097 0.0038560050870166964 0 -0.023563551907458829 0.0039827626674584383 0 -0.023311064236063286 0.0040420576011745545 0 -0.023563551907458829 0.0039827626674584383 0 -0.023484155232377003 0.0042025105183160312 0 -0.023563551907458829 0.0039827626674584383 0 -0.023484155232377003 0.0042025105183160312 0 -0.023843074378813427 0.0041632648161305172 0 -0.023484155232377003 0.0042025105183160312 0 -0.023843074378813427 0.0041632648161305172 0 -0.023599619894884551 0.0044030551710012213 0 -0.023243972233519161 0.0042256190102098502 0 -0.023311064236063286 0.0040420576011745545 0 -0.023484155232377003 0.0042025105183160312 0 -0.023243972233519161 0.0042256190102098502 0 -0.023484155232377003 0.0042025105183160312 0 -0.023351767274727847 0.0043580663192135383 0 -0.023484155232377003 0.0042025105183160312 0 -0.023599619894884551 0.0044030551710012213 0 -0.023351767274727847 0.0043580663192135383 0 -0.023843074378813427 0.0041632648161305172 0 -0.023995657983896256 0.0044620856257600889 0 -0.023599619894884551 0.0044030551710012213 0 -0.023788385783084544 0.0038411243594164029 0 -0.023843074378813427 0.0041632648161305172 0 -0.024116307083297154 0.0039668278928022306 0 -0.023788385783084544 0.0038411243594164029 0 -0.023563551907458829 0.0039827626674584383 0 -0.023843074378813427 0.0041632648161305172 0 -0.012671700288326218 0.0039240994551294562 0 -0.012892459979347555 0.0039270480336421401 0 -0.012577116506426516 0.004277898840789573 0 -0.014210554522694853 0.0033810694415569594 0 -0.013844832495888797 0.0037691895333340835 0 -0.0079542476662402429 0.003741483320965272 0 -0.0079424650545367164 0.0037428655520036895 0 -0.0079594599800662576 0.0037332781702212395 0 -0.0079542476662402429 0.003741483320965272 0 -0.0079547504285980286 0.0037662388228908161 0 -0.0079424650545367164 0.0037428655520036895 0 -0.0079542476662402429 0.003741483320965272 0 -0.0079547504285980286 0.0037662388228908161 0 -0.0079548555539105253 0.0037487923013341975 0 -0.012975625137624248 0.0036299105825941015 0 -0.012671700288326218 0.0039240994551294562 0 -0.012892459979347555 0.0039270480336421401 0 -0.017105329628979964 0.0027768648718164749 0 -0.015973251632889558 0.0026741706135715126 0 -0.016265167886141702 0.0039442285186676411 0 -0.015973251632889558 0.0026741706135715126 0 -0.016265167886141702 0.0039442285186676411 0 -0.015124748774839703 0.0036707549706430248 0 -0.010085686996220535 0.0037768729335184285 0 -0.011415724210471672 0.004193493180849283 0 -0.012671700288326218 0.0039240994551294562 0 -0.012577116506426516 0.004277898840789573 0 -0.012374795483145613 0.0045028105402727661 0 -0.0079424650545367164 0.0037428655520036895 0 -0.0079594599800662576 0.0037332781702212395 0 -0.0079796953725574469 0.0037295446015249202 0 -0.013844832495888797 0.0037691895333340835 0 -0.011415724210471672 0.004193493180849283 0 -0.0079594599800662576 0.0037332781702212395 0 -0.0079592501967179104 0.0037256415651100465 0 -0.0079796953725574469 0.0037295446015249202 0 -0.0079505516581619626 0.0037283575752186777 0 -0.0079592501967179104 0.0037256415651100465 0 -0.0079796953725574469 0.0037295446015249202 0 -0.0079505516581619626 0.0037283575752186777 0 -0.0079461058574961472 0.0037214794586718693 0 -0.0079224612153868841 0.0037187635313366981 0 -0.0079505516581619626 0.0037283575752186777 0 -0.0079461058574961472 0.0037214794586718693 0 -0.0079592501967179104 0.0037256415651100465 0 -0.0079461058574961472 0.0037214794586718693 0 -0.0079437857996841818 0.0037170272453062991 0 -0.0079300911447217921 0.0037096275956736572 0 -0.0079461058574961472 0.0037214794586718693 0 -0.0079437857996841818 0.0037170272453062991 0 -0.0079592501967179104 0.0037256415651100465 0 -0.0079437857996841818 0.0037170272453062991 0 -0.0079260684112542508 0.003705655380920506 0 -0.0079300911447217921 0.0037096275956736572 0 -0.0079594599800662576 0.0037332781702212395 0 -0.0079592501967179104 0.0037256415651100465 0 -0.0079533824774006417 0.0037285274240146278 0 -0.0079437857996841818 0.0037170272453062991 0 -0.0079592501967179104 0.0037256415651100465 0 -0.0079533824774006417 0.0037285274240146278 0 -0.0079542476662402429 0.003741483320965272 0 -0.0079594599800662576 0.0037332781702212395 0 -0.0079533824774006417 0.0037285274240146278 0 -0.0079542476662402429 0.003741483320965272 0 -0.0079533824774006417 0.0037285274240146278 0 -0.0079548555539105253 0.0037487923013341975 0 -0.0079533824774006417 0.0037285274240146278 0 -0.0079422515324420635 0.0037219588352404198 0 -0.0079548555539105253 0.0037487923013341975 0 -0.0079437857996841818 0.0037170272453062991 0 -0.0079533824774006417 0.0037285274240146278 0 -0.0079422515324420635 0.0037219588352404198 0 -0.0079437857996841818 0.0037170272453062991 0 -0.0079422515324420635 0.0037219588352404198 0 -0.0079260684112542508 0.003705655380920506 0 -0.0079422515324420635 0.0037219588352404198 0 -0.0079548555539105253 0.0037487923013341975 0 -0.0079419204744834125 0.0037499113524218589 0 -0.0078785066011847239 0.003693080243158087 0 -0.0079069593516952943 0.0036922864971436309 0 -0.0078506149913049085 0.0036397764192285438 0 -0.0078785066011847239 0.003693080243158087 0 -0.0079069593516952943 0.0036922864971436309 0 -0.0079419204744834125 0.0037499113524218589 0 -0.0079422515324420635 0.0037219588352404198 0 -0.0079069593516952943 0.0036922864971436309 0 -0.0079419204744834125 0.0037499113524218589 0 -0.0079422515324420635 0.0037219588352404198 0 -0.0079069593516952943 0.0036922864971436309 0 -0.0079260684112542508 0.003705655380920506 0 -0.0079069593516952943 0.0036922864971436309 0 -0.0079260684112542508 0.003705655380920506 0 -0.0079073117840631011 0.0036927524813913197 0 -0.0079069593516952943 0.0036922864971436309 0 -0.0078740802533964083 0.0036645047664492633 0 -0.0078506149913049085 0.0036397764192285438 0 -0.0079069593516952943 0.0036922864971436309 0 -0.0078740802533964083 0.0036645047664492633 0 -0.0079073117840631011 0.0036927524813913197 0 -0.0079505516581619626 0.0037283575752186777 0 -0.0079224612153868841 0.0037187635313366981 0 -0.0078944862263413147 0.0037371463132679045 0 -0.0078740802533964083 0.0036645047664492633 0 -0.0078852721768644819 0.0036869943816302104 0 -0.0079073117840631011 0.0036927524813913197 0 -0.0078852721768644819 0.0036869943816302104 0 -0.0079073117840631011 0.0036927524813913197 0 -0.0079032677483703781 0.0037092517805517324 0 -0.0078740802533964083 0.0036645047664492633 0 -0.0078852721768644819 0.0036869943816302104 0 -0.007840481835841592 0.0036387993271376467 0 -0.0079260684112542508 0.003705655380920506 0 -0.0079073117840631011 0.0036927524813913197 0 -0.0079300911447217921 0.0037096275956736572 0 -0.0079073117840631011 0.0036927524813913197 0 -0.0079300911447217921 0.0037096275956736572 0 -0.0079224612153868841 0.0037187635313366981 0 -0.0079461058574961472 0.0037214794586718693 0 -0.0079300911447217921 0.0037096275956736572 0 -0.0079224612153868841 0.0037187635313366981 0 -0.0079073117840631011 0.0036927524813913197 0 -0.0079224612153868841 0.0037187635313366981 0 -0.0079032677483703781 0.0037092517805517324 0 -0.0078852721768644819 0.0036869943816302104 0 -0.0078944862263413147 0.0037371463132679045 0 -0.007840481835841592 0.0036387993271376467 0 -0.0079224612153868841 0.0037187635313366981 0 -0.0079032677483703781 0.0037092517805517324 0 -0.0078944862263413147 0.0037371463132679045 0 -0.0078852721768644819 0.0036869943816302104 0 -0.0079032677483703781 0.0037092517805517324 0 -0.0078944862263413147 0.0037371463132679045 0 -0.0078944862263413147 0.0037371463132679045 0 -0.007840481835841592 0.0036387993271376467 0 -0.0077269979824439719 0.0035663162341818869 0 -0.0090927036323112751 0.0015979511430553634 0 -0.0084707363020083536 0.0016237248781069667 0 -0.0091329707437112963 0.0017771325266422351 0 -0.0090927036323112751 0.0015979511430553634 0 -0.0084707363020083536 0.0016237248781069667 0 -0.0082707422288832242 0.0016197801742359917 0 -0.0082525900571185154 0.0025243300758953707 0 -0.0081071994221823002 0.0026783287354278334 0 -0.0085545700293754422 0.0015611949852567335 0 -0.0090949168782732109 0.0015709176455553483 0 -0.007840481835841592 0.0036387993271376467 0 -0.0077269979824439719 0.0035663162341818869 0 -0.0077922437482969521 0.00356778292160605 0 -0.0078740802533964083 0.0036645047664492633 0 -0.007840481835841592 0.0036387993271376467 0 -0.0078506149913049085 0.0036397764192285438 0 -0.0081071994221823002 0.0026783287354278334 0 -0.0078026031927035085 0.0028315561376600993 0 -0.0083475511212505304 0.0016812080584888338 0 -0.0082707422288832242 0.0016197801742359917 0 -0.0080625891923351307 0.0019189939591513561 0 -0.0084707363020083536 0.0016237248781069667 0 -0.0083475511212505304 0.0016812080584888338 0 -0.0082707422288832242 0.0016197801742359917 0 -0.0084707363020083536 0.0016237248781069667 0 -0.0083475511212505304 0.0016812080584888338 0 -0.0085341046807424145 0.0015531658251106333 0 -0.0077269979824439719 0.0035663162341818869 0 -0.0077022361201583784 0.0034001851262404309 0 -0.0076769050796259815 0.0028713104908633059 0 -0.0077022361201583784 0.0034001851262404309 0 -0.0076809061013011501 0.0036062991068676518 0 -0.0076769050796259815 0.0028713104908633059 0 -0.0077269979824439719 0.0035663162341818869 0 -0.0077022361201583784 0.0034001851262404309 0 -0.0077922437482969521 0.00356778292160605 0 -0.0077022361201583784 0.0034001851262404309 0 -0.0077924525351440082 0.0035988180066332327 0 -0.0076809061013011501 0.0036062991068676518 0 -0.0078506149913049085 0.0036397764192285438 0 -0.0077922437482969521 0.00356778292160605 0 -0.0077924525351440082 0.0035988180066332327 0 -0.007840481835841592 0.0036387993271376467 0 -0.0078506149913049085 0.0036397764192285438 0 -0.0077922437482969521 0.00356778292160605 0 -0.0077022361201583784 0.0034001851262404309 0 -0.0077922437482969521 0.00356778292160605 0 -0.0077924525351440082 0.0035988180066332327 0 -0.0078785066011847239 0.003693080243158087 0 -0.0078506149913049085 0.0036397764192285438 0 -0.0077924525351440082 0.0035988180066332327 0 -0.0078785066011847239 0.003693080243158087 0 -0.0077924525351440082 0.0035988180066332327 0 -0.0078309513914634095 0.0036913013304246283 0 -0.0078309513914634095 0.0036913013304246283 0 -0.0076809061013011501 0.0036062991068676518 0 -0.0078639564711426128 0.0038162746940106477 0 -0.0077924525351440082 0.0035988180066332327 0 -0.0078309513914634095 0.0036913013304246283 0 -0.0076809061013011501 0.0036062991068676518 0 -0.0078309513914634095 0.0036913013304246283 0 -0.0078639564711426128 0.0038162746940106477 0 -0.0079209254378447835 0.0037841405016617352 0 -0.0076809061013011501 0.0036062991068676518 0 -0.0077434109620022114 0.0038525643037984544 0 -0.0078639564711426128 0.0038162746940106477 0 -0.007993632883739419 0.0040191634037194147 0 -0.0077434109620022114 0.0038525643037984544 0 -0.0078639564711426128 0.0038162746940106477 0 -0.007993632883739419 0.0040191634037194147 0 -0.0078639564711426128 0.0038162746940106477 0 -0.0079980263363183344 0.0039198990886418527 0 -0.0078639564711426128 0.0038162746940106477 0 -0.0079980263363183344 0.0039198990886418527 0 -0.0079209254378447835 0.0037841405016617352 0 -0.0079980263363183344 0.0039198990886418527 0 -0.0079807588666109663 0.003842626643201264 0 -0.0079209254378447835 0.0037841405016617352 0 -0.0079980263363183344 0.0039198990886418527 0 -0.0080455536605742728 0.0039632830019811355 0 -0.0079807588666109663 0.003842626643201264 0 -0.0080175048448649974 0.0039735953001601345 0 -0.0079804365033506186 0.0038688866737631496 0 -0.0080455536605742728 0.0039632830019811355 0 -0.0079804365033506186 0.0038688866737631496 0 -0.0080455536605742728 0.0039632830019811355 0 -0.0079807588666109663 0.003842626643201264 0 -0.0079807588666109663 0.003842626643201264 0 -0.0079655561746172603 0.003800794564640175 0 -0.0079419204744834125 0.0037499113524218589 0 -0.0079804365033506186 0.0038688866737631496 0 -0.0079807588666109663 0.003842626643201264 0 -0.0079655561746172603 0.003800794564640175 0 -0.0079547504285980286 0.0037662388228908161 0 -0.0079548555539105253 0.0037487923013341975 0 -0.0079655561746172603 0.003800794564640175 0 -0.0079548555539105253 0.0037487923013341975 0 -0.0079655561746172603 0.003800794564640175 0 -0.0079419204744834125 0.0037499113524218589 0 -0.0078785066011847239 0.003693080243158087 0 -0.0078309513914634095 0.0036913013304246283 0 -0.0079209254378447835 0.0037841405016617352 0 -0.0078785066011847239 0.003693080243158087 0 -0.0079419204744834125 0.0037499113524218589 0 -0.0079209254378447835 0.0037841405016617352 0 -0.0079807588666109663 0.003842626643201264 0 -0.0079419204744834125 0.0037499113524218589 0 -0.0079209254378447835 0.0037841405016617352 0 -0.025328841677908446 0.0095599526968978728 0 -0.025789787829822549 0.0099085266969083964 0 -0.025525778748376186 0.010554537008002149 0 -0.025328841677908446 0.0095599526968978728 0 -0.024999812358431191 0.010178827525839013 0 -0.025525778748376186 0.010554537008002149 0 -0.025328841677908446 0.0095599526968978728 0 -0.024999812358431191 0.010178827525839013 0 -0.024999775356307177 0.0087384544249417585 0 -0.025789787829822549 0.0099085266969083964 0 -0.026253618652365085 0.0095356917514664297 0 -0.025529209744378969 0.0089188606715471311 0 -0.025328841677908446 0.0095599526968978728 0 -0.025789787829822549 0.0099085266969083964 0 -0.025529209744378969 0.0089188606715471311 0 -0.025789787829822549 0.0099085266969083964 0 -0.025525778748376186 0.010554537008002149 0 -0.025926065774710377 0.011270858381945099 0 -0.025774220579683392 0.01001348446091984 0 -0.025631930647981662 0.011254315063099754 0 -0.025789787829822549 0.0099085266969083964 0 -0.025335504547566865 0.011218815974299967 0 -0.026043295532616105 0.010951531961280524 0 -0.024999812358431191 0.010178827525839013 0 -0.025525778748376186 0.010554537008002149 0 -0.024999941927502333 0.011619526900674115 0 -0.025525778748376186 0.010554537008002149 0 -0.024999941927502333 0.011619526900674115 0 -0.025926065774710377 0.011270858381945099 0 -0.025834612988009022 0.012598083912619375 0 -0.025000018090588199 0.013060116271395217 0 -0.024999941927502333 0.011619526900674115 0 -0.025834612988009022 0.012598083912619375 0 -0.024999941927502333 0.011619526900674115 0 -0.025926065774710377 0.011270858381945099 0 -0.025493954127169857 0.012806769921240127 0 -0.025631930647981662 0.011254315063099754 0 -0.025840174495353505 0.012541613199108924 0 -0.025335504547566865 0.011218815974299967 0 -0.026197422967091082 0.011663085793391981 0 -0.0251261829563551 0.013042580441642923 0 -0.025840174495353505 0.012541613199108924 0 -0.025335504547566865 0.011218815974299967 0 -0.025335504547566865 0.011218815974299967 0 -0.026043295532616105 0.010951531961280524 0 -0.026197422967091082 0.011663085793391981 0 -0.026197422967091082 0.011663085793391981 0 -0.027066284150944534 0.011124512618337379 0 -0.02655892932969808 0.010518359385886591 0 -0.026043295532616105 0.010951531961280524 0 -0.026197422967091082 0.011663085793391981 0 -0.02655892932969808 0.010518359385886591 0 -0.025840174495353505 0.012541613199108924 0 -0.026197422967091082 0.011663085793391981 0 -0.026776518055080967 0.012898025651229942 0 -0.026197422967091082 0.011663085793391981 0 -0.026910494441267946 0.01180908800699098 0 -0.027066284150944534 0.011124512618337379 0 -0.026206705425160657 0.011708034676552289 0 -0.026767588039169225 0.012299196286744444 0 -0.026910494441267946 0.01180908800699098 0 -0.027066284150944534 0.011124512618337379 0 -0.027465450396714445 0.011363456326621743 0 -0.026910494441267946 0.01180908800699098 0 -0.027465450396714445 0.011363456326621743 0 -0.027636594912952991 0.01169165672355889 0 -0.027066284150944534 0.011124512618337379 0 -0.027337317109020751 0.010340482870806741 0 -0.027686824826811514 0.010813966902261742 0 -0.027066284150944534 0.011124512618337379 0 -0.027337317109020751 0.010340482870806741 0 -0.02655892932969808 0.010518359385886591 0 -0.027337317109020751 0.010340482870806741 0 -0.02655892932969808 0.010518359385886591 0 -0.026897562610274622 0.0096124823272099522 0 -0.025789787829822549 0.0099085266969083964 0 -0.026043295532616105 0.010951531961280524 0 -0.02655892932969808 0.010518359385886591 0 -0.02655892932969808 0.010518359385886591 0 -0.026253618652365085 0.0095356917514664297 0 -0.026897562610274622 0.0096124823272099522 0 -0.026253618652365085 0.0095356917514664297 0 -0.026897562610274622 0.0096124823272099522 0 -0.026319104749417736 0.0088144245001430341 0 -0.025789787829822549 0.0099085266969083964 0 -0.02655892932969808 0.010518359385886591 0 -0.026253618652365085 0.0095356917514664297 0 -0.027337317109020751 0.010340482870806741 0 -0.026897562610274622 0.0096124823272099522 0 -0.027688242639823165 0.0094126384107722175 0 -0.027337317109020751 0.010340482870806741 0 -0.027688242639823165 0.0094126384107722175 0 -0.028001989925003339 0.01011241608758111 0 -0.027688242639823165 0.0094126384107722175 0 -0.0285144104653062 0.0095831014039804187 0 -0.028001989925003339 0.01011241608758111 0 -0.0285144104653062 0.0095831014039804187 0 -0.028001989925003339 0.01011241608758111 0 -0.028386259640457524 0.010326870936655132 0 -0.028386259640457524 0.010326870936655132 0 -0.028146130504855326 0.010703974948338021 0 -0.028515750766576326 0.010882252446525464 0 -0.028001989925003339 0.01011241608758111 0 -0.028386259640457524 0.010326870936655132 0 -0.028146130504855326 0.010703974948338021 0 -0.028001989925003339 0.01011241608758111 0 -0.027686824826811514 0.010813966902261742 0 -0.028146130504855326 0.010703974948338021 0 -0.027337317109020751 0.010340482870806741 0 -0.028001989925003339 0.01011241608758111 0 -0.027686824826811514 0.010813966902261742 0 -0.027066284150944534 0.011124512618337379 0 -0.027686824826811514 0.010813966902261742 0 -0.027465450396714445 0.011363456326621743 0 -0.027686824826811514 0.010813966902261742 0 -0.027465450396714445 0.011363456326621743 0 -0.027949833861672112 0.011176325034564966 0 -0.027465450396714445 0.011363456326621743 0 -0.027636594912952991 0.01169165672355889 0 -0.027949833861672112 0.011176325034564966 0 -0.027636594912952991 0.01169165672355889 0 -0.028183749602793393 0.011516353174343795 0 -0.027949833861672112 0.011176325034564966 0 -0.028183749602793393 0.011516353174343795 0 -0.027949833861672112 0.011176325034564966 0 -0.028515750766576326 0.010882252446525464 0 -0.027949833861672112 0.011176325034564966 0 -0.028146130504855326 0.010703974948338021 0 -0.028515750766576326 0.010882252446525464 0 -0.027686824826811514 0.010813966902261742 0 -0.027949833861672112 0.011176325034564966 0 -0.028146130504855326 0.010703974948338021 0 -0.028276576131315845 0.011902086178126426 0 -0.028183749602793393 0.011516353174343795 0 -0.028549984495663854 0.0114057923228294 0 -0.028515750766576326 0.010882252446525464 0 -0.028549984495663854 0.0114057923228294 0 -0.028956951280439108 0.011168536796618302 0 -0.028183749602793393 0.011516353174343795 0 -0.028515750766576326 0.010882252446525464 0 -0.028549984495663854 0.0114057923228294 0 -0.028728021273277168 0.011771717809267824 0 -0.028549984495663854 0.0114057923228294 0 -0.028956951280439108 0.011168536796618302 0 -0.028728021273277168 0.011771717809267824 0 -0.02926556632239995 0.011544502970549986 0 -0.028956951280439108 0.011168536796618302 0 -0.028515750766576326 0.010882252446525464 0 -0.028956951280439108 0.011168536796618302 0 -0.029059671510857085 0.010639831999366469 0 -0.028515750766576326 0.010882252446525464 0 -0.029059671510857085 0.010639831999366469 0 -0.028695686598111444 0.010297452118471712 0 -0.02932136126638956 0.010325034978311141 0 -0.029059671510857085 0.010639831999366469 0 -0.029042910685122107 0.010241717729044437 0 -0.029042910685122107 0.010241717729044437 0 -0.028695686598111444 0.010297452118471712 0 -0.028819419128892076 0.0098705374250024382 0 -0.029059671510857085 0.010639831999366469 0 -0.029042910685122107 0.010241717729044437 0 -0.028695686598111444 0.010297452118471712 0 -0.028386259640457524 0.010326870936655132 0 -0.028515750766576326 0.010882252446525464 0 -0.028695686598111444 0.010297452118471712 0 -0.0285144104653062 0.0095831014039804187 0 -0.028386259640457524 0.010326870936655132 0 -0.028695686598111444 0.010297452118471712 0 -0.027825596084708432 0.0095353052640121585 0 -0.028819419128892076 0.0098705374250024382 0 -0.028732419472948946 0.0093396538914310174 0 -0.027825596084708432 0.0095353052640121585 0 -0.028695686598111444 0.010297452118471712 0 -0.028819419128892076 0.0098705374250024382 0 -0.028134276057474535 0.009507818315851976 0 -0.028667241747516708 0.01023791349105768 0 -0.029059340058390393 0.0095230058691494791 0 -0.028819419128892076 0.0098705374250024382 0 -0.028732419472948946 0.0093396538914310174 0 -0.02927760091403022 0.0099999330049731199 0 -0.029042910685122107 0.010241717729044437 0 -0.028819419128892076 0.0098705374250024382 0 -0.02927760091403022 0.0099999330049731199 0 -0.029059340058390393 0.0095230058691494791 0 -0.028819419128892076 0.0098705374250024382 0 -0.029059340058390393 0.0095230058691494791 0 -0.028732419472948946 0.0093396538914310174 0 -0.029009833789318876 0.008574361442898153 0 -0.028732419472948946 0.0093396538914310174 0 -0.02858246671831562 0.008907780852851991 0 -0.029009833789318876 0.008574361442898153 0 -0.026526876224112199 0.009885812416245832 0 -0.026132424404343612 0.0070746046917688696 0 -0.029460239619216996 0.009799880267733126 0 -0.029059340058390393 0.0095230058691494791 0 -0.029009833789318876 0.008574361442898153 0 -0.02858246671831562 0.008907780852851991 0 -0.028664540372930172 0.0086283690411732075 0 -0.029009833789318876 0.008574361442898153 0 -0.027825596084708432 0.0095353052640121585 0 -0.028732419472948946 0.0093396538914310174 0 -0.02858246671831562 0.008907780852851991 0 -0.027825596084708432 0.0095353052640121585 0 -0.028005447834742712 0.0087387790001895293 0 -0.02858246671831562 0.008907780852851991 0 -0.028005447834742712 0.0087387790001895293 0 -0.02858246671831562 0.008907780852851991 0 -0.028315821399346283 0.0085570989076678306 0 -0.02858246671831562 0.008907780852851991 0 -0.028315821399346283 0.0085570989076678306 0 -0.028664540372930172 0.0086283690411732075 0 -0.028315821399346283 0.0085570989076678306 0 -0.028797493677970118 0.008414660964412058 0 -0.027538284279091302 0.0080721681743540115 0 -0.025354031818999104 0.0039205977836739968 0 -0.025379417082724794 0.003976613800161408 0 -0.025341285056184434 0.0038967005360429742 0 -0.028005447834742712 0.0087387790001895293 0 -0.028315821399346283 0.0085570989076678306 0 -0.027538284279091302 0.0080721681743540115 0 -0.026089176552900641 0.0055424001204076338 0 -0.026560741734057557 0.0059878695964605258 0 -0.02485701207700057 0.0034361015450909511 0 -0.024451148245523097 0.00317532348959697 0 -0.024506927886355483 0.0035343827217659079 0 -0.024808499810955197 0.0035352630278950659 0 -0.026089176552900641 0.0055424001204076338 0 -0.024451148245523097 0.00317532348959697 0 -0.024356744026017521 0.0031553245429250254 0 -0.024506927886355483 0.0035343827217659079 0 -0.024262393381472829 0.0028809282734855654 0 -0.024157506654777113 0.0032066145646449931 0 -0.024506927886355483 0.0035343827217659079 0 -0.025017870172630442 0.0051167554738068667 0 -0.024205744512076775 0.002858039052447033 0 -0.028315821399346283 0.0085570989076678306 0 -0.028797493677970118 0.008414660964412058 0 -0.028664540372930172 0.0086283690411732075 0 -0.026089176552900641 0.0055424001204076338 0 -0.026132424404343612 0.0070746046917688696 0 -0.025686419105455952 0.0058713826783438079 0 -0.025438449652536634 0.0057151053460658434 0 -0.025492446865440735 0.005831968113475158 0 -0.026089176552900641 0.0055424001204076338 0 -0.025017870172630442 0.0051167554738068667 0 -0.028797493677970118 0.008414660964412058 0 -0.028664540372930172 0.0086283690411732075 0 -0.029009833789318876 0.008574361442898153 0 -0.022907800813334451 0.0066571241133226442 0 -0.024837944177140824 0.0068106281429536784 0 -0.024978871802479721 0.0071258950986091141 0 -0.023842218813390756 0.0029657523375129164 0 -0.024262393381472829 0.0028809282734855654 0 -0.024035665474936244 0.0030378293275030548 0 -0.026132424404343612 0.0070746046917688696 0 -0.025017870172630442 0.0051167554738068667 0 -0.023919207342701181 0.0031618555290147191 0 -0.024035665474936244 0.0030378293275030548 0 -0.024157506654777113 0.0032066145646449931 0 -0.024262393381472829 0.0028809282734855654 0 -0.024035665474936244 0.0030378293275030548 0 -0.024157506654777113 0.0032066145646449931 0 -0.023919207342701181 0.0031618555290147191 0 -0.024157506654777113 0.0032066145646449931 0 -0.024068979213985958 0.0034655630190554955 0 -0.024157506654777113 0.0032066145646449931 0 -0.024068979213985958 0.0034655630190554955 0 -0.024506927886355483 0.0035343827217659079 0 -0.023800291981879124 0.003590989640082606 0 -0.024068979213985958 0.0034655630190554955 0 -0.024015905087944357 0.0037138937321645701 0 -0.024068979213985958 0.0034655630190554955 0 -0.024506927886355483 0.0035343827217659079 0 -0.024271271062233889 0.0037061190529041406 0 -0.024506927886355483 0.0035343827217659079 0 -0.024485557978480964 0.0039101951676231463 0 -0.024271271062233889 0.0037061190529041406 0 -0.024485557978480964 0.0039101951676231463 0 -0.024271271062233889 0.0037061190529041406 0 -0.024116307083297154 0.0039668278928022306 0 -0.023788385783084544 0.0038411243594164029 0 -0.024015905087944357 0.0037138937321645701 0 -0.024116307083297154 0.0039668278928022306 0 -0.024015905087944357 0.0037138937321645701 0 -0.024271271062233889 0.0037061190529041406 0 -0.024116307083297154 0.0039668278928022306 0 -0.024068979213985958 0.0034655630190554955 0 -0.024015905087944357 0.0037138937321645701 0 -0.024271271062233889 0.0037061190529041406 0 -0.024485557978480964 0.0039101951676231463 0 -0.024337955196128313 0.004278936635193728 0 -0.024695609040041314 0.0042245243174862555 0 -0.024485557978480964 0.0039101951676231463 0 -0.024116307083297154 0.0039668278928022306 0 -0.024337955196128313 0.004278936635193728 0 -0.023843074378813427 0.0041632648161305172 0 -0.024337955196128313 0.004278936635193728 0 -0.023995657983896256 0.0044620856257600889 0 -0.023843074378813427 0.0041632648161305172 0 -0.024116307083297154 0.0039668278928022306 0 -0.024337955196128313 0.004278936635193728 0 -0.025022912375155266 0.0044267798042193071 0 -0.024695609040041314 0.0042245243174862555 0 -0.025011213003343351 0.0042096076325023367 0 -0.025022912375155266 0.0044267798042193071 0 -0.025011213003343351 0.0042096076325023367 0 -0.025215117472021636 0.0043392646901122918 0 -0.024337955196128313 0.004278936635193728 0 -0.024695609040041314 0.0042245243174862555 0 -0.024766709933889276 0.0045573577483484238 0 -0.025022912375155266 0.0044267798042193071 0 -0.024695609040041314 0.0042245243174862555 0 -0.024766709933889276 0.0045573577483484238 0 -0.024485557978480964 0.0039101951676231463 0 -0.024695609040041314 0.0042245243174862555 0 -0.0249004688368572 0.0039252276011852247 0 -0.024695609040041314 0.0042245243174862555 0 -0.025011213003343351 0.0042096076325023367 0 -0.0249004688368572 0.0039252276011852247 0 -0.025011213003343351 0.0042096076325023367 0 -0.0249004688368572 0.0039252276011852247 0 -0.025254122455901289 0.0041645452305287415 0 -0.024506927886355483 0.0035343827217659079 0 -0.024485557978480964 0.0039101951676231463 0 -0.0249004688368572 0.0039252276011852247 0 -0.02485701207700057 0.0034361015450909511 0 -0.024506927886355483 0.0035343827217659079 0 -0.0249004688368572 0.0039252276011852247 0 -0.02485701207700057 0.0034361015450909511 0 -0.0249004688368572 0.0039252276011852247 0 -0.025330299256713065 0.0039479511808400486 0 -0.024808499810955197 0.0035352630278950659 0 -0.02538636135027161 0.0039452170323766153 0 -0.025354031818999104 0.0039205977836739968 0 -0.025330299256713065 0.0039479511808400486 0 -0.025341285056184434 0.0038967005360429742 0 -0.025468977834560452 0.0040181482636230436 0 -0.025616744022758944 0.0040285740575165176 0 -0.025341285056184434 0.0038967005360429742 0 -0.025468977834560452 0.0040181482636230436 0 -0.025330299256713065 0.0039479511808400486 0 -0.025341285056184434 0.0038967005360429742 0 -0.025468977834560452 0.0040181482636230436 0 -0.025499797509831945 0.0041684875032028355 0 -0.025330299256713065 0.0039479511808400486 0 -0.025499797509831945 0.0041684875032028355 0 -0.025330299256713065 0.0039479511808400486 0 -0.025254122455901289 0.0041645452305287415 0 -0.0249004688368572 0.0039252276011852247 0 -0.025330299256713065 0.0039479511808400486 0 -0.025254122455901289 0.0041645452305287415 0 -0.025254122455901289 0.0041645452305287415 0 -0.025433782584883602 0.0043831071921592909 0 -0.025215117472021636 0.0043392646901122918 0 -0.025011213003343351 0.0042096076325023367 0 -0.025254122455901289 0.0041645452305287415 0 -0.025215117472021636 0.0043392646901122918 0 -0.025499797509831945 0.0041684875032028355 0 -0.025254122455901289 0.0041645452305287415 0 -0.025433782584883602 0.0043831071921592909 0 -0.025433782584883602 0.0043831071921592909 0 -0.025574783058808542 0.0046637107712350634 0 -0.025303487141901074 0.0045325601514057089 0 -0.025022912375155266 0.0044267798042193071 0 -0.025215117472021636 0.0043392646901122918 0 -0.025303487141901074 0.0045325601514057089 0 -0.025433782584883602 0.0043831071921592909 0 -0.025215117472021636 0.0043392646901122918 0 -0.025303487141901074 0.0045325601514057089 0 -0.025663773256292516 0.00446118074411912 0 -0.025854215185675541 0.0045450777047025184 0 -0.025827911824087512 0.0047442013292995494 0 -0.025663773256292516 0.00446118074411912 0 -0.025574783058808542 0.0046637107712350634 0 -0.025827911824087512 0.0047442013292995494 0 -0.025433782584883602 0.0043831071921592909 0 -0.025663773256292516 0.00446118074411912 0 -0.025574783058808542 0.0046637107712350634 0 -0.025499797509831945 0.0041684875032028355 0 -0.025433782584883602 0.0043831071921592909 0 -0.025663773256292516 0.00446118074411912 0 -0.025499797509831945 0.0041684875032028355 0 -0.025663773256292516 0.00446118074411912 0 -0.025712980272036938 0.0042673173363609379 0 -0.025663773256292516 0.00446118074411912 0 -0.025712980272036938 0.0042673173363609379 0 -0.025854215185675541 0.0045450777047025184 0 -0.025712980272036938 0.0042673173363609379 0 -0.02580172572350635 0.0041708759573313029 0 -0.025891676208409608 0.0043159560068507909 0 -0.025616744022758944 0.0040285740575165176 0 -0.025341285056184434 0.0038967005360429742 0 -0.025872288770522587 0.0040405560282733826 0 -0.025712980272036938 0.0042673173363609379 0 -0.025891676208409608 0.0043159560068507909 0 -0.025854215185675541 0.0045450777047025184 0 -0.025712980272036938 0.0042673173363609379 0 -0.02580172572350635 0.0041708759573313029 0 -0.02569966861037435 0.004129801057630225 0 -0.025712980272036938 0.0042673173363609379 0 -0.025598119616713606 0.0041211163674539442 0 -0.02569966861037435 0.004129801057630225 0 -0.025499797509831945 0.0041684875032028355 0 -0.025712980272036938 0.0042673173363609379 0 -0.025598119616713606 0.0041211163674539442 0 -0.025468977834560452 0.0040181482636230436 0 -0.025499797509831945 0.0041684875032028355 0 -0.025598119616713606 0.0041211163674539442 0 -0.025468977834560452 0.0040181482636230436 0 -0.025598119616713606 0.0041211163674539442 0 -0.025616744022758944 0.0040285740575165176 0 -0.025598119616713606 0.0041211163674539442 0 -0.025616744022758944 0.0040285740575165176 0 -0.02569966861037435 0.004129801057630225 0 -0.025616744022758944 0.0040285740575165176 0 -0.025746112369334079 0.0040916498613420022 0 -0.025872288770522587 0.0040405560282733826 0 -0.025746112369334079 0.0040916498613420022 0 -0.02580172572350635 0.0041708759573313029 0 -0.02569966861037435 0.004129801057630225 0 -0.025746112369334079 0.0040916498613420022 0 -0.02580172572350635 0.0041708759573313029 0 -0.025872288770522587 0.0040405560282733826 0 -0.025616744022758944 0.0040285740575165176 0 -0.025746112369334079 0.0040916498613420022 0 -0.02569966861037435 0.004129801057630225 0 -0.027004486504921429 0.0086608180151566579 0 -0.027538284279091302 0.0080721681743540115 0 -0.026197415671128529 0.0077339135317813206 0 -0.027670380592950412 0.0087861643709613736 0 -0.026469990359900813 0.0066395844542780939 0 -0.028129867608843645 0.0086052075784533721 0 -0.02757204649841485 0.0084466652797674478 0 -0.027621048901231071 0.0074136324219472478 0 -0.026560741734057557 0.0059878695964605258 0 -0.026469990359900813 0.0066395844542780939 0 -0.028005447834742712 0.0087387790001895293 0 -0.027538284279091302 0.0080721681743540115 0 -0.027592817231577541 0.0087553333414682761 0 -0.027004486504921429 0.0086608180151566579 0 -0.027538284279091302 0.0080721681743540115 0 -0.027592817231577541 0.0087553333414682761 0 -0.027825596084708432 0.0095353052640121585 0 -0.028005447834742712 0.0087387790001895293 0 -0.027592817231577541 0.0087553333414682761 0 -0.027825596084708432 0.0095353052640121585 0 -0.027004486504921429 0.0086608180151566579 0 -0.027592817231577541 0.0087553333414682761 0 -0.028134276057474535 0.009507818315851976 0 -0.027670380592950412 0.0087861643709613736 0 -0.027688242639823165 0.0094126384107722175 0 -0.0285144104653062 0.0095831014039804187 0 -0.028129867608843645 0.0086052075784533721 0 -0.027688242639823165 0.0094126384107722175 0 -0.028129867608843645 0.0086052075784533721 0 -0.02757204649841485 0.0084466652797674478 0 -0.026897562610274622 0.0096124823272099522 0 -0.027688242639823165 0.0094126384107722175 0 -0.027101965198441227 0.0088392774961741846 0 -0.027688242639823165 0.0094126384107722175 0 -0.027101965198441227 0.0088392774961741846 0 -0.02757204649841485 0.0084466652797674478 0 -0.027101965198441227 0.0088392774961741846 0 -0.02720488398924099 0.0082599622030985961 0 -0.02757204649841485 0.0084466652797674478 0 -0.027101965198441227 0.0088392774961741846 0 -0.026319104749417736 0.0088144245001430341 0 -0.026766318616483757 0.0082372824427347242 0 -0.026897562610274622 0.0096124823272099522 0 -0.027101965198441227 0.0088392774961741846 0 -0.026319104749417736 0.0088144245001430341 0 -0.026319104749417736 0.0088144245001430341 0 -0.026766318616483757 0.0082372824427347242 0 -0.026259644534119938 0.0078385140924680172 0 -0.026319104749417736 0.0088144245001430341 0 -0.026259644534119938 0.0078385140924680172 0 -0.025766822308310615 0.008034783272408209 0 -0.026766318616483757 0.0082372824427347242 0 -0.026259644534119938 0.0078385140924680172 0 -0.026767479588944414 0.0075756185350693457 0 -0.026766318616483757 0.0082372824427347242 0 -0.026767479588944414 0.0075756185350693457 0 -0.027094881463332967 0.007857921078727589 0 -0.027094881463332967 0.007857921078727589 0 -0.02720488398924099 0.0082599622030985961 0 -0.027456423841497258 0.0077079292470360649 0 -0.026767479588944414 0.0075756185350693457 0 -0.027094881463332967 0.007857921078727589 0 -0.027222833118923952 0.0075034303313799124 0 -0.02757204649841485 0.0084466652797674478 0 -0.027456423841497258 0.0077079292470360649 0 -0.027621048901231071 0.0074136324219472478 0 -0.027094881463332967 0.007857921078727589 0 -0.027456423841497258 0.0077079292470360649 0 -0.027222833118923952 0.0075034303313799124 0 -0.026766318616483757 0.0082372824427347242 0 -0.027094881463332967 0.007857921078727589 0 -0.02720488398924099 0.0082599622030985961 0 -0.027101965198441227 0.0088392774961741846 0 -0.026766318616483757 0.0082372824427347242 0 -0.02720488398924099 0.0082599622030985961 0 -0.02720488398924099 0.0082599622030985961 0 -0.02757204649841485 0.0084466652797674478 0 -0.027456423841497258 0.0077079292470360649 0 -0.027456423841497258 0.0077079292470360649 0 -0.027477980773540623 0.0074987862282630321 0 -0.027222833118923952 0.0075034303313799124 0 -0.02580172572350635 0.0041708759573313029 0 -0.025872288770522587 0.0040405560282733826 0 -0.025891676208409608 0.0043159560068507909 0 -0.027683714154026814 0.0073860932347641602 0 -0.027516678423037563 0.0073219076349087097 0 -0.027130311375214163 0.0063761467040196317 0 -0.026469990359900813 0.0066395844542780939 0 -0.026761866399726573 0.0067403894117628992 0 -0.027477980773540623 0.0074987862282630321 0 -0.027516678423037563 0.0073219076349087097 0 -0.027222833118923952 0.0075034303313799124 0 -0.027456423841497258 0.0077079292470360649 0 -0.027621048901231071 0.0074136324219472478 0 -0.027477980773540623 0.0074987862282630321 0 -0.027621048901231071 0.0074136324219472478 0 -0.027477980773540623 0.0074987862282630321 0 -0.027516678423037563 0.0073219076349087097 0 -0.026767479588944414 0.0075756185350693457 0 -0.027012842371670173 0.0071377909057832633 0 -0.027222833118923952 0.0075034303313799124 0 -0.027516678423037563 0.0073219076349087097 0 -0.027012842371670173 0.0071377909057832633 0 -0.027222833118923952 0.0075034303313799124 0 -0.027516678423037563 0.0073219076349087097 0 -0.027012842371670173 0.0071377909057832633 0 -0.027130311375214163 0.0063761467040196317 0 -0.026469990359900813 0.0066395844542780939 0 -0.026484560780691405 0.005388986726380089 0 -0.025872288770522587 0.0040405560282733826 0 -0.026117585039839002 0.0045047489366389732 0 -0.025891676208409608 0.0043159560068507909 0 -0.026117585039839002 0.0045047489366389732 0 -0.025891676208409608 0.0043159560068507909 0 -0.025854215185675541 0.0045450777047025184 0 -0.026117585039839002 0.0045047489366389732 0 -0.025854215185675541 0.0045450777047025184 0 -0.026001489834895815 0.0048672995725621386 0 -0.026117585039839002 0.0045047489366389732 0 -0.026001489834895815 0.0048672995725621386 0 -0.026224712914755748 0.0052701592442149286 0 -0.025854215185675541 0.0045450777047025184 0 -0.026001489834895815 0.0048672995725621386 0 -0.025827911824087512 0.0047442013292995494 0 -0.027130311375214163 0.0063761467040196317 0 -0.026224712914755748 0.0052701592442149286 0 -0.026397732750211875 0.0068690668289233215 0 -0.026224712914755748 0.0052701592442149286 0 -0.026397732750211875 0.0068690668289233215 0 -0.025730360768254381 0.0064492384451024396 0 -0.026484560780691405 0.005388986726380089 0 -0.026300457553645181 0.005257615875957633 0 -0.027012842371670173 0.0071377909057832633 0 -0.027130311375214163 0.0063761467040196317 0 -0.026397732750211875 0.0068690668289233215 0 -0.026767479588944414 0.0075756185350693457 0 -0.027012842371670173 0.0071377909057832633 0 -0.026397732750211875 0.0068690668289233215 0 -0.026259644534119938 0.0078385140924680172 0 -0.026767479588944414 0.0075756185350693457 0 -0.026397732750211875 0.0068690668289233215 0 -0.026259644534119938 0.0078385140924680172 0 -0.026397732750211875 0.0068690668289233215 0 -0.025670168659018312 0.0072669791057959031 0 -0.025730360768254381 0.0064492384451024396 0 -0.02493024121901417 0.0055320768421040943 0 -0.024898857882970037 0.007174605902656615 0 -0.026397732750211875 0.0068690668289233215 0 -0.025670168659018312 0.0072669791057959031 0 -0.025730360768254381 0.0064492384451024396 0 -0.025670168659018312 0.0072669791057959031 0 -0.025730360768254381 0.0064492384451024396 0 -0.024898857882970037 0.007174605902656615 0 -0.025730360768254381 0.0064492384451024396 0 -0.025659865668313062 0.0053810881483335252 0 -0.02493024121901417 0.0055320768421040943 0 -0.026224712914755748 0.0052701592442149286 0 -0.025730360768254381 0.0064492384451024396 0 -0.025659865668313062 0.0053810881483335252 0 -0.025439041002286517 0.0064434825883450649 0 -0.025000018522381838 0.0072980931360524144 0 -0.024999949600942165 0.0058570149448720476 0 -0.025439041002286517 0.0064434825883450649 0 -0.025000018522381838 0.0072980931360524144 0 -0.025584651978703056 0.0077218551612196649 0 -0.025182004415855216 0.0060073105673284881 0 -0.025266411721355068 0.0074559860625667031 0 -0.025584651978703056 0.0077218551612196649 0 -0.025529209744378969 0.0089188606715471311 0 -0.024999775356307177 0.0087384544249417585 0 -0.025000018522381838 0.0072980931360524144 0 -0.025584651978703056 0.0077218551612196649 0 -0.024999775356307177 0.0087384544249417585 0 -0.025266411721355068 0.0074559860625667031 0 -0.025495952715407815 0.0087960101695196934 0 -0.024898857882970037 0.007174605902656615 0 -0.025766822308310615 0.008034783272408209 0 -0.025529209744378969 0.0089188606715471311 0 -0.025670168659018312 0.0072669791057959031 0 -0.024898857882970037 0.007174605902656615 0 -0.025766822308310615 0.008034783272408209 0 -0.026259644534119938 0.0078385140924680172 0 -0.025670168659018312 0.0072669791057959031 0 -0.025766822308310615 0.008034783272408209 0 -0.026319104749417736 0.0088144245001430341 0 -0.025766822308310615 0.008034783272408209 0 -0.025529209744378969 0.0089188606715471311 0 -0.026253618652365085 0.0095356917514664297 0 -0.026319104749417736 0.0088144245001430341 0 -0.025529209744378969 0.0089188606715471311 0 -0.025328841677908446 0.0095599526968978728 0 -0.025529209744378969 0.0089188606715471311 0 -0.024999775356307177 0.0087384544249417585 0 -0.02528382550644544 0.00290730299938986 0 -0.025192371400223706 0.0038081452301151476 0 -0.024999369847515534 0.0029752620389599314 0 -0.024999578890650003 0.0044164119551072852 0 -0.025192371400223706 0.0038081452301151476 0 -0.024999369847515534 0.0029752620389599314 0 -0.02528382550644544 0.00290730299938986 0 -0.025812806620939398 0.0043146243671126601 0 -0.025192371400223706 0.0038081452301151476 0 -0.02528382550644544 0.00290730299938986 0 -0.023761772204831777 0.00060298466142750769 0 -0.024640781448702964 0.0022772480874407065 0 -0.02511725313291651 0.0027896432354564053 0 -0.024790191884111461 0.0024323433314241763 0 -0.02528382550644544 0.00290730299938986 0 -0.025812806620939398 0.0043146243671126601 0 -0.026083449315600488 0.0042338678210127921 0 -0.025812806620939398 0.0043146243671126601 0 -0.025192371400223706 0.0038081452301151476 0 -0.025444787344486124 0.00465360249656613 0 -0.024999578890650003 0.0044164119551072852 0 -0.025192371400223706 0.0038081452301151476 0 -0.025444787344486124 0.00465360249656613 0 -0.025157108713469017 0.0050729816209589846 0 -0.025461271060022671 0.0051006940579545442 0 -0.025444787344486124 0.00465360249656613 0 -0.024999578890650003 0.0044164119551072852 0 -0.025157108713469017 0.0050729816209589846 0 -0.024999949600942165 0.0058570149448720476 0 -0.024999578890650003 0.0044164119551072852 0 -0.025157108713469017 0.0050729816209589846 0 -0.025444787344486124 0.00465360249656613 0 -0.025439041002286517 0.0064434825883450649 0 -0.025157108713469017 0.0050729816209589846 0 -0.024999949600942165 0.0058570149448720476 0 -0.025182004415855216 0.0060073105673284881 0 -0.025146325550993383 0.0051412593575214773 0 -0.02493024121901417 0.0055320768421040943 0 -0.025157108713469017 0.0050729816209589846 0 -0.025461271060022671 0.0051006940579545442 0 -0.025659865668313062 0.0053810881483335252 0 -0.02493024121901417 0.0055320768421040943 0 -0.025461271060022671 0.0051006940579545442 0 -0.025659865668313062 0.0053810881483335252 0 -0.025461271060022671 0.0051006940579545442 0 -0.02590982342850294 0.0050334991262966818 0 -0.025461271060022671 0.0051006940579545442 0 -0.02588341494600218 0.0047552775241689596 0 -0.02590982342850294 0.0050334991262966818 0 -0.025461271060022671 0.0051006940579545442 0 -0.025444787344486124 0.00465360249656613 0 -0.02588341494600218 0.0047552775241689596 0 -0.025812806620939398 0.0043146243671126601 0 -0.025444787344486124 0.00465360249656613 0 -0.02588341494600218 0.0047552775241689596 0 -0.02588341494600218 0.0047552775241689596 0 -0.026034665421554654 0.0049058257078479833 0 -0.026031015645452196 0.0047502733959700711 0 -0.026224712914755748 0.0052701592442149286 0 -0.02590982342850294 0.0050334991262966818 0 -0.026034665421554654 0.0049058257078479833 0 -0.02588341494600218 0.0047552775241689596 0 -0.02590982342850294 0.0050334991262966818 0 -0.026034665421554654 0.0049058257078479833 0 -0.026224712914755748 0.0052701592442149286 0 -0.025659865668313062 0.0053810881483335252 0 -0.02590982342850294 0.0050334991262966818 0 -0.026034665421554654 0.0049058257078479833 0 -0.025803041177259102 0.004836152823104233 0 -0.025827911824087512 0.0047442013292995494 0 -0.026001489834895815 0.0048672995725621386 0 -0.026224712914755748 0.0052701592442149286 0 -0.026034665421554654 0.0049058257078479833 0 -0.026001489834895815 0.0048672995725621386 0 -0.026034665421554654 0.0049058257078479833 0 -0.025827911824087512 0.0047442013292995494 0 -0.026034665421554654 0.0049058257078479833 0 -0.026031015645452196 0.0047502733959700711 0 -0.025803041177259102 0.004836152823104233 0 -0.026031015645452196 0.0047502733959700711 0 -0.026083449315600488 0.0042338678210127921 0 -0.025853611243657128 0.0049776080677252045 0 -0.025812806620939398 0.0043146243671126601 0 -0.026031015645452196 0.0047502733959700711 0 -0.026083449315600488 0.0042338678210127921 0 -0.025812806620939398 0.0043146243671126601 0 -0.02588341494600218 0.0047552775241689596 0 -0.026031015645452196 0.0047502733959700711 0 -0.024790191884111461 0.0024323433314241763 0 -0.023564841312298756 0.0020350457322728787 0 -0.023761772204831777 0.00060298466142750769 0 -0.022306956772561476 0.00091394390248299075 0 -0.023642399821011358 0.0020900719277096194 0 -0.023761772204831777 0.00060298466142750769 0 -0.022306956772561476 0.00091394390248299075 0 -0.021501256271262079 -0.00084155355614074368 0 -0.022306956772561476 0.00091394390248299075 0 -0.020156403648190043 -0.00014251159568452645 0 -0.021501256271262079 -0.00084155355614074368 0 -0.020156403648190043 -0.00014251159568452645 0 -0.021501256271262079 -0.00084155355614074368 0 -0.01886323389365693 -0.0018532896968676369 0 -0.020156403648190043 -0.00014251159568452645 0 -0.018792769718033561 -0.00094374306780343922 0 -0.018906521249530475 -0.00022275337652139315 0 -0.020156403648190043 -0.00014251159568452645 0 -0.018906521249530475 -0.00022275337652139315 0 -0.019398912830789573 0.00077468943185724935 0 -0.020156403648190043 -0.00014251159568452645 0 -0.01886323389365693 -0.0018532896968676369 0 -0.018792769718033561 -0.00094374306780343922 0 -0.023564841312298756 0.0020350457322728787 0 -0.022156383546071346 0.0019643567030018265 0 -0.025853611243657128 0.0049776080677252045 0 -0.025567708989802665 0.0049941532162937506 0 -0.02516993733726498 0.0053891795022094581 0 -0.025232780853303792 0.0051208644067463381 0 -0.025567708989802665 0.0049941532162937506 0 -0.02516993733726498 0.0053891795022094581 0 -0.026031015645452196 0.0047502733959700711 0 -0.025853611243657128 0.0049776080677252045 0 -0.025567708989802665 0.0049941532162937506 0 -0.026031015645452196 0.0047502733959700711 0 -0.025803041177259102 0.004836152823104233 0 -0.025567708989802665 0.0049941532162937506 0 -0.025803041177259102 0.004836152823104233 0 -0.025496391655901476 0.0048372858979983512 0 -0.025567708989802665 0.0049941532162937506 0 -0.025803041177259102 0.004836152823104233 0 -0.025574783058808542 0.0046637107712350634 0 -0.025827911824087512 0.0047442013292995494 0 -0.025803041177259102 0.004836152823104233 0 -0.025574783058808542 0.0046637107712350634 0 -0.025496391655901476 0.0048372858979983512 0 -0.025303487141901074 0.0045325601514057089 0 -0.02513310130649957 0.0046689562932422535 0 -0.025353687687388129 0.0047096484000264888 0 -0.025022912375155266 0.0044267798042193071 0 -0.025303487141901074 0.0045325601514057089 0 -0.02513310130649957 0.0046689562932422535 0 -0.025574783058808542 0.0046637107712350634 0 -0.025303487141901074 0.0045325601514057089 0 -0.025353687687388129 0.0047096484000264888 0 -0.025574783058808542 0.0046637107712350634 0 -0.025353687687388129 0.0047096484000264888 0 -0.025496391655901476 0.0048372858979983512 0 -0.025353687687388129 0.0047096484000264888 0 -0.025216848689448387 0.0048450094235699698 0 -0.025496391655901476 0.0048372858979983512 0 -0.02513310130649957 0.0046689562932422535 0 -0.025353687687388129 0.0047096484000264888 0 -0.025216848689448387 0.0048450094235699698 0 -0.025216848689448387 0.0048450094235699698 0 -0.025355921785572399 0.0049584491650944227 0 -0.025033773784784316 0.0050281851712547952 0 -0.025216848689448387 0.0048450094235699698 0 -0.025496391655901476 0.0048372858979983512 0 -0.025355921785572399 0.0049584491650944227 0 -0.025496391655901476 0.0048372858979983512 0 -0.025567708989802665 0.0049941532162937506 0 -0.025355921785572399 0.0049584491650944227 0 -0.025232780853303792 0.0051208644067463381 0 -0.025567708989802665 0.0049941532162937506 0 -0.025355921785572399 0.0049584491650944227 0 -0.025232780853303792 0.0051208644067463381 0 -0.025355921785572399 0.0049584491650944227 0 -0.025033773784784316 0.0050281851712547952 0 -0.025232780853303792 0.0051208644067463381 0 -0.025033773784784316 0.0050281851712547952 0 -0.024863852119363455 0.005236339245837226 0 -0.025033773784784316 0.0050281851712547952 0 -0.02464747052081491 0.0050643341867718612 0 -0.024863852119363455 0.005236339245837226 0 -0.02464747052081491 0.0050643341867718612 0 -0.024908562784305057 0.0048191435937312618 0 -0.024521357250899632 0.0048136003637326511 0 -0.025033773784784316 0.0050281851712547952 0 -0.02464747052081491 0.0050643341867718612 0 -0.024908562784305057 0.0048191435937312618 0 -0.025216848689448387 0.0048450094235699698 0 -0.025033773784784316 0.0050281851712547952 0 -0.024908562784305057 0.0048191435937312618 0 -0.02513310130649957 0.0046689562932422535 0 -0.025216848689448387 0.0048450094235699698 0 -0.024908562784305057 0.0048191435937312618 0 -0.02513310130649957 0.0046689562932422535 0 -0.024908562784305057 0.0048191435937312618 0 -0.024766709933889276 0.0045573577483484238 0 -0.024908562784305057 0.0048191435937312618 0 -0.024766709933889276 0.0045573577483484238 0 -0.024521357250899632 0.0048136003637326511 0 -0.025022912375155266 0.0044267798042193071 0 -0.02513310130649957 0.0046689562932422535 0 -0.024766709933889276 0.0045573577483484238 0 -0.024337955196128313 0.004278936635193728 0 -0.023995657983896256 0.0044620856257600889 0 -0.024390820110373596 0.004573949213063499 0 -0.023995657983896256 0.0044620856257600889 0 -0.024390820110373596 0.004573949213063499 0 -0.024115964317588775 0.0047673101132318643 0 -0.024337955196128313 0.004278936635193728 0 -0.024766709933889276 0.0045573577483484238 0 -0.024390820110373596 0.004573949213063499 0 -0.024766709933889276 0.0045573577483484238 0 -0.024390820110373596 0.004573949213063499 0 -0.024521357250899632 0.0048136003637326511 0 -0.024390820110373596 0.004573949213063499 0 -0.024521357250899632 0.0048136003637326511 0 -0.024115964317588775 0.0047673101132318643 0 -0.024521357250899632 0.0048136003637326511 0 -0.024115964317588775 0.0047673101132318643 0 -0.024257594407253828 0.0050477000019878634 0 -0.024115964317588775 0.0047673101132318643 0 -0.024257594407253828 0.0050477000019878634 0 -0.023787403637671008 0.0050523627837358275 0 -0.02464747052081491 0.0050643341867718612 0 -0.024521357250899632 0.0048136003637326511 0 -0.024257594407253828 0.0050477000019878634 0 -0.02464747052081491 0.0050643341867718612 0 -0.024257594407253828 0.0050477000019878634 0 -0.024215131347142746 0.0055231135467465296 0 -0.024257594407253828 0.0050477000019878634 0 -0.024215131347142746 0.0055231135467465296 0 -0.023787403637671008 0.0050523627837358275 0 -0.01970867245441044 0.00014277249610066299 0 -0.016702677602109819 -0.0022747239909793691 0 -0.016425458053431923 -0.0022138662740692552 0 -0.018140980762128549 -0.001651797046837894 0 -0.017075267103778467 -0.0012618293517461475 0 -0.02464747052081491 0.0050643341867718612 0 -0.024215131347142746 0.0055231135467465296 0 -0.024863852119363455 0.005236339245837226 0 -0.016425458053431923 -0.0022138662740692552 0 -0.016062151572087752 -0.0010578009401505267 0 -0.017075267103778467 -0.0012618293517461475 0 -0.01970867245441044 0.00014277249610066299 0 -0.022156383546071346 0.0019643567030018265 0 -0.024215131347142746 0.0055231135467465296 0 -0.024863852119363455 0.005236339245837226 0 -0.02516993733726498 0.0053891795022094581 0 -0.016507135056251634 -0.002255696769983888 0 -0.01886323389365693 -0.0018532896968676369 0 -0.018140980762128549 -0.001651797046837894 0 -0.025232780853303792 0.0051208644067463381 0 -0.024863852119363455 0.005236339245837226 0 -0.02516993733726498 0.0053891795022094581 0 -0.01886323389365693 -0.0018532896968676369 0 -0.018140980762128549 -0.001651797046837894 0 -0.018792769718033561 -0.00094374306780343922 0 -0.018140980762128549 -0.001651797046837894 0 -0.017972505063517514 -0.00080335272429103309 0 -0.017075267103778467 -0.0012618293517461475 0 -0.017972505063517514 -0.00080335272429103309 0 -0.017030287984653881 -0.00037588471322187392 0 -0.017075267103778467 -0.0012618293517461475 0 -0.017972505063517514 -0.00080335272429103309 0 -0.018792769718033561 -0.00094374306780343922 0 -0.018906521249530475 -0.00022275337652139315 0 -0.018140980762128549 -0.001651797046837894 0 -0.017972505063517514 -0.00080335272429103309 0 -0.018792769718033561 -0.00094374306780343922 0 -0.017972505063517514 -0.00080335272429103309 0 -0.018906521249530475 -0.00022275337652139315 0 -0.018179439776462226 0.0001146627215030852 0 -0.017972505063517514 -0.00080335272429103309 0 -0.017030287984653881 -0.00037588471322187392 0 -0.018179439776462226 0.0001146627215030852 0 -0.017030287984653881 -0.00037588471322187392 0 -0.016062151572087752 -0.0010578009401505267 0 -0.017075267103778467 -0.0012618293517461475 0 -0.017030287984653881 -0.00037588471322187392 0 -0.016062151572087752 -0.0010578009401505267 0 -0.015792139099463826 0.00042223358525936451 0 -0.017030287984653881 -0.00037588471322187392 0 -0.015792139099463826 0.00042223358525936451 0 -0.017859774787611644 0.00095030894031751664 0 -0.017030287984653881 -0.00037588471322187392 0 -0.018179439776462226 0.0001146627215030852 0 -0.017859774787611644 0.00095030894031751664 0 -0.018179439776462226 0.0001146627215030852 0 -0.017859774787611644 0.00095030894031751664 0 -0.019398912830789573 0.00077468943185724935 0 -0.018906521249530475 -0.00022275337652139315 0 -0.018179439776462226 0.0001146627215030852 0 -0.019398912830789573 0.00077468943185724935 0 -0.017859774787611644 0.00095030894031751664 0 -0.019154485367974719 0.0019857857449090939 0 -0.019398912830789573 0.00077468943185724935 0 -0.017859774787611644 0.00095030894031751664 0 -0.018245690690078357 0.0030410956046158562 0 -0.019154485367974719 0.0019857857449090939 0 -0.018245690690078357 0.0030410956046158562 0 -0.01967609625461627 0.0030157428443455944 0 -0.019154485367974719 0.0019857857449090939 0 -0.01575039929375666 -1.9539157354661457e-05 0 -0.015601281917814845 0.00020487069964952618 0 -0.015512777920981775 0.000236937494494919 0 -0.015870654364330345 0.00052392399307331632 0 -0.017062044004833431 0.0014948405943281896 0 -0.015792139099463826 0.00042223358525936451 0 -0.01575039929375666 -1.9539157354661457e-05 0 -0.015601281917814845 0.00020487069964952618 0 -0.015792139099463826 0.00042223358525936451 0 -0.017859774787611644 0.00095030894031751664 0 -0.018245690690078357 0.0030410956046158562 0 -0.015792139099463826 0.00042223358525936451 0 -0.015601281917814845 0.00020487069964952618 0 -0.015326130109133152 0.00015037890251679036 0 -0.015601281917814845 0.00020487069964952618 0 -0.015522974673654296 0.00012019812342672274 0 -0.015326130109133152 0.00015037890251679036 0 -0.015601281917814845 0.00020487069964952618 0 -0.015522974673654296 0.00012019812342672274 0 -0.015512777920981775 0.000236937494494919 0 -0.015507243604970536 4.6383721288903021e-05 0 -0.015522974673654296 0.00012019812342672274 0 -0.015512777920981775 0.000236937494494919 0 -0.015507243604970536 4.6383721288903021e-05 0 -0.015522974673654296 0.00012019812342672274 0 -0.015506985551981416 -7.47780163649064e-05 0 -0.015522974673654296 0.00012019812342672274 0 -0.015506985551981416 -7.47780163649064e-05 0 -0.015489765473511993 -2.4896903867590525e-05 0 -0.015779546385987601 -0.00051408945367911317 0 -0.015470661987990795 -0.00022140889663899841 0 -0.015506985551981416 -7.47780163649064e-05 0 -0.015507243604970536 4.6383721288903021e-05 0 -0.015506985551981416 -7.47780163649064e-05 0 -0.015482354448552157 -6.3555396379541803e-05 0 -0.015470661987990795 -0.00022140889663899841 0 -0.015506985551981416 -7.47780163649064e-05 0 -0.015482354448552157 -6.3555396379541803e-05 0 -0.015415410741523484 -0.00019060211642750387 0 -0.015482354448552157 -6.3555396379541803e-05 0 -0.015512777920981775 0.000236937494494919 0 -0.015470661987990795 -0.00022140889663899841 0 -0.015415410741523484 -0.00019060211642750387 0 -0.015482354448552157 -6.3555396379541803e-05 0 -0.016526475271666053 0.0029271590473455029 0 -0.016727416653674096 0.0012167054052854463 0 -0.016122815686854929 0.00060679591660047275 0 -0.016526475271666053 0.0029271590473455029 0 -0.015512777920981775 0.000236937494494919 0 -0.016122815686854929 0.00060679591660047275 0 -0.015507243604970536 4.6383721288903021e-05 0 -0.015482354448552157 -6.3555396379541803e-05 0 -0.015512777920981775 0.000236937494494919 0 -0.016011771422004134 0.0013169155450300592 0 -0.015534097494301881 0.00034129162589333599 0 -0.01575039929375666 -1.9539157354661457e-05 0 -0.015512777920981775 0.000236937494494919 0 -0.016122815686854929 0.00060679591660047275 0 -0.01575039929375666 -1.9539157354661457e-05 0 -0.016727416653674096 0.0012167054052854463 0 -0.016122815686854929 0.00060679591660047275 0 -0.020543356327519999 0.0043381262006837876 0 -0.02068431579189163 0.0025974647380305306 0 -0.01967609625461627 0.0030157428443455944 0 -0.01575039929375666 -1.9539157354661457e-05 0 -0.016727416653674096 0.0012167054052854463 0 -0.018409258415622427 0.0015603864226164269 0 -0.018245690690078357 0.0030410956046158562 0 -0.020543356327519999 0.0043381262006837876 0 -0.01967609625461627 0.0030157428443455944 0 -0.017062044004833431 0.0014948405943281896 0 -0.019439559321790444 0.0029481616638008918 0 -0.01859324228881265 0.0037341830274662422 0 -0.016526475271666053 0.0029271590473455029 0 -0.018409258415622427 0.0015603864226164269 0 -0.016526475271666053 0.0029271590473455029 0 -0.016727416653674096 0.0012167054052854463 0 -0.018409258415622427 0.0015603864226164269 0 -0.01859324228881265 0.0037341830274662422 0 -0.018409258415622427 0.0015603864226164269 0 -0.021041340342206949 0.0036615748166930369 0 -0.020543356327519999 0.0043381262006837876 0 -0.022208663735503557 0.0036500345010191172 0 -0.022236230191353613 0.0051399325170813385 0 -0.019439559321790444 0.0029481616638008918 0 -0.021625292250060383 0.0044182216273795189 0 -0.020543356327519999 0.0043381262006837876 0 -0.02068431579189163 0.0025974647380305306 0 -0.022208663735503557 0.0036500345010191172 0 -0.02068431579189163 0.0025974647380305306 0 -0.021124369386648096 0.0013885001188016193 0 -0.022372229265041489 0.0024098267177281359 0 -0.02068431579189163 0.0025974647380305306 0 -0.022372229265041489 0.0024098267177281359 0 -0.022208663735503557 0.0036500345010191172 0 -0.02068431579189163 0.0025974647380305306 0 -0.019154485367974719 0.0019857857449090939 0 -0.019398912830789573 0.00077468943185724935 0 -0.02068431579189163 0.0025974647380305306 0 -0.01967609625461627 0.0030157428443455944 0 -0.019154485367974719 0.0019857857449090939 0 -0.02068431579189163 0.0025974647380305306 0 -0.019398912830789573 0.00077468943185724935 0 -0.021124369386648096 0.0013885001188016193 0 -0.020156403648190043 -0.00014251159568452645 0 -0.019398912830789573 0.00077468943185724935 0 -0.021124369386648096 0.0013885001188016193 0 -0.022306956772561476 0.00091394390248299075 0 -0.020156403648190043 -0.00014251159568452645 0 -0.021124369386648096 0.0013885001188016193 0 -0.022306956772561476 0.00091394390248299075 0 -0.021124369386648096 0.0013885001188016193 0 -0.022372229265041489 0.0024098267177281359 0 -0.022306956772561476 0.00091394390248299075 0 -0.023642399821011358 0.0020900719277096194 0 -0.022372229265041489 0.0024098267177281359 0 -0.023761772204831777 0.00060298466142750769 0 -0.023642399821011358 0.0020900719277096194 0 -0.024640781448702964 0.0022772480874407065 0 -0.023642399821011358 0.0020900719277096194 0 -0.024496038132619496 0.002691982017510313 0 -0.024640781448702964 0.0022772480874407065 0 -0.023642399821011358 0.0020900719277096194 0 -0.023496117437199617 0.0030368349019131262 0 -0.024496038132619496 0.002691982017510313 0 -0.023496117437199617 0.0030368349019131262 0 -0.024374867428993478 0.0033695712674551414 0 -0.024496038132619496 0.002691982017510313 0 -0.023642399821011358 0.0020900719277096194 0 -0.023496117437199617 0.0030368349019131262 0 -0.022372229265041489 0.0024098267177281359 0 -0.023496117437199617 0.0030368349019131262 0 -0.022372229265041489 0.0024098267177281359 0 -0.022208663735503557 0.0036500345010191172 0 -0.023496117437199617 0.0030368349019131262 0 -0.022208663735503557 0.0036500345010191172 0 -0.023440423533173379 0.004093791380968736 0 -0.022236230191353613 0.0051399325170813385 0 -0.023582934467191091 0.0049254716883474084 0 -0.023440423533173379 0.004093791380968736 0 -0.022208663735503557 0.0036500345010191172 0 -0.022236230191353613 0.0051399325170813385 0 -0.023440423533173379 0.004093791380968736 0 -0.023582934467191091 0.0049254716883474084 0 -0.023440423533173379 0.004093791380968736 0 -0.024250207868880172 0.0042394392004183731 0 -0.023496117437199617 0.0030368349019131262 0 -0.023440423533173379 0.004093791380968736 0 -0.024374867428993478 0.0033695712674551414 0 -0.023440423533173379 0.004093791380968736 0 -0.024374867428993478 0.0033695712674551414 0 -0.024250207868880172 0.0042394392004183731 0 -0.024374867428993478 0.0033695712674551414 0 -0.025107053899651781 0.003686095836771154 0 -0.024864018496921436 0.0028267630708741845 0 -0.024374867428993478 0.0033695712674551414 0 -0.024250207868880172 0.0042394392004183731 0 -0.025107053899651781 0.003686095836771154 0 -0.024521495645912907 0.0052545373717371516 0 -0.023582934467191091 0.0049254716883474084 0 -0.024250207868880172 0.0042394392004183731 0 -0.025416870169226353 0.0028576047371909486 0 -0.025320661723008429 0.0022647397498691143 0 -0.024521495645912907 0.0052545373717371516 0 -0.024250207868880172 0.0042394392004183731 0 -0.025107053899651781 0.003686095836771154 0 -0.026143754616562064 -0.00031542129849521479 0 -0.024999979483128001 9.5070390065105469e-05 0 -0.025604670433937882 0.00099538669640873907 0 -0.024999979483128001 9.5070390065105469e-05 0 -0.024999984813751545 0.001535663074860217 0 -0.025604670433937882 0.00099538669640873907 0 -0.02500079877984393 0.0023203267914019359 0 -0.024864018496921436 0.0028267630708741845 0 -0.025068217272181777 0.0025842096204000123 0 -0.024999984813751545 0.001535663074860217 0 -0.025604670433937882 0.00099538669640873907 0 -0.025000013165375964 0.0023185765064321455 0 -0.025107053899651781 0.003686095836771154 0 -0.02500079877984393 0.0023203267914019359 0 -0.024864018496921436 0.0028267630708741845 0 -0.025320661723008429 0.0022647397498691143 0 -0.025035764327215129 0.002402530968782493 0 -0.024374867428993478 0.0033695712674551414 0 -0.024864018496921436 0.0028267630708741845 0 -0.024496038132619496 0.002691982017510313 0 -0.024864018496921436 0.0028267630708741845 0 -0.024496038132619496 0.002691982017510313 0 -0.025068217272181777 0.0025842096204000123 0 -0.024496038132619496 0.002691982017510313 0 -0.024640781448702964 0.0022772480874407065 0 -0.025068217272181777 0.0025842096204000123 0 -0.02528382550644544 0.00290730299938986 0 -0.024640781448702964 0.0022772480874407065 0 -0.025068217272181777 0.0025842096204000123 0 -0.02528382550644544 0.00290730299938986 0 -0.024999369847515534 0.0029752620389599314 0 -0.025068217272181777 0.0025842096204000123 0 -0.02500079877984393 0.0023203267914019359 0 -0.024999369847515534 0.0029752620389599314 0 -0.025068217272181777 0.0025842096204000123 0 -0.0095994473414512029 0.00061760394959355796 0 -0.009425891733746139 0.00074476867753398631 0 -0.0092299591414305333 0.0010420506180245463 0 -0.0095994473414512029 0.00061760394959355796 0 -0.0092299591414305333 0.0010420506180245463 0 -0.0091701214599413314 0.00096587061589427977 0 -0.0095994473414512029 0.00061760394959355796 0 -0.0089518625204387109 0.00074413472618914454 0 -0.0091701214599413314 0.00096587061589427977 0 -0.0089518625204387109 0.00074413472618914454 0 -0.0089776959504353944 0.0010635763506760139 0 -0.0091701214599413314 0.00096587061589427977 0 -0.0095994473414512029 0.00061760394959355796 0 -0.0089518625204387109 0.00074413472618914454 0 -0.010341747213897575 -0.00013383331655080689 0 -0.010208151198406344 -0.00068533453840586742 0 -0.010329143249869216 -0.00013064319091042042 0 -0.011813038670022438 -0.001996120611323161 0 -0.010341747213897575 -0.00013383331655080689 0 -0.012251136669735907 -0.00051390151862058949 0 -0.0095994473414512029 0.00061760394959355796 0 -0.010341747213897575 -0.00013383331655080689 0 -0.009425891733746139 0.00074476867753398631 0 -0.010341747213897575 -0.00013383331655080689 0 -0.0094859157009904594 0.00061279820340176083 0 -0.009425891733746139 0.00074476867753398631 0 -0.0094859157009904594 0.00061279820340176083 0 -0.0089869443064623401 0.0010057290028991687 0 -0.009425891733746139 0.00074476867753398631 0 -0.0094859157009904594 0.00061279820340176083 0 -0.0089869443064623401 0.0010057290028991687 0 -0.0088476468894171881 0.00099096587318277902 0 -0.0089869443064623401 0.0010057290028991687 0 -0.0086350664569583881 0.0013518407364177907 0 -0.0084402482302082735 0.0013269260903142977 0 -0.0089869443064623401 0.0010057290028991687 0 -0.009425891733746139 0.00074476867753398631 0 -0.0090131823243802863 0.0011495686063128403 0 -0.009425891733746139 0.00074476867753398631 0 -0.0090131823243802863 0.0011495686063128403 0 -0.0092299591414305333 0.0010420506180245463 0 -0.0090131823243802863 0.0011495686063128403 0 -0.0089430116602680024 0.0012983914271233791 0 -0.0092299591414305333 0.0010420506180245463 0 -0.0090131823243802863 0.0011495686063128403 0 -0.0089430116602680024 0.0012983914271233791 0 -0.0087418608880455301 0.0013888129032021735 0 -0.0089869443064623401 0.0010057290028991687 0 -0.0090131823243802863 0.0011495686063128403 0 -0.0086350664569583881 0.0013518407364177907 0 -0.0090131823243802863 0.0011495686063128403 0 -0.0086350664569583881 0.0013518407364177907 0 -0.0087418608880455301 0.0013888129032021735 0 -0.0086350664569583881 0.0013518407364177907 0 -0.0083864995921218866 0.0016213701545359227 0 -0.0087418608880455301 0.0013888129032021735 0 -0.0086350664569583881 0.0013518407364177907 0 -0.0083864995921218866 0.0016213701545359227 0 -0.0081880498881413896 0.0016887221997067246 0 -0.0085341046807424145 0.0015531658251106333 0 -0.0083864995921218866 0.0016213701545359227 0 -0.0087418608880455301 0.0013888129032021735 0 -0.0083475511212505304 0.0016812080584888338 0 -0.0085341046807424145 0.0015531658251106333 0 -0.0083864995921218866 0.0016213701545359227 0 -0.0083475511212505304 0.0016812080584888338 0 -0.0083864995921218866 0.0016213701545359227 0 -0.0080625891923351307 0.0019189939591513561 0 -0.0084707363020083536 0.0016237248781069667 0 -0.0087175700097602716 0.0014337795514691443 0 -0.0089660768722126822 0.001253088282674163 0 -0.0089430116602680024 0.0012983914271233791 0 -0.0087175700097602716 0.0014337795514691443 0 -0.0089084430747079363 0.0013196317821667213 0 -0.0089430116602680024 0.0012983914271233791 0 -0.0087418608880455301 0.0013888129032021735 0 -0.0087175700097602716 0.0014337795514691443 0 -0.0084707363020083536 0.0016237248781069667 0 -0.0085341046807424145 0.0015531658251106333 0 -0.0087175700097602716 0.0014337795514691443 0 -0.0085341046807424145 0.0015531658251106333 0 -0.0087418608880455301 0.0013888129032021735 0 -0.0087175700097602716 0.0014337795514691443 0 -0.0087175700097602716 0.0014337795514691443 0 -0.0089660768722126822 0.001253088282674163 0 -0.0089084430747079363 0.0013196317821667213 0 -0.0089660768722126822 0.001253088282674163 0 -0.009029890310980733 0.001242809901221569 0 -0.0090590942804338603 0.0012316071425338686 0 -0.0090949168782732109 0.0015709176455553483 0 -0.0093691492045036625 0.0017565878590585914 0 -0.0082525900571185154 0.0025243300758953707 0 -0.01031485573802709 0.0038042272513355785 0 -0.0090927036323112751 0.0015979511430553634 0 -0.0091329707437112963 0.0017771325266422351 0 -0.010487681321373269 0.0020332401979752286 0 -0.0089660768722126822 0.001253088282674163 0 -0.009029890310980733 0.001242809901221569 0 -0.0089882591721763549 0.0012718450279470969 0 -0.0089660768722126822 0.001253088282674163 0 -0.0089084430747079363 0.0013196317821667213 0 -0.0089882591721763549 0.0012718450279470969 0 -0.009029890310980733 0.001242809901221569 0 -0.009065836010576098 0.0012209810805316303 0 -0.0089882591721763549 0.0012718450279470969 0 -0.009029890310980733 0.001242809901221569 0 -0.009065836010576098 0.0012209810805316303 0 -0.0090563768813433487 0.0012144399957969567 0 -0.0089430116602680024 0.0012983914271233791 0 -0.009065836010576098 0.0012209810805316303 0 -0.0089882591721763549 0.0012718450279470969 0 -0.0089430116602680024 0.0012983914271233791 0 -0.0089084430747079363 0.0013196317821667213 0 -0.0089882591721763549 0.0012718450279470969 0 -0.0089430116602680024 0.0012983914271233791 0 -0.009065836010576098 0.0012209810805316303 0 -0.0092299591414305333 0.0010420506180245463 0 -0.009065836010576098 0.0012209810805316303 0 -0.0092299591414305333 0.0010420506180245463 0 -0.0090819169752683216 0.0011476903174081163 0 -0.009065836010576098 0.0012209810805316303 0 -0.0090819169752683216 0.0011476903174081163 0 -0.0090563768813433487 0.0012144399957969567 0 -0.0092299591414305333 0.0010420506180245463 0 -0.0091701214599413314 0.00096587061589427977 0 -0.0090819169752683216 0.0011476903174081163 0 -0.0089776959504353944 0.0010635763506760139 0 -0.0091701214599413314 0.00096587061589427977 0 -0.0090819169752683216 0.0011476903174081163 0 -0.0090819169752683216 0.0011476903174081163 0 -0.0090563768813433487 0.0012144399957969567 0 -0.0090540918075162919 0.0011944511482772718 0 -0.0090819169752683216 0.0011476903174081163 0 -0.0090158662063646519 0.0011635013048854862 0 -0.0090540918075162919 0.0011944511482772718 0 -0.0089776959504353944 0.0010635763506760139 0 -0.0090819169752683216 0.0011476903174081163 0 -0.0090158662063646519 0.0011635013048854862 0 -0.0089776959504353944 0.0010635763506760139 0 -0.0090158662063646519 0.0011635013048854862 0 -0.0089439174525844083 0.0011584127761048025 0 -0.010487681321373269 0.0020332401979752286 0 -0.010270448216499519 0.0022072189998336897 0 -0.011603588266371123 0.002749395634238126 0 -0.0079505516581619626 0.0037283575752186777 0 -0.0078944862263413147 0.0037371463132679045 0 -0.0079775133255178925 0.0037488083340170403 0 -0.0091329707437112963 0.0017771325266422351 0 -0.010487681321373269 0.0020332401979752286 0 -0.010270448216499519 0.0022072189998336897 0 -0.0090158662063646519 0.0011635013048854862 0 -0.0089439174525844083 0.0011584127761048025 0 -0.0090590942804338603 0.0012316071425338686 0 -0.009029890310980733 0.001242809901221569 0 -0.0090563768813433487 0.0012144399957969567 0 -0.0090590942804338603 0.0012316071425338686 0 -0.0090158662063646519 0.0011635013048854862 0 -0.0090540918075162919 0.0011944511482772718 0 -0.0090590942804338603 0.0012316071425338686 0 -0.0090563768813433487 0.0012144399957969567 0 -0.0090540918075162919 0.0011944511482772718 0 -0.0090590942804338603 0.0012316071425338686 0 -0.0079505516581619626 0.0037283575752186777 0 -0.0079775133255178925 0.0037488083340170403 0 -0.0079796953725574469 0.0037295446015249202 0 -0.01031485573802709 0.0038042272513355785 0 -0.011415724210471672 0.004193493180849283 0 -0.01031485573802709 0.0038042272513355785 0 -0.015453172597728678 0.0024416990041993538 0 -0.0093691492045036625 0.0017565878590585914 0 -0.012502599415450283 -0.00021040446547689409 0 -0.0089439174525844083 0.0011584127761048025 0 -0.0090590942804338603 0.0012316071425338686 0 -0.00878831559998779 0.0011729408177695412 0 -0.010487681321373269 0.0020332401979752286 0 -0.011773304404237723 0.0025134633382497026 0 -0.011603588266371123 0.002749395634238126 0 -0.015124748774839703 0.0036707549706430248 0 -0.014566610951313454 0.0043291139787404965 0 -0.01539835110166695 0.0051418074039090008 0 -0.014255676926441864 0.0047007847581905324 0 -0.014566610951313454 0.0043291139787404965 0 -0.01539835110166695 0.0051418074039090008 0 -0.016265167886141702 0.0039442285186676411 0 -0.015124748774839703 0.0036707549706430248 0 -0.01539835110166695 0.0051418074039090008 0 -0.01947046232256373 0.0043208524452707066 0 -0.015453172597728678 0.0024416990041993538 0 -0.022473932677820618 0.0041119523818515819 0 -0.022593655091789469 0.0047531732321112984 0 -0.022833661345158313 0.0043880938222430619 0 -0.022473932677820618 0.0041119523818515819 0 -0.021757445801568989 0.0048386010405809862 0 -0.022593655091789469 0.0047531732321112984 0 -0.015219438200189339 -0.0026327437555902647 0 -0.013274976720267211 -0.0026932570369439979 0 -0.012876175946982869 -0.0034953083167943359 0 -0.015219438200189339 -0.0026327437555902647 0 -0.013274976720267211 -0.0026932570369439979 0 -0.016681965541385759 -0.0018295105097716694 0 -0.01354519960537005 -0.0025639996629495589 0 -0.015340860346876024 -0.0023832226898177181 0 -0.013309629446792402 -0.0038320958065058701 0 -0.015219438200189339 -0.0026327437555902647 0 -0.013049776992002155 -0.0034568663284470077 0 -0.013309629446792402 -0.0038320958065058701 0 -0.015219438200189339 -0.0026327437555902647 0 -0.016566445234137375 -0.00264606413647047 0 -0.021757445801568989 0.0048386010405809862 0 -0.022593655091789469 0.0047531732321112984 0 -0.023034590851152593 0.0052781449606266895 0 -0.014875029395205651 -0.003123808709670055 0 -0.012502599415450283 -0.00021040446547689409 0 -0.015453172597728678 0.0024416990041993538 0 -0.020789839161101775 0.0014642934343104914 0 -0.011813038670022438 -0.001996120611323161 0 -0.013274976720267211 -0.0026932570369439979 0 -0.012876175946982869 -0.0034953083167943359 0 -0.010208151198406344 -0.00068533453840586742 0 -0.012502599415450283 -0.00021040446547689409 0 -0.0089518625204387109 0.00074413472618914454 0 -0.0089776959504353944 0.0010635763506760139 0 -0.00878831559998779 0.0011729408177695412 0 -0.0089776959504353944 0.0010635763506760139 0 -0.0089439174525844083 0.0011584127761048025 0 -0.00878831559998779 0.0011729408177695412 0 -0.015453172597728678 0.0024416990041993538 0 -0.012502599415450283 -0.00021040446547689409 0 -0.023995657983896256 0.0044620856257600889 0 -0.024115964317588775 0.0047673101132318643 0 -0.023643977097995612 0.0047204124638024845 0 -0.024115964317588775 0.0047673101132318643 0 -0.023643977097995612 0.0047204124638024845 0 -0.023787403637671008 0.0050523627837358275 0 -0.023995657983896256 0.0044620856257600889 0 -0.023599619894884551 0.0044030551710012213 0 -0.023643977097995612 0.0047204124638024845 0 -0.023599619894884551 0.0044030551710012213 0 -0.023643977097995612 0.0047204124638024845 0 -0.023320035298311673 0.004565967221664872 0 -0.023599619894884551 0.0044030551710012213 0 -0.023351767274727847 0.0043580663192135383 0 -0.023320035298311673 0.004565967221664872 0 -0.023643977097995612 0.0047204124638024845 0 -0.023245141028855221 0.0048121343717944902 0 -0.023383022940219062 0.0049990064031761577 0 -0.023643977097995612 0.0047204124638024845 0 -0.023245141028855221 0.0048121343717944902 0 -0.023320035298311673 0.004565967221664872 0 -0.023245141028855221 0.0048121343717944902 0 -0.023320035298311673 0.004565967221664872 0 -0.022979878652016485 0.0046426981417603784 0 -0.023245141028855221 0.0048121343717944902 0 -0.022979878652016485 0.0046426981417603784 0 -0.022989812465695907 0.0048927189093830176 0 -0.023320035298311673 0.004565967221664872 0 -0.023106273716686585 0.0043983418350082544 0 -0.022979878652016485 0.0046426981417603784 0 -0.023351767274727847 0.0043580663192135383 0 -0.023320035298311673 0.004565967221664872 0 -0.023106273716686585 0.0043983418350082544 0 -0.023243972233519161 0.0042256190102098502 0 -0.023351767274727847 0.0043580663192135383 0 -0.023106273716686585 0.0043983418350082544 0 -0.023106273716686585 0.0043983418350082544 0 -0.022833661345158313 0.0043880938222430619 0 -0.022979878652016485 0.0046426981417603784 0 -0.022593655091789469 0.0047531732321112984 0 -0.022833661345158313 0.0043880938222430619 0 -0.022979878652016485 0.0046426981417603784 0 -0.022593655091789469 0.0047531732321112984 0 -0.022979878652016485 0.0046426981417603784 0 -0.022989812465695907 0.0048927189093830176 0 -0.022593655091789469 0.0047531732321112984 0 -0.022989812465695907 0.0048927189093830176 0 -0.023034590851152593 0.0052781449606266895 0 -0.015219438200189339 -0.0026327437555902647 0 -0.016566445234137375 -0.00264606413647047 0 -0.016681965541385759 -0.0018295105097716694 0 -0.022989812465695907 0.0048927189093830176 0 -0.023034590851152593 0.0052781449606266895 0 -0.023164188353633212 0.0049932839311977459 0 -0.023034590851152593 0.0052781449606266895 0 -0.023164188353633212 0.0049932839311977459 0 -0.023383022940219062 0.0049990064031761577 0 -0.023245141028855221 0.0048121343717944902 0 -0.022989812465695907 0.0048927189093830176 0 -0.023164188353633212 0.0049932839311977459 0 -0.023245141028855221 0.0048121343717944902 0 -0.023164188353633212 0.0049932839311977459 0 -0.023383022940219062 0.0049990064031761577 0 -0.023034590851152593 0.0052781449606266895 0 -0.023383022940219062 0.0049990064031761577 0 -0.023787403637671008 0.0050523627837358275 0 -0.024215131347142746 0.0055231135467465296 0 -0.023034590851152593 0.0052781449606266895 0 -0.023787403637671008 0.0050523627837358275 0 -0.023643977097995612 0.0047204124638024845 0 -0.023383022940219062 0.0049990064031761577 0 -0.023787403637671008 0.0050523627837358275 0 -0.016425458053431923 -0.0022138662740692552 0 -0.015329610021254029 -0.0018120699646541583 0 -0.014662642954067277 -0.00237084306680209 0 -0.020471670902725898 -0.0010675156581184551 0 -0.016566445234137375 -0.00264606413647047 0 -0.016681965541385759 -0.0018295105097716694 0 -0.01970867245441044 0.00014277249610066299 0 -0.015340860346876024 -0.0023832226898177181 0 -0.01970867245441044 0.00014277249610066299 0 -0.020789839161101775 0.0014642934343104914 0 -0.016425458053431923 -0.0022138662740692552 0 -0.016062151572087752 -0.0010578009401505267 0 -0.015329610021254029 -0.0018120699646541583 0 -0.015329610021254029 -0.0018120699646541583 0 -0.014681153831113722 -0.0019469072269088544 0 -0.014558396109016094 -0.0015241967508970388 0 -0.015329610021254029 -0.0018120699646541583 0 -0.014681153831113722 -0.0019469072269088544 0 -0.014662642954067277 -0.00237084306680209 0 -0.014681153831113722 -0.0019469072269088544 0 -0.014662642954067277 -0.00237084306680209 0 -0.014207981568568336 -0.0020724559997447418 0 -0.014681153831113722 -0.0019469072269088544 0 -0.014207981568568336 -0.0020724559997447418 0 -0.014558396109016094 -0.0015241967508970388 0 -0.014207981568568336 -0.0020724559997447418 0 -0.014558396109016094 -0.0015241967508970388 0 -0.013744723828711506 -0.00182426394487707 0 -0.014558396109016094 -0.0015241967508970388 0 -0.01363376375348271 -0.0010305569246296998 0 -0.014353588595713309 -0.00063887002281892268 0 -0.014558396109016094 -0.0015241967508970388 0 -0.015092885297525987 -0.0007549198775738048 0 -0.014353588595713309 -0.00063887002281892268 0 -0.015329610021254029 -0.0018120699646541583 0 -0.014558396109016094 -0.0015241967508970388 0 -0.015092885297525987 -0.0007549198775738048 0 -0.016062151572087752 -0.0010578009401505267 0 -0.015792139099463826 0.00042223358525936451 0 -0.015092885297525987 -0.0007549198775738048 0 -0.016062151572087752 -0.0010578009401505267 0 -0.015329610021254029 -0.0018120699646541583 0 -0.015092885297525987 -0.0007549198775738048 0 -0.011813038670022438 -0.001996120611323161 0 -0.013274976720267211 -0.0026932570369439979 0 -0.012944645912060643 -0.0017361993838729548 0 -0.013274976720267211 -0.0026932570369439979 0 -0.014207981568568336 -0.0020724559997447418 0 -0.013744723828711506 -0.00182426394487707 0 -0.013274976720267211 -0.0026932570369439979 0 -0.012944645912060643 -0.0017361993838729548 0 -0.013744723828711506 -0.00182426394487707 0 -0.013274976720267211 -0.0026932570369439979 0 -0.014662642954067277 -0.00237084306680209 0 -0.014207981568568336 -0.0020724559997447418 0 -0.012944645912060643 -0.0017361993838729548 0 -0.013744723828711506 -0.00182426394487707 0 -0.01363376375348271 -0.0010305569246296998 0 -0.014558396109016094 -0.0015241967508970388 0 -0.013744723828711506 -0.00182426394487707 0 -0.01363376375348271 -0.0010305569246296998 0 -0.012944645912060643 -0.0017361993838729548 0 -0.01363376375348271 -0.0010305569246296998 0 -0.012251136669735907 -0.00051390151862058949 0 -0.011813038670022438 -0.001996120611323161 0 -0.012944645912060643 -0.0017361993838729548 0 -0.012251136669735907 -0.00051390151862058949 0 -0.012251136669735907 -0.00051390151862058949 0 -0.013685020787971689 -8.7282549167433569e-05 0 -0.012278016411069997 0.00023895405595483578 0 -0.01363376375348271 -0.0010305569246296998 0 -0.012251136669735907 -0.00051390151862058949 0 -0.013685020787971689 -8.7282549167433569e-05 0 -0.01363376375348271 -0.0010305569246296998 0 -0.013685020787971689 -8.7282549167433569e-05 0 -0.014353588595713309 -0.00063887002281892268 0 -0.013685020787971689 -8.7282549167433569e-05 0 -0.014565643270139031 0.00015933535800946062 0 -0.013558407491504346 0.00034976268128142596 0 -0.013685020787971689 -8.7282549167433569e-05 0 -0.013558407491504346 0.00034976268128142596 0 -0.012278016411069997 0.00023895405595483578 0 -0.015792139099463826 0.00042223358525936451 0 -0.015092885297525987 -0.0007549198775738048 0 -0.014785502109584701 7.5365721393406612e-06 0 -0.015092885297525987 -0.0007549198775738048 0 -0.014353588595713309 -0.00063887002281892268 0 -0.014785502109584701 7.5365721393406612e-06 0 -0.013685020787971689 -8.7282549167433569e-05 0 -0.014353588595713309 -0.00063887002281892268 0 -0.014785502109584701 7.5365721393406612e-06 0 -0.013685020787971689 -8.7282549167433569e-05 0 -0.014785502109584701 7.5365721393406612e-06 0 -0.014565643270139031 0.00015933535800946062 0 -0.014785502109584701 7.5365721393406612e-06 0 -0.015326130109133152 0.00015037890251679036 0 -0.014565643270139031 0.00015933535800946062 0 -0.015792139099463826 0.00042223358525936451 0 -0.014785502109584701 7.5365721393406612e-06 0 -0.015326130109133152 0.00015037890251679036 0 -0.015326130109133152 0.00015037890251679036 0 -0.015119590983052052 -4.8036618116225364e-05 0 -0.015489765473511993 -2.4896903867590525e-05 0 -0.015522974673654296 0.00012019812342672274 0 -0.015326130109133152 0.00015037890251679036 0 -0.015489765473511993 -2.4896903867590525e-05 0 -0.015326130109133152 0.00015037890251679036 0 -0.014565643270139031 0.00015933535800946062 0 -0.015119590983052052 -4.8036618116225364e-05 0 -0.014782620637803515 -9.4257501740171074e-05 0 -0.015119590983052052 -4.8036618116225364e-05 0 -0.014333585965997403 0.00019180242451478252 0 -0.014782620637803515 -9.4257501740171074e-05 0 -0.015779546385987601 -0.00051408945367911317 0 -0.015119590983052052 -4.8036618116225364e-05 0 -0.014565643270139031 0.00015933535800946062 0 -0.015119590983052052 -4.8036618116225364e-05 0 -0.014333585965997403 0.00019180242451478252 0 -0.015779546385987601 -0.00051408945367911317 0 -0.015119590983052052 -4.8036618116225364e-05 0 -0.015489765473511993 -2.4896903867590525e-05 0 -0.015779546385987601 -0.00051408945367911317 0 -0.015506985551981416 -7.47780163649064e-05 0 -0.015489765473511993 -2.4896903867590525e-05 0 -0.013558407491504346 0.00034976268128142596 0 -0.013329594400202508 0.00057036700907558025 0 -0.012352654411886268 0.0006793836302803406 0 -0.013558407491504346 0.00034976268128142596 0 -0.012352654411886268 0.0006793836302803406 0 -0.012278016411069997 0.00023895405595483578 0 -0.014565643270139031 0.00015933535800946062 0 -0.013558407491504346 0.00034976268128142596 0 -0.014333585965997403 0.00019180242451478252 0 -0.013558407491504346 0.00034976268128142596 0 -0.014333585965997403 0.00019180242451478252 0 -0.013329594400202508 0.00057036700907558025 0 -0.013914022332969225 0.00033958897960045082 0 -0.014333585965997403 0.00019180242451478252 0 -0.013329594400202508 0.00057036700907558025 0 -0.012496262269681709 0.0011934805835891386 0 -0.013329594400202508 0.00057036700907558025 0 -0.012352654411886268 0.0006793836302803406 0 -0.012496262269681709 0.0011934805835891386 0 -0.011220020356230837 0.0011210559869127888 0 -0.012352654411886268 0.0006793836302803406 0 -0.011220020356230837 0.0011210559869127888 0 -0.010959694485221466 0.00068918582423181933 0 -0.012352654411886268 0.0006793836302803406 0 -0.010959694485221466 0.00068918582423181933 0 -0.012352654411886268 0.0006793836302803406 0 -0.012278016411069997 0.00023895405595483578 0 -0.010959694485221466 0.00068918582423181933 0 -0.012278016411069997 0.00023895405595483578 0 -0.010905161931516897 0.0003366104976442318 0 -0.010959694485221466 0.00068918582423181933 0 -0.010905161931516897 0.0003366104976442318 0 -0.010028285477932657 0.00056614369299131241 0 -0.010341747213897575 -0.00013383331655080689 0 -0.010905161931516897 0.0003366104976442318 0 -0.010028285477932657 0.00056614369299131241 0 -0.012251136669735907 -0.00051390151862058949 0 -0.012278016411069997 0.00023895405595483578 0 -0.010905161931516897 0.0003366104976442318 0 -0.010341747213897575 -0.00013383331655080689 0 -0.012251136669735907 -0.00051390151862058949 0 -0.010905161931516897 0.0003366104976442318 0 -0.0094859157009904594 0.00061279820340176083 0 -0.0093069685583541967 0.00089141765479420468 0 -0.0088476468894171881 0.00099096587318277902 0 -0.0094859157009904594 0.00061279820340176083 0 -0.010028285477932657 0.00056614369299131241 0 -0.0093069685583541967 0.00089141765479420468 0 -0.010341747213897575 -0.00013383331655080689 0 -0.0094859157009904594 0.00061279820340176083 0 -0.010028285477932657 0.00056614369299131241 0 -0.010959694485221466 0.00068918582423181933 0 -0.010028285477932657 0.00056614369299131241 0 -0.0099652080025169221 0.00087161706122514213 0 -0.0093069685583541967 0.00089141765479420468 0 -0.0094881673157580556 0.0011616260826747768 0 -0.0099652080025169221 0.00087161706122514213 0 -0.010028285477932657 0.00056614369299131241 0 -0.0093069685583541967 0.00089141765479420468 0 -0.0099652080025169221 0.00087161706122514213 0 -0.0094881673157580556 0.0011616260826747768 0 -0.0099652080025169221 0.00087161706122514213 0 -0.010201055350164035 0.0011551258244869116 0 -0.011220020356230837 0.0011210559869127888 0 -0.010959694485221466 0.00068918582423181933 0 -0.010201055350164035 0.0011551258244869116 0 -0.010959694485221466 0.00068918582423181933 0 -0.0099652080025169221 0.00087161706122514213 0 -0.010201055350164035 0.0011551258244869116 0 -0.010189855612867059 0.0016679345234667969 0 -0.011220020356230837 0.0011210559869127888 0 -0.010201055350164035 0.0011551258244869116 0 -0.010189855612867059 0.0016679345234667969 0 -0.010201055350164035 0.0011551258244869116 0 -0.0094994596245288419 0.0014623839346027876 0 -0.0094881673157580556 0.0011616260826747768 0 -0.010201055350164035 0.0011551258244869116 0 -0.0094994596245288419 0.0014623839346027876 0 -0.010189855612867059 0.0016679345234667969 0 -0.0095443594949880528 0.0018165612416685994 0 -0.0094994596245288419 0.0014623839346027876 0 -0.0095443594949880528 0.0018165612416685994 0 -0.0094994596245288419 0.0014623839346027876 0 -0.0090657762291476204 0.0016903010690493827 0 -0.0094994596245288419 0.0014623839346027876 0 -0.0090657762291476204 0.0016903010690493827 0 -0.0088543220101579834 0.001427172331946765 0 -0.0088543220101579834 0.001427172331946765 0 -0.0083913820801996986 0.0017940622867391738 0 -0.0082856864360207512 0.0015358701233326344 0 -0.0090657762291476204 0.0016903010690493827 0 -0.0088543220101579834 0.001427172331946765 0 -0.0083913820801996986 0.0017940622867391738 0 -0.0089994145463400486 0.0016860754113003122 0 -0.0083413979226827691 0.0016152974221932822 0 -0.0088543220101579834 0.001427172331946765 0 -0.0082856864360207512 0.0015358701233326344 0 -0.0084568426451653821 0.0013144983178184418 0 -0.0088543220101579834 0.001427172331946765 0 -0.0089422317138503522 0.0011587016474941777 0 -0.0084568426451653821 0.0013144983178184418 0 -0.0094881673157580556 0.0011616260826747768 0 -0.0094994596245288419 0.0014623839346027876 0 -0.0088543220101579834 0.001427172331946765 0 -0.0094881673157580556 0.0011616260826747768 0 -0.0088543220101579834 0.001427172331946765 0 -0.0089422317138503522 0.0011587016474941777 0 -0.0078932193446820693 0.0016639640504052117 0 -0.0083913820801996986 0.0017940622867391738 0 -0.0082856864360207512 0.0015358701233326344 0 -0.0078593939488132147 0.0015063462260862504 0 -0.0083413979226827691 0.0016152974221932822 0 -0.0082856864360207512 0.0015358701233326344 0 -0.008009844599046476 0.0014720211189006365 0 -0.0084568426451653821 0.0013144983178184418 0 -0.0078932193446820693 0.0016639640504052117 0 -0.0082856864360207512 0.0015358701233326344 0 -0.008009844599046476 0.0014720211189006365 0 -0.0078932193446820693 0.0016639640504052117 0 -0.008009844599046476 0.0014720211189006365 0 -0.0076725165475161469 0.0015393243027338225 0 -0.008009844599046476 0.0014720211189006365 0 -0.0081540696588930425 0.0013625804887829002 0 -0.0077942865779931422 0.0015248530937436171 0 -0.008009844599046476 0.0014720211189006365 0 -0.0081540696588930425 0.0013625804887829002 0 -0.0084568426451653821 0.0013144983178184418 0 -0.0081540696588930425 0.0013625804887829002 0 -0.007858665557056211 0.0015324105159701597 0 -0.0077942865779931422 0.0015248530937436171 0 -0.0093069685583541967 0.00089141765479420468 0 -0.0094881673157580556 0.0011616260826747768 0 -0.0089422317138503522 0.0011587016474941777 0 -0.0093069685583541967 0.00089141765479420468 0 -0.0089422317138503522 0.0011587016474941777 0 -0.0087058860500899178 0.0011116907497016231 0 -0.0081540696588930425 0.0013625804887829002 0 -0.0084568426451653821 0.0013144983178184418 0 -0.0087058860500899178 0.0011116907497016231 0 -0.0089422317138503522 0.0011587016474941777 0 -0.0084568426451653821 0.0013144983178184418 0 -0.0087058860500899178 0.0011116907497016231 0 -0.0081540696588930425 0.0013625804887829002 0 -0.0087058860500899178 0.0011116907497016231 0 -0.0082896552246370207 0.0013034096155195378 0 -0.0093069685583541967 0.00089141765479420468 0 -0.0087058860500899178 0.0011116907497016231 0 -0.0088476468894171881 0.00099096587318277902 0 -0.0088476468894171881 0.00099096587318277902 0 -0.0084402482302082735 0.0013269260903142977 0 -0.0082896552246370207 0.0013034096155195378 0 -0.0089869443064623401 0.0010057290028991687 0 -0.0088476468894171881 0.00099096587318277902 0 -0.0084402482302082735 0.0013269260903142977 0 -0.0084402482302082735 0.0013269260903142977 0 -0.0082896552246370207 0.0013034096155195378 0 -0.007945826325509088 0.0015958542140272094 0 -0.0087058860500899178 0.0011116907497016231 0 -0.0088476468894171881 0.00099096587318277902 0 -0.0082896552246370207 0.0013034096155195378 0 -0.0082896552246370207 0.0013034096155195378 0 -0.007858665557056211 0.0015324105159701597 0 -0.007945826325509088 0.0015958542140272094 0 -0.0081540696588930425 0.0013625804887829002 0 -0.0082896552246370207 0.0013034096155195378 0 -0.007858665557056211 0.0015324105159701597 0 -0.007945826325509088 0.0015958542140272094 0 -0.0076636729655653836 0.0019216202340179964 0 -0.0075988277199253275 0.0017667387721337778 0 -0.007858665557056211 0.0015324105159701597 0 -0.007945826325509088 0.0015958542140272094 0 -0.0075988277199253275 0.0017667387721337778 0 -0.007945826325509088 0.0015958542140272094 0 -0.0076636729655653836 0.0019216202340179964 0 -0.0079587292430458242 0.0017942415614119649 0 -0.0076636729655653836 0.0019216202340179964 0 -0.007605232473137504 0.0022892934802966089 0 -0.0074422012412954531 0.0022441477812920438 0 -0.0076636729655653836 0.0019216202340179964 0 -0.007605232473137504 0.0022892934802966089 0 -0.0079587292430458242 0.0017942415614119649 0 -0.007605232473137504 0.0022892934802966089 0 -0.0079587292430458242 0.0017942415614119649 0 -0.0078104479727279059 0.0023211696700525366 0 -0.0081880498881413896 0.0016887221997067246 0 -0.0079587292430458242 0.0017942415614119649 0 -0.0078104479727279059 0.0023211696700525366 0 -0.0081880498881413896 0.0016887221997067246 0 -0.0078104479727279059 0.0023211696700525366 0 -0.0080625891923351307 0.0019189939591513561 0 -0.0083864995921218866 0.0016213701545359227 0 -0.0081880498881413896 0.0016887221997067246 0 -0.0080625891923351307 0.0019189939591513561 0 -0.0086350664569583881 0.0013518407364177907 0 -0.0084402482302082735 0.0013269260903142977 0 -0.0081880498881413896 0.0016887221997067246 0 -0.0084402482302082735 0.0013269260903142977 0 -0.007945826325509088 0.0015958542140272094 0 -0.0079587292430458242 0.0017942415614119649 0 -0.0084402482302082735 0.0013269260903142977 0 -0.0081880498881413896 0.0016887221997067246 0 -0.0079587292430458242 0.0017942415614119649 0 -0.0072674350222143719 0.0021091091068594346 0 -0.0073854910713925448 0.001923607598792079 0 -0.0071828512535052893 0.0019717566143999609 0 -0.0072674350222143719 0.0021091091068594346 0 -0.0071828512535052893 0.0019717566143999609 0 -0.0070113162781423235 0.0021393205820169135 0 -0.0072674350222143719 0.0021091091068594346 0 -0.0070113162781423235 0.0021393205820169135 0 -0.0072040459389168645 0.0023695606679528555 0 -0.0072674350222143719 0.0021091091068594346 0 -0.0074279173786310068 0.0020107590680483447 0 -0.0072306564287974917 0.0023667257735683852 0 -0.0074422012412954531 0.0022441477812920438 0 -0.0074279173786310068 0.0020107590680483447 0 -0.0072306564287974917 0.0023667257735683852 0 -0.0076636729655653836 0.0019216202340179964 0 -0.0074422012412954531 0.0022441477812920438 0 -0.0074279173786310068 0.0020107590680483447 0 -0.0076636729655653836 0.0019216202340179964 0 -0.0074279173786310068 0.0020107590680483447 0 -0.0075988277199253275 0.0017667387721337778 0 -0.0074279173786310068 0.0020107590680483447 0 -0.0073854910713925448 0.001923607598792079 0 -0.0075988277199253275 0.0017667387721337778 0 -0.0072674350222143719 0.0021091091068594346 0 -0.0074279173786310068 0.0020107590680483447 0 -0.0073854910713925448 0.001923607598792079 0 -0.0073854910713925448 0.001923607598792079 0 -0.0075988277199253275 0.0017667387721337778 0 -0.0074208572844540631 0.0017968508239498855 0 -0.007858665557056211 0.0015324105159701597 0 -0.0075988277199253275 0.0017667387721337778 0 -0.0076322781284600179 0.001652844578051258 0 -0.0076322781284600179 0.001652844578051258 0 -0.0074208572844540631 0.0017968508239498855 0 -0.0075613737061510315 0.0016413224420028384 0 -0.0075988277199253275 0.0017667387721337778 0 -0.0076322781284600179 0.001652844578051258 0 -0.0074208572844540631 0.0017968508239498855 0 -0.0074208572844540631 0.0017968508239498855 0 -0.0071828512535052893 0.0019717566143999609 0 -0.0071303442430257716 0.0018940691326153286 0 -0.0074208572844540631 0.0017968508239498855 0 -0.0073811787947403434 0.0017433968999467342 0 -0.0071303442430257716 0.0018940691326153286 0 -0.0073854910713925448 0.001923607598792079 0 -0.0074208572844540631 0.0017968508239498855 0 -0.0071828512535052893 0.0019717566143999609 0 -0.0073811787947403434 0.0017433968999467342 0 -0.0072226406948769292 0.001812950688433856 0 -0.0071303442430257716 0.0018940691326153286 0 -0.0074208572844540631 0.0017968508239498855 0 -0.0073811787947403434 0.0017433968999467342 0 -0.0075613737061510315 0.0016413224420028384 0 -0.0073811787947403434 0.0017433968999467342 0 -0.0075254080197038609 0.0016080871951252643 0 -0.0075613737061510315 0.0016413224420028384 0 -0.0073811787947403434 0.0017433968999467342 0 -0.0075254080197038609 0.0016080871951252643 0 -0.0074306579952395629 0.0016201763849447626 0 -0.0073811787947403434 0.0017433968999467342 0 -0.0074306579952395629 0.0016201763849447626 0 -0.0072226406948769292 0.001812950688433856 0 -0.0076322781284600179 0.001652844578051258 0 -0.0077942865779931422 0.0015248530937436171 0 -0.0075613737061510315 0.0016413224420028384 0 -0.007858665557056211 0.0015324105159701597 0 -0.0076322781284600179 0.001652844578051258 0 -0.0077942865779931422 0.0015248530937436171 0 -0.0075254080197038609 0.0016080871951252643 0 -0.0075613737061510315 0.0016413224420028384 0 -0.0076725165475161469 0.0015393243027338225 0 -0.008009844599046476 0.0014720211189006365 0 -0.0077942865779931422 0.0015248530937436171 0 -0.0076725165475161469 0.0015393243027338225 0 -0.0077942865779931422 0.0015248530937436171 0 -0.0075613737061510315 0.0016413224420028384 0 -0.0076725165475161469 0.0015393243027338225 0 -0.0075254080197038609 0.0016080871951252643 0 -0.0076725165475161469 0.0015393243027338225 0 -0.0075734887225876145 0.0015037113687101714 0 -0.0076725165475161469 0.0015393243027338225 0 -0.0077231522398626216 0.0014124307783426142 0 -0.0075734887225876145 0.0015037113687101714 0 -0.0078932193446820693 0.0016639640504052117 0 -0.0076725165475161469 0.0015393243027338225 0 -0.0077231522398626216 0.0014124307783426142 0 -0.0078593939488132147 0.0015063462260862504 0 -0.0077428173940198982 0.0014307758249216551 0 -0.0077231522398626216 0.0014124307783426142 0 -0.0075734887225876145 0.0015037113687101714 0 -0.0075814646256529492 0.0012837000572916634 0 -0.0074306579952395629 0.0016201763849447626 0 -0.0075734887225876145 0.0015037113687101714 0 -0.0075814646256529492 0.0012837000572916634 0 -0.0075254080197038609 0.0016080871951252643 0 -0.0074306579952395629 0.0016201763849447626 0 -0.0075734887225876145 0.0015037113687101714 0 -0.0074306579952395629 0.0016201763849447626 0 -0.0075814646256529492 0.0012837000572916634 0 -0.0073543472165095315 0.0015881097080193017 0 -0.0074703568316557617 0.0011709360567724839 0 -0.0075814646256529492 0.0012837000572916634 0 -0.0073543472165095315 0.0015881097080193017 0 -0.0074306579952395629 0.0016201763849447626 0 -0.0073543472165095315 0.0015881097080193017 0 -0.0072615935885742963 0.0017534490842302719 0 -0.0073543472165095315 0.0015881097080193017 0 -0.0071647966184588772 0.0018714800961106969 0 -0.0072615935885742963 0.0017534490842302719 0 -0.0074378821453595072 0.0012831113989854846 0 -0.0073543472165095315 0.0015881097080193017 0 -0.007315921764180661 0.0018313656078377649 0 -0.0076199659107856303 0.0018583067059202427 0 -0.007315921764180661 0.0018313656078377649 0 -0.0070937052211023401 0.002069393210415302 0 -0.007315921764180661 0.0018313656078377649 0 -0.0071647966184588772 0.0018714800961106969 0 -0.0069360213652224544 0.0020283404882538735 0 -0.007315921764180661 0.0018313656078377649 0 -0.0069360213652224544 0.0020283404882538735 0 -0.0070937052211023401 0.002069393210415302 0 -0.0073543472165095315 0.0015881097080193017 0 -0.007315921764180661 0.0018313656078377649 0 -0.0071647966184588772 0.0018714800961106969 0 -0.0071647966184588772 0.0018714800961106969 0 -0.0068952283653660861 0.001911952066341008 0 -0.007106489837465672 0.0018524986034095913 0 -0.0071647966184588772 0.0018714800961106969 0 -0.0069360213652224544 0.0020283404882538735 0 -0.0068952283653660861 0.001911952066341008 0 -0.0069360213652224544 0.0020283404882538735 0 -0.0068952283653660861 0.001911952066341008 0 -0.0065934374288771419 0.0019181176527192799 0 -0.0068952283653660861 0.001911952066341008 0 -0.007106489837465672 0.0018524986034095913 0 -0.0069468877311097323 0.0018835473202475461 0 -0.007106489837465672 0.0018524986034095913 0 -0.0072226406948769292 0.001812950688433856 0 -0.0069468877311097323 0.0018835473202475461 0 -0.0074306579952395629 0.0016201763849447626 0 -0.0072226406948769292 0.001812950688433856 0 -0.0072615935885742963 0.0017534490842302719 0 -0.0071647966184588772 0.0018714800961106969 0 -0.007106489837465672 0.0018524986034095913 0 -0.0072615935885742963 0.0017534490842302719 0 -0.007106489837465672 0.0018524986034095913 0 -0.0072226406948769292 0.001812950688433856 0 -0.0072615935885742963 0.0017534490842302719 0 -0.00085988445013976975 -0.0026653474838357958 0 -0.00088323388030942267 -0.0024518703379152289 0 -0.0013810014828380239 -0.0024852698195578066 0 -0.0054117415702622197 0.0024710726154844077 0 -0.00563462201574214 0.0025259167617620927 0 -0.0056234775317361985 0.002490454198364616 0 -0.0020809194073378723 0.0023446847044175387 0 -0.0043007967249343018 -0.00017771120253177533 0 -0.00085988445013976975 -0.0026653474838357958 0 -0.00083387328463142764 -0.0027423079315404518 0 -0.0013810014828380239 -0.0024852698195578066 0 -0.0011997255633170775 -0.0021292058577811615 0 -0.00099613673852529529 -0.0022683731342590259 0 -0.0013810014828380239 -0.0024852698195578066 0 -0.00088323388030942267 -0.0024518703379152289 0 -0.00099613673852529529 -0.0022683731342590259 0 -0.0013810014828380239 -0.0024852698195578066 0 -0.0011997255633170775 -0.0021292058577811615 0 -0.00094074521040465821 -0.0020135881697001343 0 -0.00099613673852529529 -0.0022683731342590259 0 -0.0011997255633170775 -0.0021292058577811615 0 -0.0014815814641733992 -0.0021546179194142047 0 -0.0013810014828380239 -0.0024852698195578066 0 -0.005421808665552157 -0.0025154466620676656 0 -0.0043007967249343018 -0.00017771120253177533 0 -0.005487613491770525 -0.00079355642649476057 0 -0.0055921046988681939 -0.00037623182866203351 0 -0.0052893946728972156 -0.00054137478344227585 0 -0.005421808665552157 -0.0025154466620676656 0 -0.0069417035527798675 0.00098093725846572308 0 -0.0043007967249343018 -0.00017771120253177533 0 -0.0069417035527798675 0.00098093725846572308 0 -0.0057663664523113821 0.0025981482631016683 0 -0.0062978783434873972 0.0024143317432873917 0 -0.0063707842657611058 0.002525416839831901 0 -0.0057663664523113821 0.0025981482631016683 0 -0.0059658388456032404 0.002439265513593347 0 -0.0062978783434873972 0.0024143317432873917 0 -0.0057663664523113821 0.0025981482631016683 0 -0.0056234775317361985 0.002490454198364616 0 -0.0059658388456032404 0.002439265513593347 0 -0.0043007967249343018 -0.00017771120253177533 0 -0.0050935111817573056 0.0019974080847660648 0 -0.0056234775317361985 0.002490454198364616 0 -0.0059658388456032404 0.002439265513593347 0 -0.0058487364596925733 0.0023859082469547166 0 -0.0059658388456032404 0.002439265513593347 0 -0.0063311907099143864 0.0023091498064129736 0 -0.0058487364596925733 0.0023859082469547166 0 -0.0059658388456032404 0.002439265513593347 0 -0.0063311907099143864 0.0023091498064129736 0 -0.0062978783434873972 0.0024143317432873917 0 -0.0063311907099143864 0.0023091498064129736 0 -0.0067450002824525172 0.0022530391348785676 0 -0.0066730850091904258 0.0021684045375979029 0 -0.0063311907099143864 0.0023091498064129736 0 -0.0067450002824525172 0.0022530391348785676 0 -0.0062978783434873972 0.0024143317432873917 0 -0.0067450002824525172 0.0022530391348785676 0 -0.0062978783434873972 0.0024143317432873917 0 -0.0066254835506472307 0.0024437671743624098 0 -0.0088776820698001947 0.0023971486662202959 0 -0.0088200713146179693 0.0019693659301866775 0 -0.0086526269197878224 0.0022929348984508549 0 -0.0062978783434873972 0.0024143317432873917 0 -0.0063707842657611058 0.002525416839831901 0 -0.0066254835506472307 0.0024437671743624098 0 -0.0069417035527798675 0.00098093725846572308 0 -0.0076396362430617912 0.0019105627950841005 0 -0.0092596731142596204 0.001863726217551986 0 -0.0088776820698001947 0.0023971486662202959 0 -0.0088200713146179693 0.0019693659301866775 0 -0.008498422285267461 0.0018503788375830844 0 -0.0088200713146179693 0.0019693659301866775 0 -0.0086526269197878224 0.0022929348984508549 0 -0.0075566495716617539 0.0020071214995143884 0 -0.0076396362430617912 0.0019105627950841005 0 -0.008498422285267461 0.0018503788375830844 0 -0.0076199659107856303 0.0018583067059202427 0 -0.0086526269197878224 0.0022929348984508549 0 -0.0076199659107856303 0.0018583067059202427 0 -0.0067450002824525172 0.0022530391348785676 0 -0.0070937052211023401 0.002069393210415302 0 -0.0076199659107856303 0.0018583067059202427 0 -0.0067450002824525172 0.0022530391348785676 0 -0.0066254835506472307 0.0024437671743624098 0 -0.0069360213652224544 0.0020283404882538735 0 -0.0070937052211023401 0.002069393210415302 0 -0.0066730850091904258 0.0021684045375979029 0 -0.0067450002824525172 0.0022530391348785676 0 -0.0070937052211023401 0.002069393210415302 0 -0.0066730850091904258 0.0021684045375979029 0 -0.0069360213652224544 0.0020283404882538735 0 -0.0066730850091904258 0.0021684045375979029 0 -0.0065209297258636513 0.00208429099654964 0 -0.0069360213652224544 0.0020283404882538735 0 -0.0065209297258636513 0.00208429099654964 0 -0.0065934374288771419 0.0019181176527192799 0 -0.0065209297258636513 0.00208429099654964 0 -0.0065934374288771419 0.0019181176527192799 0 -0.0060820212907041361 0.0020777933495368232 0 -0.0060820212907041361 0.0020777933495368232 0 -0.0062050804024252441 0.0022543888666645808 0 -0.0056887286184030246 0.0024039170412284679 0 -0.0065209297258636513 0.00208429099654964 0 -0.0060820212907041361 0.0020777933495368232 0 -0.0062050804024252441 0.0022543888666645808 0 -0.0063311907099143864 0.0023091498064129736 0 -0.0066730850091904258 0.0021684045375979029 0 -0.0062050804024252441 0.0022543888666645808 0 -0.0066730850091904258 0.0021684045375979029 0 -0.0065209297258636513 0.00208429099654964 0 -0.0062050804024252441 0.0022543888666645808 0 -0.0063311907099143864 0.0023091498064129736 0 -0.0062050804024252441 0.0022543888666645808 0 -0.0058487364596925733 0.0023859082469547166 0 -0.0056887286184030246 0.0024039170412284679 0 -0.0050348555223192143 0.0026229802440422769 0 -0.0053982814034213298 0.0024939947612783765 0 -0.0058487364596925733 0.0023859082469547166 0 -0.0056887286184030246 0.0024039170412284679 0 -0.0053982814034213298 0.0024939947612783765 0 -0.0056234775317361985 0.002490454198364616 0 -0.0058487364596925733 0.0023859082469547166 0 -0.0053982814034213298 0.0024939947612783765 0 -0.0062050804024252441 0.0022543888666645808 0 -0.0058487364596925733 0.0023859082469547166 0 -0.0056887286184030246 0.0024039170412284679 0 -0.0060820212907041361 0.0020777933495368232 0 -0.0056887286184030246 0.0024039170412284679 0 -0.0050348555223192143 0.0026229802440422769 0 -0.0024023395090386596 0.0054064004312206143 0 -0.0024937235911441161 0.0031639204029528974 0 -0.0050348555223192143 0.0026229802440422769 0 -0.0054117415702622197 0.0024710726154844077 0 -0.0050348555223192143 0.0026229802440422769 0 -0.0053982814034213298 0.0024939947612783765 0 -0.0054117415702622197 0.0024710726154844077 0 -0.0056234775317361985 0.002490454198364616 0 -0.0053982814034213298 0.0024939947612783765 0 -0.0020809194073378723 0.0023446847044175387 0 -0.00546516569025621 0.0030776051534173164 0 -0.0024464368479444614 0.00067821713174076007 0 -0.0053504497483845047 0.0014068889244917525 0 -0.0054206277181030847 0.00045283209900393847 0 -0.0019659818846335594 0.0020300854759198335 0 -0.0050348555223192143 0.0026229802440422769 0 -0.0053504497483845047 0.0014068889244917525 0 -0.0060820212907041361 0.0020777933495368232 0 -0.0050348555223192143 0.0026229802440422769 0 -0.0053504497483845047 0.0014068889244917525 0 -0.0053504497483845047 0.0014068889244917525 0 -0.0062275121895841367 0.0016233313722156687 0 -0.005925621715141452 0.001209604340742686 0 -0.0060820212907041361 0.0020777933495368232 0 -0.0053504497483845047 0.0014068889244917525 0 -0.0062275121895841367 0.0016233313722156687 0 -0.0065934374288771419 0.0019181176527192799 0 -0.0060820212907041361 0.0020777933495368232 0 -0.0062275121895841367 0.0016233313722156687 0 -0.0065934374288771419 0.0019181176527192799 0 -0.0062275121895841367 0.0016233313722156687 0 -0.0065521860605203836 0.0017983618237612804 0 -0.0062275121895841367 0.0016233313722156687 0 -0.0061924162722049227 0.0016008224058873524 0 -0.0065521860605203836 0.0017983618237612804 0 -0.0061924162722049227 0.0016008224058873524 0 -0.006119059653763431 0.0020363939360019002 0 -0.0061251789009804467 0.0023104552386212156 0 -0.0061924162722049227 0.0016008224058873524 0 -0.0062605159295910364 0.0019335252888641125 0 -0.0061251789009804467 0.0023104552386212156 0 -0.0061924162722049227 0.0016008224058873524 0 -0.005925621715141452 0.001209604340742686 0 -0.006119059653763431 0.0020363939360019002 0 -0.0062275121895841367 0.0016233313722156687 0 -0.0061924162722049227 0.0016008224058873524 0 -0.005925621715141452 0.001209604340742686 0 -0.0053504497483845047 0.0014068889244917525 0 -0.005925621715141452 0.001209604340742686 0 -0.0054206277181030847 0.00045283209900393847 0 -0.005925621715141452 0.001209604340742686 0 -0.0062946990019446415 0.0020429911286301478 0 -0.006119059653763431 0.0020363939360019002 0 -0.005925621715141452 0.001209604340742686 0 -0.0054206277181030847 0.00045283209900393847 0 -0.0062946990019446415 0.0020429911286301478 0 -0.0070172670327122494 0.0018927308829583926 0 -0.0054206277181030847 0.00045283209900393847 0 -0.0062946990019446415 0.0020429911286301478 0 -0.0071828512535052893 0.0019717566143999609 0 -0.0067877140683970435 0.0019572674643320181 0 -0.0071303442430257716 0.0018940691326153286 0 -0.0072226406948769292 0.001812950688433856 0 -0.0071303442430257716 0.0018940691326153286 0 -0.0069468877311097323 0.0018835473202475461 0 -0.0067877140683970435 0.0019572674643320181 0 -0.0071303442430257716 0.0018940691326153286 0 -0.0069468877311097323 0.0018835473202475461 0 -0.0068952283653660861 0.001911952066341008 0 -0.0069468877311097323 0.0018835473202475461 0 -0.0065521860605203836 0.0017983618237612804 0 -0.0068952283653660861 0.001911952066341008 0 -0.0065934374288771419 0.0019181176527192799 0 -0.0065521860605203836 0.0017983618237612804 0 -0.0067877140683970435 0.0019572674643320181 0 -0.0065521860605203836 0.0017983618237612804 0 -0.0064325394489522817 0.0019522344243872 0 -0.0067877140683970435 0.0019572674643320181 0 -0.0069468877311097323 0.0018835473202475461 0 -0.0065521860605203836 0.0017983618237612804 0 -0.0065521860605203836 0.0017983618237612804 0 -0.0064325394489522817 0.0019522344243872 0 -0.0062605159295910364 0.0019335252888641125 0 -0.0061924162722049227 0.0016008224058873524 0 -0.0065521860605203836 0.0017983618237612804 0 -0.0062605159295910364 0.0019335252888641125 0 -0.0062605159295910364 0.0019335252888641125 0 -0.0061281690085559486 0.0023557158823151688 0 -0.0061251789009804467 0.0023104552386212156 0 -0.0064325394489522817 0.0019522344243872 0 -0.0062646686973674382 0.0021431575304833883 0 -0.0061281690085559486 0.0023557158823151688 0 -0.0064325394489522817 0.0019522344243872 0 -0.0062605159295910364 0.0019335252888641125 0 -0.0061281690085559486 0.0023557158823151688 0 -0.0067877140683970435 0.0019572674643320181 0 -0.0064325394489522817 0.0019522344243872 0 -0.0062646686973674382 0.0021431575304833883 0 -0.0067877140683970435 0.0019572674643320181 0 -0.0062646686973674382 0.0021431575304833883 0 -0.0070113162781423235 0.0021393205820169135 0 -0.0071828512535052893 0.0019717566143999609 0 -0.0067877140683970435 0.0019572674643320181 0 -0.0070113162781423235 0.0021393205820169135 0 -0.0062646686973674382 0.0021431575304833883 0 -0.0050436470405945278 0.0032512558910738234 0 -0.0057353118987965874 0.0033179449263791446 0 -0.006246294728609058 0.0022224596977799367 0 -0.0061107913635355055 0.0027934176717165186 0 -0.0062646686973674382 0.0021431575304833883 0 -0.0070113162781423235 0.0021393205820169135 0 -0.0071856206609863535 0.00227841973870749 0 -0.0050436470405945278 0.0032512558910738234 0 -0.0057353118987965874 0.0033179449263791446 0 -0.0050794490270256376 0.0041529909931611389 0 -0.0062646686973674382 0.0021431575304833883 0 -0.0061281690085559486 0.0023557158823151688 0 -0.0057353118987965874 0.0033179449263791446 0 -0.0061281690085559486 0.0023557158823151688 0 -0.0060122598834865103 0.0031661418036553622 0 -0.0061251789009804467 0.0023104552386212156 0 -0.0061281690085559486 0.0023557158823151688 0 -0.0060122598834865103 0.0031661418036553622 0 -0.0057353118987965874 0.0033179449263791446 0 -0.0057353118987965874 0.0033179449263791446 0 -0.005821580913002701 0.0039182239926538161 0 -0.0054351103580255475 0.0042588933022773764 0 -0.0060122598834865103 0.0031661418036553622 0 -0.0057353118987965874 0.0033179449263791446 0 -0.005821580913002701 0.0039182239926538161 0 -0.005821580913002701 0.0039182239926538161 0 -0.0056549860485656184 0.0045537052511245924 0 -0.0059774835898842348 0.0046015050953597788 0 -0.005821580913002701 0.0039182239926538161 0 -0.0056549860485656184 0.0045537052511245924 0 -0.0054351103580255475 0.0042588933022773764 0 -0.0054351103580255475 0.0042588933022773764 0 -0.0050794490270256376 0.0041529909931611389 0 -0.0050657247380642995 0.0046530932963184017 0 -0.0050794490270256376 0.0041529909931611389 0 -0.0050657247380642995 0.0046530932963184017 0 -0.0049051665871445039 0.0045478975445741266 0 -0.0057353118987965874 0.0033179449263791446 0 -0.0054351103580255475 0.0042588933022773764 0 -0.0050794490270256376 0.0041529909931611389 0 -0.007111133506995969 0.00288095686067622 0 -0.0062946990019446415 0.0020429911286301478 0 -0.0068409809035859942 0.0034613267013270895 0 -0.007146300704260782 0.0033276045695436142 0 -0.0068866513984922172 0.0034466851049260935 0 -0.0062946990019446415 0.0020429911286301478 0 -0.0062763391231112657 0.0028038033936153375 0 -0.006119059653763431 0.0020363939360019002 0 -0.0062946990019446415 0.0020429911286301478 0 -0.0062763391231112657 0.0028038033936153375 0 -0.0068409809035859942 0.0034613267013270895 0 -0.0060122598834865103 0.0031661418036553622 0 -0.0062763391231112657 0.0028038033936153375 0 -0.0062698009786205733 0.0037952650442315567 0 -0.0062763391231112657 0.0028038033936153375 0 -0.006119059653763431 0.0020363939360019002 0 -0.0061251789009804467 0.0023104552386212156 0 -0.0060122598834865103 0.0031661418036553622 0 -0.0062763391231112657 0.0028038033936153375 0 -0.0061251789009804467 0.0023104552386212156 0 -0.0060122598834865103 0.0031661418036553622 0 -0.005821580913002701 0.0039182239926538161 0 -0.0062698009786205733 0.0037952650442315567 0 -0.005821580913002701 0.0039182239926538161 0 -0.0062698009786205733 0.0037952650442315567 0 -0.0059774835898842348 0.0046015050953597788 0 -0.0062698009786205733 0.0037952650442315567 0 -0.0064813922751000693 0.0048323309792757049 0 -0.0059774835898842348 0.0046015050953597788 0 -0.0062698009786205733 0.0037952650442315567 0 -0.0067732250184598117 0.0042332722150497043 0 -0.0064813922751000693 0.0048323309792757049 0 -0.0062763391231112657 0.0028038033936153375 0 -0.0062698009786205733 0.0037952650442315567 0 -0.0068409809035859942 0.0034613267013270895 0 -0.0062698009786205733 0.0037952650442315567 0 -0.0067732250184598117 0.0042332722150497043 0 -0.0068409809035859942 0.0034613267013270895 0 -0.0075795883048852932 0.0046475073465596668 0 -0.0072038444123921465 0.0042903167690166817 0 -0.0072455097849114195 0.0049072807072684547 0 -0.0067732250184598117 0.0042332722150497043 0 -0.0072038444123921465 0.0042903167690166817 0 -0.0072455097849114195 0.0049072807072684547 0 -0.0075795883048852932 0.0046475073465596668 0 -0.007505449669063846 0.004063744713590332 0 -0.0072038444123921465 0.0042903167690166817 0 -0.0067732250184598117 0.0042332722150497043 0 -0.0072038444123921465 0.0042903167690166817 0 -0.0068409809035859942 0.0034613267013270895 0 -0.007505449669063846 0.004063744713590332 0 -0.0072038444123921465 0.0042903167690166817 0 -0.0068409809035859942 0.0034613267013270895 0 -0.007505449669063846 0.004063744713590332 0 -0.0075419353311255927 0.0036193163261779323 0 -0.0068409809035859942 0.0034613267013270895 0 -0.0077216582437037804 0.0054373350153108669 0 -0.0072455097849114195 0.0049072807072684547 0 -0.0070211611067816353 0.0059188098865047712 0 -0.0077216582437037804 0.0054373350153108669 0 -0.0070211611067816353 0.0059188098865047712 0 -0.0078205244468475925 0.0063513121714223065 0 -0.0077216582437037804 0.0054373350153108669 0 -0.0077474342874160884 0.0051045097425937097 0 -0.0072455097849114195 0.0049072807072684547 0 -0.0077474342874160884 0.0051045097425937097 0 -0.0075795883048852932 0.0046475073465596668 0 -0.0072455097849114195 0.0049072807072684547 0 -0.0072455097849114195 0.0049072807072684547 0 -0.0070211611067816353 0.0059188098865047712 0 -0.0064813922751000693 0.0048323309792757049 0 -0.0067732250184598117 0.0042332722150497043 0 -0.0072455097849114195 0.0049072807072684547 0 -0.0064813922751000693 0.0048323309792757049 0 -0.0070211611067816353 0.0059188098865047712 0 -0.0064813922751000693 0.0048323309792757049 0 -0.0063752862351052998 0.006170564502481244 0 -0.0064813922751000693 0.0048323309792757049 0 -0.0060600537987515303 0.0053655982607660494 0 -0.0063752862351052998 0.006170564502481244 0 -0.0064813922751000693 0.0048323309792757049 0 -0.0059774835898842348 0.0046015050953597788 0 -0.0060600537987515303 0.0053655982607660494 0 -0.0059774835898842348 0.0046015050953597788 0 -0.0060600537987515303 0.0053655982607660494 0 -0.0056953193390627465 0.0052709773773113606 0 -0.0060600537987515303 0.0053655982607660494 0 -0.0058931275849244775 0.0060540202126060589 0 -0.0063752862351052998 0.006170564502481244 0 -0.0060600537987515303 0.0053655982607660494 0 -0.0058931275849244775 0.0060540202126060589 0 -0.0056953193390627465 0.0052709773773113606 0 -0.0058931275849244775 0.0060540202126060589 0 -0.0059613217101084802 0.0072084824441601726 0 -0.0063752862351052998 0.006170564502481244 0 -0.0058931275849244775 0.0060540202126060589 0 -0.0059613217101084802 0.0072084824441601726 0 -0.005475429398242782 0.0063363182015365735 0 -0.0065394743885163857 0.0083799550378742798 0 -0.0059613217101084802 0.0072084824441601726 0 -0.0065935949438157343 0.0071549788158092537 0 -0.0059613217101084802 0.0072084824441601726 0 -0.0063752862351052998 0.006170564502481244 0 -0.0065935949438157343 0.0071549788158092537 0 -0.0070211611067816353 0.0059188098865047712 0 -0.0065935949438157343 0.0071549788158092537 0 -0.00727703952672667 0.0069714921513270838 0 -0.0070211611067816353 0.0059188098865047712 0 -0.0063752862351052998 0.006170564502481244 0 -0.0065935949438157343 0.0071549788158092537 0 -0.0065394743885163857 0.0083799550378742798 0 -0.0065935949438157343 0.0071549788158092537 0 -0.0073605641713214492 0.0081757756417425807 0 -0.0065935949438157343 0.0071549788158092537 0 -0.0073605641713214492 0.0081757756417425807 0 -0.00727703952672667 0.0069714921513270838 0 -0.007941251755567022 0.0074304430055331999 0 -0.0073605641713214492 0.0081757756417425807 0 -0.00727703952672667 0.0069714921513270838 0 -0.0070211611067816353 0.0059188098865047712 0 -0.00727703952672667 0.0069714921513270838 0 -0.0078205244468475925 0.0063513121714223065 0 -0.007941251755567022 0.0074304430055331999 0 -0.00727703952672667 0.0069714921513270838 0 -0.0078205244468475925 0.0063513121714223065 0 -0.0048659270650689528 0.0051347077985197135 0 -0.0052525464724107497 0.0051196476667753187 0 -0.0050650170468207684 0.005849471074825521 0 -0.0048659270650689528 0.0051347077985197135 0 -0.0050657247380642995 0.0046530932963184017 0 -0.0049051665871445039 0.0045478975445741266 0 -0.0048659270650689528 0.0051347077985197135 0 -0.0050657247380642995 0.0046530932963184017 0 -0.0052525464724107497 0.0051196476667753187 0 -0.0054351103580255475 0.0042588933022773764 0 -0.0050657247380642995 0.0046530932963184017 0 -0.0052525464724107497 0.0051196476667753187 0 -0.0056549860485656184 0.0045537052511245924 0 -0.0056953193390627465 0.0052709773773113606 0 -0.0052525464724107497 0.0051196476667753187 0 -0.0056549860485656184 0.0045537052511245924 0 -0.0054351103580255475 0.0042588933022773764 0 -0.0052525464724107497 0.0051196476667753187 0 -0.0056549860485656184 0.0045537052511245924 0 -0.0059774835898842348 0.0046015050953597788 0 -0.0056953193390627465 0.0052709773773113606 0 -0.0058931275849244775 0.0060540202126060589 0 -0.0056953193390627465 0.0052709773773113606 0 -0.005475429398242782 0.0063363182015365735 0 -0.0056953193390627465 0.0052709773773113606 0 -0.0052525464724107497 0.0051196476667753187 0 -0.005475429398242782 0.0063363182015365735 0 -0.0052525464724107497 0.0051196476667753187 0 -0.005475429398242782 0.0063363182015365735 0 -0.0050650170468207684 0.005849471074825521 0 -0.005475429398242782 0.0063363182015365735 0 -0.0050756368864256253 0.0066253329972236104 0 -0.0050650170468207684 0.005849471074825521 0 -0.0059613217101084802 0.0072084824441601726 0 -0.005475429398242782 0.0063363182015365735 0 -0.0056170392918392497 0.007386730170121333 0 -0.0053659177039646127 0.0073079058373770435 0 -0.005475429398242782 0.0063363182015365735 0 -0.0056170392918392497 0.007386730170121333 0 -0.0053659177039646127 0.0073079058373770435 0 -0.005475429398242782 0.0063363182015365735 0 -0.0050756368864256253 0.0066253329972236104 0 -0.0047204954353066535 0.0069192694203267218 0 -0.0050756368864256253 0.0066253329972236104 0 -0.0046245436966596519 0.0059558466562271567 0 -0.0050756368864256253 0.0066253329972236104 0 -0.0050650170468207684 0.005849471074825521 0 -0.0046245436966596519 0.0059558466562271567 0 -0.0048659270650689528 0.0051347077985197135 0 -0.0050650170468207684 0.005849471074825521 0 -0.0046245436966596519 0.0059558466562271567 0 -0.0047204954353066535 0.0069192694203267218 0 -0.0043370231174347691 0.0067276347925865187 0 -0.0046245436966596519 0.0059558466562271567 0 -0.0043370231174347691 0.0067276347925865187 0 -0.0046245436966596519 0.0059558466562271567 0 -0.0041112223997379696 0.0058561355439244022 0 -0.0035186430540336509 0.0066960930527413635 0 -0.0041112223997379696 0.0058561355439244022 0 -0.0035401182306671873 0.0060417954311714501 0 -0.0041112223997379696 0.0058561355439244022 0 -0.0047373640432547773 0.0048648577745990318 0 -0.0047763014978621727 0.0045953972701568693 0 -0.0048659270650689528 0.0051347077985197135 0 -0.0046245436966596519 0.0059558466562271567 0 -0.0047373640432547773 0.0048648577745990318 0 -0.0046245436966596519 0.0059558466562271567 0 -0.0041112223997379696 0.0058561355439244022 0 -0.0047373640432547773 0.0048648577745990318 0 -0.0048659270650689528 0.0051347077985197135 0 -0.0047373640432547773 0.0048648577745990318 0 -0.0049051665871445039 0.0045478975445741266 0 -0.0047373640432547773 0.0048648577745990318 0 -0.0049051665871445039 0.0045478975445741266 0 -0.0058460822882351561 0.0043283497651492369 0 -0.0054552508677067919 0.0045360652563886895 0 -0.0062807380058252926 0.0044116164389415048 0 -0.0064209513194406912 0.0039649018209835258 0 -0.0047373640432547773 0.0048648577745990318 0 -0.0058460822882351561 0.0043283497651492369 0 -0.0054552508677067919 0.0045360652563886895 0 -0.0058460822882351561 0.0043283497651492369 0 -0.0054552508677067919 0.0045360652563886895 0 -0.0064209513194406912 0.0039649018209835258 0 -0.0047373640432547773 0.0048648577745990318 0 -0.0054552508677067919 0.0045360652563886895 0 -0.0047763014978621727 0.0045953972701568693 0 -0.0054552508677067919 0.0045360652563886895 0 -0.0047763014978621727 0.0045953972701568693 0 -0.0062807380058252926 0.0044116164389415048 0 -0.0047763014978621727 0.0045953972701568693 0 -0.0061612563139327985 0.004055509840042811 0 -0.0062807380058252926 0.0044116164389415048 0 -0.0041112223997379696 0.0058561355439244022 0 -0.0047763014978621727 0.0045953972701568693 0 -0.0035401182306671873 0.0060417954311714501 0 -0.0021697991100274759 0.0065634840409639732 0 -0.0047763014978621727 0.0045953972701568693 0 -0.0035401182306671873 0.0060417954311714501 0 -0.0047763014978621727 0.0045953972701568693 0 -0.0058131449140345773 0.0038952119753368781 0 -0.0061612563139327985 0.004055509840042811 0 -0.0058203172746929951 0.0036858488033218325 0 -0.0047763014978621727 0.0045953972701568693 0 -0.0058131449140345773 0.0038952119753368781 0 -0.0040397958360165282 0.0052646863605041823 0 -0.0046284571119714598 0.0047692496992706827 0 -0.0061492763816761338 0.0038028357898678557 0 -0.0060331017150805936 0.0038427677601130016 0 -0.0061612563139327985 0.004055509840042811 0 -0.0060331017150805936 0.0038427677601130016 0 -0.0058131449140345773 0.0038952119753368781 0 -0.0061612563139327985 0.004055509840042811 0 -0.0061492763816761338 0.0038028357898678557 0 -0.0061612563139327985 0.004055509840042811 0 -0.0067417338552450612 0.0041565646164423882 0 -0.0073825765731359736 0.0040299548020907607 0 -0.0067417338552450612 0.0041565646164423882 0 -0.0074691897987602621 0.0041536829577166106 0 -0.0067305925774678449 0.003987580506578217 0 -0.0067292904225533419 0.0041977191732368328 0 -0.0061612563139327985 0.004055509840042811 0 -0.0067417338552450612 0.0041565646164423882 0 -0.0062807380058252926 0.0044116164389415048 0 -0.0080431106812143306 0.0042627885056827691 0 -0.0074691897987602621 0.0041536829577166106 0 -0.0078760195182835998 0.0042517501473506225 0 -0.0083171327873493572 0.004362694389358936 0 -0.0080431106812143306 0.0042627885056827691 0 -0.0078760195182835998 0.0042517501473506225 0 -0.0085910413964207944 0.0043568235923274936 0 -0.0083171327873493572 0.004362694389358936 0 -0.0080431106812143306 0.0042627885056827691 0 -0.0078465408588351132 0.0040332757612496235 0 -0.0080431106812143306 0.0042627885056827691 0 -0.0074691897987602621 0.0041536829577166106 0 -0.0074691897987602621 0.0041536829577166106 0 -0.0078760195182835998 0.0042517501473506225 0 -0.0075870125601717707 0.0042149075428862051 0 -0.0067417338552450612 0.0041565646164423882 0 -0.0074691897987602621 0.0041536829577166106 0 -0.0075870125601717707 0.0042149075428862051 0 -0.008082287819947874 0.0042201976012896103 0 -0.0078760195182835998 0.0042517501473506225 0 -0.0075870125601717707 0.0042149075428862051 0 -0.008082287819947874 0.0042201976012896103 0 -0.0075870125601717707 0.0042149075428862051 0 -0.0077097008171734451 0.0040494734132689499 0 -0.0075870125601717707 0.0042149075428862051 0 -0.0073970905892712119 0.0039952599381172463 0 -0.007053162602506758 0.0042114204994582712 0 -0.0075870125601717707 0.0042149075428862051 0 -0.0073970905892712119 0.0039952599381172463 0 -0.0077097008171734451 0.0040494734132689499 0 -0.0062807380058252926 0.0044116164389415048 0 -0.007053162602506758 0.0042114204994582712 0 -0.0070218715121565653 0.0037291244632155305 0 -0.0067417338552450612 0.0041565646164423882 0 -0.0062807380058252926 0.0044116164389415048 0 -0.007053162602506758 0.0042114204994582712 0 -0.0067417338552450612 0.0041565646164423882 0 -0.0075870125601717707 0.0042149075428862051 0 -0.007053162602506758 0.0042114204994582712 0 -0.0070218715121565653 0.0037291244632155305 0 -0.0072268690558842741 0.0027553291069312633 0 -0.0067838738086706029 0.0031418979097828695 0 -0.0062807380058252926 0.0044116164389415048 0 -0.0070218715121565653 0.0037291244632155305 0 -0.0064209513194406912 0.0039649018209835258 0 -0.0073970905892712119 0.0039952599381172463 0 -0.007053162602506758 0.0042114204994582712 0 -0.0070218715121565653 0.0037291244632155305 0 -0.0070218715121565653 0.0037291244632155305 0 -0.0074962729179255611 0.0032114558009040486 0 -0.0074649714408368938 0.0028332926605249848 0 -0.0073970905892712119 0.0039952599381172463 0 -0.0077097008171734451 0.0040494734132689499 0 -0.0075283054506285951 0.0036834241639844296 0 -0.0077434109620022114 0.0038525643037984544 0 -0.0077097008171734451 0.0040494734132689499 0 -0.0075283054506285951 0.0036834241639844296 0 -0.0073970905892712119 0.0039952599381172463 0 -0.0070218715121565653 0.0037291244632155305 0 -0.0075283054506285951 0.0036834241639844296 0 -0.0070218715121565653 0.0037291244632155305 0 -0.0075283054506285951 0.0036834241639844296 0 -0.0074962729179255611 0.0032114558009040486 0 -0.0075283054506285951 0.0036834241639844296 0 -0.0076769050796259815 0.0028713104908633059 0 -0.0074962729179255611 0.0032114558009040486 0 -0.0076809061013011501 0.0036062991068676518 0 -0.0075283054506285951 0.0036834241639844296 0 -0.0076769050796259815 0.0028713104908633059 0 -0.0076809061013011501 0.0036062991068676518 0 -0.0077434109620022114 0.0038525643037984544 0 -0.0075283054506285951 0.0036834241639844296 0 -0.0074962729179255611 0.0032114558009040486 0 -0.0078104479727279059 0.0023211696700525366 0 -0.0074649714408368938 0.0028332926605249848 0 -0.0076769050796259815 0.0028713104908633059 0 -0.0074962729179255611 0.0032114558009040486 0 -0.0078104479727279059 0.0023211696700525366 0 -0.0076769050796259815 0.0028713104908633059 0 -0.0078104479727279059 0.0023211696700525366 0 -0.0080625891923351307 0.0019189939591513561 0 -0.0082707422288832242 0.0016197801742359917 0 -0.0076769050796259815 0.0028713104908633059 0 -0.0080625891923351307 0.0019189939591513561 0 -0.0070218715121565653 0.0037291244632155305 0 -0.0072268690558842741 0.0027553291069312633 0 -0.0074649714408368938 0.0028332926605249848 0 -0.007605232473137504 0.0022892934802966089 0 -0.0078104479727279059 0.0023211696700525366 0 -0.0074649714408368938 0.0028332926605249848 0 -0.007605232473137504 0.0022892934802966089 0 -0.0074422012412954531 0.0022441477812920438 0 -0.0072268690558842741 0.0027553291069312633 0 -0.007605232473137504 0.0022892934802966089 0 -0.0072268690558842741 0.0027553291069312633 0 -0.0074649714408368938 0.0028332926605249848 0 -0.0074422012412954531 0.0022441477812920438 0 -0.0072268690558842741 0.0027553291069312633 0 -0.0072306564287974917 0.0023667257735683852 0 -0.0072268690558842741 0.0027553291069312633 0 -0.0072306564287974917 0.0023667257735683852 0 -0.0067838738086706029 0.0031418979097828695 0 -0.0072306564287974917 0.0023667257735683852 0 -0.0072040459389168645 0.0023695606679528555 0 -0.0067838738086706029 0.0031418979097828695 0 -0.0072674350222143719 0.0021091091068594346 0 -0.0072306564287974917 0.0023667257735683852 0 -0.0072040459389168645 0.0023695606679528555 0 -0.0072040459389168645 0.0023695606679528555 0 -0.0071608480206373911 0.003153756109502861 0 -0.0067838738086706029 0.0031418979097828695 0 -0.0070113162781423235 0.0021393205820169135 0 -0.0071856206609863535 0.00227841973870749 0 -0.0072040459389168645 0.0023695606679528555 0 -0.0071856206609863535 0.00227841973870749 0 -0.0072040459389168645 0.0023695606679528555 0 -0.0071608480206373911 0.003153756109502861 0 -0.0061107913635355055 0.0027934176717165186 0 -0.0060107339857395047 0.0036993564741169896 0 -0.0050436470405945278 0.0032512558910738234 0 -0.0050794490270256376 0.0041529909931611389 0 -0.004856046487805037 0.0043047271510801566 0 -0.0050794490270256376 0.0041529909931611389 0 -0.0049051665871445039 0.0045478975445741266 0 -0.004856046487805037 0.0043047271510801566 0 -0.0058675677684668298 0.004251658196550003 0 -0.0060107339857395047 0.0036993564741169896 0 -0.0049051665871445039 0.0045478975445741266 0 -0.0058460822882351561 0.0043283497651492369 0 -0.004856046487805037 0.0043047271510801566 0 -0.0058460822882351561 0.0043283497651492369 0 -0.0071608480206373911 0.003153756109502861 0 -0.0067838738086706029 0.0031418979097828695 0 -0.0070218715121565653 0.0037291244632155305 0 -0.0064209513194406912 0.0039649018209835258 0 -0.0067838738086706029 0.0031418979097828695 0 -0.0058460822882351561 0.0043283497651492369 0 -0.0064209513194406912 0.0039649018209835258 0 -0.0067838738086706029 0.0031418979097828695 0 
</DataArray>
</PointData>
<CellData Scalars="region_id,cross_section_updated," Vectors="" Tensors="stress,">
<DataArray type="Float64" Name="region_id" format="ascii">
5 5 5 5 6 5 5 5 5 5 6 5 5 5 5 5 5 5 5 5 5 5 5 5 5 5 5 5 5 5 5 5 5 6 5 5 5 5 5 5 5 5 6 5 5 5 5 5 6 6 5 5 5 5 5 5 5 6 5 6 5 5 5 5 5 6 5 5 5 5 5 5 5 5 6 5 5 5 5 5 5 5 5 5 5 6 5 5 6 5 5 5 5 5 6 5 5 5 5 5 5 5 5 5 5 5 5 5 5 5 5 5 5 5 5 5 6 5 5 6 5 5 5 5 5 5 6 5 5 5 5 5 6 5 5 5 5 5 5 5 5 5 5 5 5 5 5 5 6 5 5 5 5 5 5 5 5 6 5 5 5 6 5 5 5 5 5 5 6 5 5 5 5 5 5 5 6 5 5 5 5 5 5 5 5 6 5 5 5 5 5 5 5 5 5 5 5 6 5 5 5 5 5 5 5 5 5 5 5 5 5 5 6 5 5 5 5 5 5 5 5 5 5 5 5 5 5 5 5 5 5 6 5 5 5 5 5 5 5 6 5 5 5 5 5 5 5 5 5 5 5 5 5 5 5 5 6 5 6 5 5 5 5 5 5 5 5 5 5 5 5 6 5 5 6 5 5 5 5 5 5 5 5 5 5 6 5 5 5 5 5 5 5 5 5 5 5 5 5 5 5 5 5 5 5 6 6 5 6 5 6 5 5 5 6 5 5 5 5 6 5 5 5 5 5 6 5 6 5 5 6 5 6 5 6 5 6 5 6 6 5 5 6 5 6 5 5 5 5 5 6 5 6 5 5 5 5 5 5 5 5 5 5 5 5 5 5 5 6 5 5 5 5 6 5 5 5 5 5 5 6 5 5 6 5 5 5 5 5 6 5 6 5 5 5 5 5 5 5 5 5 5 5 5 5 6 5 5 5 5 5 5 5 5 5 5 5 5 6 5 5 5 5 5 6 5 6 5 5 5 6 5 6 5 5 5 6 6 5 5 5 6 5 5 5 6 5 5 5 5 5 6 5 5 5 5 5 5 5 6 5 6 5 5 5 5 5 5 5 5 5 5 5 5 5 5 5 5 5 5 5 5 5 5 5 5 5 5 5 5 5 5 5 5 5 5 5 5 5 5 5 6 5 5 5 5 6 5 5 6 5 5 5 5 5 5 5 5 6 5 5 5 5 5 5 5 5 5 5 5 5 5 5 5 5 5 5 5 5 5 5 5 5 6 5 5 5 5 6 5 5 6 5 5 5 6 5 5 5 5 5 5 5 6 5 5 5 5 5 5 5 5 5 6 5 5 5 5 5 5 5 5 5 5 5 6 5 5 5 5 5 5 5 5 5 5 5 5 6 5 5 5 5 5 5 5 5 5 5 5 5 5 6 5 5 5 5 5 5 6 5 6 5 5 5 6 5 5 5 6 5 5 5 5 5 5 5 6 5 5 5 5 5 5 5 5 5 5 5 5 5 5 6 5 5 5 5 5 5 5 5 5 5 5 5 5 5 5 5 5 5 5 5 5 5 5 5 5 6 5 6 5 5 5 5 5 5 5 5 5 5 5 5 5 5 5 5 5 6 5 5 5 5 6 6 5 5 5 6 5 5 5 5 5 5 5 5 5 5 6 5 6 5 6 5 5 5 5 5 5 5 5 5 5 5 5 5 5 5 5 5 5 6 5 5 6 5 5 5 5 5 5 5 5 5 5 5 5 5 5 5 5 5 5 5 6 5 5 5 6 5 5 5 5 5 6 5 5 5 5 5 5 5 5 5 5 5 6 5 5 5 5 5 5 6 5 5 5 5 5 5 5 6 6 5 5 5 6 5 5 5 6 5 5 5 5 5 5 5 5 5 5 5 5 6 6 5 5 5 5 6 5 5 5 5 5 5 5 5 6 5 5 5 6 5 5 5 5 5 5 5 5 5 5 5 5 5 5 5 5 5 5 5 5 5 5 5 5 6 5 5 5 5 6 5 5 5 5 6 5 5 5 5 5 5 5 5 5 5 5 5 5 5 5 5 5 5 5 5 5 5 5 5 5 5 6 5 5 6 5 5 5 6 6 5 5 5 5 5 5 6 5 6 5 5 5 5 5 5 6 5 5 5 5 5 5 5 5 5 6 5 6 5 5 5 5 6 5 5 5 5 5 6 5 5 6 6 5 5 5 5 5 5 5 5 6 6 5 5 5 5 5 5 5 5 5 5 5 5 5 5 5 5 5 5 5 5 5 6 5 5 5 5 5 5 5 5 5 5 5 5 5 5 5 5 5 5 5 5 5 5 5 5 5 5 5 5 5 5 6 5 5 5 5 5 5 5 5 5 5 5 5 5 5 5 6 5 5 6 5 5 6 5 5 5 5 5 6 5 5 5 5 5 5 5 5 5 5 5 5 5 5 5 5 5 5 5 5 5 5 5 5 5 5 5 5 5 5 5 5 5 5 5 5 5 5 5 5 5 5 5 5 5 5 5 5 5 5 5 5 5 5 6 5 6 5 5 5 5 5 5 5 5 5 6 5 5 5 5 5 5 6 5 5 5 5 5 5 5 5 5 5 5 5 5 5 5 5 5 5 5 5 5 5 5 5 5 5 5 5 5 5 5 5 5 5 5 5 5 5 5 5 5 5 5 5 5 5 5 5 5 5 5 5 5 5 5 5 5 5 5 5 5 5 5 5 5 5 5 5 5 5 5 5 5 5 5 5 5 5 5 5 5 5 5 5 5 5 6 5 5 6 5 5 5 5 5 5 5 5 5 5 5 5 5 5 5 5 5 5 5 5 5 5 5 5 5 5 5 5 5 5 5 5 5 5 5 5 5 5 5 5 5 5 5 5 5 5 5 5 5 5 5 5 5 5 5 5 5 5 5 5 5 6 5 5 5 5 5 6 5 5 5 5 5 5 5 6 5 5 5 5 5 5 6 5 5 5 6 5 5 5 5 5 5 5 5 5 5 6 5 6 5 5 6 5 5 5 5 5 5 5 5 5 5 5 5 5 5 5 5 5 5 5 5 5 6 5 5 5 5 5 5 5 5 5 5 5 5 6 5 5 5 5 5 5 5 5 5 5 5 5 5 6 5 5 5 5 5 6 5 6 5 5 5 5 5 5 5 5 5 5 5 6 5 6 5 5 6 5 5 5 5 6 5 5 5 5 5 5 5 5 5 5 5 5 5 5 5 5 5 5 5 5 6 5 5 5 6 6 5 5 5 5 5 5 5 5 6 5 5 5 5 5 5 6 5 5 5 5 5 5 5 5 5 5 5 5 6 5 5 6 5 5 5 5 5 5 6 5 5 6 5 5 5 5 5 5 6 5 5 6 5 5 5 5 6 5 5 5 5 5 5 5 5 5 5 5 5 5 5 6 6 5 5 5 5 5 5 5 5 5 5 5 5 5 5 5 5 5 5 5 5 5 6 5 5 5 5 5 5 5 5 5 5 5 5 5 5 5 5 5 5 5 5 5 5 5 5 5 5 6 5 5 5 5 5 5 5 5 5 5 5 5 5 6 5 6 5 5 6 5 5 6 5 5 5 5 5 5 5 5 6 5 5 5 5 5 5 5 5 5 5 5 5 5 5 5 5 5 5 5 5 5 5 5 5 5 6 5 5 6 5 6 5 6 5 5 6 5 5 5 5 5 5 5 5 6 5 5 5 6 5 5 5 5 5 5 5 5 5 6 5 5 5 5 5 5 5 5 5 5 6 5 6 5 5 5 5 5 6 5 5 5 5 5 5 5 5 5 5 6 5 5 5 5 6 5 5 5 6 6 5 5 5 5 5 5 5 5 5 5 5 5 5 5 5 5 5 5 5 5 5 5 5 5 5 5 5 5 5 5 5 5 5 5 5 5 5 5 5 5 5 5 5 5 5 5 5 5 5 5 5 5 5 5 5 5 5 5 5 5 5 5 5 5 5 5 5 5 5 5 5 5 5 5 5 5 5 5 5 5 5 5 5 5 5 5 5 5 5 5 5 5 5 5 5 5 5 5 5 5 5 5 5 5 5 5 5 5 5 5 5 5 5 5 5 5 5 5 5 5 5 5 5 5 5 5 6 6 5 6 5 5 5 5 5 5 5 5 5 5 5 5 5 5 5 5 5 5 5 5 5 5 5 5 5 5 5 5 5 5 5 5 5 5 5 5 5 5 5 5 5 5 5 5 5 5 5 5 5 5 5 5 5 5 5 5 5 5 5 5 5 5 5 5 6 6 5 5 5 5 5 5 5 5 5 5 5 5 5 6 5 5 5 5 6 5 5 5 5 5 5 5 5 5 6 5 5 5 6 5 5 5 5 5 5 5 6 5 5 5 5 5 5 6 5 5 5 5 6 5 5 5 5 5 5 5 5 5 5 6 5 5 5 6 5 5 5 5 5 6 5 5 5 5 5 5 5 5 5 5 5 5 5 5 5 5 5 5 5 5 5 5 5 5 5 5 5 5 5 5 5 6 5 6 5 5 5 6 5 5 6 5 5 5 6 5 5 5 6 5 5 5 5 5 5 5 5 5 5 5 5 5 5 5 5 5 5 5 5 5 5 5 5 5 5 5 5 5 5 5 5 5 5 6 5 5 5 5 5 6 5 5 5 5 5 5 5 5 5 5 5 5 5 5 5 5 5 5 5 5 6 5 5 6 5 5 6 5 5 6 5 5 5 5 6 6 5 5 5 5 5 5 5 5 5 5 5 5 5 5 5 6 5 5 5 6 5 6 5 6 6 5 5 5 5 5 6 5 5 5 6 5 5 5 6 5 5 5 5 5 6 5 5 5 5 6 5 5 5 5 5 5 5 6 6 5 5 5 5 6 5 5 5 5 5 5 6 6 5 5 5 5 5 5 5 6 5 5 6 5 5 5 5 5 5 5 5 5 5 5 6 5 5 5 5 5 5 5 5 6 5 5 5 5 6 5 5 5 6 5 5 5 5 6 5 5 5 5 5 5 6 5 5 5 5 5 6 5 5 5 6 5 5 5 5 5 5 5 5 5 5 5 5 5 5 5 5 5 5 5 5 5 5 5 5 5 6 5 5 5 5 5 5 5 5 5 5 5 6 5 5 5 5 5 5 5 5 6 5 5 5 5 5 5 6 6 5 6 6 5 5 5 5 5 5 5 5 5 5 5 5 5 5 5 5 5 6 5 5 5 5 6 5 5 5 5 6 5 5 5 6 5 5 5 5 5 5 5 5 6 5 5 5 5 5 5 5 6 5 5 5 6 5 5 6 5 5 6 5 6 5 5 5 5 5 5 5 5 6 5 6 5 6 5 5 5 6 6 5 5 5 6 5 5 5 5 5 5 5 6 5 6 5 6 5 6 5 5 5 5 5 5 5 5 5 6 5 5 5 5 5 5 6 5 5 5 5 5 5 5 5 5 5 5 5 5 5 5 5 5 5 6 5 5 6 5 5 5 5 5 6 5 5 5 6 5 5 5 5 5 5 6 5 5 5 5 5 6 5 5 5 5 6 5 5 5 5 5 5 5 5 5 5 5 5 5 5 5 5 5 5 5 5 5 5 6 5 5 5 5 5 5 5 5 5 5 5 5 6 5 5 5 6 5 5 5 5 6 5 5 5 6 5 5 5 6 5 6 5 5 5 5 5 5 5 5 5 5 5 5 5 5 5 5 6 5 5 5 5 5 6 5 5 5 5 5 5 5 6 5 6 5 6 5 5 6 5 5 6 5 5 5 5 5 5 5 6 5 5 5 5 5 6 5 5 5 5 5 5 5 5 5 5 5 5 5 6 5 5 6 5 5 5 5 6 5 6 5 5 5 5 5 5 5 6 5 6 5 5 5 5 5 5 5 6 5 5 5 5 5 5 6 6 5 5 6 5 5 5 5 5 5 5 5 5 5 5 5 5 5 5 5 5 5 5 5 5 5 5 5 6 5 5 6 5 5 5 5 5 5 5 5 5 5 5 5 6 5 5 6 5 5 5 5 6 5 5 5 6 5 5 5 5 6 5 5 5 6 5 5 6 5 5 6 5 6 5 6 5 5 6 5 6 5 5 5 6 5 5 5 5 5 5 5 5 5 5 5 5 6 5 5 5 5 5 6 5 5 5 5 6 5 5 5 5 5 5 5 5 5 5 5 5 5 5 5 5 5 5 5 5 5 6 5 5 6 5 5 5 5 5 5 5 5 6 5 6 5 5 5 5 5 5 5 5 5 5 6 5 5 5 6 5 5 5 5 6 5 5 5 5 5 5 5 5 6 5 6 6 5 5 5 5 5 6 5 5 6 5 5 5 6 5 6 5 5 6 5 6 5 5 5 6 6 5 5 5 6 5 6 5 6 5 5 5 6 5 5 6 5 5 5 5 5 5 5 6 5 6 6 5 6 6 6 5 5 5 6 5 5 5 5 5 6 5 5 5 6 5 6 6 6 5 5 6 5 6 6 6 5 5 5 6 5 5 6 5 5 5 5 6 5 5 5 5 5 6 5 5 5 6 5 6 5 5 5 6 5 5 5 6 5 5 5 5 6 5 5 6 5 6 5 5 6 6 5 5 5 5 6 6 5 5 5 5 5 5 5 5 5 5 5 5 5 5 5 5 5 5 5 5 5 5 5 6 5 5 5 5 5 6 5 5 5 5 5 5 5 5 5 5 6 6 5 5 5 5 6 5 6 5 6 6 5 5 6 5 6 5 5 5 5 5 5 5 5 5 5 5 5 5 5 5 5 5 5 5 5 6 5 6 5 5 5 5 5 5 5 5 5 6 5 5 5 5 5 5 5 5 5 5 5 5 5 5 5 5 5 5 5 5 5 5 5 5 5 5 6 5 5 5 5 5 5 5 5 5 5 5 5 5 5 5 5 5 5 5 5 5 5 5 5 5 5 5 5 5 5 5 5 5 5 5 5 5 5 5 5 5 5 5 5 5 5 5 5 5 5 6 5 5 5 5 5 5 5 5 5 5 5 5 5 5 5 5 5 5 5 5 5 5 5 5 5 5 5 5 5 5 5 5 5 5 5 5 5 6 5 5 5 5 5 5 5 5 5 5 5 5 5 6 5 5 5 6 5 6 5 5 5 5 5 5 6 5 5 5 5 5 6 5 5 5 5 5 5 6 5 5 5 5 5 5 5 6 5 5 5 5 5 5 5 5 5 5 5 5 5 5 5 5 5 5 5 5 5 5 5 5 5 5 5 5 5 5 5 5 5 5 5 5 5 5 5 5 5 5 5 5 5 5 5 5 5 5 5 5 5 5 5 5 5 5 5 5 5 5 5 5 5 5 5 5 5 5 5 5 5 5 5 5 5 5 5 5 5 5 5 5 5 5 5 5 5 5 5 5 5 5 5 5 5 6 5 5 5 5 6 5 5 5 5 5 5 5 5 5 6 5 6 5 5 5 5 5 5 6 6 5 5 5 5 5 5 5 5 5 6 6 5 5 6 5 5 6 5 6 5 5 5 5 5 5 5 5 5 5 5 5 5 5 5 5 5 5 5 6 5 5 5 5 6 5 5 5 5 5 5 5 5 5 5 5 5 6 5 5 5 5 5 5 5 5 5 6 6 5 6 5 5 5 6 5 5 5 5 5 5 5 5 5 5 5 5 5 6 6 5 5 6 5 5 6 5 6 5 5 5 5 5 5 5 5 5 5 5 5 5 5 6 5 5 5 6 6 5 5 5 5 6 6 5 5 5 5 5 5 5 6 5 5 6 5 6 6 5 6 5 5 5 5 5 5 5 5 5 6 5 6 5 5 6 6 5 5 5 5 5 5 6 5 6 5 5 6 5 5 5 5 6 5 5 5 5 5 5 5 5 5 5 5 5 5 5 6 5 5 5 5 5 6 5 5 6 6 5 5 5 5 5 5 5 5 5 5 5 5 5 5 5 5 5 5 5 6 5 5 5 5 5 6 5 5 5 5 5 5 5 5 5 6 5 6 5 6 5 5 5 5 6 5 5 5 5 5 6 5 5 5 5 5 5 5 5 5 5 5 5 5 5 5 6 5 5 5 5 5 5 6 5 5 5 6 5 5 6 5 5 5 5 5 5 5 5 5 5 5 5 5 5 5 5 6 5 5 5 5 5 5 5 5 5 5 5 5 6 5 5 6 5 6 5 6 5 5 5 5 5 5 5 5 5 5 5 5 5 5 5 5 5 5 5 5 5 5 5 5 5 5 5 5 5 5 5 5 5 5 5 5 5 5 5 5 5 5 5 5 5 5 5 5 5 5 5 5 5 5 6 5 5 5 5 5 6 5 5 5 5 5 5 5 5 5 6 5 5 5 5 5 6 5 5 5 5 5 5 5 5 5 5 5 5 5 5 5 5 5 6 5 5 6 5 5 6 5 6 5 5 5 5 5 5 5 5 6 5 6 5 6 5 5 5 5 5 5 5 6 5 5 5 5 5 5 5 5 5 5 5 5 5 5 5 5 5 5 6 5 6 5 6 5 5 5 5 5 5 5 5 5 5 6 5 5 6 5 5 6 5 5 5 5 5 5 6 5 5 5 5 5 5 5 5 5 5 5 5 5 5 5 5 5 5 5 5 5 5 6 5 5 6 5 5 5 5 5 5 5 5 5 5 5 5 5 5 6 6 5 5 5 5 5 5 5 5 5 5 6 5 5 5 5 5 5 5 6 5 5 5 5 5 5 5 5 5 5 5 6 5 5 5 5 5 5 5 5 6 5 6 5 5 5 5 5 5 5 5 5 5 5 5 5 5 5 5 5 5 5 6 5 5 6 5 5 5 5 5 5 5 5 6 5 5 5 5 5 5 5 5 5 5 5 5 5 5 5 6 5 5 5 5 6 5 5 5 6 5 5 5 5 5 6 5 5 5 6 5 5 5 5 6 5 5 5 6 5 5 5 5 5 5 5 5 5 5 5 5 5 5 5 5 5 5 5 5 5 5 5 5 5 5 5 5 5 5 6 5 5 5 5 5 5 6 5 5 5 6 5 5 5 5 5 5 6 5 5 6 5 5 6 5 5 6 6 5 5 5 6 5 5 6 5 5 5 5 5 5 5 5 5 5 5 6 5 6 5 5 5 5 6 5 5 5 5 5 5 5 5 5 5 6 5 5 5 5 5 5 5 5 5 5 5 5 5 5 5 5 5 5 5 5 5 5 5 5 5 5 5 5 5 5 5 5 5 5 5 5 5 5 5 5 5 5 5 5 5 5 5 5 5 5 5 6 5 5 6 5 5 5 5 5 5 5 5 5 5 5 5 5 5 5 5 5 5 6 5 5 5 5 5 5 5 5 5 5 6 5 5 5 5 5 5 5 5 5 5 5 5 5 5 5 5 5 5 5 5 5 5 5 5 5 5 5 5 5 5 5 5 5 5 5 5 5 5 5 5 6 5 5 5 5 5 5 5 5 5 5 5 6 5 5 5 5 5 5 5 5 5 5 5 5 5 6 5 5 5 5 6 5 5 5 5 5 5 5 5 5 5 5 5 5 5 5 5 5 6 5 5 5 6 5 5 5 5 5 5 5 5 5 5 5 5 5 5 5 6 5 5 5 5 5 5 5 5 6 5 5 5 5 5 5 5 5 5 6 6 5 5 5 5 6 5 5 5 6 5 5 5 5 5 5 5 5 5 5 6 5 5 5 5 5 5 5 5 5 5 5 5 5 5 5 5 5 5 5 5 5 5 6 5 5 5 5 5 5 5 5 5 5 5 5 5 5 5 5 5 5 5 5 5 5 5 5 5 5 5 5 5 5 5 5 5 5 5 5 5 5 5 5 5 5 5 5 5 5 5 5 5 5 5 5 5 5 5 5 5 5 5 5 5 5 5 5 5 5 5 5 5 5 5 5 5 5 5 5 5 5 5 5 5 5 5 6 5 5 5 5 5 5 5 5 5 5 5 5 5 5 6 5 5 6 5 5 5 5 5 6 5 5 5 5 5 5 5 5 5 5 5 6 5 5 5 5 5 5 5 5 5 5 5 5 5 5 5 5 5 5 5 6 5 5 5 5 5 5 6 5 6 5 5 5 5 5 5 5 5 5 5 5 5 5 5 6 5 5 5 5 5 5 5 5 6 5 5 5 5 5 5 6 5 5 6 6 5 5 5 5 5 5 5 5 5 5 5 5 5 5 5 5 5 6 5 5 5 5 6 5 5 5 5 5 5 5 5 5 5 5 5 5 5 6 5 5 5 5 6 5 5 6 6 5 5 5 6 5 5 5 5 6 5 6 5 6 5 5 6 5 5 6 5 5 6 5 5 5 5 5 5 6 5 5 5 6 5 6 5 5 6 5 5 5 5 5 5 5 5 5 5 5 5 5 5 5 5 5 5 5 5 5 5 5 5 5 6 5 5 5 6 5 6 5 5 6 5 5 5 5 6 5 6 5 5 5 6 5 5 5 6 6 5 5 6 5 5 5 6 5 5 5 5 5 6 5 5 5 5 5 6 5 5 5 5 5 5 5 5 5 5 5 6 5 5 5 5 5 6 5 5 6 5 6 5 5 5 6 5 5 5 5 5 5 5 5 5 5 5 5 5 5 5 5 5 5 5 5 5 5 5 5 5 5 5 5 5 5 5 5 5 5 5 6 5 5 5 5 5 5 5 5 6 5 5 6 5 5 5 5 5 5 5 5 5 5 5 5 5 5 5 5 5 5 5 5 6 5 5 5 5 5 5 5 5 5 5 5 5 5 5 5 5 5 5 5 5 5 5 5 5 5 5 5 5 5 5 5 5 5 5 5 5 5 5 5 5 5 6 6 5 6 5 5 6 5 5 5 6 5 5 5 5 5 5 5 5 5 5 5 5 5 5 5 6 6 5 5 5 5 6 5 5 5 5 5 5 5 5 5 5 6 6 6 5 5 6 5 5 5 6 5 5 5 6 5 5 6 5 5 5 5 5 5 5 5 5 5 5 5 6 5 5 5 5 5 5 5 5 6 5 5 5 6 5 5 6 5 5 6 5 5 5 5 5 5 6 5 6 5 5 5 5 6 5 5 5 5 5 5 5 5 5 5 5 5 5 5 5 5 5 5 5 5 6 5 5 5 5 6 6 5 5 5 5 5 5 5 5 5 5 5 6 5 5 5 5 5 5 5 5 6 5 5 5 5 5 5 5 5 5 5 5 5 6 5 5 5 5 5 5 5 5 5 6 5 5 6 5 6 5 5 5 6 5 5 5 5 5 6 5 5 6 5 5 5 5 5 5 5 6 5 5 5 6 5 5 5 5 5 5 5 5 5 5 5 5 5 5 5 5 5 6 5 5 6 5 5 6 6 5 5 5 5 5 5 5 5 5 5 5 5 6 5 5 5 5 5 5 5 5 5 5 5 5 5 5 5 6 5 5 6 5 5 6 5 5 6 5 5 5 5 5 5 5 5 5 5 6 5 5 5 5 5 5 5 6 5 5 5 6 5 5 5 6 5 5 6 5 5 5 5 5 5 6 5 5 5 5 5 5 5 5 5 5 6 5 5 5 5 5 6 5 5 5 5 5 5 5 5 5 6 5 5 5 5 6 5 5 5 5 5 5 5 5 5 5 5 5 5 5 5 5 5 5 5 6 5 5 5 5 6 5 5 5 5 5 5 5 6 5 5 5 5 5 5 5 5 5 5 5 5 5 5 6 5 5 6 5 5 6 5 5 5 5 5 5 5 6 5 5 6 5 5 5 5 5 5 6 6 5 6 6 5 6 6 5 5 5 6 5 5 5 5 5 5 5 5 5 5 5 5 5 5 5 5 6 5 5 5 5 5 5 5 6 5 5 5 5 5 5 5 6 6 5 6 5 5 5 5 5 6 5 5 5 5 5 5 5 5 5 5 5 5 5 5 5 5 5 5 5 5 5 5 5 5 5 5 5 5 5 5 5 5 6 5 5 5 5 6 5 5 5 5 5 5 5 6 5 5 5 5 6 5 5 5 5 5 5 6 6 5 5 5 5 5 5 5 5 5 5 6 6 5 6 6 5 5 5 5 5 5 5 5 5 5 5 5 5 5 6 5 5 5 5 5 5 5 5 5 5 6 6 5 5 5 5 6 6 5 5 6 5 5 5 5 5 5 5 5 5 5 5 5 5 5 5 5 5 5 5 5 5 5 5 5 5 5 6 5 5 5 5 5 5 5 5 5 5 5 5 5 5 5 5 5 5 5 5 5 5 5 5 5 5 6 5 5 5 5 5 5 5 5 5 5 5 5 5 5 5 5 5 6 6 5 5 5 5 5 5 5 6 5 5 5 6 6 5 5 5 5 5 5 5 5 5 5 5 5 5 5 5 5 5 6 5 5 5 5 5 5 5 5 6 5 5 5 5 5 5 5 5 5 5 6 5 5 5 5 5 5 6 5 5 5 5 5 5 5 5 5 5 6 5 5 6 5 5 5 5 5 5 5 5 6 6 5 5 5 5 6 5 5 5 6 5 5 5 6 6 5 6 5 5 5 5 5 5 5 5 6 5 5 5 5 5 5 5 5 5 5 5 5 5 6 5 5 5 5 5 5 6 6 5 6 5 5 6 6 5 5 5 5 5 5 6 5 6 5 5 5 6 5 6 5 5 5 5 5 6 5 5 5 5 5 5 5 5 5 5 5 5 5 5 5 6 5 5 5 5 5 5 5 5 5 5 5 5 5 5 5 5 5 5 5 5 5 6 6 5 5 5 5 5 5 5 5 5 5 5 5 5 5 5 5 5 5 5 6 5 5 6 5 5 5 5 5 5 5 5 5 5 5 5 5 5 5 6 5 5 5 5 6 5 5 5 5 5 5 5 5 5 5 5 5 5 5 5 6 5 6 5 5 5 5 6 5 6 5 5 5 5 5 5 5 5 5 5 5 5 5 5 5 5 5 5 5 5 5 5 5 5 5 5 5 5 5 5 5 5 5 5 5 5 5 5 5 5 6 5 5 5 5 5 5 5 6 5 5 5 5 5 5 6 6 5 5 5 5 5 5 5 5 5 5 5 5 5 5 5 5 5 5 5 5 5 5 5 5 5 5 5 5 5 5 5 6 5 5 5 5 5 5 5 5 5 5 5 5 5 5 5 5 5 5 5 5 5 5 5 5 5 5 5 5 5 5 5 5 5 5 5 5 5 5 5 5 5 5 5 5 5 5 5 5 5 5 5 5 5 5 5 5 5 6 5 5 5 6 5 6 5 6 5 5 5 5 6 5 5 5 6 5 6 6 5 6 5 5 6 5 5 5 5 5 5 5 5 6 5 5 5 5 5 5 5 5 5 5 5 5 6 5 5 5 6 5 5 6 5 5 5 5 5 5 5 6 6 5 6 5 6 6 5 5 5 5 5 5 5 5 5 5 5 5 6 5 5 5 5 5 5 5 5 5 6 5 5 5 5 5 5 5 5 5 5 5 5 5 5 5 5 5 5 5 5 5 5 5 5 5 5 5 5 5 5 6 5 5 5 5 5 5 5 6 5 6 5 5 5 5 5 5 5 6 5 5 5 5 5 5 5 6 5 5 5 6 5 6 5 5 5 5 5 5 5 5 5 5 5 5 5 5 5 5 5 5 5 5 5 5 5 5 5 5 5 5 5 5 5 5 5 5 5 5 5 5 5 5 5 5 5 5 5 5 5 5 5 6 5 6 5 5 5 6 5 5 5 6 5 5 5 6 6 5 6 5 5 5 5 5 5 5 5 5 6 5 5 5 5 5 5 5 5 5 6 5 5 5 5 6 5 5 5 5 5 5 5 5 5 5 5 5 5 6 5 5 5 5 6 5 6 5 6 5 5 5 5 5 6 5 5 6 5 5 5 5 5 6 5 5 6 5 5 5 5 5 6 5 5 6 6 6 6 5 5 6 6 5 5 5 5 5 5 5 6 5 6 5 5 5 5 5 5 5 5 5 5 5 5 5 5 5 5 5 5 5 5 5 5 5 5 5 5 5 5 5 5 5 6 5 5 5 5 5 5 5 5 6 5 5 5 5 5 5 5 5 5 5 5 5 5 5 5 6 5 5 6 5 5 5 5 5 5 5 5 5 5 5 5 5 5 6 5 5 5 5 5 5 5 5 5 5 6 5 5 5 5 6 5 5 5 5 5 6 5 5 6 6 5 5 5 5 5 5 5 5 5 6 5 5 5 5 5 5 5 5 5 5 5 5 5 5 5 5 5 5 5 5 5 5 5 5 5 5 5 5 5 5 5 5 5 5 5 5 5 6 5 5 5 5 5 5 5 5 6 6 6 6 5 5 5 5 5 5 5 5 5 5 5 5 6 5 5 6 5 5 5 5 5 5 5 5 5 5 5 6 5 5 5 5 5 5 5 5 5 5 5 5 5 5 5 6 5 5 5 5 5 5 5 5 5 6 5 6 5 5 5 5 5 5 5 5 5 5 5 5 5 5 5 5 6 5 5 5 5 5 5 6 6 5 5 6 5 5 6 5 5 5 5 5 6 5 5 5 5 5 5 5 5 5 5 5 5 5 6 5 5 5 5 6 5 6 5 5 6 6 5 5 5 5 6 5 5 5 5 5 5 5 5 5 5 5 5 6 5 5 5 5 5 5 5 5 5 5 6 6 5 5 5 5 6 5 5 6 5 5 5 5 5 6 5 5 5 5 6 5 5 5 5 5 5 5 5 5 5 5 5 5 5 5 5 5 5 5 5 5 5 5 5 5 5 6 5 6 6 6 6 5 5 5 5 5 5 5 6 5 5 5 5 5 5 5 5 5 5 5 5 6 5 5 5 5 5 5 5 5 5 5 5 5 5 5 5 5 5 5 5 5 5 5 5 5 5 5 5 5 5 5 5 5 6 5 5 5 5 5 5 5 5 5 5 5 5 5 5 5 5 5 5 5 5 5 5 5 5 5 6 5 5 5 5 5 5 5 5 5 5 6 5 5 5 5 5 5 5 5 5 5 5 6 5 5 5 5 5 5 5 5 5 5 5 5 5 5 6 5 5 5 5 5 5 5 5 5 5 5 5 5 5 5 5 5 5 5 5 5 5 5 5 5 5 5 5 5 6 5 5 5 5 6 6 5 5 5 5 5 5 5 6 5 5 5 5 5 5 5 5 5 6 5 5 5 5 5 5 5 6 5 5 5 5 5 6 5 6 5 5 5 5 6 5 5 5 5 5 5 5 5 5 5 5 6 5 5 5 5 5 5 5 5 5 5 5 6 6 5 5 5 5 6 5 5 6 5 5 5 6 5 5 5 6 5 5 5 5 5 6 5 5 5 5 5 5 5 5 5 5 5 5 5 5 5 5 5 5 5 5 6 5 5 5 6 5 5 5 5 5 6 5 6 5 5 5 5 5 5 5 5 5 5 5 6 5 5 5 5 5 5 5 5 5 5 5 5 5 5 5 5 5 5 5 5 5 5 5 5 5 5 5 5 5 5 5 6 5 5 5 5 6 5 6 5 5 5 5 5 5 5 5 5 5 5 5 6 5 5 5 6 5 5 5 5 5 6 5 5 5 5 5 5 6 6 5 5 5 5 5 5 5 6 5 5 5 5 5 5 5 5 5 5 6 5 5 5 5 5 5 5 5 5 5 5 5 5 5 5 6 5 5 5 5 5 5 5 5 5 5 5 5 5 5 5 5 5 5 5 5 5 5 5 5 6 5 6 5 5 5 5 5 5 5 5 5 5 5 5 5 5 5 5 5 5 5 5 5 5 5 5 5 5 5 5 5 5 5 5 5 5 5 5 5 5 5 5 5 5 5 5 5 5 5 5 5 5 5 5 5 5 5 5 5 5 5 5 6 5 5 5 5 6 5 6 5 5 5 5 5 5 5 6 5 5 6 5 6 5 6 5 6 5 5 5 5 5 5 5 5 5 5 5 6 6 5 6 5 6 5 5 6 5 5 5 5 6 5 6 5 5 5 6 5 5 5 5 5 6 5 6 5 5 6 6 5 5 5 6 6 5 5 5 5 5 5 5 5 5 5 5 5 5 5 5 5 5 5 5 5 5 6 5 5 6 5 5 5 5 6 5 5 5 6 5 5 5 5 5 5 5 5 5 5 5 5 5 5 5 5 5 5 5 5 6 5 5 5 5 5 5 5 6 5 5 5 6 5 5 5 5 5 5 5 5 5 5 5 5 5 5 5 5 5 5 6 5 5 6 5 5 6 5 5 6 5 5 5 5 5 5 5 5 5 5 6 5 5 5 5 5 5 5 5 5 6 5 5 5 5 5 6 5 6 5 5 5 6 5 5 5 5 5 5 5 5 5 5 5 5 5 5 5 5 5 5 5 6 5 5 5 5 5 5 5 6 5 5 5 5 5 5 5 5 6 5 5 5 5 5 6 5 6 5 6 6 5 5 5 5 5 5 5 5 5 5 5 6 5 5 5 5 5 5 5 5 5 5 5 5 5 5 6 5 6 6 5 5 5 5 5 5 5 5 5 5 5 6 6 5 5 5 6 5 5 5 6 5 5 5 5 5 5 5 5 5 5 5 5 5 5 5 6 5 6 5 5 5 5 5 6 5 5 5 5 5 5 5 6 5 5 6 5 6 5 6 5 5 5 5 5 6 5 6 5 5 6 6 5 5 5 5 5 5 5 5 5 5 5 5 5 5 5 5 5 5 5 5 5 6 5 5 5 5 5 5 5 6 5 5 5 5 5 5 5 5 5 5 5 6 5 5 5 5 5 5 5 5 5 5 5 5 5 5 5 6 5 6 5 5 5 6 5 5 5 5 5 5 5 5 5 5 5 5 5 5 5 5 5 5 6 5 6 5 5 5 6 5 5 6 5 6 5 5 5 5 5 5 5 5 5 5 6 5 5 5 6 5 5 5 5 5 6 5 5 5 6 6 5 5 5 5 5 5 5 5 5 5 5 5 5 5 5 5 5 5 5 5 5 5 6 6 5 5 5 5 5 6 5 5 5 5 5 5 5 5 5 5 5 5 5 6 5 5 5 5 5 5 5 5 5 5 5 6 5 5 5 6 5 5 5 6 5 5 5 5 5 5 6 5 5 5 5 5 5 6 5 5 5 5 5 5 5 5 5 5 5 5 5 5 5 5 5 5 5 5 5 5 5 5 6 5 6 6 5 5 6 6 5 5 5 5 5 5 6 5 5 5 6 6 5 5 5 6 5 5 5 5 6 5 5 5 5 5 5 5 5 5 5 6 6 5 5 5 5 6 5 6 5 5 6 5 5 5 5 6 5 6 5 5 5 6 5 5 5 5 5 6 5 5 5 5 6 5 6 5 5 5 5 5 5 5 5 6 5 5 5 5 5 5 6 5 5 5 5 5 5 5 5 5 5 5 5 5 5 5 5 5 5 5 5 6 5 5 5 5 5 6 5 5 5 5 5 5 5 5 5 6 5 5 5 5 5 5 5 5 5 5 5 5 5 5 5 5 5 5 5 5 5 5 5 5 5 5 5 5 5 5 5 5 5 5 5 5 5 5 5 5 5 5 5 5 5 5 5 5 5 5 5 5 5 5 5 5 5 5 5 5 5 5 5 5 5 5 5 5 5 5 5 5 5 5 5 5 5 5 5 5 5 5 5 5 6 5 5 5 5 5 5 6 5 6 5 5 5 5 5 5 5 5 6 5 5 5 5 5 5 5 5 5 5 5 5 5 5 5 5 6 5 5 5 5 5 5 5 6 5 5 5 5 5 5 5 5 5 5 5 5 5 5 5 5 5 5 5 5 6 5 5 5 5 5 5 5 6 5 5 6 5 5 5 5 6 5 5 5 5 5 5 5 5 6 5 5 5 5 5 5 5 5 5 6 5 5 6 5 5 5 5 6 5 5 6 5 5 5 5 5 5 6 5 5 5 5 5 5 5 5 5 5 5 5 5 5 5 5 6 5 5 6 5 5 5 5 5 5 5 5 5 5 5 5 5 5 5 6 5 5 5 5 5 5 5 5 6 5 5 6 5 5 5 6 5 5 5 5 5 5 5 6 5 5 5 5 5 5 5 6 5 5 5 5 5 5 5 5 5 5 5 5 5 5 5 5 6 5 5 6 6 5 5 5 5 6 5 5 5 5 5 6 5 5 5 5 5 5 5 5 6 5 5 5 5 6 5 6 5 5 5 5 5 5 5 5 5 5 5 6 6 5 5 5 5 5 5 5 5 5 6 5 5 5 5 6 5 5 5 5 5 5 5 5 5 5 5 5 5 5 5 6 6 5 5 5 5 6 6 6 6 5 5 5 5 5 5 5 6 6 5 6 5 6 5 6 5 6 6 5 5 5 6 6 5 6 5 6 5 5 5 5 5 5 5 5 5 5 6 5 5 5 5 5 5 5 5 6 5 5 5 5 5 5 5 5 5 5 5 5 5 5 5 5 5 5 5 6 5 6 5 6 5 5 5 5 6 5 5 6 5 5 5 5 5 5 5 6 5 5 5 5 5 5 5 5 5 5 5 6 5 5 6 5 5 6 5 5 5 6 5 6 5 5 5 6 5 6 5 5 6 5 5 5 6 5 5 5 5 6 6 5 6 5 5 6 6 5 6 5 5 5 6 5 5 5 5 5 5 6 5 5 5 6 6 5 5 5 5 5 5 6 5 6 5 6 5 5 5 6 6 5 5 6 5 5 5 5 5 5 5 5 5 5 5 5 5 5 5 5 5 5 5 5 5 5 5 6 5 5 6 5 6 5 5 5 5 5 6 5 5 6 5 5 5 5 5 6 6 5 5 5 5 5 5 5 5 5 6 5 5 6 5 5 5 5 5 5 6 5 5 5 5 5 5 6 5 5 5 5 5 6 5 5 5 5 5 5 5 5 6 5 5 6 5 5 5 5 6 5 5 5 5 5 5 6 5 5 5 5 5 5 5 5 5 5 6 5 5 5 5 5 6 5 5 5 5 5 5 5 6 5 6 6 5 5 6 5 6 5 6 5 5 5 5 5 6 5 5 5 5 5 5 5 5 5 5 5 6 5 5 5 5 5 5 5 5 6 5 5 5 6 5 5 6 5 5 6 5 5 5 5 6 5 6 5 5 5 5 5 5 5 6 5 5 5 6 5 6 5 6 5 5 5 5 6 5 5 6 5 5 6 6 5 5 6 5 6 5 6 5 5 6 6 6 5 6 5 5 5 5 6 5 5 5 5 6 6 5 5 6 5 5 5 5 5 5 5 6 5 6 5 5 5 5 5 5 6 5 5 5 5 5 6 5 5 5 6 5 5 5 5 5 5 5 5 5 5 6 5 5 5 5 6 5 5 5 5 5 5 5 5 5 5 5 5 5 6 5 5 5 5 5 5 5 5 5 5 5 5 5 5 5 5 5 6 5 5 5 5 5 5 5 5 6 5 5 5 5 5 5 5 5 5 5 5 5 5 5 5 5 5 6 5 5 5 6 5 5 6 5 5 5 5 5 5 5 5 5 5 5 5 5 5 5 6 5 6 5 5 6 5 6 5 5 5 6 5 5 5 6 5 5 5 5 5 5 5 5 5 5 5 5 5 5 5 5 5 5 5 5 5 5 5 5 5 5 5 6 5 5 5 5 5 5 5 5 5 5 5 5 5 5 5 5 5 6 5 5 5 5 5 6 5 5 5 5 6 6 5 5 5 5 5 5 5 5 5 5 5 5 6 5 5 5 5 5 5 5 5 5 5 5 5 5 6 5 5 5 5 6 5 5 5 5 5 6 5 6 5 5 5 5 5 6 6 5 6 5 5 5 5 6 5 6 5 5 5 5 5 5 5 5 5 5 5 6 5 5 5 5 5 5 5 5 6 5 5 5 5 5 6 6 5 5 6 5 5 5 5 5 6 5 6 5 5 5 5 5 5 5 6 5 6 5 5 5 5 5 5 5 5 5 5 5 5 5 5 5 5 5 5 5 5 5 5 5 5 5 5 5 6 5 5 5 5 5 5 5 5 6 5 5 5 5 5 6 5 5 5 5 5 5 5 5 6 5 5 5 5 5 6 5 5 6 6 5 6 5 5 6 5 5 5 5 5 5 5 5 5 5 5 5 5 5 5 5 5 5 5 5 5 6 5 5 5 5 5 5 5 6 5 5 5 5 5 5 5 5 6 6 5 5 6 5 5 5 5 6 5 5 5 6 5 5 5 5 6 5 5 5 5 5 5 5 5 5 5 5 5 5 5 5 5 5 5 5 5 5 5 5 5 5 5 5 5 5 5 5 5 5 5 5 5 5 5 5 5 5 5 5 5 5 5 5 5 5 5 5 5 5 5 5 5 6 5 5 5 5 6 5 5 5 5 5 6 5 5 6 5 5 5 5 5 5 5 5 5 5 5 5 5 5 5 5 5 5 5 5 5 5 5 5 5 5 5 5 5 5 5 5 5 5 5 5 5 5 5 5 5 5 5 5 5 5 5 5 5 5 5 5 5 5 5 5 5 5 5 5 5 5 5 6 5 5 5 5 6 5 5 5 6 5 5 5 5 5 6 5 5 5 6 5 5 5 6 5 5 6 5 5 6 5 5 6 5 6 5 5 5 5 5 5 5 6 6 5 5 5 5 5 5 5 5 5 6 6 5 5 6 6 5 6 5 5 5 6 5 5 5 5 5 5 5 5 6 5 5 6 5 5 5 6 5 5 6 5 5 6 6 5 6 5 6 5 5 5 5 5 5 5 5 6 5 5 5 5 5 5 5 5 5 5 5 5 5 5 5 5 5 5 5 5 5 5 6 5 5 5 6 5 5 5 5 5 5 5 5 5 5 5 5 5 5 5 5 5 5 5 5 5 6 5 5 5 5 5 5 6 5 5 6 5 5 5 5 5 5 5 5 5 5 5 5 5 5 5 5 5 5 5 5 5 5 5 5 5 5 5 5 5 5 5 5 5 5 5 5 6 6 5 5 6 5 5 5 5 5 5 5 5 5 5 5 5 5 5 5 5 5 5 5 5 5 5 5 5 5 5 5 5 5 5 5 5 5 5 5 5 6 5 5 5 5 5 6 5 5 5 5 5 5 5 6 5 5 5 5 5 5 5 5 5 5 5 5 5 5 5 5 5 5 5 5 5 5 5 5 5 5 5 5 5 5 5 5 5 5 5 5 5 5 6 5 5 5 5 5 6 5 5 5 5 5 5 5 5 5 6 5 6 5 5 6 5 6 5 6 5 5 5 6 5 5 5 5 5 5 5 5 5 5 5 5 5 5 5 5 5 5 5 5 5 5 5 5 5 6 5 5 5 5 5 5 5 5 5 5 5 5 5 5 5 5 5 5 5 5 5 5 5 5 5 5 5 5 5 5 5 5 6 5 6 5 5 5 5 6 5 5 5 5 5 5 5 5 5 5 5 5 5 5 5 5 5 5 5 5 5 6 5 5 5 5 5 5 6 5 5 5 5 5 5 5 6 5 5 5 5 5 5 5 5 5 5 5 6 5 5 6 5 5 5 5 5 5 5 5 5 5 6 5 5 5 5 5 5 5 6 5 5 5 5 5 5 5 5 5 5 5 5 5 5 5 5 5 6 5 5 5 5 5 5 5 6 5 5 5 5 5 5 5 5 5 5 5 5 5 5 5 5 5 5 5 5 5 5 5 5 5 5 5 5 5 5 5 5 5 5 5 5 5 6 5 5 5 6 5 5 5 5 5 5 5 5 5 5 5 5 5 5 5 5 5 5 5 5 6 5 5 5 5 5 5 5 5 5 5 5 5 5 5 5 5 6 5 5 5 5 5 6 5 5 5 5 6 5 5 5 5 5 5 5 5 5 5 5 5 5 5 5 5 5 5 5 5 5 5 5 5 5 6 5 5 5 5 5 5 6 5 5 5 5 5 5 5 5 5 5 5 6 5 5 5 5 5 5 5 5 5 5 5 5 5 5 5 5 5 5 5 5 5 5 5 5 6 6 5 5 5 5 5 5 5 5 5 5 5 5 5 5 5 5 5 5 5 5 5 5 5 5 6 6 6 5 5 5 5 5 6 5 5 5 5 6 5 5 5 6 6 5 6 5 5 6 5 5 5 5 5 5 5 5 5 5 5 5 5 5 5 5 5 5 5 5 5 5 5 5 5 5 6 6 5 5 5 5 5 5 5 5 5 5 5 5 5 5 5 5 5 5 5 5 5 5 5 5 5 5 5 5 5 5 5 5 5 5 5 5 5 5 5 5 5 5 5 5 5 5 5 5 5 5 5 5 5 5 5 5 5 5 5 5 5 5 5 5 5 5 5 5 5 6 5 5 5 5 5 6 5 5 5 5 5 5 5 5 5 5 5 5 5 5 5 5 5 5 5 5 5 5 5 5 5 5 5 5 5 5 5 5 5 5 5 5 5 5 5 5 5 5 5 5 5 5 5 5 5 5 5 5 5 5 5 5 5 5 5 6 5 5 5 5 5 5 5 5 5 5 5 5 5 5 5 5 5 5 5 5 5 5 6 5 5 5 5 5 6 5 6 6 5 5 5 6 5 5 5 5 5 5 5 5 6 5 5 6 5 5 5 5 5 5 5 5 5 5 5 5 5 5 5 5 5 5 5 5 5 6 5 5 5 5 5 5 5 5 5 5 5 5 5 5 5 5 5 5 5 5 5 5 5 5 5 5 5 5 5 5 5 5 6 5 5 5 5 5 5 5 5 5 5 5 5 5 6 5 5 5 5 5 5 5 5 5 5 5 5 5 5 5 5 5 5 5 5 5 5 5 5 5 5 5 5 5 5 5 5 5 5 5 5 5 5 5 5 5 5 5 5 5 5 5 5 5 5 5 5 5 5 5 5 5 5 5 5 5 5 5 5 5 5 5 5 5 5 5 5 5 5 5 6 5 5 5 5 6 5 5 5 5 5 5 5 5 5 5 5 5 5 5 5 5 5 5 5 5 5 5 5 5 5 5 5 5 5 5 5 5 5 5 5 5 5 5 5 5 6 5 5 6 5 5 5 5 
</DataArray>
<DataArray type="Float64" Name="stress" NumberOfComponents="9" format="ascii">
0.95354149452978176 1650.9022339478445 0 1650.9022339478445 -1370.978065108211 0 0 0 0 -1274.3112313700185 2457.5150148975972 0 2457.5150148975972 -385.68567609033926 0 0 0 0 -431.07117732860206 2046.20041819775 0 2046.20041819775 -225.00658208924142 0 0 0 0 -2.6401586906795274 896.72161565455644 0 896.72161565455644 -1266.136148616999 0 0 0 0 6.7584084799455297 9.1971616027340986 0 9.1971616027340986 -1.8487607690780692 0 0 0 0 -841.22801330920629 1424.0195662582337 0 1424.0195662582337 -1430.5547379133131 0 0 0 0 -1194.4630203352426 1672.6617989830338 0 1672.6617989830338 -1367.2431647987105 0 0 0 0 -201.6552963354352 1974.3441235559112 0 1974.3441235559112 -239.63078222543845 0 0 0 0 -836.87094624252495 1390.3338103281494 0 1390.3338103281494 -1177.1059261870141 0 0 0 0 851.43780030908965 1159.2744186999516 0 1159.2744186999516 -1168.2508796901911 0 0 0 0 2.9855139508515549 4.9994826929139435 0 4.9994826929139435 -1.0775004759020135 0 0 0 0 -720.5119067361411 1764.2147021172932 0 1764.2147021172932 0.53082338782405714 0 0 0 0 -843.76012321396774 1521.2142127264597 0 1521.2142127264597 -230.67772172707191 0 0 0 0 -740.94679756702863 1631.4995352695487 0 1631.4995352695487 -326.68357798869692 0 0 0 0 -945.86468494172368 1226.689364060705 0 1226.689364060705 -765.46507711388767 0 0 0 0 -1052.1909300859525 1572.6043778900066 0 1572.6043778900066 -258.90403495369537 0 0 0 0 -530.750177070473 1517.3451758172523 0 1517.3451758172523 -865.72680593084078 0 0 0 0 -587.8176058857207 1605.9339834519778 0 1605.9339834519778 -399.47285494298558 0 0 0 0 -206.77015494627267 1505.1031479973026 0 1505.1031479973026 -873.28462242792375 0 0 0 0 -548.53186666063993 1183.4188270197592 0 1183.4188270197592 -1175.9524368464263 0 0 0 0 -564.9882598999875 1264.9260242303089 0 1264.9260242303089 -910.83028651058703 0 0 0 0 -812.94630882149067 1299.4035948454584 0 1299.4035948454584 -1290.6471880723693 0 0 0 0 -322.19568073678965 641.50820287134047 0 641.50820287134047 -583.32438017308596 0 0 0 0 -145.46941535376936 1063.2417195433245 0 1063.2417195433245 -1127.4987441025369 0 0 0 0 -0.41029540839372203 1016.0026730654026 0 1016.0026730654026 -1186.5572750512147 0 0 0 0 -792.02297681113851 1189.571465720901 0 1189.571465720901 -1020.212442170694 0 0 0 0 -1177.0579850579434 1693.5396546440079 0 1693.5396546440079 -1343.1489938324958 0 0 0 0 -940.8321915308079 1320.5969570137386 0 1320.5969570137386 -1576.8810376859619 0 0 0 0 -1322.6709317221976 1012.6074053126504 0 1012.6074053126504 -972.79987071905634 0 0 0 0 -113.48271464539539 182.74026708241945 0 182.74026708241945 -205.60219711959508 0 0 0 0 -208.36269683352293 137.72707126485875 0 137.72707126485875 -31.154204950944404 0 0 0 0 -1435.7868153318122 2587.1627637917372 0 2587.1627637917372 -2877.6021705127932 0 0 0 0 -982.57004694460193 2088.2565256689704 0 2088.2565256689704 -3332.5228188963956 0 0 0 0 92.266470472335882 50.467716985476244 0 50.467716985476244 11.417445367269252 0 0 0 0 -132.97136569516442 268.3671977523336 0 268.3671977523336 -30.26974130403687 0 0 0 0 -247.99459003882657 205.78227281067302 0 205.78227281067302 -57.211916916676273 0 0 0 0 -288.00683032309462 361.84815855966008 0 361.84815855966008 -235.27713310338368 0 0 0 0 393.89345929999399 339.96983298470877 0 339.96983298470877 -661.15728098973341 0 0 0 0 -2061.7180957468518 2003.3231525532756 0 2003.3231525532756 -312.3719550464084 0 0 0 0 -1755.7326880092151 1458.2863342905839 0 1458.2863342905839 257.01099049946788 0 0 0 0 -3388.5894789994345 3173.3186203018995 0 3173.3186203018995 -6075.2749550414446 0 0 0 0 -1211.9132413040716 474.24264259769552 0 474.24264259769552 1414.0228567116792 0 0 0 0 -8.837533371769922 9.4423353115455768 0 9.4423353115455768 -2.6195151811609882 0 0 0 0 803.63282692868961 2047.0859576874354 0 2047.0859576874354 -10143.535619994218 0 0 0 0 -1450.6989561334558 2128.4118216199131 0 2128.4118216199131 -2074.6792584272516 0 0 0 0 -2732.9971901944664 4453.1929194953846 0 4453.1929194953846 -6224.9608478951404 0 0 0 0 -1503.9627501125506 118.60887021768212 0 118.60887021768212 39.54607758826387 0 0 0 0 -5440.2216502145748 3676.8926411055436 0 3676.8926411055436 -2375.2185442754999 0 0 0 0 22.078187377279036 13.49889675934503 0 13.49889675934503 -9.1482600349834797 0 0 0 0 -27.662141687144839 16.491358205102557 0 16.491358205102557 20.434191324125919 0 0 0 0 -43.865059754090908 292.3438864446216 0 292.3438864446216 -98.90023293318518 0 0 0 0 -923.9907641466998 1669.0472684969864 0 1669.0472684969864 -1424.905144200955 0 0 0 0 -335.46303523798269 447.06501313965236 0 447.06501313965236 -1638.2265159159724 0 0 0 0 -428.04775304131908 793.35798097259249 0 793.35798097259249 -2915.2438739665886 0 0 0 0 -145.62515675375471 648.10185700856891 0 648.10185700856891 -1427.6291114776468 0 0 0 0 18.42676442785887 493.06047470865815 0 493.06047470865815 -1687.8651861717226 0 0 0 0 -17.208565383356472 833.39265042018815 0 833.39265042018815 -827.38157175203651 0 0 0 0 -17.010921346958384 19.194893596755918 0 19.194893596755918 -1.2211096711826741 0 0 0 0 -212.56439174947445 916.17048112566408 0 916.17048112566408 -2445.1028965054597 0 0 0 0 -13.468562557176142 17.210586901007943 0 17.210586901007943 -1.3609720390758397 0 0 0 0 40.099716869015538 310.90963955265397 0 310.90963955265397 -852.37529253763933 0 0 0 0 -254.13048639064073 471.28569178821999 0 471.28569178821999 -132.29719157251384 0 0 0 0 200.95511761406669 248.87477551837947 0 248.87477551837947 -558.21071856117669 0 0 0 0 -318.77610444612947 196.10039786987909 0 196.10039786987909 920.82098767006391 0 0 0 0 0.28222550515783951 831.62640023525091 0 831.62640023525091 -327.1580663542627 0 0 0 0 -5.306277828348243 7.599605601907939 0 7.599605601907939 -3.349148427462362 0 0 0 0 -28.919779921736335 1322.9494598478304 0 1322.9494598478304 -4928.2319803611445 0 0 0 0 -0.18433487894243794 2125.3120380000687 0 2125.3120380000687 -3072.4486318556301 0 0 0 0 -298.97807743070007 900.41138589976617 0 900.41138589976617 -2358.2349953378507 0 0 0 0 -656.97224846956669 1503.5171130138879 0 1503.5171130138879 -2367.0326769784006 0 0 0 0 -1129.7940032885381 1546.5231523704642 0 1546.5231523704642 -1875.4335124556965 0 0 0 0 -1058.3086611706531 2040.3182589545468 0 2040.3182589545468 -1891.0822767370773 0 0 0 0 -5.1489584156661294 2130.4009813071752 0 2130.4009813071752 -3071.3537967294151 0 0 0 0 -1967.5757681346149 2263.4990110463186 0 2263.4990110463186 -1766.0528687846236 0 0 0 0 2.6278737249498079 6.1547183017652003 0 6.1547183017652003 -3.0823529369401399 0 0 0 0 -802.31885216481896 1450.120112878707 0 1450.120112878707 -1864.2583092505738 0 0 0 0 -1657.544492441406 1389.5101743454006 0 1389.5101743454006 -1390.9921200926765 0 0 0 0 -136.20258147938875 1293.7188059286163 0 1293.7188059286163 -1583.6612998834098 0 0 0 0 -808.86448482504602 1452.9783555622698 0 1452.9783555622698 -1543.8987212984212 0 0 0 0 -24.772079587673943 1545.1461586947407 0 1545.1461586947407 -1447.6683678995614 0 0 0 0 -210.76946726549068 1277.9396676617835 0 1277.9396676617835 -1489.9108925979817 0 0 0 0 52.500489252037369 1187.0987195578855 0 1187.0987195578855 -1583.033295013558 0 0 0 0 -289.63540126086446 1093.7236059688512 0 1093.7236059688512 -1913.8614733854083 0 0 0 0 -716.04235273509767 332.46433914826775 0 332.46433914826775 -0.4174010662100045 0 0 0 0 358.11253033894172 326.07374215927848 0 326.07374215927848 37.625828340984299 0 0 0 0 -10.377608162448453 20.486379074606972 0 20.486379074606972 -19.209701821935198 0 0 0 0 -215.19083007656445 193.4075322765857 0 193.4075322765857 -10.500081262725871 0 0 0 0 9.5112207704805769 50.478612361301202 0 50.478612361301202 121.13933871130575 0 0 0 0 -11.924709048913058 9.6170330272432238 0 9.6170330272432238 0.54805521791337242 0 0 0 0 394.91636096434377 34.855107214752934 0 34.855107214752934 10.780386785248993 0 0 0 0 -114.47446146741277 452.55369882919331 0 452.55369882919331 22.013621199599584 0 0 0 0 -291.04015172339859 472.09828618743632 0 472.09828618743632 25.19978547282517 0 0 0 0 -931.04583774392086 138.51084288754282 0 138.51084288754282 166.50670934831578 0 0 0 0 -2863.8962623406151 438.12423374281207 0 438.12423374281207 159.44249010713975 0 0 0 0 -6.6648283293772863 6.2599965733073049 0 6.2599965733073049 -8.2914929036026592 0 0 0 0 5.4479510596138425 79.46688523101875 0 79.46688523101875 -13.485689728418947 0 0 0 0 -87.64925825096725 107.55252600774475 0 107.55252600774475 -13.58545542662182 0 0 0 0 -2110.8473122606665 1090.8521374024931 0 1090.8521374024931 -411.67788636058413 0 0 0 0 118.12507132633982 94.095634608296677 0 94.095634608296677 -697.01381325278635 0 0 0 0 -1595.3564285008761 1378.3441820617809 0 1378.3441820617809 -740.0101063757902 0 0 0 0 -1181.4267639380305 578.69409228851327 0 578.69409228851327 -1131.3351233065914 0 0 0 0 -1098.0370144577728 825.3625471727064 0 825.3625471727064 -470.71939986597135 0 0 0 0 -1253.918716320637 920.18456654295369 0 920.18456654295369 -190.75297608656547 0 0 0 0 -1207.9139766813969 1188.5703873879174 0 1188.5703873879174 -92.03774789561794 0 0 0 0 -1634.9393567086008 569.61177539961864 0 569.61177539961864 85.934919740597252 0 0 0 0 -929.54867243579065 543.50388919307443 0 543.50388919307443 11.656895187072223 0 0 0 0 -935.51276763086935 1109.8727295731733 0 1109.8727295731733 -134.94744601375714 0 0 0 0 -600.69372283351186 1311.1702496225589 0 1311.1702496225589 -1.7540739830343681 0 0 0 0 136.25755375165681 802.20166020701799 0 802.20166020701799 -170.74222748694592 0 0 0 0 -451.39995407952665 755.77630456077168 0 755.77630456077168 444.18667512943648 0 0 0 0 -917.90880599874799 1189.5737063817651 0 1189.5737063817651 151.17838063374802 0 0 0 0 -110.59044875003019 1126.5733727226288 0 1126.5733727226288 -335.5870804322476 0 0 0 0 -731.96816397393559 1271.6897073584551 0 1271.6897073584551 -324.59546845672594 0 0 0 0 -705.80789657258356 1564.0658410019114 0 1564.0658410019114 -282.75658172870681 0 0 0 0 420.0996082932179 1693.3895918931885 0 1693.3895918931885 -382.87039984318108 0 0 0 0 -971.27681003752696 1457.9629833649869 0 1457.9629833649869 284.61960286198882 0 0 0 0 22.385827869587473 12.904071186488011 0 12.904071186488011 4.6300911843550949 0 0 0 0 -354.68765870707466 423.58916813939049 0 423.58916813939049 -737.66684656665893 0 0 0 0 959.34834197081364 467.00006588642282 0 467.00006588642282 -830.70826167425184 0 0 0 0 62.700367026154353 32.752849473689594 0 32.752849473689594 13.019514978761677 0 0 0 0 -425.57372866856167 608.05210327223904 0 608.05210327223904 -268.47130571003436 0 0 0 0 -393.35047977697468 377.50754550338752 0 377.50754550338752 -232.84817584890698 0 0 0 0 -429.05232627123041 349.79597327402007 0 349.79597327402007 -252.80214438455369 0 0 0 0 -526.83663223851181 501.69675511193418 0 501.69675511193418 -299.36179314100264 0 0 0 0 164.13545398865972 1306.9866901260975 0 1306.9866901260975 399.80791083652707 0 0 0 0 -440.24752317099046 263.23202478422354 0 263.23202478422354 375.45585483174364 0 0 0 0 5.2538760462797143 3.3091843577027333 0 3.3091843577027333 -1.4916278274603769 0 0 0 0 -315.09842382202623 1138.3480873587469 0 1138.3480873587469 -355.11074854202889 0 0 0 0 -450.77161549914308 301.31237603054251 0 301.31237603054251 -503.74379015682007 0 0 0 0 -307.77401709466631 1206.4136362517402 0 1206.4136362517402 243.59933241636463 0 0 0 0 -427.83681265250925 454.71743584733122 0 454.71743584733122 447.87947990586326 0 0 0 0 -81.47166133630526 559.4734502310439 0 559.4734502310439 1536.6697523185576 0 0 0 0 -16.234172434870715 13.213331898857561 0 13.213331898857561 -7.2184465799737865 0 0 0 0 -340.88568320345257 2089.2969269208852 0 2089.2969269208852 1896.6032177916568 0 0 0 0 172.25774204761547 637.17628802804393 0 637.17628802804393 -2391.273559020774 0 0 0 0 1391.7216377062796 866.49984822981787 0 866.49984822981787 -1898.5261992313262 0 0 0 0 64.834950572192611 1996.2927180592487 0 1996.2927180592487 -1335.9048039261543 0 0 0 0 -384.55169814301917 1777.5225117617265 0 1777.5225117617265 -1978.0204109685292 0 0 0 0 -987.78816720989198 2468.8659901002757 0 2468.8659901002757 736.55334080125613 0 0 0 0 -712.99707129260787 1157.3763184985692 0 1157.3763184985692 -132.51977050437199 0 0 0 0 -310.70995881939598 1455.3371474996893 0 1455.3371474996893 -576.94971206806076 0 0 0 0 -766.24932657935096 596.82368365248021 0 596.82368365248021 -219.58057045537862 0 0 0 0 -632.98824167900602 509.59618451578717 0 509.59618451578717 -370.74764707275244 0 0 0 0 -236.85284078366385 192.05000873531571 0 192.05000873531571 120.17024189588119 0 0 0 0 -139.18339197376918 187.97171500336117 0 187.97171500336117 -215.76824765790661 0 0 0 0 258.07656273878092 310.32086246262043 0 310.32086246262043 -1210.8528164963136 0 0 0 0 900.6615388387072 1125.2707025749187 0 1125.2707025749187 942.28159193957254 0 0 0 0 319.24531660257344 632.71556565313949 0 632.71556565313949 1432.5222162903083 0 0 0 0 -34.51834582262623 34.083961986162734 0 34.083961986162734 -24.304419716142334 0 0 0 0 572.42613400572009 1603.7005611947097 0 1603.7005611947097 2013.8324651528965 0 0 0 0 -94.160621888579044 394.95532166811608 0 394.95532166811608 218.39324741847304 0 0 0 0 77.554897595418879 86.486154691756383 0 86.486154691756383 65.497268615436042 0 0 0 0 -135.27845662632899 110.31388328921457 0 110.31388328921457 325.14920438640547 0 0 0 0 -77.184311667457223 5.3307682149970788 0 5.3307682149970788 -33.5289652213105 0 0 0 0 -120.29648594366154 -45.551128864346538 0 -45.551128864346538 246.13201981291058 0 0 0 0 -105.2523992350034 178.00926801098103 0 178.00926801098103 302.62884275666147 0 0 0 0 977.1198974965082 1149.5340455189871 0 1149.5340455189871 1144.4537861144927 0 0 0 0 -42.876414352665904 45.376465859864894 0 45.376465859864894 -21.630608016697167 0 0 0 0 576.68655574176228 1056.2481755573626 0 1056.2481755573626 1685.2229775450396 0 0 0 0 -49.930517063325169 -5.1709650236907692 0 -5.1709650236907692 64.457484512211522 0 0 0 0 -148.43529113013028 -13.007074707473294 0 -13.007074707473294 137.61182326429116 0 0 0 0 1.8252218475838902 10.836538988784156 0 10.836538988784156 -7.1725513676254522 0 0 0 0 -1.9533276720103459 152.31889592018706 0 152.31889592018706 174.51160736547899 0 0 0 0 -103.39971708443045 52.642644158819166 0 52.642644158819166 -31.114995748794172 0 0 0 0 -122.75079060868302 8.5422186543582939 0 8.5422186543582939 174.38721294715651 0 0 0 0 -111.71677681356778 40.460258392704418 0 40.460258392704418 141.84988070283725 0 0 0 0 307.02647664445431 298.15792249472815 0 298.15792249472815 30.208869490277721 0 0 0 0 -182.9849585165357 -135.48739172928254 0 -135.48739172928254 -34.796359220136537 0 0 0 0 -3.1970856588942667 2.932946704327275 0 2.932946704327275 1.990030314184196 0 0 0 0 117.69546768307555 304.44462446386751 0 304.44462446386751 180.69229961845849 0 0 0 0 202.83477395136288 175.52074150776753 0 175.52074150776753 58.297540257161018 0 0 0 0 -175.88874923845287 -62.930649464055023 0 -62.930649464055023 -110.96689479144698 0 0 0 0 -193.82818453820801 -49.282489586748852 0 -49.282489586748852 32.466696003175457 0 0 0 0 -366.67958672785608 121.87951506675017 0 121.87951506675017 72.900597988729714 0 0 0 0 590.44018894227338 260.61247751742485 0 260.61247751742485 -59.03960202531016 0 0 0 0 -1183.4161135701925 124.50431981235852 0 124.50431981235852 -59.953450933142449 0 0 0 0 -3.0877927075957956 2.6933757721785554 0 2.6933757721785554 1.3129124447710581 0 0 0 0 -470.14792982483596 -41.217414692528109 0 -41.217414692528109 -48.589019618579186 0 0 0 0 99.032322026294423 55.954220641593565 0 55.954220641593565 142.89076882982044 0 0 0 0 237.25776122759271 9.0636735301177396 0 9.0636735301177396 84.073787334928056 0 0 0 0 105.69310739950924 67.721193236373438 0 67.721193236373438 -94.021604724082863 0 0 0 0 50.462337848135576 111.95998994441288 0 111.95998994441288 165.12978886108613 0 0 0 0 84.747277678383398 231.73415320857021 0 231.73415320857021 0.8263423053722363 0 0 0 0 213.10702419472364 31.33063618477172 0 31.33063618477172 313.45523162957397 0 0 0 0 -507.87204737402499 552.92293408348269 0 552.92293408348269 -570.85205156960001 0 0 0 0 5.088076311054607 -7.1440703485866521 0 -7.1440703485866521 -54.308029811372819 0 0 0 0 -255.75185545858403 -100.76703226980317 0 -100.76703226980317 -133.19472584484902 0 0 0 0 -432.23193665465806 526.43407712107 0 526.43407712107 -756.1701982122504 0 0 0 0 -516.93822932508192 526.73850418762595 0 526.73850418762595 -743.67087324675231 0 0 0 0 -183.95909577103157 477.45054411137608 0 477.45054411137608 -622.00059891553974 0 0 0 0 -431.27509565355632 651.58492756480155 0 651.58492756480155 -734.01399292178394 0 0 0 0 -158.25551585461653 698.73806856035299 0 698.73806856035299 -852.50306859641205 0 0 0 0 -305.63239017577143 875.09651445958116 0 875.09651445958116 -975.71083698061557 0 0 0 0 -17.376845984763349 684.94017141262884 0 684.94017141262884 -873.79248150236162 0 0 0 0 -603.63834661750298 639.29395996880339 0 639.29395996880339 -726.2735447350351 0 0 0 0 -297.88357664646173 809.30967735915874 0 809.30967735915874 -1185.4337590477826 0 0 0 0 228.26772827988316 476.24996196836582 0 476.24996196836582 -1076.7645749237709 0 0 0 0 -1.1613510494377692 1.6854959262054194 0 1.6854959262054194 -0.50904588143601615 0 0 0 0 -2443.2446229404723 1795.1913178064765 0 1795.1913178064765 113.1064696101821 0 0 0 0 -2235.8314455349755 738.79401240116567 0 738.79401240116567 -736.89513071614419 0 0 0 0 -618.50714652762872 1068.3355937257611 0 1068.3355937257611 619.74299920469639 0 0 0 0 -1497.2493424111126 2583.4898087692945 0 2583.4898087692945 19.594274309769389 0 0 0 0 -37.81481429914129 1234.3035114094673 0 1234.3035114094673 -391.78311060638953 0 0 0 0 -696.66620768130088 1002.9975933078567 0 1002.9975933078567 1089.4613020157121 0 0 0 0 1047.8705243043223 1428.8134963474522 0 1428.8134963474522 1130.0064121486939 0 0 0 0 560.64429560427379 821.83618268858118 0 821.83618268858118 3944.8729294497598 0 0 0 0 1153.6293577201868 709.79935601907164 0 709.79935601907164 1462.860679625679 0 0 0 0 547.43599551149964 338.68615212114673 0 338.68615212114673 1125.08854585886 0 0 0 0 1214.1959892075247 1012.6845911726523 0 1012.6845911726523 1590.9347561034665 0 0 0 0 375.48998513535116 214.08386442230767 0 214.08386442230767 1188.8955200016353 0 0 0 0 721.24888716222267 513.16724709407572 0 513.16724709407572 405.74442620839181 0 0 0 0 489.68920621846337 612.53827868523877 0 612.53827868523877 668.20831840881874 0 0 0 0 -1.6857607316254075 2.1799653816208746 0 2.1799653816208746 -0.62040183444709385 0 0 0 0 516.60691522398702 69.191333781357571 0 69.191333781357571 -94.689821376479813 0 0 0 0 231.43042722323298 377.86466696593743 0 377.86466696593743 1126.2868257234004 0 0 0 0 447.35368962579014 787.11199554477389 0 787.11199554477389 741.53452510671195 0 0 0 0 -8.0730680668566492 172.64306280122037 0 172.64306280122037 586.89609702193684 0 0 0 0 10.668306587722327 403.8793184417882 0 403.8793184417882 319.65874653066658 0 0 0 0 154.14831862394749 141.33665522689807 0 141.33665522689807 -327.98676021050051 0 0 0 0 247.10715810100999 3.5589323550133258 0 3.5589323550133258 -567.15683788666865 0 0 0 0 -83.773109900561394 570.61065103436704 0 570.61065103436704 -726.16426852711447 0 0 0 0 -222.22330040822817 427.37391913191732 0 427.37391913191732 -499.94729165910758 0 0 0 0 96.833720833354164 346.75746098079617 0 346.75746098079617 -938.32567166515219 0 0 0 0 28.083606930598762 408.87146739250511 0 408.87146739250511 -718.99802402587375 0 0 0 0 16.909503359005612 343.22642911894036 0 343.22642911894036 -369.28579408825135 0 0 0 0 -261.21176968664076 394.50833582652558 0 394.50833582652558 -240.47082870757731 0 0 0 0 -248.80413797645451 369.52583767932083 0 369.52583767932083 -206.64382609507902 0 0 0 0 -134.67376337452879 225.81460337345197 0 225.81460337345197 -201.6757969931798 0 0 0 0 -367.25811036310552 125.39582492279806 0 125.39582492279806 211.52527174075658 0 0 0 0 -70.952617616989301 11.994196194635151 0 11.994196194635151 312.31265363629791 0 0 0 0 -340.92172471596859 348.51273984501677 0 348.51273984501677 778.61910898042879 0 0 0 0 -2.0522469078127301 -1.5867018825689811 0 -1.5867018825689811 1.708648450780089 0 0 0 0 188.7986599406504 82.284327995486819 0 82.284327995486819 -466.21720416372773 0 0 0 0 -280.98264152098636 360.05413731666704 0 360.05413731666704 241.93211097056337 0 0 0 0 -339.43901995022316 234.60074393746982 0 234.60074393746982 73.683914605615428 0 0 0 0 -772.55100016953656 269.24186012566497 0 269.24186012566497 7.4166988865181338 0 0 0 0 -517.16872894937114 120.36076482389399 0 120.36076482389399 3.5390979421572411 0 0 0 0 -698.24298538156745 516.63976121868882 0 516.63976121868882 -164.33421170933434 0 0 0 0 -442.0777431065153 384.49898066037349 0 384.49898066037349 -213.83558656075911 0 0 0 0 5.5782121558868596 5.6369084865597756 0 5.6369084865597756 1.9635574477521658 0 0 0 0 -370.5915956591125 178.60890769184334 0 178.60890769184334 55.957426859353291 0 0 0 0 -353.77788985410916 89.598303137277071 0 89.598303137277071 312.80156293846085 0 0 0 0 -546.08536455706781 236.79624716255785 0 236.79624716255785 264.80542803011122 0 0 0 0 -396.54519583904539 271.85138973893186 0 271.85138973893186 121.80228463868843 0 0 0 0 -397.42472910355946 279.5294838892562 0 279.5294838892562 126.94819518912846 0 0 0 0 -545.02137079962267 200.73435538114427 0 200.73435538114427 233.94006852500024 0 0 0 0 -404.04009220587614 193.80306773984194 0 193.80306773984194 94.37626378400455 0 0 0 0 -556.5356698196556 339.4311835817789 0 339.4311835817789 41.157043450633864 0 0 0 0 -466.95383426770786 264.38303681804427 0 264.38303681804427 -27.063642114233517 0 0 0 0 -664.81949938477192 390.04588467068243 0 390.04588467068243 17.372262860466435 0 0 0 0 -481.37881625378941 262.82849579968752 0 262.82849579968752 126.91417186760373 0 0 0 0 -311.6254988863584 282.07089036926118 0 282.07089036926118 -26.840219063749828 0 0 0 0 -259.788258217166 310.51915344358349 0 310.51915344358349 82.694111892853471 0 0 0 0 -376.40466121659483 201.56570474605905 0 201.56570474605905 6.0416789432201767 0 0 0 0 -1581.854036650926 793.34439001994724 0 793.34439001994724 -296.43373138283641 0 0 0 0 -36.256048636947526 -154.34705133530588 0 -154.34705133530588 282.94827311516565 0 0 0 0 -17.655365418349774 3.0516425048159448 0 3.0516425048159448 9.5688679851186578 0 0 0 0 -207.1038373569354 247.00042360711086 0 247.00042360711086 80.431073099272908 0 0 0 0 -86.280756946110671 28.652152995700646 0 28.652152995700646 18.059134018403739 0 0 0 0 -652.83189181892885 156.09468010196406 0 156.09468010196406 161.47977673095011 0 0 0 0 -607.80239952938882 730.44607869292327 0 730.44607869292327 -473.11413759688367 0 0 0 0 -701.27694369943583 501.27457701273033 0 501.27457701273033 -173.30570987488318 0 0 0 0 -643.01503896266763 1104.5048325106354 0 1104.5048325106354 -1048.5726563429635 0 0 0 0 -644.25307787283964 1163.2305006642964 0 1163.2305006642964 -1285.2939453258441 0 0 0 0 -1843.5655367752479 813.35087856763857 0 813.35087856763857 201.32901994023996 0 0 0 0 -818.71148249400721 1440.4938026141663 0 1440.4938026141663 -2633.7366399007515 0 0 0 0 -216.70734841468584 289.76765554017857 0 289.76765554017857 -1126.264213288483 0 0 0 0 -589.21855926194985 870.27402318121676 0 870.27402318121676 -1280.7186369099957 0 0 0 0 -608.73903250117291 834.35576420350026 0 834.35576420350026 -1011.3070831797668 0 0 0 0 -1512.3761988719489 504.12700517442863 0 504.12700517442863 -1375.399550386066 0 0 0 0 -1253.048860754745 1906.3036339460214 0 1906.3036339460214 -2484.6485119444551 0 0 0 0 52.164343174931076 57.358092623661264 0 57.358092623661264 36.343735198418827 0 0 0 0 -1201.593253160052 1708.5495744635289 0 1708.5495744635289 -1763.8976914890573 0 0 0 0 -3559.8678419905482 1311.5388249254538 0 1311.5388249254538 -205.27731374058203 0 0 0 0 5.378095167729839 9.8045354803363942 0 9.8045354803363942 2.7657380256296449 0 0 0 0 -585.50738652645305 826.79530628115435 0 826.79530628115435 -1777.1914638684775 0 0 0 0 343.88224690110656 811.38627135338538 0 811.38627135338538 -453.65213292077556 0 0 0 0 -869.30636718527967 923.78359986148735 0 923.78359986148735 -412.45343989114008 0 0 0 0 -126.59063994725875 337.75230538669348 0 337.75230538669348 -1097.866762478523 0 0 0 0 -316.72402222032179 240.96453568536754 0 240.96453568536754 -404.68992165358577 0 0 0 0 -687.61625025910325 921.05372379623805 0 921.05372379623805 -1271.3501221946935 0 0 0 0 341.62494753380452 156.99937606472668 0 156.99937606472668 -838.66697905071851 0 0 0 0 240.00932548513083 543.08705082720917 0 543.08705082720917 -990.3448658977486 0 0 0 0 535.30196606599202 285.78484958579429 0 285.78484958579429 -460.54987963364692 0 0 0 0 301.31618179444922 -157.5342330442154 0 -157.5342330442154 195.75615598777404 0 0 0 0 6.533706608361058 0.78955633717886542 0 0.78955633717886542 -1.6819365543364455 0 0 0 0 544.49415265936295 -311.6755093150357 0 -311.6755093150357 -50.873870572180749 0 0 0 0 622.11036673045601 -55.747356823980226 0 -55.747356823980226 -438.13877558711829 0 0 0 0 283.6183570676053 50.435493259078726 0 50.435493259078726 -115.67128390403013 0 0 0 0 311.07279456777906 310.89653203006492 0 310.89653203006492 -428.71229866194545 0 0 0 0 104.76177389312943 611.36321851898174 0 611.36321851898174 -763.76462055420188 0 0 0 0 -38.870110301475506 813.46827876451789 0 813.46827876451789 -1355.5644901932992 0 0 0 0 123.47541398091562 543.33974085912996 0 543.33974085912996 -1018.5161880643645 0 0 0 0 -247.41011511176475 668.71940380110391 0 668.71940380110391 -576.50177167388392 0 0 0 0 -115.89267368121727 776.99015851595868 0 776.99015851595868 -907.77539605610946 0 0 0 0 211.7541465184222 558.90608570023778 0 558.90608570023778 -927.09996257507009 0 0 0 0 60.441171050195408 608.26960242694804 0 608.26960242694804 -803.04561900374028 0 0 0 0 191.3779820749769 500.74162051405438 0 500.74162051405438 -1070.8086341336311 0 0 0 0 -84.996884506865172 474.83021399060817 0 474.83021399060817 -888.3191051456015 0 0 0 0 -459.49997325468576 297.83875954224277 0 297.83875954224277 -914.81426255038969 0 0 0 0 -342.77072704251805 820.13779183967063 0 820.13779183967063 -926.22750675261341 0 0 0 0 111.72224138494676 -172.26514693679337 0 -172.26514693679337 -454.52798983981484 0 0 0 0 -600.7663710447523 722.10297558447928 0 722.10297558447928 -1008.5413150188706 0 0 0 0 -55.595173199821147 491.83090178120528 0 491.83090178120528 -1243.535160895568 0 0 0 0 8.5648660599499635 25.158383499167599 0 25.158383499167599 -30.757548458273959 0 0 0 0 3.1639625943911653 4.6277171182170633 0 4.6277171182170633 -5.4848167801995515 0 0 0 0 22.338517079670314 16.152553616957235 0 16.152553616957235 -14.430791188354434 0 0 0 0 -4.5948302845208673 24.934618036342727 0 24.934618036342727 79.455667502787037 0 0 0 0 1.4110175695006717 -0.24661276550720146 0 -0.24661276550720146 -3.2311243857977505 0 0 0 0 -106.66289828828303 471.86171238370298 0 471.86171238370298 -912.51541993322098 0 0 0 0 3.5551404224262626 10.467564915646506 0 10.467564915646506 -1.8161865994905071 0 0 0 0 117.7905190706042 125.54258403981203 0 125.54258403981203 28.243743505172461 0 0 0 0 -14.754369024201878 26.36054454553414 0 26.36054454553414 93.293249854439637 0 0 0 0 -14.70909377545695 22.368866474272046 0 22.368866474272046 -16.321599047201744 0 0 0 0 8.9875645108551865 36.289979263416171 0 36.289979263416171 -9.5785827736262874 0 0 0 0 -46.558386014665302 39.973064824947869 0 39.973064824947869 20.257254233531057 0 0 0 0 -75.15242995324661 -9.7644094310999208 0 -9.7644094310999208 -18.693527920810084 0 0 0 0 60.946203053688805 -59.918012774869567 0 -59.918012774869567 -33.952303350888542 0 0 0 0 -54.910352134793357 134.20483739467568 0 134.20483739467568 97.160402413930569 0 0 0 0 13.553163466969938 32.783471998462758 0 32.783471998462758 -19.757439129812809 0 0 0 0 -29.400640603889769 29.741929622021416 0 29.741929622021416 -19.380783098917163 0 0 0 0 136.18995199929486 15.180267418101721 0 15.180267418101721 -63.53057738901407 0 0 0 0 113.15386246526032 53.612481873617071 0 53.612481873617071 -93.826695141138771 0 0 0 0 65.980387459268968 14.382213839446194 0 14.382213839446194 -15.423396295751445 0 0 0 0 110.8250383848208 -33.924960951313551 0 -33.924960951313551 9.2386201302797417 0 0 0 0 -13.631445990901256 13.593632924273663 0 13.593632924273663 -2.7421174330696019 0 0 0 0 11.514101610955549 131.1698390128422 0 131.1698390128422 43.415572644962594 0 0 0 0 37.473630890382999 61.837889459403499 0 61.837889459403499 -10.234045624598878 0 0 0 0 105.65103181549421 19.035163531891158 0 19.035163531891158 -79.983896646430367 0 0 0 0 -175.99977308994312 87.241372902931289 0 87.241372902931289 177.87681424207767 0 0 0 0 -56.516274629180749 0.22759791430716803 0 0.22759791430716803 0.60574029533525575 0 0 0 0 178.92113454260289 282.8479067776625 0 282.8479067776625 -176.11175101310073 0 0 0 0 59.016350984394066 27.852862944555774 0 27.852862944555774 -3.0899950739213438 0 0 0 0 66.445075748690215 59.287465505269211 0 59.287465505269211 -76.452816916011216 0 0 0 0 75.487031974716245 36.69211524064977 0 36.69211524064977 -6.3289413551685385 0 0 0 0 21.761155066473293 23.457527951883094 0 23.457527951883094 -48.579418051971516 0 0 0 0 21.345572071956894 11.999618024786599 0 11.999618024786599 -9.3487763385173004 0 0 0 0 65.800000380389974 25.669882189838063 0 25.669882189838063 -53.118254142922524 0 0 0 0 34.43359365868406 15.561098999583507 0 15.561098999583507 -14.42614881502584 0 0 0 0 35.244581345854819 18.773434558544167 0 18.773434558544167 -34.394779257212164 0 0 0 0 -188.88592794013675 -32.649056043948804 0 -32.649056043948804 143.47429748053037 0 0 0 0 71.941013548188494 74.36632309961351 0 74.36632309961351 -83.378924838001694 0 0 0 0 25.408504612369143 16.324520882871298 0 16.324520882871298 -27.511320725164619 0 0 0 0 26.387576673543663 9.6671773725684034 0 9.6671773725684034 -46.765033618212328 0 0 0 0 35.861725209810771 0.81618178479173764 0 0.81618178479173764 -43.405622871544836 0 0 0 0 41.059095437773067 -65.645343706824406 0 -65.645343706824406 -152.58170935288945 0 0 0 0 237.16835573986464 181.10712128854721 0 181.10712128854721 -1121.3358002276509 0 0 0 0 -33.770106411393499 334.25282637604687 0 334.25282637604687 -422.39800621576069 0 0 0 0 -471.22239879511471 477.02449952217648 0 477.02449952217648 -441.97544525254852 0 0 0 0 92.638074953894829 -59.258274684871139 0 -59.258274684871139 -457.50158398461645 0 0 0 0 1.8104604362583814 3.1980692752920561 0 3.1980692752920561 -15.311968124939327 0 0 0 0 -89.046418627011008 -257.09032543968351 0 -257.09032543968351 -64.396644493410349 0 0 0 0 36.373425616061432 -15.07466570766627 0 -15.07466570766627 -64.970781269280621 0 0 0 0 153.31392249680357 162.43491810953128 0 162.43491810953128 -155.85643316789356 0 0 0 0 -320.61497831991437 916.68903542746193 0 916.68903542746193 -317.99740083199868 0 0 0 0 -461.06291601556586 902.22374834957009 0 902.22374834957009 -319.02669158431263 0 0 0 0 -78.527087834321719 110.6983693547445 0 110.6983693547445 -38.669215663874638 0 0 0 0 -773.58056120725087 514.36994386964943 0 514.36994386964943 57.315474971706863 0 0 0 0 19.109470932533441 149.03218274269602 0 149.03218274269602 39.068978139483079 0 0 0 0 221.12859027390368 475.96790102183149 0 475.96790102183149 18.975719895454858 0 0 0 0 -20.471171025579679 779.78315714416021 0 779.78315714416021 -35.845514159752383 0 0 0 0 -37.143216939366539 981.59377232696352 0 981.59377232696352 -107.5295318624535 0 0 0 0 -0.072462925731088035 868.21094432159407 0 868.21094432159407 -263.89517752671236 0 0 0 0 -43.451393947441829 908.33458906790111 0 908.33458906790111 -117.78179258304635 0 0 0 0 -377.78126814532152 910.36658979723143 0 910.36658979723143 -60.701821606488011 0 0 0 0 -74.711011740288086 1006.5387506313455 0 1006.5387506313455 -409.22147488763585 0 0 0 0 -113.5311018612847 815.37788318764069 0 815.37788318764069 -1328.2997695196027 0 0 0 0 -133.56360243038216 631.50423517640957 0 631.50423517640957 -417.01157071880954 0 0 0 0 0.69816777771060856 1.9027849364448599 0 1.9027849364448599 -1.679365726226294 0 0 0 0 -104.57343109011708 758.07284436353802 0 758.07284436353802 38.587610522445175 0 0 0 0 17.534531498535216 93.315898337486942 0 93.315898337486942 -925.72825638849463 0 0 0 0 0.13408410188276321 840.99652161554695 0 840.99652161554695 -1785.0634129133487 0 0 0 0 -406.04460664567887 644.75879682977757 0 644.75879682977757 -598.83547706797663 0 0 0 0 -3.3623222803644524 4.2484944310589725 0 4.2484944310589725 -0.54930766705722789 0 0 0 0 8.405596433673054 777.6680761597745 0 777.6680761597745 -1450.4222777886825 0 0 0 0 -223.32614482037025 562.36630649769359 0 562.36630649769359 -780.95350731476356 0 0 0 0 -37.26963598059956 375.926606887464 0 375.926606887464 -974.91098453804079 0 0 0 0 214.91971328311774 429.12802752119205 0 429.12802752119205 -2516.6896742200479 0 0 0 0 -1042.4045453569561 1784.733296096274 0 1784.733296096274 -1647.7902911434212 0 0 0 0 -1855.2075494399433 466.41279992138425 0 466.41279992138425 282.40392433051602 0 0 0 0 -11.903375139771697 6.5603358958635027 0 6.5603358958635027 -3.7143546730237063 0 0 0 0 -119.83291418006411 1029.0492593867821 0 1029.0492593867821 -2405.9938564234326 0 0 0 0 -1726.2482231147442 1546.9260745664415 0 1546.9260745664415 -2059.6839211947154 0 0 0 0 -4.5138400270909642 3.3879385558516333 0 3.3879385558516333 -0.39560113443037181 0 0 0 0 -454.44353510809742 652.09023612864985 0 652.09023612864985 -89.650306876916147 0 0 0 0 -892.07265348176588 2069.6141260109798 0 2069.6141260109798 -1898.7480310204119 0 0 0 0 -1177.9483194974018 1586.304235626194 0 1586.304235626194 -1010.0607566906256 0 0 0 0 -1240.7100558650855 1034.6646127254571 0 1034.6646127254571 -381.9627963740204 0 0 0 0 80.14593560123285 167.8491902323567 0 167.8491902323567 -174.03105068721925 0 0 0 0 34.371830616145971 78.67277051290948 0 78.67277051290948 25.822342570007294 0 0 0 0 -185.67529133351491 169.48066963710153 0 169.48066963710153 72.726221365490346 0 0 0 0 1.5644192124772687 82.714349774392559 0 82.714349774392559 52.777308050668779 0 0 0 0 -412.89643784672626 323.02443103009318 0 323.02443103009318 -0.18798680016334401 0 0 0 0 -430.60153312107286 341.4164476370097 0 341.4164476370097 -9.7676030344264291 0 0 0 0 124.34427029447397 -190.34697160494397 0 -190.34697160494397 -789.27302771994437 0 0 0 0 -54.922385459984071 155.17219504888271 0 155.17219504888271 -53.570842474000528 0 0 0 0 -338.75103218606819 526.71126103193455 0 526.71126103193455 -499.59974412873271 0 0 0 0 -471.64659726844866 266.07603312646825 0 266.07603312646825 -277.17659366903536 0 0 0 0 -275.72580456787182 360.30003201371073 0 360.30003201371073 -198.23538598383311 0 0 0 0 -94.42219127642602 193.8817719202998 0 193.8817719202998 -169.06359048439481 0 0 0 0 -266.67185572499147 376.58014049548001 0 376.58014049548001 -169.22608911474683 0 0 0 0 -393.48306815573233 447.3867389062616 0 447.3867389062616 123.65321610122191 0 0 0 0 -572.49192431492702 585.61043396830792 0 585.61043396830792 192.43510766673717 0 0 0 0 -494.23350494071201 337.46201958795427 0 337.46201958795427 387.24834597986774 0 0 0 0 -427.72628603919657 551.01520791649091 0 551.01520791649091 -145.4943394576112 0 0 0 0 4.576752954592834 2.6451712695647842 0 2.6451712695647842 -1.4137055452236353 0 0 0 0 -558.90766630644794 780.05598965884565 0 780.05598965884565 -338.60232215491851 0 0 0 0 -391.94720136045362 100.4153383168341 0 100.4153383168341 557.4325275102965 0 0 0 0 -280.33900891322719 338.66891136039567 0 338.66891136039567 104.09322665128275 0 0 0 0 -289.16940322522714 386.77377888061164 0 386.77377888061164 244.33160273014801 0 0 0 0 -258.98810806138499 576.79297102033888 0 576.79297102033888 474.7593160495062 0 0 0 0 -174.50881183659658 360.03324173553483 0 360.03324173553483 69.483464768007252 0 0 0 0 -641.05394031449396 357.47791416213477 0 357.47791416213477 4.1760413219799375 0 0 0 0 -555.51220039302552 204.21605870515032 0 204.21605870515032 -45.428947375770804 0 0 0 0 -166.23320995406903 209.95547087453633 0 209.95547087453633 86.050025618387735 0 0 0 0 -396.72331195361039 368.12310099214301 0 368.12310099214301 -16.791562346301362 0 0 0 0 -542.48938663666195 266.32382817292091 0 266.32382817292091 111.44829285474043 0 0 0 0 -502.19004422332819 386.34242090041789 0 386.34242090041789 101.80929406694486 0 0 0 0 -33.452350701740066 2.9974819083359989 0 2.9974819083359989 2.0070462192211522 0 0 0 0 -163.11168775855185 264.77122375780164 0 264.77122375780164 -23.492331639561598 0 0 0 0 -139.82278921567195 313.76539515311197 0 313.76539515311197 -44.287200563827355 0 0 0 0 -158.55378995931824 262.65938267409001 0 262.65938267409001 -89.339536045617933 0 0 0 0 -233.01689908507979 283.46517989832137 0 283.46517989832137 -27.994552082433074 0 0 0 0 -25.793032900834078 205.29148012800761 0 205.29148012800761 57.173818987670529 0 0 0 0 -9.7137303097667882 30.194819133607023 0 30.194819133607023 -8.5052959456358508 0 0 0 0 -466.04800191607865 241.19256736359057 0 241.19256736359057 -54.959892839637178 0 0 0 0 -128.88891960893449 32.624395781941338 0 32.624395781941338 47.623350443154308 0 0 0 0 -612.49350236153623 328.73101653782032 0 328.73101653782032 -52.513253919227282 0 0 0 0 -581.13466166496801 287.96718160622913 0 287.96718160622913 -39.1318765687829 0 0 0 0 202.45861200298532 147.29708381972523 0 147.29708381972523 -41.726561231706 0 0 0 0 -20.10488139183839 12.615344625265379 0 12.615344625265379 -13.46560939380177 0 0 0 0 524.12153558197497 252.06899638002005 0 252.06899638002005 27.860087072833267 0 0 0 0 4.8382170236980997 11.529534963615845 0 11.529534963615845 -7.4098422001457607 0 0 0 0 -667.80874104148825 453.31514556526236 0 453.31514556526236 -96.581421561000752 0 0 0 0 -1094.212057254932 254.8257397464331 0 254.8257397464331 -7.8648072554988175 0 0 0 0 -381.29118092016142 164.76994381816257 0 164.76994381816257 -231.8575621752243 0 0 0 0 8.315599592623542 12.580146153660166 0 12.580146153660166 20.663562046487499 0 0 0 0 1.6183589567162571 5.6800970689423593 0 5.6800970689423593 -2.1752969190942792 0 0 0 0 1680.7943181628525 459.94871910846769 0 459.94871910846769 -15.61657877957623 0 0 0 0 -246.30079702496005 230.94336808042681 0 230.94336808042681 57.657705189787521 0 0 0 0 -249.88942896848312 198.93887329975223 0 198.93887329975223 69.447146306891227 0 0 0 0 -110.41969560061303 34.989378888748512 0 34.989378888748512 18.157177997503275 0 0 0 0 -273.04759025289968 174.32314786752249 0 174.32314786752249 -32.909817481846403 0 0 0 0 -394.42766123097681 185.78915834689178 0 185.78915834689178 -157.4494978727198 0 0 0 0 -524.53505155073799 239.16176581033324 0 239.16176581033324 51.276433536000695 0 0 0 0 -31.867807105824724 23.734747433661909 0 23.734747433661909 43.786603903469327 0 0 0 0 -531.72576726300395 151.79275854212392 0 151.79275854212392 23.139309705322376 0 0 0 0 -537.52253965195268 161.74400702843923 0 161.74400702843923 19.386566381703233 0 0 0 0 -147.12425925505522 106.68378055956055 0 106.68378055956055 -10.345452109566395 0 0 0 0 -1233.240742140355 3260.5417821427309 0 3260.5417821427309 -2451.8006457078736 0 0 0 0 -1808.0757861712482 1933.4533054533631 0 1933.4533054533631 -1102.0043780010492 0 0 0 0 55.128078878446246 56.757416699356554 0 56.757416699356554 48.082200128149459 0 0 0 0 -262.94337173114764 309.42065687131344 0 309.42065687131344 -100.30782197094959 0 0 0 0 -645.43291885696817 349.08148363530927 0 349.08148363530927 -74.599872964969109 0 0 0 0 -671.80149835345492 200.58432751673672 0 200.58432751673672 8.9782073745955131 0 0 0 0 537.5781709766743 1711.6744051895985 0 1711.6744051895985 -2777.6229613292608 0 0 0 0 -364.00898749982298 296.20088806901549 0 296.20088806901549 -371.85333364568942 0 0 0 0 -1536.9909021173717 535.23005711906944 0 535.23005711906944 142.7431327330487 0 0 0 0 505.22142556734616 580.68850311054848 0 580.68850311054848 -52.036952636539354 0 0 0 0 1.2712462842002452 3.664322156718157 0 3.664322156718157 6.7265505232363125 0 0 0 0 -415.79081286915607 39.178545380467767 0 39.178545380467767 -18.712730707673472 0 0 0 0 33.310677699188375 44.499718939571565 0 44.499718939571565 47.034351315548776 0 0 0 0 -702.85805954628449 1305.8564780215529 0 1305.8564780215529 136.70944325580604 0 0 0 0 1024.4758135933225 582.82018432765472 0 582.82018432765472 211.95873545541326 0 0 0 0 329.79372071669059 570.56715752033233 0 570.56715752033233 255.4686291190701 0 0 0 0 474.46976249505678 905.43808686671855 0 905.43808686671855 240.69318689403372 0 0 0 0 617.4511084626065 811.58115373682267 0 811.58115373682267 189.50510536484944 0 0 0 0 420.46243231440894 882.73308247760542 0 882.73308247760542 362.11587183289748 0 0 0 0 499.3915490662439 655.11587554615289 0 655.11587554615289 287.75728873487969 0 0 0 0 158.75103237316216 835.81404516317161 0 835.81404516317161 354.29156403724119 0 0 0 0 662.86123464422417 802.1593198070841 0 802.1593198070841 186.05601519595712 0 0 0 0 317.12113242091436 785.21149317460731 0 785.21149317460731 277.85370681093355 0 0 0 0 526.43067445827182 235.79062568557129 0 235.79062568557129 42.901497301660129 0 0 0 0 277.50202620905475 710.63201015245431 0 710.63201015245431 166.4373479820897 0 0 0 0 -223.66134697021698 766.05998888176418 0 766.05998888176418 165.2470036385057 0 0 0 0 -123.44511072579189 935.68780718126072 0 935.68780718126072 272.99081501048568 0 0 0 0 167.58503338524315 827.95189684833713 0 827.95189684833713 307.2201741639019 0 0 0 0 0.050999803643207997 827.86836436422163 0 827.86836436422163 145.8815743797677 0 0 0 0 -0.084441412633168511 867.49308260371436 0 867.49308260371436 460.52306373490501 0 0 0 0 135.62963878427399 997.93504188174757 0 997.93504188174757 541.84003741597553 0 0 0 0 84.704329468600918 898.52430658301819 0 898.52430658301819 465.65983694591387 0 0 0 0 0.11265069909131853 915.77528462369446 0 915.77528462369446 522.17602927098778 0 0 0 0 66.561529320129921 883.1254288583068 0 883.1254288583068 528.92573441698187 0 0 0 0 77.733870909756661 885.79652891813475 0 885.79652891813475 439.78937873182804 0 0 0 0 -0.34019101320154732 964.71909435510861 0 964.71909435510861 376.32336716057762 0 0 0 0 767.81391877234273 1042.3272521870167 0 1042.3272521870167 292.52892936431999 0 0 0 0 685.49120461443454 873.34428564074642 0 873.34428564074642 -3.6962203130824491 0 0 0 0 217.51857428826042 1146.0858943411022 0 1146.0858943411022 767.97171164543761 0 0 0 0 515.82261317974917 758.32189861423649 0 758.32189861423649 280.48579370520929 0 0 0 0 547.34083000833743 513.33567271246602 0 513.33567271246602 2018.1186578210654 0 0 0 0 503.17094069758605 698.4898325818267 0 698.4898325818267 316.1497496236625 0 0 0 0 1082.1034721220858 878.98475405422596 0 878.98475405422596 -617.62445810042482 0 0 0 0 2080.9803452079286 1718.2728155038585 0 1718.2728155038585 -746.47715234060524 0 0 0 0 79.005392693445174 1240.6822114714405 0 1240.6822114714405 -334.66587866987538 0 0 0 0 -150.09865925854683 598.58584894161777 0 598.58584894161777 28.960024848012836 0 0 0 0 0.21906864684292343 861.70924429819468 0 861.70924429819468 -519.14455880230526 0 0 0 0 -357.41307872463221 802.16495225735252 0 802.16495225735252 -483.08892597871454 0 0 0 0 -0.31636846651963424 615.98422010436479 0 615.98422010436479 -425.41570927792418 0 0 0 0 -406.00053042146374 511.96303530263026 0 511.96303530263026 -403.96525198890959 0 0 0 0 -2009.1744520227949 1181.8582998414659 0 1181.8582998414659 -161.88142053817592 0 0 0 0 3641.1110876485036 681.14708988956681 0 681.14708988956681 -966.85988867172273 0 0 0 0 3.1934486558726469 9.5450274161935056 0 9.5450274161935056 0.59718049882638979 0 0 0 0 396.86064770189114 1153.6856917008445 0 1153.6856917008445 110.37189929559099 0 0 0 0 824.48770739105748 1544.5326118896032 0 1544.5326118896032 -232.63294119297279 0 0 0 0 1263.3255981384555 457.70109124831151 0 457.70109124831151 198.03427827608539 0 0 0 0 -781.14830526388687 612.22685379117866 0 612.22685379117866 -228.14669145379139 0 0 0 0 4.6950455724786551 20.24670877268801 0 20.24670877268801 5.6546904684934418 0 0 0 0 484.80180773432221 943.12396612779776 0 943.12396612779776 -104.62684861353409 0 0 0 0 327.41766782977356 778.07339434438381 0 778.07339434438381 -253.02386266400572 0 0 0 0 3.6514371565878747 20.492271000248664 0 20.492271000248664 12.140089128962735 0 0 0 0 -1301.2736850157526 1033.4910118225089 0 1033.4910118225089 -26.754714271592093 0 0 0 0 84.893868780440243 443.29608955703497 0 443.29608955703497 32.902947924196269 0 0 0 0 0.58566588329267688 601.39082662464898 0 601.39082662464898 82.751668070697633 0 0 0 0 -20.384340320798401 782.94281571669683 0 782.94281571669683 -191.12003540038859 0 0 0 0 -81.217071514387499 252.2934041684457 0 252.2934041684457 -139.80701065495487 0 0 0 0 720.7798598389054 570.56754772761633 0 570.56754772761633 107.53500469145911 0 0 0 0 722.27174070403271 433.47316362715537 0 433.47316362715537 208.10501140968972 0 0 0 0 17.359381391193892 127.96565186009639 0 127.96565186009639 23.266737354339057 0 0 0 0 -46.93671904033657 46.921912331635333 0 46.921912331635333 4.4281405056940173 0 0 0 0 -73.077600951133718 9.8679752170023676 0 9.8679752170023676 50.268578963314212 0 0 0 0 1088.5514444492583 285.56674774280236 0 285.56674774280236 -88.744556953005485 0 0 0 0 809.74027072293029 307.38790442037043 0 307.38790442037043 -52.834043920198383 0 0 0 0 766.76594330041553 753.67348825905901 0 753.67348825905901 -47.255893181481952 0 0 0 0 1084.230003299308 711.70766387393815 0 711.70766387393815 -233.73172872266969 0 0 0 0 568.86997430524207 1117.9072154194491 0 1117.9072154194491 -324.42497220627979 0 0 0 0 244.22627992385242 1163.8844708354591 0 1163.8844708354591 54.01015288351482 0 0 0 0 287.78799390326094 1174.7998573116308 0 1174.7998573116308 7.2819521390410955 0 0 0 0 575.96609421836911 793.6988968358819 0 793.6988968358819 -53.217136572387972 0 0 0 0 212.81938719531172 869.83773322004345 0 869.83773322004345 192.25628320801661 0 0 0 0 747.74464327160786 606.00672285231167 0 606.00672285231167 78.123142882272077 0 0 0 0 330.3166692336672 698.14102234809252 0 698.14102234809252 146.76197974100978 0 0 0 0 666.52710004187247 364.96742565356544 0 364.96742565356544 141.62895843658043 0 0 0 0 -516.5052844043239 874.06674864327761 0 874.06674864327761 318.22479039284735 0 0 0 0 348.86319008841383 751.34850842147171 0 751.34850842147171 295.19294076733786 0 0 0 0 167.54233145160833 250.79798881656097 0 250.79798881656097 342.87571086389653 0 0 0 0 76.050181743630674 631.42713662013557 0 631.42713662013557 301.15181771022617 0 0 0 0 741.35458220046712 492.22053663865518 0 492.22053663865518 -45.308816843069508 0 0 0 0 331.82647157562315 466.70735602590867 0 466.70735602590867 539.88647171073535 0 0 0 0 292.99282943256549 1213.6073879653268 0 1213.6073879653268 71.390076877372849 0 0 0 0 96.286194318650814 1400.3047561505628 0 1400.3047561505628 85.150446479623497 0 0 0 0 345.13238572562113 1343.4729605460834 0 1343.4729605460834 -459.33810893330701 0 0 0 0 -1015.7803598042519 1678.4250784469878 0 1678.4250784469878 21.294394636621291 0 0 0 0 -1993.5617351443216 551.21341420028511 0 551.21341420028511 269.26049593984499 0 0 0 0 0.57526747003794299 19.335819612588367 0 19.335819612588367 -19.490891423712895 0 0 0 0 -92.180925943161128 313.67740152707484 0 313.67740152707484 -41.257985357195139 0 0 0 0 -1105.0429679021181 671.04222789766936 0 671.04222789766936 300.56093026990334 0 0 0 0 -252.54328281307244 79.988837735202651 0 79.988837735202651 203.58314450643411 0 0 0 0 5.753932592628189 248.75724099614717 0 248.75724099614717 -801.05135506414081 0 0 0 0 -1.7649001107689628 39.613304160713284 0 39.613304160713284 74.42784110925902 0 0 0 0 -84.88006963855878 110.1853989790726 0 110.1853989790726 36.985953102626809 0 0 0 0 -116.79066453110863 -26.4358488846201 0 -26.4358488846201 53.516931701407884 0 0 0 0 -38.006892966427529 48.456668853380414 0 48.456668853380414 27.454110814740048 0 0 0 0 -19.137681539810728 64.782497312866326 0 64.782497312866326 -11.219597330838951 0 0 0 0 735.80447850836208 507.05814710566483 0 507.05814710566483 280.63120419136249 0 0 0 0 1197.1500245464267 768.43112207001832 0 768.43112207001832 120.80424604013388 0 0 0 0 -10.945678782302458 1.250571817080953 0 1.250571817080953 0.4683644117848047 0 0 0 0 66.963061931753145 124.84239490422169 0 124.84239490422169 162.49839537620574 0 0 0 0 243.94043079958419 234.35545929580064 0 234.35545929580064 132.94607951508442 0 0 0 0 32.055581862929102 11.241085179759466 0 11.241085179759466 33.083787369705533 0 0 0 0 -93.008304237281664 47.029595199711025 0 47.029595199711025 132.0309197366405 0 0 0 0 208.03163649941416 40.514573957421817 0 40.514573957421817 90.039715307301776 0 0 0 0 -70.15152936422237 -106.782053936583 0 -106.782053936583 153.1918149749763 0 0 0 0 175.57439794742459 271.3639405939266 0 271.3639405939266 79.348561520697899 0 0 0 0 7.8824172427637933 30.080697383385186 0 30.080697383385186 53.209399708486359 0 0 0 0 -2593.3259753053353 1902.8513860536314 0 1902.8513860536314 532.10745854895868 0 0 0 0 154.63759872599621 214.785146977963 0 214.785146977963 512.08114037183623 0 0 0 0 -1155.345413993171 2340.6248813582515 0 2340.6248813582515 -1062.488783835277 0 0 0 0 785.3911614290846 611.05347487613835 0 611.05347487613835 -1824.3184391653413 0 0 0 0 -2108.6362134596056 1875.9071228094217 0 1875.9071228094217 -732.17538690892616 0 0 0 0 -2366.8935596896936 1230.3942293572809 0 1230.3942293572809 268.48007133322972 0 0 0 0 779.64868212904548 2346.8597108929353 0 2346.8597108929353 472.85355270927539 0 0 0 0 922.11651637488103 1029.956466838792 0 1029.956466838792 -621.49134864116058 0 0 0 0 1873.9572693325608 -76.857311280611611 0 -76.857311280611611 -261.99304302000837 0 0 0 0 11.542631969284542 15.861372740233662 0 15.861372740233662 18.86576457578176 0 0 0 0 1526.3992414551321 1846.3032598565896 0 1846.3032598565896 800.01966841394278 0 0 0 0 -1577.419956524187 213.8950769398889 0 213.8950769398889 2161.9665238431335 0 0 0 0 -1840.9527885117259 1344.6271284555307 0 1344.6271284555307 -141.52381164037433 0 0 0 0 367.71900729030676 -249.3503691615133 0 -249.3503691615133 -764.27320769118523 0 0 0 0 1509.0008506076265 926.71261089755717 0 926.71261089755717 -600.46085843024775 0 0 0 0 608.82718372234376 390.30623318660582 0 390.30623318660582 33.547348508342111 0 0 0 0 2112.6289734163529 1048.4209798118702 0 1048.4209798118702 311.7291532352574 0 0 0 0 -3159.3598396018497 41.203080986371788 0 41.203080986371788 -354.9674240188051 0 0 0 0 -3260.7665579638742 2196.3784495000273 0 2196.3784495000273 1282.8530117186383 0 0 0 0 -3379.8935743000475 1578.4700555207291 0 1578.4700555207291 -136.86069768500965 0 0 0 0 -4541.9278591840557 1268.8680643867833 0 1268.8680643867833 643.02574441782781 0 0 0 0 0.3150972035107884 10.710558955633999 0 10.710558955633999 22.806872670308394 0 0 0 0 30.978912112226681 1776.3658479272617 0 1776.3658479272617 1244.0732283899752 0 0 0 0 -90.885607422403609 627.34511927600101 0 627.34511927600101 669.19771006695373 0 0 0 0 219.34275383449858 943.86596841424216 0 943.86596841424216 909.03197786335841 0 0 0 0 534.08191159955459 683.59873778265046 0 683.59873778265046 1124.160658902505 0 0 0 0 207.06136329043125 661.04145337185093 0 661.04145337185093 1560.9395103021488 0 0 0 0 1374.7745034606487 773.00664118459008 0 773.00664118459008 338.50191342319977 0 0 0 0 1.1622288121325255 179.36859205587348 0 179.36859205587348 102.15508802038858 0 0 0 0 836.23966731498513 -367.61264683289846 0 -367.61264683289846 44.539418440406735 0 0 0 0 116.14608265143033 214.41160338859936 0 214.41160338859936 68.379888782638318 0 0 0 0 315.1730152664677 -274.67518448021019 0 -274.67518448021019 110.58824151831504 0 0 0 0 -124.37357337491267 -10.792633542119802 0 -10.792633542119802 664.80077796839942 0 0 0 0 146.03828342345878 439.25200190843361 0 439.25200190843361 1408.4858891296117 0 0 0 0 16.077235924653309 5.3765901884461442 0 5.3765901884461442 3.5234881255442865 0 0 0 0 1071.0668798965889 1119.5888908806864 0 1119.5888908806864 902.35140978517938 0 0 0 0 428.04974832657899 600.39847612944504 0 600.39847612944504 435.023279303442 0 0 0 0 671.311283494284 672.13651330518178 0 672.13651330518178 452.38457959569132 0 0 0 0 265.78840747074355 767.60519979405899 0 767.60519979405899 859.93953299922396 0 0 0 0 545.32907340990641 164.45982110779869 0 164.45982110779869 -14.698640696612529 0 0 0 0 448.57061960357896 349.77785186529036 0 349.77785186529036 323.86269523602186 0 0 0 0 1075.3690817270908 12.700038738370949 0 12.700038738370949 933.4703730361266 0 0 0 0 854.2844945459583 418.13864232676133 0 418.13864232676133 229.8126802172992 0 0 0 0 -664.40840891718835 1014.603512072566 0 1014.603512072566 -469.48146661355167 0 0 0 0 -586.32963265383569 641.20204918677291 0 641.20204918677291 -1.5758600105546066 0 0 0 0 -693.04238193684432 1072.5991428247626 0 1072.5991428247626 -1106.5742114801251 0 0 0 0 -853.266120045766 997.70595924650297 0 997.70595924650297 -584.55533701612876 0 0 0 0 -1030.710011437237 784.48672883181325 0 784.48672883181325 -436.29465049845385 0 0 0 0 -3.9795018437146652 18.735612076703184 0 18.735612076703184 -12.027463970797115 0 0 0 0 -1051.3366981797153 816.76421743314677 0 816.76421743314677 -428.2228893578083 0 0 0 0 -1075.0754793240121 780.0574101455145 0 780.0574101455145 -422.01779244209683 0 0 0 0 -1195.9232343539716 1143.9987470641072 0 1143.9987470641072 -148.89844186848677 0 0 0 0 -2205.6962196432069 1177.1001380866433 0 1177.1001380866433 -212.29218203348682 0 0 0 0 -1099.7078932853619 830.98792853724444 0 830.98792853724444 -429.768071320643 0 0 0 0 -1496.2604010341965 641.98085740268834 0 641.98085740268834 -311.03494081171903 0 0 0 0 7.5290742194370495 3.683427998467721 0 3.683427998467721 -3.0587071302081341 0 0 0 0 90.996786852818332 24.993808288478249 0 24.993808288478249 -121.26456553304524 0 0 0 0 4.7406735827925885 11.237377334164385 0 11.237377334164385 -0.28294584958536007 0 0 0 0 -98.330432083181222 69.629393600535877 0 69.629393600535877 28.880438341107038 0 0 0 0 -37.493145914171691 15.177116877873914 0 15.177116877873914 29.539322680993791 0 0 0 0 -49.956128630810781 54.049286915150105 0 54.049286915150105 -25.947931802807943 0 0 0 0 -11.226615963328697 28.254456798128487 0 28.254456798128487 4.2824103062858825 0 0 0 0 12.907498129767191 37.066077839106583 0 37.066077839106583 -55.847340035157686 0 0 0 0 58.406067367308424 114.78785781621355 0 114.78785781621355 -96.66791856544296 0 0 0 0 105.9068437229289 63.262551252602861 0 63.262551252602861 -75.992023636016711 0 0 0 0 38.955829877971695 19.337352309138581 0 19.337352309138581 3.895123924869683 0 0 0 0 260.76171205642459 29.950607381950249 0 29.950607381950249 -68.959163631426236 0 0 0 0 63.018531022367824 -53.737764761196559 0 -53.737764761196559 58.518458274194927 0 0 0 0 129.35476812315028 558.82526654780531 0 558.82526654780531 551.32410930287551 0 0 0 0 377.05603587438964 388.04830704898814 0 388.04830704898814 35.716990585213125 0 0 0 0 538.09029470831229 1016.4362337546481 0 1016.4362337546481 700.67729571058953 0 0 0 0 306.83240163534356 765.7295983772201 0 765.7295983772201 558.61694852258597 0 0 0 0 -3108.4100003785788 976.25084693003828 0 976.25084693003828 667.32336003459841 0 0 0 0 0.4361688069320877 4.4557465043983768 0 4.4557465043983768 2.350771741837363 0 0 0 0 -1862.557935129953 1361.8227133338796 0 1361.8227133338796 618.4046334527975 0 0 0 0 1200.2703653927565 447.79012731396097 0 447.79012731396097 164.03451830330414 0 0 0 0 -2398.5464901902233 308.31499338384219 0 308.31499338384219 -86.628173735931341 0 0 0 0 8.840341488175909 76.498697662501399 0 76.498697662501399 62.765545121525065 0 0 0 0 -1232.6290208010614 1096.9910384680115 0 1096.9910384680115 -232.1657187662986 0 0 0 0 -1026.5111082944713 565.20858439605718 0 565.20858439605718 23.721981812454032 0 0 0 0 -1531.7703638538223 706.38090974142506 0 706.38090974142506 -645.9685455334893 0 0 0 0 -1188.4588651745944 1064.730034357633 0 1064.730034357633 1016.3673247827574 0 0 0 0 -1737.8199911610791 493.1209795912464 0 493.1209795912464 501.00921531074732 0 0 0 0 -1989.7372190498863 858.09202063836801 0 858.09202063836801 570.73597256061839 0 0 0 0 -494.88414865219966 363.33035594156809 0 363.33035594156809 409.64041093925607 0 0 0 0 -359.63210746729965 660.61539701015499 0 660.61539701015499 1032.464951539303 0 0 0 0 -345.80197559659155 507.83080781870046 0 507.83080781870046 387.95295756877385 0 0 0 0 -390.27517527774035 946.45001511348437 0 946.45001511348437 85.788154953321282 0 0 0 0 -0.82701148844458316 3.3386454383368047 0 3.3386454383368047 4.5057579537270271 0 0 0 0 507.20100640777946 777.36699738500886 0 777.36699738500886 1099.7215050503346 0 0 0 0 -280.69376876811657 -61.111322228021891 0 -61.111322228021891 210.56492977914104 0 0 0 0 340.95495273853885 849.66459079443939 0 849.66459079443939 1068.4116754202696 0 0 0 0 -1807.962620462873 700.61932844205239 0 700.61932844205239 1095.5013938089089 0 0 0 0 -1262.7014830254047 302.63097246419602 0 302.63097246419602 409.10367532642704 0 0 0 0 -2359.2766900065799 261.7083073576996 0 261.7083073576996 793.23407820160537 0 0 0 0 -1585.5136998885646 -62.949219157576863 0 -62.949219157576863 -275.70103663430564 0 0 0 0 -1268.8229334926145 463.81786254352846 0 463.81786254352846 425.26110349052749 0 0 0 0 -334.11002620272484 659.95424251138775 0 659.95424251138775 237.92769230271097 0 0 0 0 -1028.9630096798792 218.01117704863827 0 218.01117704863827 57.764219056827642 0 0 0 0 -171.90628739292515 839.00426611011335 0 839.00426611011335 567.31420371494096 0 0 0 0 -1171.3484548254437 524.42746711904806 0 524.42746711904806 496.96822205017816 0 0 0 0 271.68046545776815 439.23950234780068 0 439.23950234780068 170.51904994626057 0 0 0 0 -286.72868152324372 718.98854726319223 0 718.98854726319223 680.91420098197591 0 0 0 0 -138.67186529804894 280.79827472599527 0 280.79827472599527 59.053427772227224 0 0 0 0 -16.773355838886346 542.54291713826751 0 542.54291713826751 65.412634046646417 0 0 0 0 -447.58933946092293 299.94961952864469 0 299.94961952864469 111.54825525845627 0 0 0 0 -164.78962698630312 417.53450422119977 0 417.53450422119977 557.28020594834197 0 0 0 0 -306.78474790654946 706.06674344097564 0 706.06674344097564 64.535250025939604 0 0 0 0 -699.55144092504634 501.44843516301808 0 501.44843516301808 15.203126193277512 0 0 0 0 -820.13280134140587 674.53065823142288 0 674.53065823142288 -44.414284506416152 0 0 0 0 -714.96949752010551 624.76534660770403 0 624.76534660770403 -34.119072233754196 0 0 0 0 -1174.2539532968003 354.08990764899499 0 354.08990764899499 23.060821548297099 0 0 0 0 -1254.1707468977174 621.30273617723356 0 621.30273617723356 -355.10021221116403 0 0 0 0 -1821.9639915578045 553.49273459421465 0 553.49273459421465 136.1931148773765 0 0 0 0 0.034628109421833031 10.486415376280881 0 10.486415376280881 5.7693169670846132 0 0 0 0 -1331.2957477937634 194.4222008755446 0 194.4222008755446 -82.082129584448921 0 0 0 0 4.1204482059752792 8.8993565001327326 0 8.8993565001327326 17.880125763144584 0 0 0 0 -343.38506685559332 38.975942359708824 0 38.975942359708824 13.010805748304847 0 0 0 0 -237.78185884121194 -32.099850374206653 0 -32.099850374206653 156.60134628285232 0 0 0 0 -330.71952602887905 32.552384872731636 0 32.552384872731636 -15.305267193374675 0 0 0 0 169.98569696351842 196.07451779537678 0 196.07451779537678 -124.17509843584048 0 0 0 0 236.35972212623528 333.58942504913239 0 333.58942504913239 208.59625773501557 0 0 0 0 176.80188192507921 42.844374324630735 0 42.844374324630735 32.49314962191329 0 0 0 0 524.27529152994248 282.13500471096631 0 282.13500471096631 68.773141913926906 0 0 0 0 717.82505820714141 320.68582481724479 0 320.68582481724479 68.069406672409968 0 0 0 0 375.08455646137008 610.00739579439869 0 610.00739579439869 433.28104336522483 0 0 0 0 729.19066126958978 528.08773754783897 0 528.08773754783897 105.17671505762519 0 0 0 0 231.00462777130451 558.43424144036453 0 558.43424144036453 170.46082000986422 0 0 0 0 410.62501754980622 429.80111155450959 0 429.80111155450959 23.664245693758858 0 0 0 0 469.37213066064578 504.52077271383587 0 504.52077271383587 117.96475318745274 0 0 0 0 188.48048272214146 483.31695317768299 0 483.31695317768299 654.8097496467999 0 0 0 0 374.92027502888959 192.86641142430335 0 192.86641142430335 157.13443422906494 0 0 0 0 623.05454088359693 562.77466723971975 0 562.77466723971975 31.526204873233269 0 0 0 0 106.50512864418852 1063.2008838789361 0 1063.2008838789361 211.24630620999824 0 0 0 0 8.6430493870788041 3.6301323297593981 0 3.6301323297593981 3.295017625648434 0 0 0 0 59.607529142605927 106.58831127125086 0 106.58831127125086 76.846891315406538 0 0 0 0 71.42445847497379 131.74504581659164 0 131.74504581659164 -0.43373834433259617 0 0 0 0 71.324119956494542 58.045068655295836 0 58.045068655295836 -38.704005952065927 0 0 0 0 -8.9821050832415494 82.411814358341871 0 82.411814358341871 23.775372358166351 0 0 0 0 14.440911174704212 21.541719144569548 0 21.541719144569548 4.433299692287676 0 0 0 0 7.53099245196141 47.618094009487933 0 47.618094009487933 -17.711751808087755 0 0 0 0 288.90840024210411 280.029482701917 0 280.029482701917 -447.10907485723328 0 0 0 0 -485.52660788171488 88.372200207575588 0 88.372200207575588 84.072542695535049 0 0 0 0 389.35102998156799 -95.866315676314116 0 -95.866315676314116 310.80778174211446 0 0 0 0 63.143796787179014 103.27253949782612 0 103.27253949782612 -27.753223296285629 0 0 0 0 38.616295338302734 338.08193050024056 0 338.08193050024056 -180.39937036913125 0 0 0 0 -129.85318596614525 248.29349757524415 0 248.29349757524415 -363.03799392561268 0 0 0 0 496.58811669631541 510.03949568807548 0 510.03949568807548 -437.19201975418764 0 0 0 0 -55.49174089414737 439.57826232408388 0 439.57826232408388 -417.14429322763704 0 0 0 0 119.20066286118163 359.5864413213144 0 359.5864413213144 -620.81809252607854 0 0 0 0 275.61180231776598 674.52606420786469 0 674.52606420786469 -648.21346084135985 0 0 0 0 -319.44091006065719 643.42904941965344 0 643.42904941965344 -573.39240783641253 0 0 0 0 31.388060951207081 204.37691917846496 0 204.37691917846496 -2162.9609215576711 0 0 0 0 12.954032927336812 3.1235021667062028 0 3.1235021667062028 -549.30416095637611 0 0 0 0 183.71680757352806 381.52041080082381 0 381.52041080082381 -966.22421791683473 0 0 0 0 -3.0721392782731414 16.226990651612923 0 16.226990651612923 -16.764543940309476 0 0 0 0 36.711803372636496 136.17707112265271 0 136.17707112265271 -426.46304739310563 0 0 0 0 -4.5681076146027237 7.1317989203259629 0 7.1317989203259629 -5.5535844450124277 0 0 0 0 -779.64974382675427 1702.1030560289894 0 1702.1030560289894 1870.5412425559286 0 0 0 0 -10.076122514341211 40.830403797504736 0 40.830403797504736 7.2090762255387304 0 0 0 0 -1345.9931148826472 920.41167292385035 0 920.41167292385035 556.39631142208304 0 0 0 0 -591.66043757841544 1078.0104335504057 0 1078.0104335504057 -294.46263407520291 0 0 0 0 -659.40858939153986 128.13421073925247 0 128.13421073925247 -172.95052086688884 0 0 0 0 7.3553543225752946 -40.294555173753224 0 -40.294555173753224 -464.9410001603992 0 0 0 0 -1044.3680890779942 994.3865160459527 0 994.3865160459527 -806.82346393048056 0 0 0 0 -314.34348346860907 169.03050052734321 0 169.03050052734321 -122.20873402097914 0 0 0 0 -436.71294371272961 290.11968412309716 0 290.11968412309716 -138.58669114012446 0 0 0 0 -426.74608455314592 299.81044268444907 0 299.81044268444907 -114.06696465968889 0 0 0 0 -427.02607203219668 303.20675737173042 0 303.20675737173042 -137.08122709871384 0 0 0 0 -342.74862233828026 209.98224518249663 0 209.98224518249663 -170.17054300351288 0 0 0 0 -485.85521709968089 371.10112774908862 0 371.10112774908862 -179.30145304009602 0 0 0 0 -393.89929216101882 262.19353399427791 0 262.19353399427791 -140.14747346689728 0 0 0 0 -321.95447442503428 240.95514030254981 0 240.95514030254981 -137.49250009611205 0 0 0 0 -375.93156028561134 125.14744014943517 0 125.14744014943517 49.949498877629594 0 0 0 0 -330.24898674305587 243.78820426377024 0 243.78820426377024 -183.3537345212917 0 0 0 0 -348.22899650577165 123.95785412038276 0 123.95785412038276 -99.993315118088503 0 0 0 0 -345.87902020531692 227.03148157423743 0 227.03148157423743 -30.537355933827712 0 0 0 0 52.097854796527827 162.66724975034549 0 162.66724975034549 -85.876016888795675 0 0 0 0 8.1314761856204179 17.475223718447396 0 17.475223718447396 -1.5492263939052933 0 0 0 0 -827.53314170039084 414.83887626204341 0 414.83887626204341 -26.952414545416104 0 0 0 0 -750.59206535059639 463.47831999251594 0 463.47831999251594 -102.91078722946986 0 0 0 0 0.67061149877883253 11.500541142227924 0 11.500541142227924 24.231417341416961 0 0 0 0 -674.18172908117413 449.74146736139483 0 449.74146736139483 -171.68877822125296 0 0 0 0 -712.41722013614344 294.4685533397751 0 294.4685533397751 -70.987618931285397 0 0 0 0 -508.4592497737176 226.89031966754828 0 226.89031966754828 29.382040471380606 0 0 0 0 -185.02315875904242 544.63828521092637 0 544.63828521092637 -310.51474646599127 0 0 0 0 -338.48905848682625 237.56138458254736 0 237.56138458254736 -64.850365344263082 0 0 0 0 -94.559854196741071 425.07030940839013 0 425.07030940839013 -316.59463469515816 0 0 0 0 -523.26209624340117 363.62899971976185 0 363.62899971976185 -116.7539019284086 0 0 0 0 -390.05180866209957 606.3580853693893 0 606.3580853693893 -127.37402427725647 0 0 0 0 -266.38911810183345 805.988195774411 0 805.988195774411 -65.567933259431811 0 0 0 0 -702.77561402300398 558.0641941177779 0 558.0641941177779 -124.41391617947374 0 0 0 0 -157.4103959197746 685.97632981077732 0 685.97632981077732 -259.99743405118352 0 0 0 0 27.178582449028909 743.66714110965404 0 743.66714110965404 -277.15452321551811 0 0 0 0 -12.875270336022368 271.76416152123693 0 271.76416152123693 -365.94746272359589 0 0 0 0 48.016424004217697 350.67738635098431 0 350.67738635098431 -320.18329012223512 0 0 0 0 48.085704275083117 47.287476053475984 0 47.287476053475984 -220.98366784495693 0 0 0 0 -61.693040621354612 89.645306537500232 0 89.645306537500232 2.3881480253658083 0 0 0 0 -103.22789256912074 169.90579050765882 0 169.90579050765882 -92.948361165017559 0 0 0 0 -47.201466181904834 9.2508700503340151 0 9.2508700503340151 -16.562144556809926 0 0 0 0 -142.65591849972043 213.7249769625605 0 213.7249769625605 -135.50689796689949 0 0 0 0 11.660553457433693 26.538920846877787 0 26.538920846877787 23.880288808394432 0 0 0 0 -707.98653728973295 379.73188249431041 0 379.73188249431041 -112.64281984648915 0 0 0 0 -710.4412949540565 365.29123452781687 0 365.29123452781687 -63.726503256291835 0 0 0 0 -486.20548573373526 353.01427372243643 0 353.01427372243643 -195.90347120746083 0 0 0 0 9.8903740069577921 9.5521283278815474 0 9.5521283278815474 -2.8553754003844762 0 0 0 0 -575.52971400494425 297.41903036209101 0 297.41903036209101 -119.42865322215403 0 0 0 0 -621.06383477355121 516.29759546733089 0 516.29759546733089 -85.93951507233669 0 0 0 0 -609.0087136449074 377.71139382269689 0 377.71139382269689 -118.63479980439297 0 0 0 0 -658.01980775012635 443.88582585896347 0 443.88582585896347 -63.322073629373335 0 0 0 0 50.736461297249662 191.58108934680575 0 191.58108934680575 -261.59434046889965 0 0 0 0 0.94163416239823761 2.8497649610469082 0 2.8497649610469082 -1.0888666144762418 0 0 0 0 -328.09470531409897 336.02345372158015 0 336.02345372158015 -117.33508814821971 0 0 0 0 -110.7242907677828 575.67403108132817 0 575.67403108132817 -295.36619675380689 0 0 0 0 -379.59592916029123 191.81378606101373 0 191.81378606101373 -43.226427816713112 0 0 0 0 -494.41692217088712 399.6725322577845 0 399.6725322577845 -92.28950431230146 0 0 0 0 -356.05367025383384 325.09686270747625 0 325.09686270747625 -188.23959422993812 0 0 0 0 -476.63963375491585 297.69994712595059 0 297.69994712595059 -110.57469684622447 0 0 0 0 -517.43506649848132 286.41246385948307 0 286.41246385948307 -94.94639498337483 0 0 0 0 0.5763618762139231 5.8133164816073304 0 5.8133164816073304 -9.0611898732392433 0 0 0 0 -20.825202738691587 8.3985872804777273 0 8.3985872804777273 7.5100507574167068 0 0 0 0 -354.5576794390654 874.50020456531456 0 874.50020456531456 -649.20948231030707 0 0 0 0 -21.505814122658194 38.450770685108949 0 38.450770685108949 -12.635374895133424 0 0 0 0 5.0637607724453773 5.1677074672414491 0 5.1677074672414491 4.2445702316325855 0 0 0 0 -706.05637019213464 745.31304886202406 0 745.31304886202406 -238.81954295001606 0 0 0 0 -358.31170874677628 690.99286999280844 0 690.99286999280844 -242.98660957756374 0 0 0 0 -1026.6907940671808 710.4406678338122 0 710.4406678338122 -29.85070030649922 0 0 0 0 -660.1975727026711 644.07198729033098 0 644.07198729033098 -22.792034053849193 0 0 0 0 -992.4196125454182 510.20093633574345 0 510.20093633574345 -42.409953276670421 0 0 0 0 -1868.7918040011937 688.20685848161895 0 688.20685848161895 -17.660490235687575 0 0 0 0 4.6837244804677027 9.3947281269598122 0 9.3947281269598122 1.3171690122130397 0 0 0 0 -24.258194188681955 38.459330742875068 0 38.459330742875068 -5.2011151115392522 0 0 0 0 -801.29927580408548 -261.75078813160974 0 -261.75078813160974 -1666.3389350985444 0 0 0 0 465.94120076861145 1915.3541595904524 0 1915.3541595904524 -2140.5525552665899 0 0 0 0 -538.00680870481301 2161.0224958180825 0 2161.0224958180825 -1306.8486268474103 0 0 0 0 1157.361088169695 1089.3597007041612 0 1089.3597007041612 -1272.3110135920701 0 0 0 0 664.85592963507952 455.20711470328808 0 455.20711470328808 -391.44954488474423 0 0 0 0 1174.8210351653688 513.1760403027281 0 513.1760403027281 441.12372388557606 0 0 0 0 4.9902119308199602 7.8316190430482919 0 7.8316190430482919 -3.9444867907277867 0 0 0 0 -0.97408158542545209 11.6089712222667 0 11.6089712222667 -0.051801773713090027 0 0 0 0 -37.552817777963355 -224.49219149050805 0 -224.49219149050805 -1241.4388494914015 0 0 0 0 -1666.8699655842647 -44.873066709081854 0 -44.873066709081854 80.197829720320215 0 0 0 0 -1781.1045266941946 -61.978403866385406 0 -61.978403866385406 77.636507657220136 0 0 0 0 11.458740146622382 25.653490930296662 0 25.653490930296662 24.386739846337569 0 0 0 0 26.203870012450352 32.939673116748963 0 32.939673116748963 -21.238124969315322 0 0 0 0 -893.9077774488851 178.29772071385966 0 178.29772071385966 5.3620220929936977 0 0 0 0 -4.9595088076384855 89.806769085496398 0 89.806769085496398 0.44008846387259837 0 0 0 0 9.4188054412910276 16.689050664824215 0 16.689050664824215 -18.895829897078048 0 0 0 0 893.26280916971155 707.16325023893842 0 707.16325023893842 72.074832656031731 0 0 0 0 440.52865074657893 984.92848491751113 0 984.92848491751113 778.0429070026413 0 0 0 0 -85.144129527150653 634.60329993374376 0 634.60329993374376 434.4500187392124 0 0 0 0 637.44309897801577 532.25705545922165 0 532.25705545922165 -641.37940242791888 0 0 0 0 -523.82052701164503 1197.2411108023839 0 1197.2411108023839 -552.37676395253834 0 0 0 0 524.02807572909296 528.09011479940887 0 528.09011479940887 1.7491503665053187 0 0 0 0 825.00076771963654 1862.3101075282034 0 1862.3101075282034 26.292715361389583 0 0 0 0 855.28214153031877 807.67472539081427 0 807.67472539081427 -1096.0840450929672 0 0 0 0 -156.07736513733107 130.93170813948853 0 130.93170813948853 -843.84481075227143 0 0 0 0 372.25276981638308 1501.4994671451598 0 1501.4994671451598 1162.3653429336775 0 0 0 0 472.96916177826643 1184.5030038563605 0 1184.5030038563605 1290.8891352696276 0 0 0 0 -45.12193668018881 242.8165584557255 0 242.8165584557255 960.35026117910547 0 0 0 0 3.248431534069951 12.248132972691543 0 12.248132972691543 9.5240092827612983 0 0 0 0 -11.707551988432755 7.4706027502600367 0 7.4706027502600367 3.4019825583669672 0 0 0 0 27.373351193578856 1845.7968164964791 0 1845.7968164964791 -1188.1592521763694 0 0 0 0 751.16528131014024 35.073980984135879 0 35.073980984135879 15.229023285008452 0 0 0 0 454.66786694896291 1670.4216957133353 0 1670.4216957133353 -1440.9421793683721 0 0 0 0 200.11570694133843 -43.83292465923023 0 -43.83292465923023 -484.95723667145376 0 0 0 0 -9.92526090535587 17.949605646374398 0 17.949605646374398 2.9298677757817528 0 0 0 0 -14.369548603965086 -122.39224842416297 0 -122.39224842416297 -104.79141642646027 0 0 0 0 209.43629760292606 563.21558546796655 0 563.21558546796655 462.09917144908059 0 0 0 0 105.57879515038258 171.97736537961578 0 171.97736537961578 -143.4363870587149 0 0 0 0 -56.310203680975974 283.91425783854174 0 283.91425783854174 766.52055656975608 0 0 0 0 -14.734345124859829 196.79196389046001 0 196.79196389046001 167.67831600444879 0 0 0 0 20.95517294509591 244.63385441341143 0 244.63385441341143 -471.02398749311396 0 0 0 0 -6.3416787725691393 20.069606525876054 0 20.069606525876054 15.759231755565793 0 0 0 0 -1.7519670382043842 -71.113618880608101 0 -71.113618880608101 -308.51434001723101 0 0 0 0 0.81303877224765131 14.90322273098548 0 14.90322273098548 -3.6784525124434992 0 0 0 0 -127.86200919313706 3.0875239159158809 0 3.0875239159158809 -102.24971968201589 0 0 0 0 -1234.4858050472067 600.27997633659186 0 600.27997633659186 -494.89937774847476 0 0 0 0 -935.47572104950814 19.900281321521106 0 19.900281321521106 316.35971066067572 0 0 0 0 -6.5082407931813364 30.818181259795608 0 30.818181259795608 20.774915721123886 0 0 0 0 2294.2854277993847 1289.188027640015 0 1289.188027640015 549.05216917901816 0 0 0 0 -1239.6312001994738 -132.29531761800536 0 -132.29531761800536 -41.14241256147352 0 0 0 0 -3249.5787423782176 402.34726674463303 0 402.34726674463303 574.6165637468298 0 0 0 0 -731.58109363195399 1138.1862476730314 0 1138.1862476730314 1.3442659563966117 0 0 0 0 805.6653613766648 1173.3948971763223 0 1173.3948971763223 475.30365333011855 0 0 0 0 127.18638752955303 132.44159158364829 0 132.44159158364829 942.90781610646673 0 0 0 0 755.78180353571952 571.46035603752853 0 571.46035603752853 601.76039146148116 0 0 0 0 560.40877778823778 1331.5198682421494 0 1331.5198682421494 1480.3705812219077 0 0 0 0 753.25288766311496 737.62883096180599 0 737.62883096180599 -47.893125296872313 0 0 0 0 304.88422021397128 312.5601229903599 0 312.5601229903599 80.928623967404974 0 0 0 0 -217.16132093150009 798.50615106036412 0 798.50615106036412 157.027448865118 0 0 0 0 -704.22619309871516 480.8376129688977 0 480.8376129688977 798.55151861368529 0 0 0 0 302.55179810001755 808.29251100712349 0 808.29251100712349 101.29682044267929 0 0 0 0 372.95344832765841 649.97018486794127 0 649.97018486794127 -67.492805005309435 0 0 0 0 761.17372007352606 1021.4787127318673 0 1021.4787127318673 175.61394152816933 0 0 0 0 900.37018232647097 963.09885016197131 0 963.09885016197131 -674.66745340384045 0 0 0 0 209.58384917297371 963.17804100060675 0 963.17804100060675 1363.1278160169145 0 0 0 0 389.76567416172475 1176.0000540972787 0 1176.0000540972787 213.54358895399605 0 0 0 0 236.83340598356153 1223.6135995003024 0 1223.6135995003024 1030.4841697968295 0 0 0 0 97.759071958680579 1461.7505119024743 0 1461.7505119024743 1247.6087794193734 0 0 0 0 -68.264439801031585 1165.5993705967171 0 1165.5993705967171 1372.3818769916063 0 0 0 0 -102.3377810055681 968.79909284281871 0 968.79909284281871 876.36035086393383 0 0 0 0 -732.85015208716982 1879.9274398407792 0 1879.9274398407792 1950.1246610991491 0 0 0 0 -4315.9365455748048 21.500945698192709 0 21.500945698192709 1128.0169942763764 0 0 0 0 -0.8793601163076481 11.539703574806666 0 11.539703574806666 11.02846272302329 0 0 0 0 6369.3526909069005 3203.2312915521125 0 3203.2312915521125 1258.7534794360054 0 0 0 0 2203.2838472638687 1847.3365337174696 0 1847.3365337174696 1213.5576833585483 0 0 0 0 2410.125586082997 3296.0748000298358 0 3296.0748000298358 3150.3307249659638 0 0 0 0 -84.415762490090856 -357.93142947711567 0 -357.93142947711567 -614.3173065143443 0 0 0 0 17.9026798249661 0.3786284673460969 0 0.3786284673460969 -3.9474181811511144 0 0 0 0 360.49167479421158 -10.318622259931374 0 -10.318622259931374 -109.57240779871347 0 0 0 0 70.715583933488233 109.55576602657158 0 109.55576602657158 -104.02226298579467 0 0 0 0 198.91671676478654 -100.70056839232808 0 -100.70056839232808 -343.36201970586461 0 0 0 0 1807.9086975113541 1881.7040747782746 0 1881.7040747782746 1961.6123002130398 0 0 0 0 40.116374189355028 -2.6150101365329448 0 -2.6150101365329448 -11.445459544056426 0 0 0 0 1814.9047314116251 2173.8360100989521 0 2173.8360100989521 2728.7807405885169 0 0 0 0 3777.9614430625079 3357.9224853961168 0 3357.9224853961168 3149.3472173968617 0 0 0 0 2874.0401311835667 1820.1307402000998 0 1820.1307402000998 856.85411587318686 0 0 0 0 2384.5511862956773 1190.9340536735995 0 1190.9340536735995 650.6459920380978 0 0 0 0 4697.6398997732831 1962.3338676333892 0 1962.3338676333892 818.51614114560743 0 0 0 0 1576.8191373302689 1736.7483715974377 0 1736.7483715974377 1911.4148302127223 0 0 0 0 1849.0073662694631 1344.2500869237213 0 1344.2500869237213 701.74948583505375 0 0 0 0 2093.0667341857334 1542.6662861406003 0 1542.6662861406003 583.58949660228609 0 0 0 0 2548.9795892641705 1266.0458343795435 0 1266.0458343795435 268.21720434179366 0 0 0 0 1016.2395631696709 1124.0129824190672 0 1124.0129824190672 1227.96574181299 0 0 0 0 664.34930804962642 940.45187029058798 0 940.45187029058798 1185.660457400485 0 0 0 0 662.55566434514424 760.4968054538507 0 760.4968054538507 1133.9755628121238 0 0 0 0 684.03130607295316 764.6361441379122 0 764.6361441379122 1071.8861574427501 0 0 0 0 824.6571135832346 829.42070994782898 0 829.42070994782898 1059.64896065844 0 0 0 0 645.47355396312196 808.44906115482991 0 808.44906115482991 1080.6123956114443 0 0 0 0 1119.5701834048959 929.87455229859188 0 929.87455229859188 1023.772006484905 0 0 0 0 1109.4417030911718 999.40447961936661 0 999.40447961936661 1101.2056427428952 0 0 0 0 801.06710722201387 855.02586386830262 0 855.02586386830262 1055.8727767245364 0 0 0 0 1115.2732727445255 1006.782754369578 0 1006.782754369578 942.96976145261578 0 0 0 0 1571.1940086865798 1023.5882289999026 0 1023.5882289999026 911.01813487885238 0 0 0 0 1576.305468511142 1153.7385218961344 0 1153.7385218961344 876.13829564616799 0 0 0 0 1866.2755349715444 1531.3598074909964 0 1531.3598074909964 1205.7991722322295 0 0 0 0 1517.5237435349118 1167.9596916111741 0 1167.9596916111741 881.78253298107938 0 0 0 0 1488.9177602050331 1196.7301383869572 0 1196.7301383869572 1030.7733737157487 0 0 0 0 101.02676658778 6.9542226759336359 0 6.9542226759336359 22.525231575487851 0 0 0 0 1351.7173869439503 1292.7786737883307 0 1292.7786737883307 1386.8063807351236 0 0 0 0 54.727002256816874 -4.5388079361039004 0 -4.5388079361039004 -23.119993152022779 0 0 0 0 1332.5552231790934 1340.9200115578687 0 1340.9200115578687 1270.3768855129467 0 0 0 0 47.137770982611983 134.2090324381561 0 134.2090324381561 118.97901803828427 0 0 0 0 15.788594001694435 46.065349567771477 0 46.065349567771477 3.7332160760390831 0 0 0 0 34.697344541244092 44.48704253333085 0 44.48704253333085 6.7643075469601968 0 0 0 0 22.643998263862159 36.020215615344171 0 36.020215615344171 13.21394318926491 0 0 0 0 881.9622992441582 963.60350316457698 0 963.60350316457698 1196.0490742544807 0 0 0 0 -25.783457549292564 56.764229481023932 0 56.764229481023932 25.761495738441042 0 0 0 0 28.890268936854312 28.951682023165404 0 28.951682023165404 -12.560544752080181 0 0 0 0 22.6773998010176 36.718467710843584 0 36.718467710843584 30.861484203366672 0 0 0 0 59.979001341969706 46.498717221969059 0 46.498717221969059 14.489348947282451 0 0 0 0 69.954453497688519 52.791049803965507 0 52.791049803965507 -17.269396470369429 0 0 0 0 119.90024126322533 182.6989866034196 0 182.6989866034196 -75.882738649697785 0 0 0 0 66.164305661764956 -6.7942641504412222 0 -6.7942641504412222 181.87035432009441 0 0 0 0 212.04371430944593 144.69349126943627 0 144.69349126943627 -171.23146115352506 0 0 0 0 0.92748853290407851 31.962621015664979 0 31.962621015664979 -62.25102078367005 0 0 0 0 418.81859553809045 210.98693942967009 0 210.98693942967009 -239.04762308695729 0 0 0 0 -5.0379369729477759 14.437398702499792 0 14.437398702499792 -43.887921951337823 0 0 0 0 158.40459004382865 18.859093168802247 0 18.859093168802247 -91.922673612745712 0 0 0 0 180.16510878540066 43.933351606144242 0 43.933351606144242 -130.04239699624577 0 0 0 0 112.5011813270612 76.77545273530086 0 76.77545273530086 -164.6376632478823 0 0 0 0 39.113686799697462 99.724506233869761 0 99.724506233869761 -84.110860535978645 0 0 0 0 108.73794174841169 -110.10492205470746 0 -110.10492205470746 -708.68137155371505 0 0 0 0 -18.55392398701224 -2.8133194868696592 0 -2.8133194868696592 -159.98058715584546 0 0 0 0 -0.74062252055952627 5.6631269721910797 0 5.6631269721910797 -8.5943928255558113 0 0 0 0 -297.5203730367939 147.08137763048398 0 147.08137763048398 435.92886095393987 0 0 0 0 -273.1674186004384 290.67293600514495 0 290.67293600514495 291.19721720777852 0 0 0 0 221.41279302918701 -325.56166983605181 0 -325.56166983605181 -591.45703920618143 0 0 0 0 -219.86638843721448 532.78022758933184 0 532.78022758933184 -50.939801118738615 0 0 0 0 -96.734583469980862 33.155468642494498 0 33.155468642494498 536.66687784324677 0 0 0 0 -3.5582203536323505 288.70749182017971 0 288.70749182017971 -193.66215929120972 0 0 0 0 17.034622034370841 43.503575946815033 0 43.503575946815033 10.921824683418322 0 0 0 0 0.0075154050136916339 55.050480250240426 0 55.050480250240426 89.426373148233665 0 0 0 0 -30.837285876423266 -2.7692382751276341 0 -2.7692382751276341 99.318110402727598 0 0 0 0 5.4478830721152178 28.624287879380077 0 28.624287879380077 63.638303195634272 0 0 0 0 -59.845463196423225 52.796201285661027 0 52.796201285661027 94.902837341334362 0 0 0 0 -2.0916649884362073 -0.88934616661729393 0 -0.88934616661729393 -1.9699867120676751 0 0 0 0 -40.270460154410102 14.163230503328577 0 14.163230503328577 212.37037580129845 0 0 0 0 -0.0039045002122293226 894.27842917503563 0 894.27842917503563 -1450.630129189597 0 0 0 0 -268.20188450928254 771.6415601725837 0 771.6415601725837 -504.56534253669179 0 0 0 0 -291.39875784428295 670.03552542191619 0 670.03552542191619 -855.48992994504351 0 0 0 0 -10.637055615436964 6.0050997972849416 0 6.0050997972849416 16.756289167140505 0 0 0 0 -209.87506292759099 631.62811282801022 0 631.62811282801022 -404.06746201941405 0 0 0 0 -324.61179977034772 924.47815570243552 0 924.47815570243552 -349.9575557253338 0 0 0 0 -573.97934966682806 768.93713201782884 0 768.93713201782884 -14.427581439451387 0 0 0 0 1.519621869592811 33.257131808909548 0 33.257131808909548 13.731911175190589 0 0 0 0 2.0307803963660263 48.888503469853049 0 48.888503469853049 23.842655268367253 0 0 0 0 -3.3285673436663785 41.862691052092103 0 41.862691052092103 28.702109121974221 0 0 0 0 -509.57734400813206 651.26942714225925 0 651.26942714225925 -465.58321011852877 0 0 0 0 -11.979365827792208 43.553741902171737 0 43.553741902171737 5.912936234352685 0 0 0 0 9.1637991038197413 25.366953706562057 0 25.366953706562057 19.510039663867762 0 0 0 0 7.0317127847433198 20.221142966843956 0 20.221142966843956 30.542110815685952 0 0 0 0 -593.01254523283569 703.64640479088121 0 703.64640479088121 -462.33703856228703 0 0 0 0 -1225.4090724985872 804.59006981721723 0 804.59006981721723 -216.66817045343123 0 0 0 0 -547.63929997966625 852.04594462644855 0 852.04594462644855 -257.67241592834307 0 0 0 0 -2498.5531787808286 751.43051433447545 0 751.43051433447545 -167.23661625808381 0 0 0 0 -1293.6633261427996 982.91495884873871 0 982.91495884873871 -156.31558101065093 0 0 0 0 -941.98196156413178 950.51305564606446 0 950.51305564606446 -563.77519544185634 0 0 0 0 675.81555211014347 972.44303234385188 0 972.44303234385188 884.67836619566424 0 0 0 0 10.515943915699609 52.947477611145587 0 52.947477611145587 27.301333050234916 0 0 0 0 0.66510388925490815 2.7822124446773557 0 2.7822124446773557 1.3360349487548291 0 0 0 0 14.389825062331141 14.493506064849932 0 14.493506064849932 -16.442637154392372 0 0 0 0 652.02689020783873 819.96024537698759 0 819.96024537698759 991.5370797039941 0 0 0 0 21.710971922046156 45.613695625739922 0 45.613695625739922 14.693098608576065 0 0 0 0 597.57787601358723 886.33068713470857 0 886.33068713470857 1015.8402997706653 0 0 0 0 579.54368501598947 877.23345219531075 0 877.23345219531075 1028.4712728437589 0 0 0 0 532.23611977271503 955.76281743203435 0 955.76281743203435 1024.169500422533 0 0 0 0 606.47543180751381 881.96458997476293 0 881.96458997476293 1016.1298005927601 0 0 0 0 593.01940099595231 869.49596044056125 0 869.49596044056125 1030.8702283786188 0 0 0 0 460.80411511201237 1007.2822590345431 0 1007.2822590345431 913.45623449645609 0 0 0 0 420.10675227167667 969.22511872283758 0 969.22511872283758 884.96015374944909 0 0 0 0 467.81815796688898 925.38867736040083 0 925.38867736040083 1049.0134216418728 0 0 0 0 440.4056217686375 1037.9553381586015 0 1037.9553381586015 926.72011520418891 0 0 0 0 -278.79900140751852 1246.1445764355694 0 1246.1445764355694 1075.6128029224878 0 0 0 0 -223.80587633266987 1396.8001785408114 0 1396.8001785408114 912.43621721407362 0 0 0 0 -1012.5591924964974 1447.3035541737572 0 1447.3035541737572 1013.6390195513195 0 0 0 0 252.91799528826959 1505.9846282199624 0 1505.9846282199624 579.58236733273225 0 0 0 0 68.701439122480224 1258.332959038622 0 1258.332959038622 974.10785172779288 0 0 0 0 247.37754609895637 989.74361427689291 0 989.74361427689291 949.42242808916853 0 0 0 0 495.7333746532986 1232.6220991069108 0 1232.6220991069108 932.69594669882645 0 0 0 0 474.65444972919067 959.24050090649689 0 959.24050090649689 1024.5979042325198 0 0 0 0 1493.1432999373064 1037.3643214088916 0 1037.3643214088916 876.12643522496728 0 0 0 0 -2109.3758938817773 2334.5933408831334 0 2334.5933408831334 1080.3898753650428 0 0 0 0 6.1131781404307333 5.1511844803281406 0 5.1511844803281406 -4.0832935755423705 0 0 0 0 -232.05187989279511 543.96205050450772 0 543.96205050450772 -1063.9407944781124 0 0 0 0 -1935.7856967805419 402.32570091807429 0 402.32570091807429 345.88049890703405 0 0 0 0 -817.84914394066436 1184.5393571859167 0 1184.5393571859167 651.99473616837167 0 0 0 0 -991.68432694410512 815.47332035887166 0 815.47332035887166 98.607126947805227 0 0 0 0 -685.79077365569538 854.41108748469014 0 854.41108748469014 102.85683144951872 0 0 0 0 -603.07446638600959 1064.089080390595 0 1064.089080390595 591.62223861666826 0 0 0 0 -705.58526946868369 1015.3375354892023 0 1015.3375354892023 639.63694738846061 0 0 0 0 -534.5195175492845 1295.7622346535372 0 1295.7622346535372 841.04918065331185 0 0 0 0 -1063.9581948020787 952.87699686852829 0 952.87699686852829 757.88938641968343 0 0 0 0 -662.72929091108381 1343.696147844943 0 1343.696147844943 1271.127962820321 0 0 0 0 -703.00143984072929 1610.3823852727351 0 1610.3823852727351 1276.6591458903604 0 0 0 0 86.29068300659128 1431.9790704199868 0 1431.9790704199868 858.83253889935531 0 0 0 0 -914.26563472332782 1396.5483713084686 0 1396.5483713084686 1272.7663641114966 0 0 0 0 -406.63939318406847 715.8721417492327 0 715.8721417492327 785.60204207362403 0 0 0 0 204.79490530067415 1229.7912229694775 0 1229.7912229694775 1050.4018581526961 0 0 0 0 265.41753776986297 833.49504818033574 0 833.49504818033574 1082.0336427126476 0 0 0 0 7.3588694522477454 869.4118533826213 0 869.4118533826213 -291.96593304690714 0 0 0 0 -0.0095388343470403925 1105.9319022742629 0 1105.9319022742629 340.83614216877504 0 0 0 0 -370.93396848509292 879.62477883685506 0 879.62477883685506 574.1863672611471 0 0 0 0 -288.76125183579279 836.64840210573948 0 836.64840210573948 0.60004343105538283 0 0 0 0 -74.740809811803047 745.69236170377917 0 745.69236170377917 561.36281660869395 0 0 0 0 -359.66436428266752 809.91597718865887 0 809.91597718865887 1053.0982967847576 0 0 0 0 -0.31248242467700038 975.33267346663433 0 975.33267346663433 984.1985114748295 0 0 0 0 2162.2234167829301 1031.1237391761856 0 1031.1237391761856 311.61822622624823 0 0 0 0 606.53266710499884 1483.3780904846744 0 1483.3780904846744 1301.6186766898222 0 0 0 0 498.58279862115614 275.31775440277534 0 275.31775440277534 16.745643417729298 0 0 0 0 556.42361750181726 1177.6395080198195 0 1177.6395080198195 664.81655469169709 0 0 0 0 -115.20803037896985 1315.0358876026417 0 1315.0358876026417 708.23382321299323 0 0 0 0 -3213.5545996901128 1204.7136144906535 0 1204.7136144906535 1247.1960813898581 0 0 0 0 -1113.2081703633085 304.46803030405999 0 304.46803030405999 -53.750252111947702 0 0 0 0 1.1420546912670915 9.5857345568027483 0 9.5857345568027483 7.1547385420513692 0 0 0 0 12.91663280002831 931.58118573100637 0 931.58118573100637 -422.5584333278066 0 0 0 0 949.40116627250973 876.34998900416394 0 876.34998900416394 -286.9804323222229 0 0 0 0 60.115739150270201 1207.7350542405015 0 1207.7350542405015 113.49620614422201 0 0 0 0 439.59414221238694 808.67996993441466 0 808.67996993441466 90.158437821528764 0 0 0 0 1037.3746908886751 1460.3302318326259 0 1460.3302318326259 724.52557597101804 0 0 0 0 1412.1165512363332 792.1556572588886 0 792.1556572588886 197.20254292328718 0 0 0 0 2778.9118559525086 1978.4739255032168 0 1978.4739255032168 1203.3129132607055 0 0 0 0 883.229690160264 752.43245900850411 0 752.43245900850411 -196.22634525784633 0 0 0 0 1968.0245101702167 987.84967888268147 0 987.84967888268147 -168.16451470730863 0 0 0 0 780.60988673316024 172.64086309659979 0 172.64086309659979 -130.14838205713022 0 0 0 0 1877.8517453426666 -127.10620420067778 0 -127.10620420067778 -220.70810285610605 0 0 0 0 414.99337960595585 17.321793151466409 0 17.321793151466409 -11.135144399224373 0 0 0 0 -51.99998475718894 3.5347777755023344 0 3.5347777755023344 -18.852628436377927 0 0 0 0 410.7750730488624 -17.378421718124628 0 -17.378421718124628 140.43654874003732 0 0 0 0 240.55213469360024 212.16292650064133 0 212.16292650064133 50.121753402258037 0 0 0 0 -32.325431291490133 61.01547300273166 0 61.01547300273166 -10.112093342105517 0 0 0 0 -231.51744370877532 56.830885948151263 0 56.830885948151263 -3.5324253502403735 0 0 0 0 358.5603163173073 147.20979017355421 0 147.20979017355421 62.308346357283881 0 0 0 0 17.194111624720605 1.0171529897374114 0 1.0171529897374114 -0.027031713365317955 0 0 0 0 474.79882428483688 191.48544078923442 0 191.48544078923442 -12.390733688268483 0 0 0 0 430.89837482149596 137.07928185672517 0 137.07928185672517 -65.798737388917289 0 0 0 0 31.949838944830645 34.567808089369521 0 34.567808089369521 6.7746481452565623 0 0 0 0 170.56353635390406 207.02267348021314 0 207.02267348021314 -114.18535865323656 0 0 0 0 737.33601303637261 -239.15919539642255 0 -239.15919539642255 57.191454728459576 0 0 0 0 3509.4292843384465 -512.38122374622662 0 -512.38122374622662 -79.576118986426991 0 0 0 0 367.57063635528903 1306.7367917408374 0 1306.7367917408374 1888.1573150744061 0 0 0 0 3008.7357762142346 1630.3042491365923 0 1630.3042491365923 425.87379826698134 0 0 0 0 19.34708799623786 6.9918865663647836 0 6.9918865663647836 2.7781323315382771 0 0 0 0 593.19330775754861 29.379811901409767 0 29.379811901409767 -80.550284790597289 0 0 0 0 -71.233243250177111 -2.1091303487824575 0 -2.1091303487824575 126.30484564673134 0 0 0 0 286.41543809183349 -179.85003968622641 0 -179.85003968622641 150.71389993384673 0 0 0 0 691.75337797420707 827.39810680872665 0 827.39810680872665 662.51344094629621 0 0 0 0 1423.9813107587179 679.08119049953211 0 679.08119049953211 217.81678895877252 0 0 0 0 1795.419816320009 1567.7913703505103 0 1567.7913703505103 606.57833414465949 0 0 0 0 2288.1285309918021 1339.0774030860248 0 1339.0774030860248 534.44459445344103 0 0 0 0 2139.0817334903586 1039.9311656216407 0 1039.9311656216407 662.96938228217732 0 0 0 0 1898.8577916158974 928.98158801260251 0 928.98158801260251 611.86977878256039 0 0 0 0 1894.9346700518945 629.71564978055585 0 629.71564978055585 845.49905810794735 0 0 0 0 1341.1728167559195 881.72469917990202 0 881.72469917990202 905.59142700526763 0 0 0 0 1182.4623462674354 836.4787820862166 0 836.4787820862166 906.55023346788767 0 0 0 0 472.37269419484437 844.42205490845186 0 844.42205490845186 1052.9847777301875 0 0 0 0 808.01763537307852 845.11843208828577 0 845.11843208828577 989.9881599017117 0 0 0 0 816.63650094970944 750.52969558221594 0 750.52969558221594 1027.4559689492999 0 0 0 0 812.96343047724804 881.56479243446483 0 881.56479243446483 1025.2568542495642 0 0 0 0 705.92261363312718 1004.7921784301507 0 1004.7921784301507 967.06336853867742 0 0 0 0 757.35859624459408 753.42129927093993 0 753.42129927093993 954.9533388288055 0 0 0 0 685.24005448052776 883.58736497636801 0 883.58736497636801 1147.7138413377579 0 0 0 0 1096.8187170405145 615.81297765841555 0 615.81297765841555 1117.9824058434206 0 0 0 0 1242.0198082166899 1031.1365159802199 0 1031.1365159802199 1117.4408564542964 0 0 0 0 1124.7331705225952 527.93267524181056 0 527.93267524181056 1281.8938244844812 0 0 0 0 593.99256224333658 637.04795836682933 0 637.04795836682933 1063.9700362151721 0 0 0 0 3130.9008126803492 333.22993649955697 0 333.22993649955697 876.09409235495878 0 0 0 0 1425.1344538864068 474.63692239320244 0 474.63692239320244 2276.6944913345101 0 0 0 0 110.83899677959562 248.42539418536398 0 248.42539418536398 -583.79771185924687 0 0 0 0 108.29349118316895 250.55909271165797 0 250.55909271165797 -360.50633078704004 0 0 0 0 10.442647370917257 326.20729683321906 0 326.20729683321906 -418.98083555664789 0 0 0 0 28.949603195111195 200.32023324511727 0 200.32023324511727 -391.36235716083138 0 0 0 0 40.906962021392246 110.2292567891127 0 110.2292567891127 -365.23684717870378 0 0 0 0 141.06213479282451 90.660958418727205 0 90.660958418727205 -451.51662177281514 0 0 0 0 76.207432895913371 93.422352898838653 0 93.422352898838653 -448.80281421406698 0 0 0 0 178.58994915821677 35.063796223930694 0 35.063796223930694 -884.51188028661136 0 0 0 0 153.90286235107487 303.6542697348757 0 303.6542697348757 -516.21241701534291 0 0 0 0 254.09059311041347 290.21240615839042 0 290.21240615839042 -725.75765766664381 0 0 0 0 178.50645437164349 69.968116441713391 0 69.968116441713391 -474.72747192777388 0 0 0 0 138.76276877410783 424.7576158354002 0 424.7576158354002 -585.23817555441087 0 0 0 0 116.00678835478902 441.32867367956408 0 441.32867367956408 -352.11422479967246 0 0 0 0 -170.08407972419809 360.66910862756907 0 360.66910862756907 -209.17468495959491 0 0 0 0 -363.03218120378187 191.7034934844346 0 191.7034934844346 -55.917833092144065 0 0 0 0 -22.371990117653695 28.030927806386899 0 28.030927806386899 10.201343480214746 0 0 0 0 -84.679986010935863 123.41437876975806 0 123.41437876975806 -98.925861081269431 0 0 0 0 -35.63129060398569 228.52548021912207 0 228.52548021912207 -148.18224117196451 0 0 0 0 -40.352045810317577 261.95444130029318 0 261.95444130029318 -266.45104230125617 0 0 0 0 -43.11956038306198 187.10254300656004 0 187.10254300656004 -200.73855549600194 0 0 0 0 -6.2208610886518727 152.34301269458138 0 152.34301269458138 -168.34372109503056 0 0 0 0 9.8208618673670571 171.60545670649026 0 171.60545670649026 -248.48204259602812 0 0 0 0 -7.7516404645339207 163.53914704845135 0 163.53914704845135 -235.88295244997425 0 0 0 0 19.096642005320973 180.49730698764745 0 180.49730698764745 -294.74605203807187 0 0 0 0 15.760579099500319 107.30520091912149 0 107.30520091912149 -284.42857790604148 0 0 0 0 7.6082455565265263 82.771508482667286 0 82.771508482667286 -260.24267763190619 0 0 0 0 36.124948853590467 -29.173072786515377 0 -29.173072786515377 -33.266898900299566 0 0 0 0 -6.2820960337412544 43.676004867586016 0 43.676004867586016 248.34140661694346 0 0 0 0 0.15558873253758065 57.477382027571366 0 57.477382027571366 -203.00917395200486 0 0 0 0 3.2549660535502767 0.83096763576171551 0 0.83096763576171551 0.12992759469381232 0 0 0 0 8.8007720839013928 114.38933165925573 0 114.38933165925573 -234.7602344576735 0 0 0 0 8.1072435299627159 -0.46854948747161718 0 -0.46854948747161718 -0.037363157323015761 0 0 0 0 -0.023185305442893878 25.88067539970325 0 25.88067539970325 257.02325319317242 0 0 0 0 6.1329204765352188 77.516209843810429 0 77.516209843810429 -229.30359131708269 0 0 0 0 0.53991239698370919 80.638477122484801 0 80.638477122484801 -182.58301564088652 0 0 0 0 9.926749450081843 108.32015851199139 0 108.32015851199139 -212.87113616695751 0 0 0 0 0.35044746454514097 105.69813483340295 0 105.69813483340295 -207.15155289903123 0 0 0 0 0.58226612310681958 101.09592559589692 0 101.09592559589692 -182.30675615352357 0 0 0 0 -38.388921080833825 91.764797177495893 0 91.764797177495893 -129.99675309059421 0 0 0 0 21.441543466655276 52.221115875723171 0 52.221115875723171 -202.16713802678714 0 0 0 0 50.942466799664544 11.534688025270952 0 11.534688025270952 -150.30210238139625 0 0 0 0 14.449780216360651 1.5426293369069874 0 1.5426293369069874 -1.7358167474133803 0 0 0 0 -23.352821121390662 24.387072383815394 0 24.387072383815394 -18.01562140543956 0 0 0 0 -2.2203766860820906 23.321228233354759 0 23.321228233354759 8.3926992449523823 0 0 0 0 15.276521779669565 -22.520005320196105 0 -22.520005320196105 -64.398072078871337 0 0 0 0 -16.198975676110422 34.5027599734658 0 34.5027599734658 -43.152140735425746 0 0 0 0 66.571538758988027 56.287357759807492 0 56.287357759807492 59.748881531309962 0 0 0 0 46.694086914838408 38.276085382154633 0 38.276085382154633 69.912495579599636 0 0 0 0 4.8143240692445204 1.6899554006452862 0 1.6899554006452862 -1.441666655974867 0 0 0 0 64.103419375940575 78.310657025609544 0 78.310657025609544 84.972736839443314 0 0 0 0 50.844909280000138 74.306905699377239 0 74.306905699377239 96.097019352484494 0 0 0 0 19.141034443469835 50.404095923779096 0 50.404095923779096 95.385583804236376 0 0 0 0 7.7525942111096811 11.202037784325512 0 11.202037784325512 106.47084054326842 0 0 0 0 -3.2751713801557116 68.31994684390304 0 68.31994684390304 153.20577992383551 0 0 0 0 7.0749147675815038 58.334497142843247 0 58.334497142843247 161.89102892511528 0 0 0 0 -37.593881940716528 23.856562100127121 0 23.856562100127121 219.73461397529172 0 0 0 0 -23.639252237000619 7.5196127247236291 0 7.5196127247236291 137.66785741934291 0 0 0 0 -3.1470424438808777 80.60459017673665 0 80.60459017673665 190.699787458223 0 0 0 0 4.3247961781053164 109.253462199963 0 109.253462199963 172.43284110915192 0 0 0 0 20.790035292506218 101.92885304145784 0 101.92885304145784 171.20331211375742 0 0 0 0 53.183477329315792 113.74173436543242 0 113.74173436543242 139.86239478957941 0 0 0 0 40.543551421818847 79.184261015104312 0 79.184261015104312 128.99185777406274 0 0 0 0 23.202490691066487 90.931964186128653 0 90.931964186128653 122.53479005644112 0 0 0 0 -6.9170645468257135 89.47594341256081 0 89.47594341256081 252.96739559595835 0 0 0 0 -7.8562765688693617 68.193994067714812 0 68.193994067714812 272.9203624140373 0 0 0 0 -9.781401792410179 71.541008078766026 0 71.541008078766026 257.83517607194517 0 0 0 0 -7.4827866171581263 69.080752193304761 0 69.080752193304761 250.95123200220405 0 0 0 0 -11.127603598048154 79.003922334680283 0 79.003922334680283 292.57592764910441 0 0 0 0 -9.6900947064277716 82.674787232546805 0 82.674787232546805 264.89131814767461 0 0 0 0 -9.1149074836430373 77.173443344347106 0 77.173443344347106 283.82579719450951 0 0 0 0 -5.8501404212365742 59.555522630218547 0 59.555522630218547 259.28710565026267 0 0 0 0 -8.4579199073923519 53.380646861482091 0 53.380646861482091 294.97643044732104 0 0 0 0 -5.4095528851321433 61.886647580300632 0 61.886647580300632 257.74527761608442 0 0 0 0 -9.7413335800520144 61.205849836136622 0 61.205849836136622 258.34684901038054 0 0 0 0 -27.035014309018152 43.030332815636939 0 43.030332815636939 248.58593875490897 0 0 0 0 -12.433848804677837 58.308635407724069 0 58.308635407724069 238.31890099518569 0 0 0 0 -10.19870982223074 57.742967758556915 0 57.742967758556915 237.71602848579278 0 0 0 0 -9.2247386027884204 51.62639335386848 0 51.62639335386848 179.56839668709654 0 0 0 0 -4.5534636804513866 77.64440558381466 0 77.64440558381466 204.73704171666031 0 0 0 0 -15.953799310227623 53.525335811766126 0 53.525335811766126 234.63409516618776 0 0 0 0 -5.5369617033138638 80.258925040465328 0 80.258925040465328 244.20663673874878 0 0 0 0 -8.9198322828451637 75.307898782153643 0 75.307898782153643 237.72991779604288 0 0 0 0 -6.0333847205765778 86.754352132140411 0 86.754352132140411 232.23847347682749 0 0 0 0 -4.6607616714118194 119.36779627132546 0 119.36779627132546 249.11991790114553 0 0 0 0 6.0782972872420942 116.6538197543473 0 116.6538197543473 203.60120937269676 0 0 0 0 -9.2015189425364952 76.83581229077754 0 76.83581229077754 210.41183501614069 0 0 0 0 -4.9654807056213031 116.5570147369508 0 116.5570147369508 225.88961212809954 0 0 0 0 -6.9384358004754176 129.88264238606735 0 129.88264238606735 228.55891609155697 0 0 0 0 -7.0301261348722619 131.89927683296992 0 131.89927683296992 282.072860388349 0 0 0 0 -6.5837588182184845 106.26747710790733 0 106.26747710790733 255.35851997968348 0 0 0 0 -9.0990554823947605 88.127130179730557 0 88.127130179730557 276.03425831675122 0 0 0 0 -6.4452736896491842 111.22739339184045 0 111.22739339184045 296.82322156810551 0 0 0 0 -5.9559245982982247 111.32448544559361 0 111.32448544559361 295.79473057147698 0 0 0 0 -8.0583773612597724 142.16027076009959 0 142.16027076009959 311.45898181880602 0 0 0 0 5.4202536147931824 118.6369663292262 0 118.6369663292262 329.55368961463773 0 0 0 0 -0.41746420848357957 104.98858055109304 0 104.98858055109304 358.96032248602387 0 0 0 0 19.230656827901839 134.23674112120807 0 134.23674112120807 345.58566227152187 0 0 0 0 -3.7359731775286491 121.40102215657316 0 121.40102215657316 335.0068833539226 0 0 0 0 -0.43538798304507509 98.702124419551183 0 98.702124419551183 311.94173722511914 0 0 0 0 57.632225894310977 138.54134221861386 0 138.54134221861386 349.12305673502487 0 0 0 0 24.588508070402895 122.00297950993809 0 122.00297950993809 371.15999538633514 0 0 0 0 55.95415710141242 124.20395050901061 0 124.20395050901061 359.26250578597137 0 0 0 0 56.112362720984947 121.14571965871482 0 121.14571965871482 389.88120770223031 0 0 0 0 55.950363701325841 109.17676918717189 0 109.17676918717189 374.30507652506458 0 0 0 0 56.163643638163194 106.68269932997168 0 106.68269932997168 402.9890775520762 0 0 0 0 20.968340248902678 107.88301445202342 0 107.88301445202342 387.37763041461949 0 0 0 0 21.824381598138643 107.62228802748677 0 107.62228802748677 352.4398192893168 0 0 0 0 13.709344123164556 99.014512882005363 0 99.014512882005363 407.89947610621311 0 0 0 0 13.027818740550629 82.661357720964986 0 82.661357720964986 365.04741254481632 0 0 0 0 -23.630213331518462 66.890499375411309 0 66.890499375411309 399.69093012550002 0 0 0 0 46.169027331518009 97.590360173372119 0 97.590360173372119 421.30643484067332 0 0 0 0 46.219981640519109 96.766227705549682 0 96.766227705549682 401.9397663457803 0 0 0 0 -12.01277672847209 80.085594444238723 0 80.085594444238723 331.54401259900987 0 0 0 0 -12.543460398417665 63.811848035940784 0 63.811848035940784 309.42209235606424 0 0 0 0 -12.4812948605977 76.315470213368826 0 76.315470213368826 368.51518923832919 0 0 0 0 -8.2865675335924607 79.618493526587372 0 79.618493526587372 350.78324944330234 0 0 0 0 -33.359215481876163 35.808886842300126 0 35.808886842300126 338.77616496453356 0 0 0 0 -19.306944839132484 33.438944360335881 0 33.438944360335881 332.98251012256515 0 0 0 0 -20.181955988533446 27.971604202875369 0 27.971604202875369 303.8545664271951 0 0 0 0 -4.882427315984387 33.545845660257328 0 33.545845660257328 275.92698231928262 0 0 0 0 -17.73492439056281 52.807787291691056 0 52.807787291691056 320.65922122057236 0 0 0 0 -8.997555579742766 51.283220706416614 0 51.283220706416614 289.25036933343654 0 0 0 0 -1.7630374691216275 33.494445017699036 0 33.494445017699036 -211.0000732970484 0 0 0 0 -15.396512479375815 -1.7195812946811202 0 -1.7195812946811202 288.89687699897513 0 0 0 0 64.997047964279773 12.915580011907878 0 12.915580011907878 -34.18227955749262 0 0 0 0 -38.378888460167218 -12.536942739412552 0 -12.536942739412552 324.2426642962505 0 0 0 0 11.389320666756248 88.741023179680269 0 88.741023179680269 472.37983835905106 0 0 0 0 -57.012065848393831 7.5036397921649041 0 7.5036397921649041 377.88793617089141 0 0 0 0 -29.105992230164702 51.796436196396826 0 51.796436196396826 444.5958634754279 0 0 0 0 43.530828276532702 0.2663267071025075 0 0.2663267071025075 -333.14597389182745 0 0 0 0 61.855876096426073 -6.8855022724615083 0 -6.8855022724615083 -450.78045693214335 0 0 0 0 55.988677982100853 83.629222239189403 0 83.629222239189403 -424.201763142868 0 0 0 0 55.743490025540268 80.783687718813439 0 80.783687718813439 -312.27690494065246 0 0 0 0 24.853460749596707 90.620971927566643 0 90.620971927566643 -257.21171387626782 0 0 0 0 42.497218053264078 -1.0436701536232249 0 -1.0436701536232249 -325.10872128113988 0 0 0 0 1.1833414828285242 0.49586214234921044 0 0.49586214234921044 0.29136316379896288 0 0 0 0 10.141545621037949 -100.63006803803728 0 -100.63006803803728 -344.57253274499726 0 0 0 0 -73.732738772519951 -13.649306664698997 0 -13.649306664698997 113.277832070361 0 0 0 0 2.7604825343575783 -0.14480088132690838 0 -0.14480088132690838 -0.20060998645690686 0 0 0 0 235.85541812510928 148.76064832010161 0 148.76064832010161 98.341695114730101 0 0 0 0 1.8870827673526946 -96.447674734146858 0 -96.447674734146858 -346.16320119425018 0 0 0 0 95.163811985214124 132.20779694833254 0 132.20779694833254 479.70349852013101 0 0 0 0 64.185517133366375 -230.56066283549808 0 -230.56066283549808 -584.56365558235666 0 0 0 0 30.233439145258671 -66.967874733916005 0 -66.967874733916005 -456.0202879583685 0 0 0 0 -20.17010073390702 -236.57477730563642 0 -236.57477730563642 -432.60055487632962 0 0 0 0 43.165283329391968 -8.7573044026885327 0 -8.7573044026885327 -432.62472360636457 0 0 0 0 138.32158676720428 53.88440704268487 0 53.88440704268487 -463.02692287358695 0 0 0 0 133.4839949310408 128.67270289594308 0 128.67270289594308 433.07494206720276 0 0 0 0 92.034444605116732 124.03220226166013 0 124.03220226166013 435.55284948497683 0 0 0 0 205.66811973851873 172.62949644540822 0 172.62949644540822 446.46102473711335 0 0 0 0 313.62761472411512 164.45616719883401 0 164.45616719883401 360.44961225065344 0 0 0 0 244.90994866235997 114.90259881978545 0 114.90259881978545 371.77930111609385 0 0 0 0 217.57670474662154 103.35568870525731 0 103.35568870525731 379.40954644353769 0 0 0 0 199.86147013683876 143.26447091409364 0 143.26447091409364 407.53627689183122 0 0 0 0 191.2494442913121 108.23187931214602 0 108.23187931214602 379.59656664673821 0 0 0 0 95.271896744743572 123.35351011268904 0 123.35351011268904 405.11672011266091 0 0 0 0 98.003372874416527 106.52350487444164 0 106.52350487444164 401.68041277111843 0 0 0 0 132.16360047011403 129.89314680416282 0 129.89314680416282 417.56327481495123 0 0 0 0 107.3315924916169 107.26464105344348 0 107.26464105344348 419.6382444842784 0 0 0 0 146.06892209648504 111.59239988038098 0 111.59239988038098 393.76734553631104 0 0 0 0 137.52920344073209 121.48628435487444 0 121.48628435487444 390.11808920325348 0 0 0 0 137.51471398968715 117.10273537917601 0 117.10273537917601 395.27047758487333 0 0 0 0 96.106530627133907 120.5965510338865 0 120.5965510338865 376.45568974974958 0 0 0 0 98.953860933021133 106.04066476111916 0 106.04066476111916 393.25695043557789 0 0 0 0 133.22222474021692 132.92875612253829 0 132.92875612253829 379.14195253187063 0 0 0 0 111.50481282423425 133.90821188486007 0 133.90821188486007 385.228251637433 0 0 0 0 127.73987826862867 106.38670748441609 0 106.38670748441609 399.04975631388152 0 0 0 0 54.872800532684778 133.91935268724956 0 133.91935268724956 384.6591664410671 0 0 0 0 97.15452697215369 116.05482780179409 0 116.05482780179409 369.8283725273759 0 0 0 0 233.08292851989245 86.018048036055006 0 86.018048036055006 373.84026295047823 0 0 0 0 190.557453694586 104.66387275947545 0 104.66387275947545 379.08895176296028 0 0 0 0 246.06821451999713 100.2453058231531 0 100.2453058231531 373.32211262930446 0 0 0 0 246.07423072597157 99.108605997118502 0 99.108605997118502 377.18615474679495 0 0 0 0 276.93661739623349 83.81003685163887 0 83.81003685163887 379.10736591392742 0 0 0 0 243.13731680680939 111.80984172436456 0 111.80984172436456 378.01630408748679 0 0 0 0 244.53049757509143 166.05032298617152 0 166.05032298617152 358.19208329393223 0 0 0 0 246.28632278183204 88.637509780329026 0 88.637509780329026 348.87021528501282 0 0 0 0 227.19062529383518 89.345243884494266 0 89.345243884494266 373.14610380104023 0 0 0 0 354.03769809842197 150.95381054269001 0 150.95381054269001 344.44403382996279 0 0 0 0 311.98773117441306 234.77766918441148 0 234.77766918441148 229.96679975474763 0 0 0 0 578.76113030908164 123.92166451355934 0 123.92166451355934 272.45629073953751 0 0 0 0 566.48331337473064 174.7111676361701 0 174.7111676361701 68.769951826367105 0 0 0 0 681.46420456006126 276.18116859169288 0 276.18116859169288 -159.14809011731177 0 0 0 0 544.43722672416334 380.76456378643297 0 380.76456378643297 267.68400428426048 0 0 0 0 664.91176080111836 290.96678326970323 0 290.96678326970323 138.93108450480759 0 0 0 0 1157.7956214637725 1122.3133266493178 0 1122.3133266493178 -727.36612053233512 0 0 0 0 93.417694467018009 339.43250326064936 0 339.43250326064936 291.3034435873833 0 0 0 0 -42.928215147476294 538.92883010642527 0 538.92883010642527 10.609338533839264 0 0 0 0 -117.16792982358311 100.15060141127469 0 100.15060141127469 401.47758548275851 0 0 0 0 169.03871496272041 -179.92967433676131 0 -179.92967433676131 -381.60580934228892 0 0 0 0 107.60653264074062 13.130335347324944 0 13.130335347324944 -436.96856821117944 0 0 0 0 443.31160482765699 68.518763879128528 0 68.518763879128528 -451.92421339354132 0 0 0 0 144.95810103973781 114.73416382291352 0 114.73416382291352 349.83890834351405 0 0 0 0 146.86680754591362 -23.702106190441555 0 -23.702106190441555 240.9235233840609 0 0 0 0 185.12404709703696 96.900218892309567 0 96.900218892309567 358.81161305688147 0 0 0 0 319.99061933824942 79.961143795011481 0 79.961143795011481 299.87395899671537 0 0 0 0 194.26927273171532 113.73134020686075 0 113.73134020686075 349.15065944422167 0 0 0 0 102.79437359073199 150.455883392744 0 150.455883392744 372.48261373169225 0 0 0 0 241.52725926841231 416.08796410028026 0 416.08796410028026 308.59000179053874 0 0 0 0 -245.10461606743218 258.30945074857141 0 258.30945074857141 -252.00615447430755 0 0 0 0 11.71448746233354 23.70947292000578 0 23.70947292000578 47.72437096608914 0 0 0 0 -240.98916616020961 237.60726901593353 0 237.60726901593353 -153.6784236274666 0 0 0 0 382.91584322460767 328.23116927319302 0 328.23116927319302 205.76845949673407 0 0 0 0 455.023815456374 188.56782751249602 0 188.56782751249602 87.353994203353068 0 0 0 0 -545.6297803405223 401.92885878389393 0 401.92885878389393 -108.53592736968403 0 0 0 0 2089.1256223026867 -58.544695898608552 0 -58.544695898608552 -302.0939799204333 0 0 0 0 4.1825758286480657 7.5645803472986373 0 7.5645803472986373 16.574920942274236 0 0 0 0 -264.10984842554774 645.77446545956172 0 645.77446545956172 -269.26684135369123 0 0 0 0 -536.22206296926925 424.15664698805085 0 424.15664698805085 -227.3914480409278 0 0 0 0 -654.46989777428098 938.03921131475909 0 938.03921131475909 -520.64831954484907 0 0 0 0 -884.77329466618539 508.22967232732299 0 508.22967232732299 -34.026078494275225 0 0 0 0 1294.9658853125366 338.56208134656572 0 338.56208134656572 -1092.1832358284755 0 0 0 0 -255.37506225239122 919.31941915857988 0 919.31941915857988 -966.28908836324763 0 0 0 0 -0.99660828432388371 442.39938658883511 0 442.39938658883511 -1076.3410896628784 0 0 0 0 -1.4871763388787471 6.2625263085706724 0 6.2625263085706724 -9.8427934444661034 0 0 0 0 253.33049325900447 231.50947519425858 0 231.50947519425858 -1549.7325446597006 0 0 0 0 -424.54696390015306 -485.78430842585158 0 -485.78430842585158 -877.91195545743267 0 0 0 0 -1069.0073126141724 383.67548096720475 0 383.67548096720475 27.572961469173663 0 0 0 0 1249.599916344283 -804.82721489918276 0 -804.82721489918276 -698.99685321839547 0 0 0 0 68.926966641702165 1572.3492305882414 0 1572.3492305882414 -775.59098064395585 0 0 0 0 298.05720771819324 -384.25556660225084 0 -384.25556660225084 -755.6624132905672 0 0 0 0 -0.6033961683949336 5.1986538669901137 0 5.1986538669901137 -23.477626756575887 0 0 0 0 -171.19098743288851 637.6967249589095 0 637.6967249589095 -522.43576983838614 0 0 0 0 146.74133446082124 149.45680854759777 0 149.45680854759777 2.6713136005754308 0 0 0 0 371.94233129429631 74.027519726035166 0 74.027519726035166 -158.4956764645965 0 0 0 0 -4.3794025236219767 15.63552858311898 0 15.63552858311898 -62.634397467430922 0 0 0 0 478.78851458905046 423.25990703727621 0 423.25990703727621 -173.84046436009157 0 0 0 0 426.80515298333495 26.429836727354381 0 26.429836727354381 -118.66101160795256 0 0 0 0 -154.76589523706025 85.566961146127142 0 85.566961146127142 60.971659091910624 0 0 0 0 -825.2057610061097 -42.877426234456607 0 -42.877426234456607 78.136453784964033 0 0 0 0 494.51656187809022 37.76054693815604 0 37.76054693815604 -13.705730692943689 0 0 0 0 -74.311911166933896 67.635693419248128 0 67.635693419248128 72.007867190448451 0 0 0 0 -97.071600105130983 112.07971862544855 0 112.07971862544855 39.50413694618328 0 0 0 0 -117.40903199641616 88.022444683159847 0 88.022444683159847 12.047051543806447 0 0 0 0 -135.67342315543806 193.25588903524226 0 193.25588903524226 3.6034320718354138 0 0 0 0 -24.167142251405949 56.766152635767867 0 56.766152635767867 31.942315413750748 0 0 0 0 19.78967132676874 30.951062588570007 0 30.951062588570007 49.758986877450909 0 0 0 0 -131.42239358569134 152.53237059762603 0 152.53237059762603 117.73414987951037 0 0 0 0 18.573061806401356 46.240111181487272 0 46.240111181487272 43.549276255721111 0 0 0 0 145.99063127180125 239.96311165768202 0 239.96311165768202 -67.384901770423312 0 0 0 0 0.65623570898380024 53.455717647733124 0 53.455717647733124 -3.8652228397195358 0 0 0 0 1.5739889179005999 28.989017635240714 0 28.989017635240714 -91.742532443833269 0 0 0 0 1.2609662967981876 67.305120544154917 0 67.305120544154917 0.10678769230435137 0 0 0 0 304.79562745425937 115.51330259176075 0 115.51330259176075 -94.613722886148139 0 0 0 0 141.93060962765776 -40.671062602786151 0 -40.671062602786151 24.873047057088115 0 0 0 0 114.77902626486321 97.992824311253571 0 97.992824311253571 -158.84746827149957 0 0 0 0 256.1626271745281 -68.405547552556868 0 -68.405547552556868 -137.61562740916088 0 0 0 0 214.82689043530445 -231.35530401168461 0 -231.35530401168461 -114.18236585322484 0 0 0 0 1031.6927041266863 -91.008483050214636 0 -91.008483050214636 -202.81285073234449 0 0 0 0 497.82181094673251 384.21673827807444 0 384.21673827807444 920.37909894823997 0 0 0 0 913.87736460622045 660.78382223315793 0 660.78382223315793 224.85661963623807 0 0 0 0 527.83670168026401 389.87160175683698 0 389.87160175683698 275.94539269844068 0 0 0 0 286.43062272894531 522.85665173340124 0 522.85665173340124 -45.766891226274765 0 0 0 0 297.21632335894537 619.42476248587491 0 619.42476248587491 332.98301414912385 0 0 0 0 594.66046058467509 314.01012162412019 0 314.01012162412019 -151.85270603464232 0 0 0 0 444.26442135054623 369.48188624674708 0 369.48188624674708 -171.31962399570375 0 0 0 0 167.36432975023149 560.01711834633693 0 560.01711834633693 -327.74797278109179 0 0 0 0 -72.343207277670444 493.59291913196745 0 493.59291913196745 -339.47120446615395 0 0 0 0 134.26101851151907 320.23522992467593 0 320.23522992467593 -113.73724467089914 0 0 0 0 28.391941622629929 521.7088880316212 0 521.7088880316212 -381.40557118307152 0 0 0 0 -194.87390880987459 350.25371501350259 0 350.25371501350259 -23.515568353219521 0 0 0 0 -143.30783690694261 500.2266244638414 0 500.2266244638414 -14.488995136239055 0 0 0 0 -204.04299457702837 945.18775705185476 0 945.18775705185476 -147.84563625346073 0 0 0 0 -1.0507564086370067 5.6348705902885357 0 5.6348705902885357 -1.300099569574563 0 0 0 0 -1343.3692532259793 390.1094850286496 0 390.1094850286496 10.11575771172744 0 0 0 0 154.89216035673599 660.66998660122636 0 660.66998660122636 -66.250282166975524 0 0 0 0 137.04023910024262 622.21850211895355 0 622.21850211895355 174.31716313349307 0 0 0 0 28.136691620860802 670.93998584131486 0 670.93998584131486 293.71625963909537 0 0 0 0 229.68871805673189 456.02463821045421 0 456.02463821045421 287.10699515195176 0 0 0 0 428.25846458797605 570.8512017014051 0 570.8512017014051 -26.79393300332049 0 0 0 0 223.86836891682105 700.06061773787383 0 700.06061773787383 -35.863800272617254 0 0 0 0 646.38411394053037 876.52343360627492 0 876.52343360627492 24.413263143655854 0 0 0 0 662.69582947619347 456.53996829456105 0 456.53996829456105 -144.14825246056887 0 0 0 0 233.40733625367466 423.80269839572088 0 423.80269839572088 -100.44306285940979 0 0 0 0 234.31851410196032 446.80611456447525 0 446.80611456447525 40.411439729378799 0 0 0 0 96.442170469186749 -157.09788220009659 0 -157.09788220009659 -1005.7007045098494 0 0 0 0 0.52689816056292216 2.5312993505456651 0 2.5312993505456651 -0.47599999803278292 0 0 0 0 441.18779312264087 676.93005696566547 0 676.93005696566547 754.35765284723175 0 0 0 0 550.30035827051324 621.03457645515459 0 621.03457645515459 253.66667199240464 0 0 0 0 660.41172111739252 567.54749301874403 0 567.54749301874403 253.99002612890854 0 0 0 0 612.35169432505063 506.90831028522985 0 506.90831028522985 182.95238153482504 0 0 0 0 269.33490737633656 424.65569674759047 0 424.65569674759047 466.98153534062487 0 0 0 0 600.13344687898643 574.60953068442768 0 574.60953068442768 205.79314630670072 0 0 0 0 461.56424917614095 460.35412237106027 0 460.35412237106027 143.08195962361606 0 0 0 0 671.14186842721756 512.92056084607054 0 512.92056084607054 207.68817271690943 0 0 0 0 770.12414851049834 549.66148772240024 0 549.66148772240024 186.54237983212334 0 0 0 0 765.32670174135455 485.87039812637693 0 485.87039812637693 268.00237043523367 0 0 0 0 1744.3178032519427 784.5018090943521 0 784.5018090943521 -3.2396976204736347 0 0 0 0 -98.766311413883159 214.50603913793429 0 214.50603913793429 -602.4393589060428 0 0 0 0 -80.829842029510473 -206.79279654229776 0 -206.79279654229776 -456.56687939629228 0 0 0 0 -0.84510277716393034 5.6855531543605551 0 5.6855531543605551 -4.1763560575624261 0 0 0 0 -254.04991484308266 251.82057322870628 0 251.82057322870628 50.247070106657702 0 0 0 0 -96.752662449172931 76.626006049066291 0 76.626006049066291 -535.24651932876759 0 0 0 0 93.45726529611602 214.06367857352598 0 214.06367857352598 -539.05947233318807 0 0 0 0 -54.859333133515975 170.54203292044622 0 170.54203292044622 -352.99916216480733 0 0 0 0 30.073705792790861 4.12235622681942 0 4.12235622681942 -38.868862960884172 0 0 0 0 -12.060792417131481 10.432567504703414 0 10.432567504703414 -0.4602814226343207 0 0 0 0 12.517882830057715 147.1268815503488 0 147.1268815503488 -593.32776203492222 0 0 0 0 -2.7963460110124174 6.1605687403850862 0 6.1605687403850862 -1.4758896425633841 0 0 0 0 -49.900914472942532 4.7587660924891111 0 4.7587660924891111 39.74057271178674 0 0 0 0 171.41049795000072 151.03673639861915 0 151.03673639861915 108.12550923857319 0 0 0 0 119.31634709203718 -3.7906127628889408 0 -3.7906127628889408 -826.70997753784832 0 0 0 0 80.594053966485433 321.75904672764932 0 321.75904672764932 -159.91814057650981 0 0 0 0 126.68664323583289 180.62285423289603 0 180.62285423289603 186.49720030284681 0 0 0 0 177.8768275437842 143.32060772882582 0 143.32060772882582 117.1599444180315 0 0 0 0 529.31921207902997 379.60099821197838 0 379.60099821197838 111.42805545630145 0 0 0 0 221.5649907920124 135.41583680692321 0 135.41583680692321 58.78409063556262 0 0 0 0 10.601552034466295 -21.116744811153097 0 -21.116744811153097 15.925488160490517 0 0 0 0 -17.441717938669171 94.421511830274369 0 94.421511830274369 72.670192715980392 0 0 0 0 1.2944074728038686 3.9716334270297011 0 3.9716334270297011 -14.748643539659952 0 0 0 0 5.0060798934422177 10.96704663006787 0 10.96704663006787 -1.8813539534699366 0 0 0 0 13.139489655899524 13.382277314729293 0 13.382277314729293 -4.8167165357661474 0 0 0 0 3.5948522054871095 14.144447946130761 0 14.144447946130761 -0.090271814603728018 0 0 0 0 -82.400815712007898 27.603350831646608 0 27.603350831646608 31.727665189957534 0 0 0 0 -1041.4963894702664 351.34033849696993 0 351.34033849696993 -145.4705025711919 0 0 0 0 -0.8629325204912206 6.6844668495862649 0 6.6844668495862649 6.7467417184193508 0 0 0 0 -21.131919252416992 38.842256166311955 0 38.842256166311955 -18.571020982842562 0 0 0 0 -988.07917122660001 673.7460349758278 0 673.7460349758278 -399.39805240178976 0 0 0 0 206.83383198068714 165.78843739733753 0 165.78843739733753 15.080168298879698 0 0 0 0 321.17819274869908 18.572005815061971 0 18.572005815061971 -33.472290905742511 0 0 0 0 6.5201418937359215 11.791422329410082 0 11.791422329410082 -6.9047345307081178 0 0 0 0 451.80533102422851 20.89749853264027 0 20.89749853264027 -20.868389792903031 0 0 0 0 716.61574428646782 432.30141186813199 0 432.30141186813199 57.304302916184497 0 0 0 0 936.65759229397372 121.87979989244013 0 121.87979989244013 -71.761089106537156 0 0 0 0 919.0141997123792 607.93365103488031 0 607.93365103488031 151.32959497974161 0 0 0 0 677.00462805360075 379.08351497377475 0 379.08351497377475 9.3961425237033609 0 0 0 0 319.00458760362369 277.41525938809065 0 277.41525938809065 71.949849878458053 0 0 0 0 593.84360071788706 508.94882276170171 0 508.94882276170171 136.62716422728954 0 0 0 0 793.47656489571364 611.33960312474596 0 611.33960312474596 149.67673162383971 0 0 0 0 736.95608526931755 451.78560009627518 0 451.78560009627518 32.444197889788484 0 0 0 0 766.8216643076812 709.78954347800686 0 709.78954347800686 285.92013943352958 0 0 0 0 957.22333344774961 554.31547941147369 0 554.31547941147369 172.92451917188737 0 0 0 0 773.63252274362458 691.73619544540497 0 691.73619544540497 316.97839333979755 0 0 0 0 1017.0004368624068 677.38056596980914 0 677.38056596980914 231.98345324523962 0 0 0 0 1038.4467978306202 538.02821179762577 0 538.02821179762577 312.50914911909285 0 0 0 0 1356.818186463679 688.74709212549351 0 688.74709212549351 214.96834801414661 0 0 0 0 1399.6674117934745 597.69354932949318 0 597.69354932949318 192.51769074679714 0 0 0 0 1940.404321257829 1058.841061360607 0 1058.841061360607 190.32808783238215 0 0 0 0 1871.3184586145398 364.971889081683 0 364.971889081683 82.3225965011261 0 0 0 0 1111.3990885160383 256.58304888288876 0 256.58304888288876 231.63416936881731 0 0 0 0 1114.7030067569285 651.18867275708544 0 651.18867275708544 211.13312208518619 0 0 0 0 3.6992489770360351 8.9741311992661039 0 8.9741311992661039 -0.74091431356088222 0 0 0 0 86.34110681342645 203.86170865598888 0 203.86170865598888 315.43379559621826 0 0 0 0 1306.9833057318974 286.11655682762375 0 286.11655682762375 0.3842607211036011 0 0 0 0 -675.22806246191249 194.13631468597282 0 194.13631468597282 -47.50564826676964 0 0 0 0 -1.0080090318502286 4.3943120001672682 0 4.3943120001672682 0.27063116425696521 0 0 0 0 2.4713696712976443 3.8915311874270913 0 3.8915311874270913 0.41063581000421934 0 0 0 0 1801.3272863088514 159.13489785809361 0 159.13489785809361 -192.86548424262583 0 0 0 0 2636.2306100142378 463.94655663631465 0 463.94655663631465 -212.31383849936174 0 0 0 0 -750.10202739320448 163.49139258859987 0 163.49139258859987 0.96405483337048281 0 0 0 0 -466.32469430326455 228.46769108227409 0 228.46769108227409 -433.21088949511977 0 0 0 0 -266.52279234939488 152.76918947432205 0 152.76918947432205 -307.44275323537477 0 0 0 0 -390.76486334715446 256.02011341050729 0 256.02011341050729 -233.43766270889137 0 0 0 0 -441.31909063724743 311.10406223725295 0 311.10406223725295 -162.51827723134193 0 0 0 0 -556.38880540999526 327.96797058174889 0 327.96797058174889 -98.305741052114172 0 0 0 0 2.3583902413655125 5.4173129991902584 0 5.4173129991902584 -0.63921737128221068 0 0 0 0 -557.74778740775218 404.88262127679445 0 404.88262127679445 -167.30647153509926 0 0 0 0 -757.18217215939876 399.72959080816145 0 399.72959080816145 -137.79931404340232 0 0 0 0 434.8163878895466 465.21489996284151 0 465.21489996284151 212.43864769729771 0 0 0 0 631.1835176705099 539.76793056982638 0 539.76793056982638 238.37824588320973 0 0 0 0 494.34986427704644 230.94556418186892 0 230.94556418186892 67.093031711553522 0 0 0 0 988.32113315950346 514.81951192717167 0 514.81951192717167 168.58773065983337 0 0 0 0 -3.0781825373995986 12.418734709575059 0 12.418734709575059 -3.5554466318781404 0 0 0 0 597.47708588687601 572.31887911619742 0 572.31887911619742 208.15540009730867 0 0 0 0 681.29420296749595 570.53195309947273 0 570.53195309947273 149.83053205957816 0 0 0 0 618.85857291407956 589.28937317805662 0 589.28937317805662 210.58423326851539 0 0 0 0 698.37344116269378 627.54452453403178 0 627.54452453403178 217.79393272356617 0 0 0 0 665.95838408560667 609.64936237398626 0 609.64936237398626 276.89806960897477 0 0 0 0 629.11249234679781 621.95702416344102 0 621.95702416344102 310.06686133372978 0 0 0 0 556.3598666262078 639.54871763273559 0 639.54871763273559 317.19599782975411 0 0 0 0 161.19989814579458 377.01372334254347 0 377.01372334254347 758.17248017967177 0 0 0 0 755.56370562384564 696.46512073905922 0 696.46512073905922 297.47169124356788 0 0 0 0 686.10835136445894 741.94713619802155 0 741.94713619802155 270.59929199120143 0 0 0 0 677.59069792905575 825.0247646017749 0 825.0247646017749 661.45416576200887 0 0 0 0 770.90421083580441 600.35486386231787 0 600.35486386231787 124.99149162321373 0 0 0 0 1.0371939486539645 1.4438296661453975 0 1.4438296661453975 0.15810285520500988 0 0 0 0 309.58970617060186 712.97405081841043 0 712.97405081841043 1175.8344732366177 0 0 0 0 40.167381545896205 183.8439621006637 0 183.8439621006637 -632.47612518077324 0 0 0 0 2.6864594040372083 5.1802798562231409 0 5.1802798562231409 -1.9866422265952095 0 0 0 0 -56.375614693908574 119.1448844981378 0 119.1448844981378 -177.65021587449519 0 0 0 0 20.664155327875051 129.47094648697203 0 129.47094648697203 198.69762244780304 0 0 0 0 32.264404179310077 205.24451858179509 0 205.24451858179509 -98.782503273611837 0 0 0 0 190.1901610435234 198.86859329599474 0 198.86859329599474 112.08227025282417 0 0 0 0 37.450577743966278 234.06400834991132 0 234.06400834991132 267.51576302398962 0 0 0 0 209.99897230771603 392.35300586808307 0 392.35300586808307 317.09625730626283 0 0 0 0 -2.5151975442253036 14.896882051362713 0 14.896882051362713 -4.9428715749216714 0 0 0 0 23.523100257940314 50.045657358651852 0 50.045657358651852 -69.284647913225854 0 0 0 0 334.20376149868025 257.24085687294951 0 257.24085687294951 237.9122353521152 0 0 0 0 0.20169079637868492 4.9913628783248498 0 4.9913628783248498 -2.2801706093111127 0 0 0 0 215.0662125097042 27.994091083487092 0 27.994091083487092 -114.10110996604635 0 0 0 0 281.89900130455135 154.80365166674585 0 154.80365166674585 50.209502109562891 0 0 0 0 91.495017177185218 99.89627441106677 0 99.89627441106677 86.814712968792264 0 0 0 0 76.589293956101756 82.001033468886817 0 82.001033468886817 66.004098763903357 0 0 0 0 8.7080495681730099 -0.11509575669333572 0 -0.11509575669333572 -19.015472967429105 0 0 0 0 -175.99544340919238 110.98666301870162 0 110.98666301870162 -50.159687567743276 0 0 0 0 0.76702627019554903 3.8992822752306537 0 3.8992822752306537 -1.113395836861006 0 0 0 0 69.281806508995942 86.775915325513779 0 86.775915325513779 94.899806545079628 0 0 0 0 27.033610094484175 -31.843295387834587 0 -31.843295387834587 102.6769807862006 0 0 0 0 14.145178804865825 11.456245419320844 0 11.456245419320844 -6.2007163441142055 0 0 0 0 65.17460570269759 99.331486659929396 0 99.331486659929396 105.33273515319547 0 0 0 0 57.886918838928977 83.998986443377362 0 83.998986443377362 107.27001397974163 0 0 0 0 72.334870582863005 107.81305332985653 0 107.81305332985653 101.4472663673514 0 0 0 0 92.333940953962156 146.51498542868967 0 146.51498542868967 71.3081050210576 0 0 0 0 -0.50910176226466142 1.1673102727030198 0 1.1673102727030198 -0.47790015312866529 0 0 0 0 100.53076736601361 340.06567704281224 0 340.06567704281224 32.24611420326471 0 0 0 0 425.09342511871819 243.25922445815513 0 243.25922445815513 28.755347976369194 0 0 0 0 -262.49931386109711 358.72357801396242 0 358.72357801396242 34.134375644528518 0 0 0 0 -121.59962541324967 186.09740506818707 0 186.09740506818707 51.998128785910012 0 0 0 0 -586.12951310780454 140.95872017049857 0 140.95872017049857 49.319632669285966 0 0 0 0 -143.87409230719277 227.70923479293424 0 227.70923479293424 52.951085222728125 0 0 0 0 405.59563852038627 645.90552742940872 0 645.90552742940872 -121.61619624347895 0 0 0 0 405.72642679034425 632.26204986603943 0 632.26204986603943 259.3145068480153 0 0 0 0 763.83602965684258 624.39922276335665 0 624.39922276335665 42.849915364551634 0 0 0 0 386.84408518393138 650.63531642545968 0 650.63531642545968 250.08943119074956 0 0 0 0 532.57747643632138 432.9693996535359 0 432.9693996535359 189.0639034328633 0 0 0 0 -521.44427877991257 -27.107316652139389 0 -27.107316652139389 43.70798159023343 0 0 0 0 577.00568023319647 538.96645305552556 0 538.96645305552556 261.1601706599198 0 0 0 0 552.0592962439041 502.33548373879648 0 502.33548373879648 431.53904859052636 0 0 0 0 -1.5195007635576587 1.3706290607187732 0 1.3706290607187732 0.53961738608342458 0 0 0 0 -5.3723778383955079 3.1797651681220138 0 3.1797651681220138 1.8081963789107043 0 0 0 0 -96.143351887227254 56.250869342116857 0 56.250869342116857 37.790315000934243 0 0 0 0 -246.58861606457867 73.10530039252626 0 73.10530039252626 61.73482343827709 0 0 0 0 -128.93446734856843 19.917319580820731 0 19.917319580820731 45.141370847930034 0 0 0 0 -208.37300468814783 208.98787923877535 0 208.98787923877535 23.780672542180582 0 0 0 0 -62.678026301422506 158.64847552139145 0 158.64847552139145 23.457079102271564 0 0 0 0 -76.234545691058884 217.31938806908556 0 217.31938806908556 -31.968107655364292 0 0 0 0 42.458534712735855 275.12228655512718 0 275.12228655512718 -22.046832533391353 0 0 0 0 25.379323447778006 358.22126536884389 0 358.22126536884389 36.179704090160499 0 0 0 0 -150.502424871014 266.402472576901 0 266.402472576901 11.914042980147315 0 0 0 0 -143.93098282601568 183.05143835341732 0 183.05143835341732 2.4071979016644036 0 0 0 0 -314.89719998626606 248.34222419962816 0 248.34222419962816 8.8774791905544816 0 0 0 0 372.03585936171658 461.433552263396 0 461.433552263396 123.76371903625113 0 0 0 0 322.26718398828962 500.71014194857207 0 500.71014194857207 139.24374022581105 0 0 0 0 -165.36462490405393 -188.70861540502756 0 -188.70861540502756 -113.62955624576853 0 0 0 0 162.58720778456882 844.25614619067255 0 844.25614619067255 33.517246559687919 0 0 0 0 -737.42094166296192 604.4774846480866 0 604.4774846480866 23.738848385055462 0 0 0 0 -494.51421095088153 101.0629774723011 0 101.0629774723011 -47.051130320036464 0 0 0 0 -342.81930732956607 110.76633088993503 0 110.76633088993503 -68.012219473730511 0 0 0 0 -312.52400768231746 33.85279387157334 0 33.85279387157334 -165.314756317719 0 0 0 0 -1066.6112731949979 437.15301435906053 0 437.15301435906053 86.429805154347378 0 0 0 0 1089.2280721902098 1048.0688880528746 0 1048.0688880528746 -264.58193772521554 0 0 0 0 1.3540363640558297 3.079778696416021 0 3.079778696416021 0.059978222288624039 0 0 0 0 836.04685658671951 919.84709519922217 0 919.84709519922217 6.9267342476289286 0 0 0 0 866.57579282721417 805.25837042573767 0 805.25837042573767 301.48939004630847 0 0 0 0 878.50068390934757 825.76659352752904 0 825.76659352752904 243.3256696559456 0 0 0 0 992.90600619760994 633.11039205935424 0 633.11039205935424 156.35706219693748 0 0 0 0 998.13087076050579 835.35215374779091 0 835.35215374779091 205.62412080088052 0 0 0 0 1158.6444213185277 844.8473133598693 0 844.8473133598693 194.99270729980344 0 0 0 0 1220.9896870795419 910.57054953888382 0 910.57054953888382 259.26887646226987 0 0 0 0 1064.0947805006399 740.36000207198776 0 740.36000207198776 321.27882535405479 0 0 0 0 1187.4754931450775 614.4087624288801 0 614.4087624288801 166.4355751480125 0 0 0 0 966.0386075037859 684.84818935258681 0 684.84818935258681 181.72426913503568 0 0 0 0 1024.6514069490941 623.92561782720895 0 623.92561782720895 136.24301300920888 0 0 0 0 784.67333737407898 557.08233036843467 0 557.08233036843467 258.23111798505306 0 0 0 0 726.05316404281984 621.80725699558616 0 621.80725699558616 280.10047440564813 0 0 0 0 738.59362474461886 550.56742775376824 0 550.56742775376824 234.64583895106443 0 0 0 0 405.63457286567063 420.17641978107986 0 420.17641978107986 393.99828929217028 0 0 0 0 496.70818054443498 680.16816374040661 0 680.16816374040661 622.15913952236224 0 0 0 0 1247.881885329356 565.13893097052642 0 565.13893097052642 422.63499907242112 0 0 0 0 721.96331754419225 686.69292008545699 0 686.69292008545699 643.48002550463207 0 0 0 0 696.96806711021418 601.55548043937961 0 601.55548043937961 380.87279280982693 0 0 0 0 846.92587405384984 724.14051911251499 0 724.14051911251499 366.00088025332661 0 0 0 0 838.32973921242319 758.93017235266097 0 758.93017235266097 312.65942128622737 0 0 0 0 839.6523323752117 854.66197572451529 0 854.66197572451529 453.57294144481784 0 0 0 0 866.76891423854977 845.356754278479 0 845.356754278479 306.31234190237956 0 0 0 0 858.97054794024734 146.05154621964448 0 146.05154621964448 855.35978647349839 0 0 0 0 643.88222244045755 287.10361642156749 0 287.10361642156749 1188.6284705103221 0 0 0 0 779.51755303858044 232.45808093619166 0 232.45808093619166 776.04969651176361 0 0 0 0 2.1065172006490656 3.8388642409901053 0 3.8388642409901053 7.2981453122750608 0 0 0 0 1096.1154304322627 394.37545968912718 0 394.37545968912718 138.27562544507191 0 0 0 0 780.3719751503213 903.11447388439547 0 903.11447388439547 1066.3391912595125 0 0 0 0 1067.7131328650648 911.52178145266043 0 911.52178145266043 373.08574971195367 0 0 0 0 -297.53069880717521 818.36651719812107 0 818.36651719812107 24.134893388184764 0 0 0 0 407.2561875129395 389.41553028453836 0 389.41553028453836 -36.539176954360414 0 0 0 0 359.33114831443163 410.97994245782547 0 410.97994245782547 261.70391062955605 0 0 0 0 335.79541088125916 525.43994296659184 0 525.43994296659184 839.69141343336196 0 0 0 0 786.95355970698074 356.60157792847076 0 356.60157792847076 241.38093864534858 0 0 0 0 865.69367695850815 680.56377865183367 0 680.56377865183367 1094.4937509891165 0 0 0 0 1105.9306965488104 388.13044400867147 0 388.13044400867147 -35.941142685675004 0 0 0 0 437.60942254175643 502.73905897994018 0 502.73905897994018 324.99163011629389 0 0 0 0 676.84977777144013 54.34160151136939 0 54.34160151136939 23.152316572060954 0 0 0 0 51.993155931089859 -19.958180882963916 0 -19.958180882963916 -72.385909909337897 0 0 0 0 15.266824247411904 -9.1122606931090075 0 -9.1122606931090075 13.735262887050336 0 0 0 0 1507.6012106964845 117.63775077879541 0 117.63775077879541 15.954553741814379 0 0 0 0 6.950161455849198 1.8486044016916026 0 1.8486044016916026 4.1934707888309397 0 0 0 0 312.97510055242674 661.83596683929613 0 661.83596683929613 1024.453326816858 0 0 0 0 204.8102452403873 120.94307340991736 0 120.94307340991736 254.82568481081262 0 0 0 0 0.88195016060693376 7.2869066693737068 0 7.2869066693737068 0.16517761434929668 0 0 0 0 29.063307767828519 53.298495495671887 0 53.298495495671887 -4.8641607957906672 0 0 0 0 41.194215469524352 29.272529630441568 0 29.272529630441568 -0.18920106852590379 0 0 0 0 47.095161776204321 15.041843511920781 0 15.041843511920781 -2.8844989416131064 0 0 0 0 47.621469362566131 82.472664112707662 0 82.472664112707662 -114.74431363262556 0 0 0 0 131.4755566776148 0.8518589205277749 0 0.8518589205277749 -75.446200359543582 0 0 0 0 332.77504450225024 105.5888818782264 0 105.5888818782264 -124.2562222100687 0 0 0 0 176.76513677632101 -61.009704605201023 0 -61.009704605201023 -205.44800928042969 0 0 0 0 116.39833872494637 -75.457476215825409 0 -75.457476215825409 -79.637133351548982 0 0 0 0 90.08575537786237 -179.59698475477671 0 -179.59698475477671 -45.828147110598366 0 0 0 0 6.3055495805820101 -55.692053125429084 0 -55.692053125429084 -80.503695242101458 0 0 0 0 1140.3316039489437 625.42973990011797 0 625.42973990011797 40.760174849034229 0 0 0 0 1.2729433444179108 -2.9552987455552397 0 -2.9552987455552397 7.2120708663567612 0 0 0 0 -30.071474380458312 -159.62231830143764 0 -159.62231830143764 -46.264575232777133 0 0 0 0 300.24575843221101 -304.80124325591623 0 -304.80124325591623 -475.17686265918019 0 0 0 0 -59.614339824314811 1252.5910549711516 0 1252.5910549711516 -545.07215965469368 0 0 0 0 -252.57431164762238 1008.9671459801202 0 1008.9671459801202 -627.63339584519872 0 0 0 0 734.83772944678276 191.84172113480054 0 191.84172113480054 -55.487195663668899 0 0 0 0 -486.51306639485119 508.88660717617131 0 508.88660717617131 307.09496380906421 0 0 0 0 77.963020744635287 154.23597918859014 0 154.23597918859014 4.614169750473593 0 0 0 0 -90.196368391116266 -23.272109291418474 0 -23.272109291418474 -59.888138558833816 0 0 0 0 151.63766005241632 321.14730194357981 0 321.14730194357981 -105.31175565979777 0 0 0 0 124.88052127237097 125.67847198182244 0 125.67847198182244 -20.006996790307312 0 0 0 0 47.476198109385223 83.468068186460641 0 83.468068186460641 193.5414106214721 0 0 0 0 61.049093320138127 200.3202533454612 0 200.3202533454612 -11.887385616720167 0 0 0 0 64.708518579285737 202.97085202336484 0 202.97085202336484 -30.663742104934499 0 0 0 0 -28.217140482427567 100.56605955555119 0 100.56605955555119 -7.5017043960269802 0 0 0 0 -125.28087657714786 141.75885001152164 0 141.75885001152164 18.900433224920562 0 0 0 0 -146.52550618709392 89.248837761693494 0 89.248837761693494 51.790495462345461 0 0 0 0 -108.09284897424004 69.768675086252188 0 69.768675086252188 58.680275692909618 0 0 0 0 -103.41941089439933 38.934453869108438 0 38.934453869108438 43.748696816994425 0 0 0 0 26.54732126179897 46.315378336673575 0 46.315378336673575 -2.8597314298149286 0 0 0 0 39.251402256454526 62.314695291950557 0 62.314695291950557 -36.309164509309994 0 0 0 0 -37.67775609821183 53.005990801069856 0 53.005990801069856 -2.0245342395510306 0 0 0 0 -59.826609380888385 154.99741491117356 0 154.99741491117356 -64.72843398549594 0 0 0 0 45.557713100402907 79.705797849061582 0 79.705797849061582 -76.59379461730191 0 0 0 0 -234.34807057959551 95.045695086831984 0 95.045695086831984 54.200558148242635 0 0 0 0 -34.322059521146002 185.8785352025152 0 185.8785352025152 49.605247905124997 0 0 0 0 7.1147227246098552 11.760876154468153 0 11.760876154468153 9.5299794802929014 0 0 0 0 -289.0055913804681 8.2810432453125031 0 8.2810432453125031 114.04304726852024 0 0 0 0 34.514970304797316 11.366726908961482 0 11.366726908961482 -7.936279742980787 0 0 0 0 51.810350967822686 34.762268990378466 0 34.762268990378466 -6.7115975827170953 0 0 0 0 143.36594126104319 -90.569810418737688 0 -90.569810418737688 -170.50256196962437 0 0 0 0 -22.03416273569637 58.07144427057024 0 58.07144427057024 -57.292909646052479 0 0 0 0 70.840814822255197 496.07259236642494 0 496.07259236642494 -66.664913184460602 0 0 0 0 9.5377202199799456 55.030602511011459 0 55.030602511011459 61.428403083539479 0 0 0 0 -7.0812318468961166 122.92687989506339 0 122.92687989506339 -58.021230496860568 0 0 0 0 -35.33389681826884 61.567145668644116 0 61.567145668644116 -55.491901530338055 0 0 0 0 2.7872327455060031 0.056417410490722908 0 0.056417410490722908 0.039231757305715043 0 0 0 0 20.913667793258355 59.192007020857091 0 59.192007020857091 -313.27406138235165 0 0 0 0 -4.8701830450245325 362.02756931226122 0 362.02756931226122 473.66339149320629 0 0 0 0 -18.677773887065996 30.618514045425854 0 30.618514045425854 -90.442689985600737 0 0 0 0 -0.24046144407475367 85.361510380886102 0 85.361510380886102 -101.10795646315228 0 0 0 0 -12.337092850237241 63.396807408353197 0 63.396807408353197 -48.469208201051515 0 0 0 0 -3.2645680697751231 47.252481546001945 0 47.252481546001945 -65.401835841713364 0 0 0 0 -15.238791410585691 71.581625482961499 0 71.581625482961499 -20.655374780917555 0 0 0 0 59.537635316857632 57.954455682044227 0 57.954455682044227 -49.960417973245058 0 0 0 0 -6.9271440238505448 14.289023746981748 0 14.289023746981748 -32.190442761821075 0 0 0 0 -5.4452998533124628 41.739224077529798 0 41.739224077529798 -9.7135892224087002 0 0 0 0 2.4189283215309842 17.736689808471965 0 17.736689808471965 -29.921538253844119 0 0 0 0 21.03120811225017 9.6998560981000992 0 9.6998560981000992 -154.83932105665099 0 0 0 0 9.0737966254792326 0.07156482492939098 0 0.07156482492939098 0.084688440853438074 0 0 0 0 -15.099175398473108 53.667493393758889 0 53.667493393758889 -68.717571242381382 0 0 0 0 275.62178702060191 57.423428573565616 0 57.423428573565616 -47.324089366309863 0 0 0 0 84.184258751323796 -15.156054153254445 0 -15.156054153254445 -45.201423084483395 0 0 0 0 229.38407626401022 69.36051274073543 0 69.36051274073543 -6.132130209596653 0 0 0 0 -8.7412995296908775 -76.176208633968599 0 -76.176208633968599 86.380929650022154 0 0 0 0 -142.07303655286887 -58.861950416569016 0 -58.861950416569016 18.629905034347757 0 0 0 0 -39.624838725660084 -10.591666543909014 0 -10.591666543909014 -48.794605010070882 0 0 0 0 53.439404215212562 -46.833012778597549 0 -46.833012778597549 -109.54462791387414 0 0 0 0 50.461419588787976 16.673789221547622 0 16.673789221547622 -69.178298442900996 0 0 0 0 -3.2305940452242226 16.863379094073181 0 16.863379094073181 -27.653083156674761 0 0 0 0 -42.588210625995998 -46.622879027736417 0 -46.622879027736417 -73.038733821402275 0 0 0 0 34.184445886214235 12.537161808400924 0 12.537161808400924 -50.187987672630697 0 0 0 0 14.553391856985399 3.7235121697885916 0 3.7235121697885916 -110.20822463944558 0 0 0 0 -2.2356453489919659 14.09371501055648 0 14.09371501055648 -116.50753783659457 0 0 0 0 54.154754061997664 41.178283637233108 0 41.178283637233108 -60.316895118026878 0 0 0 0 97.512409828701493 20.186457776246243 0 20.186457776246243 -168.31485852972764 0 0 0 0 89.086540503893048 4.2845136483556416 0 4.2845136483556416 -110.22893202106525 0 0 0 0 175.12613515880366 51.0441861144227 0 51.0441861144227 -79.894394032529817 0 0 0 0 52.655560490220523 42.461086544333739 0 42.461086544333739 -170.32373301970074 0 0 0 0 19.142784460927942 -6.3045022713668004 0 -6.3045022713668004 -851.64964627463087 0 0 0 0 23.414755095855938 11.935353488775476 0 11.935353488775476 -1.6401002314726902 0 0 0 0 29.027510779822478 106.4058404170155 0 106.4058404170155 -53.141989563098832 0 0 0 0 -13.499701974574634 7.7543343985695632 0 7.7543343985695632 0.56897891923413191 0 0 0 0 -57.158353308703227 48.11621337001452 0 48.11621337001452 -823.48782780857437 0 0 0 0 45.803156814814429 103.79092406338714 0 103.79092406338714 -757.1221338481937 0 0 0 0 0.4684287012414643 -1.5914642351654038 0 -1.5914642351654038 -98.237303681133199 0 0 0 0 -25.272251733826124 29.859112509031547 0 29.859112509031547 -102.82703712788134 0 0 0 0 -27.527865069840118 9.2906684842207596 0 9.2906684842207596 -65.312695646760403 0 0 0 0 -1.191423973897983 11.742278289816184 0 11.742278289816184 -7.1012226055965293 0 0 0 0 -48.317181984784838 19.181330375522521 0 19.181330375522521 -474.78496052545961 0 0 0 0 -1.6075923300231807 -58.592683734445018 0 -58.592683734445018 -778.5491182812475 0 0 0 0 -62.291592918270908 -32.114798152961157 0 -32.114798152961157 -635.75181720545515 0 0 0 0 21.957201721579622 58.422678874577286 0 58.422678874577286 -666.91809954275959 0 0 0 0 28.249799901881488 47.008881000278052 0 47.008881000278052 -687.05200726064504 0 0 0 0 49.285170738236047 26.600504113066563 0 26.600504113066563 -811.37811824405253 0 0 0 0 32.367142416202114 82.430895400073496 0 82.430895400073496 -717.42257892111775 0 0 0 0 -4.9163731648295652 32.162557111789283 0 32.162557111789283 -692.47355617797439 0 0 0 0 16.243140326696448 95.946633775289229 0 95.946633775289229 -607.44281651925485 0 0 0 0 -7.1649235116128693 -55.076898700856418 0 -55.076898700856418 -144.33259064206777 0 0 0 0 16.268057920463065 0.086729166130528057 0 0.086729166130528057 -4.9768584432473419 0 0 0 0 3.2077500763989519 16.511645050673906 0 16.511645050673906 -568.78085411267057 0 0 0 0 17.900524747034069 45.523294617811189 0 45.523294617811189 -657.73466601104519 0 0 0 0 61.246960148622748 84.162710249342126 0 84.162710249342126 -742.00988410363061 0 0 0 0 -13.560365242126863 15.165119670632521 0 15.165119670632521 -54.093918304020917 0 0 0 0 0.64896713502743353 -1.163792753348158 0 -1.163792753348158 -5.3951798712667305 0 0 0 0 18.674938761299018 150.08213290669073 0 150.08213290669073 -768.78815779806973 0 0 0 0 2.2227574276330415 93.358269555807055 0 93.358269555807055 -624.26871290693452 0 0 0 0 2.4743332014477346 6.741521232186642 0 6.741521232186642 -5.7199235316147679 0 0 0 0 13.999171616092177 7.6550196450111763 0 7.6550196450111763 -8.6233043750716121 0 0 0 0 8.1768697448047192 16.480859534030806 0 16.480859534030806 -9.6310450468952951 0 0 0 0 27.982698272964626 102.83871998896598 0 102.83871998896598 -270.48760582048635 0 0 0 0 39.273447289137039 210.40589127173143 0 210.40589127173143 -295.89822164100769 0 0 0 0 70.167870684083027 307.65809980900303 0 307.65809980900303 -271.45177985859073 0 0 0 0 5.905313704526634 258.02572564873481 0 258.02572564873481 -332.30433907584302 0 0 0 0 35.26483213719257 230.88240943071787 0 230.88240943071787 -510.39325558437486 0 0 0 0 37.253441449654929 248.39620020736493 0 248.39620020736493 -329.62411112459358 0 0 0 0 0.59638476013788022 166.98786864805334 0 166.98786864805334 -414.22263687129271 0 0 0 0 52.978723564687243 208.89652781206314 0 208.89652781206314 -438.4350293417956 0 0 0 0 4.9073013972811168 89.777146633955795 0 89.777146633955795 -602.27266204794432 0 0 0 0 12.269584186622524 102.95349012466068 0 102.95349012466068 -653.83339993238769 0 0 0 0 23.443366876002983 251.64360023602148 0 251.64360023602148 -595.78531307183584 0 0 0 0 16.282489639098685 128.31774252458138 0 128.31774252458138 -676.28032934678413 0 0 0 0 17.094914762448752 175.30519751221982 0 175.30519751221982 -488.84134805452413 0 0 0 0 4.2609931369515834 213.63359545747335 0 213.63359545747335 -458.92322571173281 0 0 0 0 15.723409923673898 324.50299804698079 0 324.50299804698079 -370.66493976287529 0 0 0 0 16.224733607617964 265.94920788467243 0 265.94920788467243 -515.8740291755521 0 0 0 0 -15.014777306289034 351.49150028230451 0 351.49150028230451 -567.41433369907099 0 0 0 0 12.892429710720535 194.88563711178267 0 194.88563711178267 -659.6116473141592 0 0 0 0 -21.309086052286148 239.70165233016633 0 239.70165233016633 -500.93953184351267 0 0 0 0 -40.087997838680167 260.05417167605447 0 260.05417167605447 -715.02603276726404 0 0 0 0 34.338221459066517 49.211649493773621 0 49.211649493773621 -885.09978239260818 0 0 0 0 70.011346984696502 153.66567962010959 0 153.66567962010959 63.191611166001167 0 0 0 0 76.470646361936815 64.793847079736224 0 64.793847079736224 -114.45438762647427 0 0 0 0 77.250899801190826 87.451639374596198 0 87.451639374596198 -295.67469160374003 0 0 0 0 85.220127811167913 225.0878251154727 0 225.0878251154727 -320.90181301024813 0 0 0 0 82.320464797448949 304.52109345005192 0 304.52109345005192 -189.10023050802644 0 0 0 0 77.661829427222983 201.42740702450192 0 201.42740702450192 -189.89918849572132 0 0 0 0 94.159574142206111 233.10273249538841 0 233.10273249538841 -136.80852740591797 0 0 0 0 109.86597623446505 217.32731803451497 0 217.32731803451497 -121.1709369025466 0 0 0 0 44.967934384258115 269.64132538678643 0 269.64132538678643 -72.07852191294478 0 0 0 0 77.8904141593448 275.02836086411025 0 275.02836086411025 -85.69768678154378 0 0 0 0 55.293408683959569 298.34843678148764 0 298.34843678148764 -26.5773925538806 0 0 0 0 66.428601848387189 288.84219972212713 0 288.84219972212713 -27.025529216480209 0 0 0 0 26.71787191695168 255.64929143533109 0 255.64929143533109 51.620542561848197 0 0 0 0 28.381773531946237 285.69010385894489 0 285.69010385894489 76.428648357100116 0 0 0 0 19.747287473117467 306.3415190702226 0 306.3415190702226 93.76559948133945 0 0 0 0 36.553497122877161 280.82001610257521 0 280.82001610257521 64.609345046018461 0 0 0 0 16.638143485830369 316.96356293927647 0 316.96356293927647 76.889751164491827 0 0 0 0 41.783518305361213 312.95824347925463 0 312.95824347925463 -23.806648858444532 0 0 0 0 46.691704330871289 314.53436991181297 0 314.53436991181297 -23.574797119708592 0 0 0 0 55.697347971141426 310.61640841076132 0 310.61640841076132 -87.286892147725666 0 0 0 0 70.04516559536205 318.87238790700212 0 318.87238790700212 -103.7876282970592 0 0 0 0 81.013452288812914 274.48939017826478 0 274.48939017826478 -109.03646054924684 0 0 0 0 63.309364063552493 276.78516245357514 0 276.78516245357514 -189.5093772207274 0 0 0 0 39.260346882481826 347.03811705870157 0 347.03811705870157 -121.8807782650656 0 0 0 0 36.676143548589607 297.94016444909266 0 297.94016444909266 -166.91929848139625 0 0 0 0 36.476206479987013 355.97743384218847 0 355.97743384218847 -229.54193923362891 0 0 0 0 16.687629442603793 378.62850569761213 0 378.62850569761213 -70.681795418618094 0 0 0 0 13.650429225039261 311.82432557594529 0 311.82432557594529 -94.917148681288381 0 0 0 0 -40.952222828233062 342.37814115099627 0 342.37814115099627 -308.4815765312087 0 0 0 0 6.0512504669168266 286.56297311484013 0 286.56297311484013 -281.11375465079755 0 0 0 0 7.2484549193432031 277.1389065944602 0 277.1389065944602 -305.56202736003615 0 0 0 0 8.152966552763246 383.91083480507587 0 383.91083480507587 -168.47455340035776 0 0 0 0 -16.949414760245418 387.06873920668295 0 387.06873920668295 -83.145158448802249 0 0 0 0 8.1778592843656952 280.36069136503176 0 280.36069136503176 -7.20016208990819 0 0 0 0 70.337264725836576 341.20911510531914 0 341.20911510531914 32.293624802239719 0 0 0 0 -6.7570760803287158 384.45008554473208 0 384.45008554473208 -2.480371617630226 0 0 0 0 34.129148104177148 306.94608104974941 0 306.94608104974941 41.979333093933747 0 0 0 0 -19.2490624908678 355.67591469061426 0 355.67591469061426 164.88900708450819 0 0 0 0 55.593181647433084 285.76838228317592 0 285.76838228317592 187.11941097548333 0 0 0 0 23.825524523839704 349.6833723204054 0 349.6833723204054 -0.9064371699696494 0 0 0 0 25.03553449530591 311.16310986170265 0 311.16310986170265 -4.9271291419763656 0 0 0 0 -13.981134429950544 353.24728689295171 0 353.24728689295171 104.36408011892308 0 0 0 0 27.162350994796725 324.96000241257752 0 324.96000241257752 104.96105510759452 0 0 0 0 0.47499393992620753 278.87688039116222 0 278.87688039116222 212.66063975476209 0 0 0 0 -6.1758722944232431 313.60974530805458 0 313.60974530805458 159.08670856473873 0 0 0 0 8.3203550288599217 276.14962675305833 0 276.14962675305833 210.10208391766446 0 0 0 0 33.523422890422808 205.12394149458578 0 205.12394149458578 311.7548353249274 0 0 0 0 -4.3264628862234531 266.84729791733253 0 266.84729791733253 310.04071396843392 0 0 0 0 7.4819535764472676 257.66654908853161 0 257.66654908853161 205.55535873840927 0 0 0 0 10.404322642803891 222.66299026939851 0 222.66299026939851 284.09929271148258 0 0 0 0 9.3005544652405661 235.61004575623519 0 235.61004575623519 250.9121711318212 0 0 0 0 -9.1672716544926516 262.5882123184947 0 262.5882123184947 267.91028886810818 0 0 0 0 -7.4089886004803702 252.34279840225645 0 252.34279840225645 283.84358744482961 0 0 0 0 37.539371189890517 307.81122890328788 0 307.81122890328788 359.61335586196583 0 0 0 0 -0.75880470920310472 313.24716678622963 0 313.24716678622963 261.26846612733607 0 0 0 0 31.967189251539821 230.45440706627051 0 230.45440706627051 313.59362077895457 0 0 0 0 50.36041793122422 242.16964156172344 0 242.16964156172344 316.55794186563799 0 0 0 0 52.219517494806496 201.86976244865491 0 201.86976244865491 437.62323331238076 0 0 0 0 114.39284819497698 201.79374188859492 0 201.79374188859492 362.09429046634068 0 0 0 0 97.066915632836754 120.68707089032159 0 120.68707089032159 440.19553248445663 0 0 0 0 131.66975921519588 167.84769013755209 0 167.84769013755209 384.09996315262288 0 0 0 0 96.565801572413591 157.05919795035709 0 157.05919795035709 362.41445580535037 0 0 0 0 25.338438869599486 210.09381233238491 0 210.09381233238491 409.61231854248763 0 0 0 0 112.90186001754046 115.51855644774605 0 115.51855644774605 377.54253209513081 0 0 0 0 48.925245895159605 158.34832850094244 0 158.34832850094244 397.40448894638394 0 0 0 0 171.70039427528172 81.129963641590621 0 81.129963641590621 417.7206566632176 0 0 0 0 167.79089961684804 143.0219842733859 0 143.0219842733859 408.05919084422567 0 0 0 0 4.9741599203844089 192.63278245337824 0 192.63278245337824 278.38884408004378 0 0 0 0 -8.1176181990522309 221.24078517814996 0 221.24078517814996 287.9197442562363 0 0 0 0 2.7543715534120565 201.66543702481249 0 201.66543702481249 306.19226033802988 0 0 0 0 14.300856472975283 172.89130188576655 0 172.89130188576655 349.17406060359008 0 0 0 0 5.5920128886500606 232.50968400491229 0 232.50968400491229 318.2918243915683 0 0 0 0 49.396288344814593 178.73603946762748 0 178.73603946762748 333.8100157680019 0 0 0 0 19.147043462915462 149.73610885017115 0 149.73610885017115 368.46482551384725 0 0 0 0 19.101163323612752 157.10119748675757 0 157.10119748675757 318.72112711871523 0 0 0 0 1.4672866259497823 149.98751350048951 0 149.98751350048951 340.3375878789966 0 0 0 0 1.1586507324536797 160.49574933490112 0 160.49574933490112 330.24495633948482 0 0 0 0 -6.3185554914307431 174.26046677526301 0 174.26046677526301 306.16194507059481 0 0 0 0 -0.78237147042818833 140.88693848783214 0 140.88693848783214 304.02354106748317 0 0 0 0 -8.7163850070755871 136.3941781377971 0 136.3941781377971 273.26898839418936 0 0 0 0 -5.6141848052211571 169.2447015087364 0 169.2447015087364 280.32550150660427 0 0 0 0 -3.9719256055177539 168.78332489505829 0 168.78332489505829 278.80958134095454 0 0 0 0 -7.2349072187644197 203.36722931980148 0 203.36722931980148 274.27531904038824 0 0 0 0 -5.7769467941434414 199.67178466764972 0 199.67178466764972 263.56997264161328 0 0 0 0 -0.4331984730088152 221.34242183595416 0 221.34242183595416 238.08071541995014 0 0 0 0 5.6820646342275722 208.01151535189001 0 208.01151535189001 226.42824769531944 0 0 0 0 -6.6272210900478967 203.91190488578923 0 203.91190488578923 243.79882073563203 0 0 0 0 -1.7415566956842667 155.03627220861017 0 155.03627220861017 261.604614949194 0 0 0 0 -0.8491388373367954 153.08352014716638 0 153.08352014716638 211.2228809717717 0 0 0 0 -4.8631013029680616 168.83139388069071 0 168.83139388069071 236.7870636141015 0 0 0 0 42.886415773129556 214.14105240447361 0 214.14105240447361 160.48537804913849 0 0 0 0 9.9083257417405548 158.77508871221562 0 158.77508871221562 201.27768567952262 0 0 0 0 39.261341990175424 149.08278988319853 0 149.08278988319853 179.39224011293709 0 0 0 0 37.298663212102838 137.55458220997116 0 137.55458220997116 119.65055877396935 0 0 0 0 98.708547823029221 180.03128550458587 0 180.03128550458587 142.97935286566508 0 0 0 0 7.6029945360205602 202.83430416246301 0 202.83430416246301 202.16542143277147 0 0 0 0 26.092084014388092 238.97348067522398 0 238.97348067522398 164.19148736314855 0 0 0 0 127.96855500424135 236.7766839739943 0 236.7766839739943 48.286114186118311 0 0 0 0 -5.0223239993433708 264.36409899443044 0 264.36409899443044 200.12470585658411 0 0 0 0 27.391034617197874 244.18606391947014 0 244.18606391947014 122.58559423880115 0 0 0 0 -1.7817953270641738 243.33386170274571 0 243.33386170274571 194.50279438642428 0 0 0 0 -6.2182179824594641 231.59604095846225 0 231.59604095846225 248.39156646152878 0 0 0 0 4.5823142228036886 236.38003307846748 0 236.38003307846748 187.35878910136307 0 0 0 0 336.38781376178849 353.49808409853176 0 353.49808409853176 495.2007861789416 0 0 0 0 670.53783643168572 -563.47474585287637 0 -563.47474585287637 523.30820422936995 0 0 0 0 10.49134557332809 0.19497684424680273 0 0.19497684424680273 -1.4051970071200088 0 0 0 0 13.129845814429473 14.695440797375641 0 14.695440797375641 15.675365915238672 0 0 0 0 -101.05368190896843 52.047728811796674 0 52.047728811796674 130.03975289075379 0 0 0 0 22.226975886002535 43.018628804686387 0 43.018628804686387 70.61757244052356 0 0 0 0 76.242807217548034 -88.512425013605707 0 -88.512425013605707 -18.748310173048594 0 0 0 0 428.64840246908716 -113.67753208092017 0 -113.67753208092017 734.33617556750141 0 0 0 0 886.09938909966877 289.3995722544696 0 289.3995722544696 3.15681588325333 0 0 0 0 884.80896510827006 -97.650175794430197 0 -97.650175794430197 286.19340301360444 0 0 0 0 362.48547611683171 3.4494268575576825 0 3.4494268575576825 436.31656716211637 0 0 0 0 241.10639954171347 64.708320713999456 0 64.708320713999456 433.00740538724676 0 0 0 0 128.45686216426793 110.62551835546532 0 110.62551835546532 527.00748933927207 0 0 0 0 266.12113507989125 103.23638348046552 0 103.23638348046552 455.19433133059601 0 0 0 0 295.20694133590405 264.69774011344111 0 264.69774011344111 771.32457955379414 0 0 0 0 253.74903032719885 132.05874817159338 0 132.05874817159338 430.48710325164757 0 0 0 0 112.4826082960717 214.99703169072654 0 214.99703169072654 488.04260725142467 0 0 0 0 149.62929613754386 308.50177641721984 0 308.50177641721984 440.60858236617588 0 0 0 0 663.56043184453301 399.51369425956545 0 399.51369425956545 476.19161318384795 0 0 0 0 1127.8329325616705 -113.94618394188478 0 -113.94618394188478 181.44355400087625 0 0 0 0 375.0459362659858 -19.486656895559008 0 -19.486656895559008 170.42433233842166 0 0 0 0 449.94108335829151 -35.924864546268509 0 -35.924864546268509 14.590944134062738 0 0 0 0 143.77916773854668 232.38069326380037 0 232.38069326380037 198.5396127617023 0 0 0 0 204.11317345337011 272.12860929932503 0 272.12860929932503 181.07977750964892 0 0 0 0 351.99614831626241 131.09344527213761 0 131.09344527213761 247.8005176703291 0 0 0 0 -6.1516850603147759 294.11642599380684 0 294.11642599380684 221.04861636937676 0 0 0 0 224.58402735638083 194.41417274246669 0 194.41417274246669 -2.5058873690286418 0 0 0 0 46.865782995339941 220.72014494906057 0 220.72014494906057 -264.07571187541362 0 0 0 0 -67.950585028127534 271.66051436970974 0 271.66051436970974 -10.110798308586027 0 0 0 0 -169.31186337059626 273.57224193438287 0 273.57224193438287 -271.81650795306587 0 0 0 0 340.46807840278052 -172.30476747672583 0 -172.30476747672583 -150.69145606004713 0 0 0 0 125.81699458850198 68.534840737485865 0 68.534840737485865 -18.343544367903633 0 0 0 0 184.94725651872432 33.839676319545106 0 33.839676319545106 -183.70284426531907 0 0 0 0 31.261670738276734 -163.24955947485887 0 -163.24955947485887 -359.29911882605484 0 0 0 0 -232.87469150028483 190.81735871732963 0 190.81735871732963 -235.20834921464439 0 0 0 0 94.522809282283561 -48.267290532894549 0 -48.267290532894549 -176.29388264439694 0 0 0 0 293.16304150702854 -229.3051854228479 0 -229.3051854228479 -287.62694965634364 0 0 0 0 384.69141965696144 -232.17670000514772 0 -232.17670000514772 -170.54072344125962 0 0 0 0 300.35643588076346 -170.87322353986019 0 -170.87322353986019 -113.41016301116156 0 0 0 0 388.36907575724217 -292.09401634666619 0 -292.09401634666619 -95.61699041184329 0 0 0 0 275.13956711919673 -167.3098457927199 0 -167.3098457927199 -0.42950961487804307 0 0 0 0 312.11161221624207 -241.67504481871401 0 -241.67504481871401 135.18153046156999 0 0 0 0 274.90383440044388 -352.50224495058637 0 -352.50224495058637 416.95764507406784 0 0 0 0 188.39939486227377 -190.55466242286502 0 -190.55466242286502 125.51580484306942 0 0 0 0 608.59987944244494 -220.59009271490504 0 -220.59009271490504 7.0113943550236399 0 0 0 0 215.10904946675873 -147.79986292168542 0 -147.79986292168542 155.31210002527951 0 0 0 0 285.97786575878854 -173.81869705690497 0 -173.81869705690497 2.2029934449719804 0 0 0 0 246.00027078136191 -94.934301065933141 0 -94.934301065933141 112.91751815432144 0 0 0 0 375.65053429718682 -104.54900904238366 0 -104.54900904238366 -56.211422441592731 0 0 0 0 409.26750113934395 -144.21418608511158 0 -144.21418608511158 -43.617877316553859 0 0 0 0 422.80438429207788 -156.83291982704031 0 -156.83291982704031 -55.706887686799746 0 0 0 0 522.05159569233547 -35.204488260752896 0 -35.204488260752896 -23.744017063298088 0 0 0 0 503.84374337557529 -144.72144959556135 0 -144.72144959556135 -153.12755956991532 0 0 0 0 562.62684213765988 41.7717790489462 0 41.7717790489462 180.08676706728147 0 0 0 0 563.2869633587361 -53.76163530490976 0 -53.76163530490976 -46.71815445217544 0 0 0 0 584.01558885973645 -73.32820270617367 0 -73.32820270617367 -160.53833340149504 0 0 0 0 637.16529878838992 332.46926500650352 0 332.46926500650352 211.49209201809208 0 0 0 0 699.07207565841236 244.78012427050271 0 244.78012427050271 -7.5900751194712939 0 0 0 0 613.92624659410649 52.383511960017131 0 52.383511960017131 -404.20405686298363 0 0 0 0 483.7752284166927 -66.994477560172527 0 -66.994477560172527 -79.03541139472145 0 0 0 0 482.00272767867227 -96.088721722338221 0 -96.088721722338221 -254.95946978245047 0 0 0 0 356.73325550651498 -42.137999777811274 0 -42.137999777811274 -134.92696594353038 0 0 0 0 52.898154074115155 -94.004781450656083 0 -94.004781450656083 -253.94582946172955 0 0 0 0 113.23777480359422 115.93534742764041 0 115.93534742764041 -391.85512029275196 0 0 0 0 349.35925731354746 -96.129622892163411 0 -96.129622892163411 -521.98418514774312 0 0 0 0 477.59774396157445 111.15071098346289 0 111.15071098346289 -614.19394650907088 0 0 0 0 -15.221982382860006 181.25966881840304 0 181.25966881840304 -414.90227790653535 0 0 0 0 754.45497240692384 276.94956107705343 0 276.94956107705343 85.82432077518024 0 0 0 0 700.06993518467789 324.71953874447718 0 324.71953874447718 73.072521184498328 0 0 0 0 1031.2247808141974 465.06947692833864 0 465.06947692833864 -298.98206419838971 0 0 0 0 -6.4019621135644229 12.445887747646729 0 12.445887747646729 -22.558225332586773 0 0 0 0 -38.958746435218288 64.160772833951654 0 64.160772833951654 18.781276142733567 0 0 0 0 946.6121994579953 166.4614852718496 0 166.4614852718496 -492.37291242463016 0 0 0 0 507.602483998151 234.64235673843723 0 234.64235673843723 -273.1693540306369 0 0 0 0 14.401045795071695 257.7052547302028 0 257.7052547302028 -1138.2462554176564 0 0 0 0 -11.108566200397036 226.375963134426 0 226.375963134426 -597.55901172876838 0 0 0 0 -316.76313070884862 226.00753654128312 0 226.00753654128312 -597.14658877457441 0 0 0 0 -299.47825965753873 610.2643491961062 0 610.2643491961062 -1284.6338752321517 0 0 0 0 -553.66403921142046 1.2280760034245759 0 1.2280760034245759 -505.33868238163268 0 0 0 0 95.064307980450394 56.086009844181717 0 56.086009844181717 -569.41328875239469 0 0 0 0 -363.62419105909794 343.82813303456078 0 343.82813303456078 -246.54415843546849 0 0 0 0 -152.98314149316866 451.02874866843013 0 451.02874866843013 -643.93412767171731 0 0 0 0 112.47002997970594 59.905096279090685 0 59.905096279090685 -849.49240199708584 0 0 0 0 -119.51156796171199 15.454020744556146 0 15.454020744556146 166.46965555215684 0 0 0 0 89.916191413583874 28.753265980788456 0 28.753265980788456 -1871.0793014867031 0 0 0 0 -5.273398812552557 0.38642477072004411 0 0.38642477072004411 -0.91475328934789601 0 0 0 0 -138.29619641720637 -107.28873858831503 0 -107.28873858831503 -1040.2668903450976 0 0 0 0 92.283399334355636 179.34722715651515 0 179.34722715651515 97.941407053098374 0 0 0 0 69.424651947934763 -16.860605390713317 0 -16.860605390713317 -129.76091100647318 0 0 0 0 -20.875499853038491 50.357130828969275 0 50.357130828969275 -15.984528289143782 0 0 0 0 16.103001083479185 7.6515057256173264 0 7.6515057256173264 3.1481405750677638 0 0 0 0 80.426605763983389 227.04692658156455 0 227.04692658156455 94.343236847029402 0 0 0 0 65.567315379308639 201.78266408070112 0 201.78266408070112 124.51069320300303 0 0 0 0 49.220021036539038 225.84930675465966 0 225.84930675465966 513.116202556801 0 0 0 0 211.19693025220477 380.89797420804462 0 380.89797420804462 226.79579421567541 0 0 0 0 129.32438977602578 492.0646809281061 0 492.0646809281061 177.83644035906764 0 0 0 0 133.85588113715494 466.58323325512174 0 466.58323325512174 136.68809894162405 0 0 0 0 183.00338145930573 216.40068720163322 0 216.40068720163322 17.62273373311109 0 0 0 0 338.64645541810751 295.97471978386602 0 295.97471978386602 57.634842099803791 0 0 0 0 947.1237901593995 180.41518575118607 0 180.41518575118607 968.42028661740187 0 0 0 0 -2.6950695574168435 8.617486914818123 0 8.617486914818123 -10.135910801168031 0 0 0 0 758.14886063141421 304.87976030755544 0 304.87976030755544 96.08909945092455 0 0 0 0 730.76714488086145 676.14530887014735 0 676.14530887014735 -111.68602518436819 0 0 0 0 593.46338451186239 357.95056633730746 0 357.95056633730746 -842.70168005357118 0 0 0 0 6.4513627562705551 2.0388244152230328 0 2.0388244152230328 0.79667802861238712 0 0 0 0 -186.16151040126715 402.03559580964247 0 402.03559580964247 1661.7501575048009 0 0 0 0 636.46022523153079 1176.7378109503479 0 1176.7378109503479 371.38616013659339 0 0 0 0 -402.55619635978655 135.08324349593204 0 135.08324349593204 196.59134302334496 0 0 0 0 65.132523795684392 125.03267552738953 0 125.03267552738953 -98.304583221841312 0 0 0 0 44.623961894176318 579.44347187555832 0 579.44347187555832 423.3081402238231 0 0 0 0 220.37978732344345 528.8558479412095 0 528.8558479412095 163.06126527032029 0 0 0 0 -151.28230512652954 319.27476969541749 0 319.27476969541749 107.62850710382008 0 0 0 0 -38.32235338086862 63.727844366858079 0 63.727844366858079 32.603699302600134 0 0 0 0 788.22992597100165 294.43138818077023 0 294.43138818077023 87.972998769091646 0 0 0 0 57.48473136627581 144.54388620888903 0 144.54388620888903 32.86762077307867 0 0 0 0 17.636734625291865 121.72615157490691 0 121.72615157490691 97.686141775577198 0 0 0 0 26.526154829296502 121.32983053008047 0 121.32983053008047 43.774117721040966 0 0 0 0 66.066201753928908 68.670117313176888 0 68.670117313176888 84.803227129099469 0 0 0 0 783.95548732281486 249.61718261587907 0 249.61718261587907 94.057209136626625 0 0 0 0 -1.3692093796035962 3.0951214570260532 0 3.0951214570260532 -1.3926363335599632 0 0 0 0 -199.18254492347478 558.25094133590574 0 558.25094133590574 94.170767865012749 0 0 0 0 72.332583828949282 514.94612789754319 0 514.94612789754319 43.344752262149996 0 0 0 0 -353.63313228026527 463.21413268251126 0 463.21413268251126 196.85744782853726 0 0 0 0 5.539769929695467 320.03723607768552 0 320.03723607768552 -53.988691936723626 0 0 0 0 -39.695007368724376 58.995750792674912 0 58.995750792674912 45.602232878878404 0 0 0 0 -153.71536452165242 136.78130205363948 0 136.78130205363948 289.4359176733924 0 0 0 0 -135.08776930509703 384.61054622213669 0 384.61054622213669 106.73424520414392 0 0 0 0 106.70520664268588 67.260409259850348 0 67.260409259850348 39.956612057560051 0 0 0 0 151.73361711226607 142.24318275046608 0 142.24318275046608 31.635864492641304 0 0 0 0 96.069576041365508 96.901081457389182 0 96.901081457389182 32.58570023359789 0 0 0 0 58.706415959017249 122.038184616016 0 122.038184616016 86.201811969578557 0 0 0 0 24.800901845908811 77.678862783184286 0 77.678862783184286 43.153696365901851 0 0 0 0 73.601333591343064 53.441639369162431 0 53.441639369162431 49.342008182156633 0 0 0 0 -101.10333019023165 -17.544081038963668 0 -17.544081038963668 45.132848314322473 0 0 0 0 123.32159965485107 100.07950956843388 0 100.07950956843388 62.754971259613285 0 0 0 0 -25.835809928051429 61.507492165642525 0 61.507492165642525 62.239849401801791 0 0 0 0 131.56900396218771 -121.46510141383988 0 -121.46510141383988 -8.4844200469306088 0 0 0 0 -96.20026101737858 70.371228243063797 0 70.371228243063797 142.96031494143972 0 0 0 0 418.19531428300252 241.31481284352049 0 241.31481284352049 62.060883298323461 0 0 0 0 -2.7351585439034523 19.164957445677089 0 19.164957445677089 28.225667732386391 0 0 0 0 -83.564422157214722 116.18327624905942 0 116.18327624905942 49.359935393444175 0 0 0 0 61.436823629694118 -166.27546036227977 0 -166.27546036227977 125.47625490926293 0 0 0 0 737.39112010892859 52.402481538341817 0 52.402481538341817 -173.64962796550208 0 0 0 0 21.921709268954146 -128.25900664819892 0 -128.25900664819892 877.77214296416787 0 0 0 0 806.67041953417356 318.15508002034403 0 318.15508002034403 47.134607059258997 0 0 0 0 11.291036304746811 6.4421666442845691 0 6.4421666442845691 3.1288827297535988 0 0 0 0 861.74032169874408 506.18354972325869 0 506.18354972325869 474.59944653790444 0 0 0 0 115.10263320252852 453.7607706562012 0 453.7607706562012 1221.4804049821632 0 0 0 0 316.94880354103225 506.81366722791063 0 506.81366722791063 614.33328027177413 0 0 0 0 791.08155132039974 962.11614603587805 0 962.11614603587805 943.7029861221672 0 0 0 0 1532.0459218016913 637.68981632300165 0 637.68981632300165 136.61604508445453 0 0 0 0 -93.653819555052905 179.36088571005166 0 179.36088571005166 301.63361228194572 0 0 0 0 -41.079980309994426 182.95442818940865 0 182.95442818940865 818.60182486155827 0 0 0 0 81.042733780144772 395.38349988578375 0 395.38349988578375 417.88262541325093 0 0 0 0 263.93059801599884 581.6536779550006 0 581.6536779550006 590.29219749206823 0 0 0 0 71.089466034594807 413.21872456026176 0 413.21872456026176 393.81479207239852 0 0 0 0 -29.615840995725648 104.59948824754201 0 104.59948824754201 388.79974119938561 0 0 0 0 7.5660013917768083 354.69191925048517 0 354.69191925048517 340.25949284288072 0 0 0 0 157.76868877399102 391.51026518334038 0 391.51026518334038 147.95218563785602 0 0 0 0 275.00155105809245 541.89384555905417 0 541.89384555905417 336.24548976420192 0 0 0 0 285.06776432454717 468.85476570385254 0 468.85476570385254 131.26187178940745 0 0 0 0 68.401141257967538 502.70153024858791 0 502.70153024858791 182.70442008876125 0 0 0 0 150.2443814916187 555.27235224756441 0 555.27235224756441 145.29001586283687 0 0 0 0 463.80384857902391 216.12161725708756 0 216.12161725708756 49.158162737621751 0 0 0 0 1079.7695181462768 337.4300168784921 0 337.4300168784921 -24.431275864422787 0 0 0 0 504.44483950981521 556.66801106682396 0 556.66801106682396 183.31275049237956 0 0 0 0 528.25445491869323 727.75311976298508 0 727.75311976298508 461.64377472546767 0 0 0 0 338.08128743870475 492.99992355123686 0 492.99992355123686 258.16366261862277 0 0 0 0 294.65685303532518 486.81825491606651 0 486.81825491606651 161.50928650420974 0 0 0 0 477.19864669957678 324.71004671514493 0 324.71004671514493 19.653684357916063 0 0 0 0 653.56755592132322 376.49339881577544 0 376.49339881577544 34.048040346577181 0 0 0 0 514.71156300863368 184.73722687248301 0 184.73722687248301 21.699632683044911 0 0 0 0 343.16417541553892 -134.97258783505595 0 -134.97258783505595 55.128966427353589 0 0 0 0 -127.46474842683892 -41.409416950948071 0 -41.409416950948071 171.80637750477399 0 0 0 0 -110.10858700284598 127.78158195670596 0 127.78158195670596 -55.625692383728165 0 0 0 0 613.88477176282322 280.92803420624296 0 280.92803420624296 -313.20645935133507 0 0 0 0 221.25701452424255 607.32285491423318 0 607.32285491423318 1515.843940118928 0 0 0 0 2.4053596435395548 -0.39473470967057267 0 -0.39473470967057267 0.27226437642648094 0 0 0 0 525.01125967886765 425.44725296687102 0 425.44725296687102 2088.2690345171141 0 0 0 0 -24.661051642786475 35.666516142186317 0 35.666516142186317 19.473744203323772 0 0 0 0 -11.442326301399589 57.192907527351053 0 57.192907527351053 -17.354770415891835 0 0 0 0 -18.638189005461754 63.037989338893567 0 63.037989338893567 -18.072572392022266 0 0 0 0 -121.84531104074267 21.812511601478036 0 21.812511601478036 41.599389664776027 0 0 0 0 -10.751029967483106 22.204894147630149 0 22.204894147630149 -27.230211688059363 0 0 0 0 3.0353299297967169 69.983663047420123 0 69.983663047420123 -17.476016476681025 0 0 0 0 28.014772439692024 104.25575899712749 0 104.25575899712749 316.93748261152905 0 0 0 0 1.3205473760507402 3.6305705557088785 0 3.6305705557088785 0.55710955632785186 0 0 0 0 20.225577594756032 100.17299582953638 0 100.17299582953638 335.22637035998923 0 0 0 0 41.91775974848133 -94.218334655655781 0 -94.218334655655781 147.71402203631442 0 0 0 0 160.3208954898837 -60.304193366340769 0 -60.304193366340769 96.709745068950724 0 0 0 0 -3.2159590150734907 -4.4115092276482031 0 -4.4115092276482031 27.875658145541038 0 0 0 0 -66.234432896679209 -294.378149020602 0 -294.378149020602 -33.99976820214215 0 0 0 0 106.89711203308434 -144.50659990301938 0 -144.50659990301938 87.382511434101616 0 0 0 0 -60.585806557817705 -177.33542789585408 0 -177.33542789585408 132.45150127053057 0 0 0 0 3.0769341367030805 -3.6186825635804123 0 -3.6186825635804123 5.918070330430254 0 0 0 0 612.54340164608948 206.56420679820258 0 206.56420679820258 -227.92333427836274 0 0 0 0 330.08175215431947 680.92328002449176 0 680.92328002449176 689.37943900712708 0 0 0 0 -67.862895865087921 148.80763863464381 0 148.80763863464381 351.97769426587638 0 0 0 0 3.7313423110772419 109.03733843399732 0 109.03733843399732 322.04826285217132 0 0 0 0 257.90327928205807 39.397447599674706 0 39.397447599674706 -390.42681379710848 0 0 0 0 -176.0799058854227 -397.33309488356826 0 -397.33309488356826 -500.26604008764843 0 0 0 0 84.212171370105352 69.022510328595672 0 69.022510328595672 318.30328602735244 0 0 0 0 295.8148356860911 1407.4496704012145 0 1407.4496704012145 208.44873685934726 0 0 0 0 -945.66717208519367 87.0820860048334 0 87.0820860048334 701.99687932223605 0 0 0 0 521.62358016920189 626.92048746972796 0 626.92048746972796 522.96996657099407 0 0 0 0 674.30811363752582 353.164070000621 0 353.164070000621 59.92094900009397 0 0 0 0 569.19387068021206 373.2800832384446 0 373.2800832384446 238.55003666303674 0 0 0 0 1077.2559041569039 618.72032778389803 0 618.72032778389803 206.8276638410025 0 0 0 0 75.915058981703623 152.65379401785503 0 152.65379401785503 749.83147076680325 0 0 0 0 63.506912434921105 57.599725002257401 0 57.599725002257401 370.7076336790924 0 0 0 0 27.43794721274935 171.63617041019916 0 171.63617041019916 462.49956629440567 0 0 0 0 312.24210424113608 362.46645602357785 0 362.46645602357785 256.15834532486042 0 0 0 0 354.78636253933655 279.96368841181175 0 279.96368841181175 143.03054953600804 0 0 0 0 297.42095830238395 304.34092648764636 0 304.34092648764636 180.21138266010894 0 0 0 0 430.7428927930232 362.2720874032857 0 362.2720874032857 -112.21602139310562 0 0 0 0 422.68317203477636 357.21244409978681 0 357.21244409978681 53.923146793193155 0 0 0 0 532.84845307614887 406.52302173751013 0 406.52302173751013 74.933587253253791 0 0 0 0 449.02805784783413 227.6811599393186 0 227.6811599393186 55.353574545806623 0 0 0 0 277.52365719435875 178.29313935665323 0 178.29313935665323 35.467579533586104 0 0 0 0 180.30885297444911 313.10140460893308 0 313.10140460893308 59.376510036785476 0 0 0 0 389.29278692978369 366.61235052069696 0 366.61235052069696 72.894981465746241 0 0 0 0 261.43238851947262 503.90710228085572 0 503.90710228085572 473.70437382428645 0 0 0 0 465.84824183815363 635.97954282329738 0 635.97954282329738 90.928967442532667 0 0 0 0 659.73991734349147 283.0802229803312 0 283.0802229803312 116.74037300149212 0 0 0 0 172.40734687336953 115.69582659069783 0 115.69582659069783 487.07892471957484 0 0 0 0 63.18739805311634 54.186665401723076 0 54.186665401723076 93.210012139606988 0 0 0 0 148.42256055874168 285.39070826877287 0 285.39070826877287 184.59791909903652 0 0 0 0 167.74847132296418 188.96941265787245 0 188.96941265787245 176.41920912652859 0 0 0 0 -255.23688180662884 798.21102415849555 0 798.21102415849555 -926.46312729915007 0 0 0 0 7.0305911657007059 6.1228849500214011 0 6.1228849500214011 4.2217307342590971 0 0 0 0 429.26040050195661 355.18314149260914 0 355.18314149260914 -651.62899349451391 0 0 0 0 -574.62039688102959 71.033152983167383 0 71.033152983167383 603.29464516099688 0 0 0 0 512.36677830500412 569.77348535167766 0 569.77348535167766 -139.62927136765757 0 0 0 0 382.63803670824564 978.85677344907162 0 978.85677344907162 304.89265225812142 0 0 0 0 -243.01434155166771 484.62736661010831 0 484.62736661010831 697.08026079019328 0 0 0 0 -7.1640567451065067 1.232190984216345 0 1.232190984216345 1.822185152558788 0 0 0 0 -50.948104108738335 225.6116930466851 0 225.6116930466851 390.5866157053315 0 0 0 0 85.769079038411292 577.36177633782063 0 577.36177633782063 275.36438398202063 0 0 0 0 -265.39594316286457 595.57782826187122 0 595.57782826187122 277.01175266954669 0 0 0 0 174.71545076342591 397.75801440303985 0 397.75801440303985 -5.7702746545037371 0 0 0 0 -67.684574733233603 396.14219142471484 0 396.14219142471484 -53.688601617228414 0 0 0 0 24.364800980685686 423.57754165598999 0 423.57754165598999 -45.700200744024187 0 0 0 0 -43.303584301738738 19.515790126102274 0 19.515790126102274 162.61302201650687 0 0 0 0 -59.458039406606986 105.25660108813099 0 105.25660108813099 225.77227478676468 0 0 0 0 -0.88211908625817159 360.49884201375971 0 360.49884201375971 110.5755744277435 0 0 0 0 91.596574788055477 162.44099719670976 0 162.44099719670976 112.43020926445752 0 0 0 0 -155.15772240278966 570.37551154966786 0 570.37551154966786 -81.143072313951052 0 0 0 0 -264.84819657412663 229.42895308474908 0 229.42895308474908 126.6654465314632 0 0 0 0 -313.05779076183535 -15.816910721277964 0 -15.816910721277964 172.37907163035561 0 0 0 0 -225.54228986552152 183.90738259084719 0 183.90738259084719 179.3449904085137 0 0 0 0 -38.065034642198952 25.758464473807635 0 25.758464473807635 148.32422301670158 0 0 0 0 215.54340982367285 50.388508597508917 0 50.388508597508917 20.49630460298431 0 0 0 0 -39.917133791939705 17.954765202910494 0 17.954765202910494 162.71061972345342 0 0 0 0 -60.596354301556858 46.563340826018248 0 46.563340826018248 162.23432077784855 0 0 0 0 -57.494258043079753 33.845609719066488 0 33.845609719066488 197.8768542453945 0 0 0 0 -663.50831760035874 -1070.0438870113564 0 -1070.0438870113564 971.10666860117681 0 0 0 0 -45.630244962983951 47.783849087955531 0 47.783849087955531 98.771495399202792 0 0 0 0 2110.4353538574951 485.4429908034781 0 485.4429908034781 -1085.3650478897944 0 0 0 0 2061.4047365265728 3344.8208176913231 0 3344.8208176913231 2087.9501675649462 0 0 0 0 -39.398885040624592 63.219427934040759 0 63.219427934040759 74.296027018207226 0 0 0 0 1280.027136515318 1508.5927684241497 0 1508.5927684241497 879.31847630423727 0 0 0 0 2415.3304849621272 3328.8474277170153 0 3328.8474277170153 4614.5144886830622 0 0 0 0 7.9829472628181772 7.7597834639075565 0 7.7597834639075565 14.304993750051082 0 0 0 0 784.79344020766189 -350.08817909595382 0 -350.08817909595382 -3298.1484918200586 0 0 0 0 1328.2118478651512 3848.3830610083642 0 3848.3830610083642 4433.520259082482 0 0 0 0 5.0192429573416231 -0.65176388314357325 0 -0.65176388314357325 4.551807511516424 0 0 0 0 760.04414193638843 1726.914832285061 0 1726.914832285061 4481.4866074182137 0 0 0 0 936.67697148625757 2492.5070585977846 0 2492.5070585977846 7797.1435886623276 0 0 0 0 3462.8444241007855 2992.4783580459771 0 2992.4783580459771 4011.1130628624742 0 0 0 0 2665.183902456331 746.95651222394554 0 746.95651222394554 3241.2175800636342 0 0 0 0 -2.2313785824324675 -8.9880290720959426 0 -8.9880290720959426 29.548363540562441 0 0 0 0 69.748788833560781 57.583983530100326 0 57.583983530100326 27.088390290497916 0 0 0 0 60.409943293041579 528.22888807686104 0 528.22888807686104 -1016.8591805239776 0 0 0 0 59.856129508124468 85.425789896085462 0 85.425789896085462 112.96257645577543 0 0 0 0 643.63867753308523 2085.858729574988 0 2085.858729574988 3585.0796487226235 0 0 0 0 1113.3537032856548 1409.8277298181838 0 1409.8277298181838 1828.7501183181412 0 0 0 0 919.529253984344 1806.4961931428863 0 1806.4961931428863 1465.9640632615774 0 0 0 0 543.24246614209414 1088.2967703364789 0 1088.2967703364789 3562.7822073147809 0 0 0 0 1160.7551851739786 2308.6220664365883 0 2308.6220664365883 3142.1496451900084 0 0 0 0 1207.5179722018995 1248.8429963507151 0 1248.8429963507151 3102.2603269868305 0 0 0 0 2517.1131159230845 1219.3271062103104 0 1219.3271062103104 1336.6792689032918 0 0 0 0 2227.2610579410116 1516.807983716044 0 1516.807983716044 2818.4329409331949 0 0 0 0 1553.731565434512 2429.5488395883112 0 2429.5488395883112 3078.2498125562706 0 0 0 0 1036.9860781847435 1427.6555195710916 0 1427.6555195710916 2908.2987844353265 0 0 0 0 313.53291155638271 72.80530260172327 0 72.80530260172327 1441.1267824269476 0 0 0 0 376.26680711470328 -308.41678319602715 0 -308.41678319602715 -1165.8086552507475 0 0 0 0 22.181812297051238 634.64372772732531 0 634.64372772732531 503.58868489407996 0 0 0 0 4.6357711581818597 -1.4521610354636589 0 -1.4521610354636589 -0.62711939103485648 0 0 0 0 889.722594493413 298.31766539800174 0 298.31766539800174 98.637040963182699 0 0 0 0 -225.18717941030678 761.150487857386 0 761.150487857386 1190.2387961963616 0 0 0 0 48.714136351341949 46.266699447526719 0 46.266699447526719 67.03795728855107 0 0 0 0 33.714228523666272 11.52280099897524 0 11.52280099897524 -1.6463428404510279 0 0 0 0 -23.126663238259425 48.354332813992187 0 48.354332813992187 58.463912206185341 0 0 0 0 -31.422594982250423 20.954086458933574 0 20.954086458933574 39.538381430993709 0 0 0 0 43.592324340628693 45.906430768544055 0 45.906430768544055 96.272318739882735 0 0 0 0 -15.442206673863698 33.681860731930641 0 33.681860731930641 57.224841258020142 0 0 0 0 12.0694914431478 50.361811843725611 0 50.361811843725611 59.644688262467142 0 0 0 0 -35.557292547979159 39.332549273574841 0 39.332549273574841 110.0484452740202 0 0 0 0 -43.377806341493852 33.82118772150352 0 33.82118772150352 110.98618913670725 0 0 0 0 18.293385721895902 11.817186304251663 0 11.817186304251663 98.782571308300248 0 0 0 0 -0.33598086971323937 169.24966371824485 0 169.24966371824485 139.17982582687182 0 0 0 0 27.636616622095971 87.179228386847171 0 87.179228386847171 65.228733342733904 0 0 0 0 3.2406717385490111 13.322989372594193 0 13.322989372594193 20.008598922255182 0 0 0 0 -95.536114041795372 -313.12557481126714 0 -313.12557481126714 -286.95856580961481 0 0 0 0 -136.87890582498949 -329.54835509100667 0 -329.54835509100667 -97.573890759726055 0 0 0 0 747.11142217516317 444.32691672809415 0 444.32691672809415 -793.90751647533034 0 0 0 0 25.318926001874132 36.592536693058179 0 36.592536693058179 13.261671482519674 0 0 0 0 1289.5765394886694 -79.972852581569896 0 -79.972852581569896 -354.15177068908088 0 0 0 0 -246.26416164527473 1193.9903111282183 0 1193.9903111282183 -839.5337168276892 0 0 0 0 -1162.7363668432763 -826.90749946542473 0 -826.90749946542473 -1204.4156740040489 0 0 0 0 50.391943219588427 10.943947642533118 0 10.943947642533118 -10.558150000898223 0 0 0 0 -2.8059553323473665 25.282894952943025 0 25.282894952943025 -34.127025981399129 0 0 0 0 47.355265614161908 97.345439569253358 0 97.345439569253358 -117.17110259602123 0 0 0 0 181.03738075705041 314.5420581907847 0 314.5420581907847 95.963872330336017 0 0 0 0 -797.95706529804374 376.63028662052056 0 376.63028662052056 1549.6335487423712 0 0 0 0 -316.19041326042134 476.24958190513644 0 476.24958190513644 -1609.1423142181193 0 0 0 0 -13.014793484394175 -4.767371719606416 0 -4.767371719606416 -3.5389347361920223 0 0 0 0 -596.76168619950113 2126.7473011072416 0 2126.7473011072416 -2836.008561367631 0 0 0 0 -1969.9363506285372 662.55742721440129 0 662.55742721440129 40.984213134011952 0 0 0 0 -376.51249197106517 559.34605761233252 0 559.34605761233252 -799.1913574330074 0 0 0 0 -1250.426972406869 1274.7818551918172 0 1274.7818551918172 161.10523117846969 0 0 0 0 -12.443092586152872 13.002096942139234 0 13.002096942139234 -13.087618171131936 0 0 0 0 -1222.9048135559974 1693.1706810122105 0 1693.1706810122105 322.85892481945484 0 0 0 0 -321.95619468197401 -11.856888616195647 0 -11.856888616195647 88.365327231877018 0 0 0 0 -261.95164916689828 -572.24986010707289 0 -572.24986010707289 -2058.5531221273195 0 0 0 0 604.56337263818932 -411.54366089118776 0 -411.54366089118776 -627.62946816932526 0 0 0 0 -813.30019297183026 -423.4917933148281 0 -423.4917933148281 358.84404208230188 0 0 0 0 1032.0716589952353 500.41563183621656 0 500.41563183621656 -141.98869413590819 0 0 0 0 -21.917824104944884 -118.67276188572941 0 -118.67276188572941 155.48534324224602 0 0 0 0 -22.098039398613807 30.842239437251699 0 30.842239437251699 -45.913808408486027 0 0 0 0 1.5369447545680899 3.3277425349224004 0 3.3277425349224004 3.8875296345693471 0 0 0 0 2403.833262047785 16.860840931934945 0 16.860840931934945 -1031.4182835176034 0 0 0 0 1259.6670974938534 666.99971118546819 0 666.99971118546819 -175.68842047225371 0 0 0 0 -119.38393750626165 142.16544734677518 0 142.16544734677518 -145.63756084497436 0 0 0 0 954.95007967222773 715.29469567481283 0 715.29469567481283 -287.38599575877743 0 0 0 0 -5.5473969516241528 11.577532905815637 0 11.577532905815637 17.966461730957462 0 0 0 0 814.98239972017109 532.50288795160031 0 532.50288795160031 -1626.8998505498457 0 0 0 0 969.33140952950635 -112.10642948314126 0 -112.10642948314126 579.91999095352367 0 0 0 0 125.49116737356235 1347.8948312774592 0 1347.8948312774592 -3004.0189695797199 0 0 0 0 344.213286249058 1923.6036878670493 0 1923.6036878670493 -2475.1058377005829 0 0 0 0 251.71330696782388 595.34916583420636 0 595.34916583420636 -934.7846014398383 0 0 0 0 -457.75215182610555 2280.922297367586 0 2280.922297367586 -1514.459587423793 0 0 0 0 13.658411160983746 14.341162500344652 0 14.341162500344652 -0.47553602813292173 0 0 0 0 1.4812437703543395 11.083301963433939 0 11.083301963433939 0.93626603779998874 0 0 0 0 -241.97675865374913 1621.2387272951019 0 1621.2387272951019 2719.8716441544311 0 0 0 0 -1832.8707168863766 3438.6601603095478 0 3438.6601603095478 -2588.8490284799354 0 0 0 0 1417.5862230235434 1633.6856293605742 0 1633.6856293605742 1688.0093076921985 0 0 0 0 87.954013948539796 2048.3008081534063 0 2048.3008081534063 -2395.6467190012045 0 0 0 0 -1270.449925075096 2011.9690802838522 0 2011.9690802838522 3373.4362105109321 0 0 0 0 -1543.8744302214909 268.37400066540431 0 268.37400066540431 -4003.4869407704336 0 0 0 0 1957.0240310601075 4053.44201464465 0 4053.44201464465 -3132.4356853535865 0 0 0 0 -8.4239082866255615 6.2157316293637166 0 6.2157316293637166 8.8689509314496675 0 0 0 0 245.31429936707718 848.95936233063912 0 848.95936233063912 1401.9276697631358 0 0 0 0 -155.82749588808656 177.50935900550394 0 177.50935900550394 -153.77141672836296 0 0 0 0 -27.665622959796153 3.7803149716202569 0 3.7803149716202569 10.492618669613606 0 0 0 0 -199.16512370887722 127.87042118668069 0 127.87042118668069 -83.760444439718412 0 0 0 0 -133.76711186686589 186.11520223228763 0 186.11520223228763 -238.27521416853415 0 0 0 0 -324.69140785549462 319.01410972650046 0 319.01410972650046 -243.22193693106965 0 0 0 0 -242.45940446564964 283.34139579485509 0 283.34139579485509 -293.93145133047074 0 0 0 0 -293.12898574313294 258.94387304505653 0 258.94387304505653 -110.33101367100608 0 0 0 0 -245.2597316744359 171.40863870109388 0 171.40863870109388 -8.9737755860041943 0 0 0 0 -185.98293409824328 727.76995995843208 0 727.76995995843208 -40.617964300425228 0 0 0 0 -829.29498114273588 403.70239731195841 0 403.70239731195841 -83.609261883197178 0 0 0 0 -99.527292040520933 464.94804916443923 0 464.94804916443923 289.01797192831145 0 0 0 0 -305.88010529166058 15.131360370942275 0 15.131360370942275 579.95976952413548 0 0 0 0 -176.34916084702127 -190.67343043990331 0 -190.67343043990331 459.62124531003792 0 0 0 0 0.85907955658436208 4.7010502532636309 0 4.7010502532636309 7.5540040043027972 0 0 0 0 -119.36352592044022 394.09713851624338 0 394.09713851624338 -342.52400954029508 0 0 0 0 -491.60576528464662 368.28934967554233 0 368.28934967554233 -11.658810938123224 0 0 0 0 -23.711313057036023 104.40254692684175 0 104.40254692684175 -57.858916205837886 0 0 0 0 -127.21777398987615 219.01467767399663 0 219.01467767399663 213.33512344373594 0 0 0 0 -112.32831530101976 -46.52884286983317 0 -46.52884286983317 156.21466431513545 0 0 0 0 -155.67613670887658 173.63637282839045 0 173.63637282839045 -52.667574478633469 0 0 0 0 -99.298293312174792 -82.536685301904072 0 -82.536685301904072 255.20837659141398 0 0 0 0 -171.88611494452925 -55.130447195762827 0 -55.130447195762827 309.40543532493029 0 0 0 0 -0.54350088226887294 41.203279006341106 0 41.203279006341106 58.548906098096623 0 0 0 0 -180.7647742551344 28.68914166752802 0 28.68914166752802 314.45271991782647 0 0 0 0 -162.79082327208016 -19.814302778408091 0 -19.814302778408091 407.62418030909612 0 0 0 0 17.47748306527501 -36.578858346503694 0 -36.578858346503694 326.52524404281576 0 0 0 0 -152.92337624282663 27.296005962243726 0 27.296005962243726 334.27232852071756 0 0 0 0 -2.2812961932469875 2.4465590964949229 0 2.4465590964949229 14.772748987339291 0 0 0 0 -193.13629829054116 -55.862357396828884 0 -55.862357396828884 335.44986649111888 0 0 0 0 -358.57867746718512 188.26400123064559 0 188.26400123064559 259.64152704608568 0 0 0 0 -36.922852759409579 65.667019087757581 0 65.667019087757581 44.917490588466535 0 0 0 0 -13.33605477367233 38.001533841102443 0 38.001533841102443 33.147242094049766 0 0 0 0 20.954196605292964 126.31753075878078 0 126.31753075878078 254.86780485068448 0 0 0 0 -34.572547665920865 106.25417179641227 0 106.25417179641227 3.1123038478363014 0 0 0 0 -23.580752171488712 106.17595384437209 0 106.17595384437209 -40.352722779180112 0 0 0 0 0.092484217498167709 -260.15529459082154 0 -260.15529459082154 614.12865258994862 0 0 0 0 2.9672959838796586 4.9060918561410176 0 4.9060918561410176 -12.692921235670511 0 0 0 0 -82.552927584263671 -146.63994821946108 0 -146.63994821946108 347.64770517834222 0 0 0 0 44.188419761871046 -135.99865221945947 0 -135.99865221945947 122.62482725600421 0 0 0 0 -205.9017699972319 101.45020741205735 0 101.45020741205735 534.62345556477339 0 0 0 0 -112.096412417588 -70.887078982181265 0 -70.887078982181265 119.05378363460659 0 0 0 0 -648.92242676229944 -371.82854008789582 0 -371.82854008789582 13.545589975445182 0 0 0 0 275.5948816450109 -347.72199107161214 0 -347.72199107161214 -934.0292395628785 0 0 0 0 6.8915745742224175 12.872983979019523 0 12.872983979019523 15.905737881519997 0 0 0 0 -316.83025973113399 365.30480710818301 0 365.30480710818301 -276.26401971095765 0 0 0 0 -302.9026921591576 308.01671764129787 0 308.01671764129787 -267.92092968567476 0 0 0 0 -227.34255414539075 315.37205428801281 0 315.37205428801281 -371.8184714019153 0 0 0 0 -298.56158215226606 274.18218213829823 0 274.18218213829823 -331.93712788506673 0 0 0 0 -287.04202935477588 314.04237016266052 0 314.04237016266052 -326.9987182738987 0 0 0 0 10.922422220077209 14.463670496724433 0 14.463670496724433 14.57888871970934 0 0 0 0 -330.42354854703444 272.91409313732947 0 272.91409313732947 -331.40485508111851 0 0 0 0 -351.14880594583883 307.91268635997767 0 307.91268635997767 -326.7959369977516 0 0 0 0 -179.01829484059999 -106.63857106793512 0 -106.63857106793512 620.62357251318463 0 0 0 0 -18.93005400359101 2.2878548325403898 0 2.2878548325403898 3.5712221934031518 0 0 0 0 -290.61217634756576 372.79688432674448 0 372.79688432674448 -408.09857933345847 0 0 0 0 191.08741917207954 50.946353126619215 0 50.946353126619215 214.17253796041405 0 0 0 0 -169.61991323027178 -205.57142775043758 0 -205.57142775043758 1277.615095192712 0 0 0 0 99.634789532723516 414.54201434101924 0 414.54201434101924 -160.00216565520896 0 0 0 0 22.646472469634318 481.98017494170563 0 481.98017494170563 -226.5681643818607 0 0 0 0 -232.87667618699197 601.89973024356004 0 601.89973024356004 -95.161876603077872 0 0 0 0 -34.866474691358235 643.75350934774178 0 643.75350934774178 -343.43636851419433 0 0 0 0 -140.50533426902621 194.13108761491458 0 194.13108761491458 309.25541567368782 0 0 0 0 -64.485836179836951 391.98373780866086 0 391.98373780866086 -355.49460199505847 0 0 0 0 -539.54368752058872 296.3555391998525 0 296.3555391998525 -294.12967339869283 0 0 0 0 -36.122328735677002 678.83645764480207 0 678.83645764480207 -599.84535212770425 0 0 0 0 -1655.1789308065054 410.14624418057065 0 410.14624418057065 -199.94593778601393 0 0 0 0 -552.26096105582235 709.53288305739648 0 709.53288305739648 -526.4588848838539 0 0 0 0 -1450.241414065571 920.96226901655609 0 920.96226901655609 -274.38418536205427 0 0 0 0 -1210.7334947847885 521.45151209798132 0 521.45151209798132 -193.15523938807428 0 0 0 0 -792.29373670658242 519.09928933624178 0 519.09928933624178 -348.67877823036542 0 0 0 0 -2344.244833314453 782.47704171708028 0 782.47704171708028 -250.02660109601129 0 0 0 0 -1154.3754448381605 1235.9839752521675 0 1235.9839752521675 -669.70687255686789 0 0 0 0 -382.60947212094834 876.17802104993279 0 876.17802104993279 -733.24676243506838 0 0 0 0 592.73468812192004 168.80866603045797 0 168.80866603045797 -221.55190671341552 0 0 0 0 -98.769265280887339 278.3012690029027 0 278.3012690029027 -605.99229119296069 0 0 0 0 -412.6415936787489 168.16896479333809 0 168.16896479333809 159.14403425119963 0 0 0 0 34.708977268030139 15.852217034433124 0 15.852217034433124 98.610624982960871 0 0 0 0 -32.513080422897474 69.397648578822555 0 69.397648578822555 237.66936349983189 0 0 0 0 -245.58366097699218 196.87579444924086 0 196.87579444924086 174.19718053067481 0 0 0 0 -7.148657672930014 14.609759694935931 0 14.609759694935931 23.493137246899096 0 0 0 0 -4456.9039681177019 -387.73098060606708 0 -387.73098060606708 1620.8204363315017 0 0 0 0 -970.12666662396805 1550.2775727015651 0 1550.2775727015651 -702.05356863765337 0 0 0 0 -2598.6646955293836 -40.269850644675898 0 -40.269850644675898 70.357961529858585 0 0 0 0 -462.71827195426158 -1129.5267148298553 0 -1129.5267148298553 1218.3729196085478 0 0 0 0 -2631.6474201237797 780.93006829677324 0 780.93006829677324 566.74430871321238 0 0 0 0 1093.973940487509 2488.9191292791547 0 2488.9191292791547 948.79316554096295 0 0 0 0 100.01939222968213 2238.597135967233 0 2238.597135967233 906.32230384912691 0 0 0 0 -809.6557220235336 1056.857484703236 0 1056.857484703236 285.94569996011705 0 0 0 0 -642.87338921693663 870.46714663049352 0 870.46714663049352 -160.47714960281883 0 0 0 0 44.569076739433513 785.38985906028392 0 785.38985906028392 -1953.4557755911956 0 0 0 0 -118.90526092085202 736.02891544479462 0 736.02891544479462 -1010.2092580405879 0 0 0 0 -2.5699999301213792 1.8364706359325922 0 1.8364706359325922 8.4992080706410889 0 0 0 0 -1322.5274882047233 1903.1997865195663 0 1903.1997865195663 -2354.2643251147674 0 0 0 0 -4464.7954896604242 109.03331523888301 0 109.03331523888301 -4302.3292184276215 0 0 0 0 276.12635033204424 528.30838124069487 0 528.30838124069487 -1915.6228510287065 0 0 0 0 -1617.211172877418 984.03451391779527 0 984.03451391779527 -757.23790052424738 0 0 0 0 -3107.3746736387911 2413.231210801936 0 2413.231210801936 -1528.8619246071758 0 0 0 0 -5085.4880209266339 792.40027968789582 0 792.40027968789582 174.61872738110105 0 0 0 0 -3943.5632448332217 3287.1601037080582 0 3287.1601037080582 2081.3829536699923 0 0 0 0 -4722.4163043089065 -577.68381404044339 0 -577.68381404044339 262.18587062832376 0 0 0 0 -6.6147320747208553 9.8891610480655991 0 9.8891610480655991 -21.230722436798686 0 0 0 0 -1203.0006344680405 -10.419182663736137 0 -10.419182663736137 208.79326596146711 0 0 0 0 -1639.6567057089196 592.52071602292563 0 592.52071602292563 73.035490791957272 0 0 0 0 -1721.2759003679967 796.85355097098 0 796.85355097098 -13.464398426847765 0 0 0 0 -728.81409260374676 488.46246215733299 0 488.46246215733299 -213.40235036884405 0 0 0 0 157.18243112228811 69.603509909655259 0 69.603509909655259 9.3962088202788436 0 0 0 0 -30.279415687691653 57.527412892442953 0 57.527412892442953 51.102926823197777 0 0 0 0 -29.631262990120305 49.772914202802191 0 49.772914202802191 4.3442715919669865 0 0 0 0 -30.318640966385694 32.540866381708469 0 32.540866381708469 0.38150865103679621 0 0 0 0 19.002749118364591 -74.37332307349061 0 -74.37332307349061 -108.17590614267647 0 0 0 0 -10.184167729523686 40.163686212720563 0 40.163686212720563 -45.988413939563557 0 0 0 0 -4.4292416644219372 27.759045141267407 0 27.759045141267407 47.684734999628716 0 0 0 0 -82.364468685456814 125.32803527457145 0 125.32803527457145 149.17068248345095 0 0 0 0 -151.8132850177517 -364.27027804094269 0 -364.27027804094269 -336.33361615246395 0 0 0 0 588.88586060029047 141.32768728412884 0 141.32768728412884 17.750844104026328 0 0 0 0 523.54482274677866 359.73165623476962 0 359.73165623476962 189.91137450798124 0 0 0 0 1066.6450240392151 133.89346837482481 0 133.89346837482481 -23.532658440810337 0 0 0 0 1644.8264932178063 642.02094138837856 0 642.02094138837856 -129.12342251049591 0 0 0 0 1017.4391178187143 540.38796399531566 0 540.38796399531566 -127.61583523976151 0 0 0 0 543.24050593847642 314.15254445821847 0 314.15254445821847 -28.597138881319552 0 0 0 0 254.39711137244012 393.90372395252052 0 393.90372395252052 -47.676012767045904 0 0 0 0 557.84795842911444 915.25588316918856 0 915.25588316918856 -52.054134574864293 0 0 0 0 -1301.6303709798194 -21.565699529912763 0 -21.565699529912763 841.36437227792339 0 0 0 0 -1196.6199732845416 912.02688044818933 0 912.02688044818933 199.76633212054003 0 0 0 0 -267.36367034655268 58.830693391944806 0 58.830693391944806 192.12073110721758 0 0 0 0 -144.81805697888194 299.07836895644141 0 299.07836895644141 519.23221736082633 0 0 0 0 34.566925698076375 169.58746361840895 0 169.58746361840895 162.42570663201695 0 0 0 0 -143.56859496532525 306.51048853853808 0 306.51048853853808 99.694267193219275 0 0 0 0 26.662142459768802 -247.26678770995932 0 -247.26678770995932 242.15564057702431 0 0 0 0 -5.8623587338821892 0.6436119569834311 0 0.6436119569834311 12.88184310432699 0 0 0 0 -241.67493897469831 1607.3689845813933 0 1607.3689845813933 1670.7024220171515 0 0 0 0 -14.855535014445195 47.031657622901548 0 47.031657622901548 -34.943682927849295 0 0 0 0 -379.27401989331702 1357.6876006373641 0 1357.6876006373641 1762.0178699979624 0 0 0 0 168.05104435412795 -254.35027589385209 0 -254.35027589385209 406.23073095989821 0 0 0 0 -13.477030720259506 17.66681627552893 0 17.66681627552893 23.857903429064947 0 0 0 0 -639.93291039799806 1752.3086724644345 0 1752.3086724644345 1310.7154201716476 0 0 0 0 247.14570118443226 1756.5057157690098 0 1756.5057157690098 -270.12933639665971 0 0 0 0 1007.0864661986998 765.15804948117147 0 765.15804948117147 958.6734917259746 0 0 0 0 1577.0952643398341 1100.8721523538807 0 1100.8721523538807 -427.94499080784681 0 0 0 0 -0.14401750105513855 1.5100212446119912 0 1.5100212446119912 -16.878948064618839 0 0 0 0 1625.9023759281299 818.08374048640781 0 818.08374048640781 230.26172537032835 0 0 0 0 1217.0110248233541 424.55255102884257 0 424.55255102884257 -107.52348078903742 0 0 0 0 3348.4074760908406 355.64598699957787 0 355.64598699957787 -83.063182400617734 0 0 0 0 3.7632682490688936 4.047690213618381 0 4.047690213618381 19.113940769720017 0 0 0 0 1829.1336262464902 1660.6276187171679 0 1660.6276187171679 1015.1594885679078 0 0 0 0 15.311723372520646 1688.7527603147701 0 1688.7527603147701 1280.176681123492 0 0 0 0 385.7224826329475 51.203532374889619 0 51.203532374889619 1162.0856551589968 0 0 0 0 605.37814597458055 50.942038229164609 0 50.942038229164609 -140.46234330831112 0 0 0 0 -297.65811471210691 -107.95709624853953 0 -107.95709624853953 650.06653052235197 0 0 0 0 244.48673071234225 78.421027221709664 0 78.421027221709664 101.48203058170657 0 0 0 0 19.977694234919909 109.33154571931664 0 109.33154571931664 17.7105232035683 0 0 0 0 -151.43231262834161 331.37060871928406 0 331.37060871928406 -50.119684477516785 0 0 0 0 -37.619062876093153 31.681541283229848 0 31.681541283229848 -10.040875544074026 0 0 0 0 48.840151608950691 64.641213263195823 0 64.641213263195823 -21.982722396176541 0 0 0 0 -5.0864440096574981 121.77283503551007 0 121.77283503551007 70.638854560165782 0 0 0 0 -430.12430643691914 282.12139333318919 0 282.12139333318919 43.442982870852575 0 0 0 0 26.074414165021153 77.561482853852795 0 77.561482853852795 29.404995567208971 0 0 0 0 48.683635644236347 57.752007760063861 0 57.752007760063861 -14.672548556671245 0 0 0 0 21.189790172669746 77.042420845362358 0 77.042420845362358 -20.046664725661685 0 0 0 0 20.216795525011548 109.9678865239548 0 109.9678865239548 4.7977569381473586 0 0 0 0 39.744037361795314 51.330941181529283 0 51.330941181529283 50.101676504281045 0 0 0 0 25.788943080930039 81.785034460990573 0 81.785034460990573 -26.360693450071267 0 0 0 0 19.714541396475397 69.814829941962671 0 69.814829941962671 -49.371558839800855 0 0 0 0 18.865533073892948 102.68003423623122 0 102.68003423623122 -30.955040072934935 0 0 0 0 23.346521006341515 17.872744011737673 0 17.872744011737673 15.29335998401281 0 0 0 0 143.03993498213094 548.84933822898165 0 548.84933822898165 54.106211915895983 0 0 0 0 149.07331246571448 135.38426689439439 0 135.38426689439439 117.92041404439078 0 0 0 0 30.836623919009554 98.893823124989865 0 98.893823124989865 55.297468724001135 0 0 0 0 -194.81259082004544 3.9358604904336971 0 3.9358604904336971 156.02269812725717 0 0 0 0 83.668911687447689 67.853250973988906 0 67.853250973988906 -46.061386272587697 0 0 0 0 10.00630906516524 9.7203930747978724 0 9.7203930747978724 4.0614202651836706 0 0 0 0 179.42767254749197 171.55768725873349 0 171.55768725873349 89.390490708348807 0 0 0 0 -18.342649319300705 48.067807877216694 0 48.067807877216694 0.3084800423483216 0 0 0 0 -54.694581219606334 -9.7865395082626492 0 -9.7865395082626492 55.301738264737651 0 0 0 0 5.4619758916669525 254.27560286612425 0 254.27560286612425 128.0639509996945 0 0 0 0 104.55822562759568 163.20683847363398 0 163.20683847363398 14.922289901602198 0 0 0 0 -8.00453630334232 99.22881501368829 0 99.22881501368829 112.50909873016644 0 0 0 0 78.444107069226447 80.884746742449352 0 80.884746742449352 134.95336688077623 0 0 0 0 194.51196325430647 56.594224134467368 0 56.594224134467368 138.46340241118742 0 0 0 0 -61.637307612749282 55.715181459992891 0 55.715181459992891 211.81832461699378 0 0 0 0 118.51922221659333 119.99746940901969 0 119.99746940901969 -37.442161469478378 0 0 0 0 -18.215905996682167 2.6395022652273497 0 2.6395022652273497 12.64817934848935 0 0 0 0 19.515839289088035 134.43434919710126 0 134.43434919710126 158.21441308776411 0 0 0 0 -13.50263036911943 10.125416104708716 0 10.125416104708716 16.17113515138405 0 0 0 0 39.531365372989967 118.00783659896115 0 118.00783659896115 101.36148675223376 0 0 0 0 -29.463108157432998 51.286298964130935 0 51.286298964130935 -11.278269756259572 0 0 0 0 -11.811269730256754 98.469041075077257 0 98.469041075077257 77.39490135557935 0 0 0 0 -121.45164219081926 105.6773524829332 0 105.6773524829332 141.33246169360791 0 0 0 0 35.714428552437312 104.32657102292978 0 104.32657102292978 58.241151723646908 0 0 0 0 -26.623180473503169 55.754247927217655 0 55.754247927217655 10.962286097401572 0 0 0 0 -89.291959396332999 41.449998267090173 0 41.449998267090173 74.403935987617444 0 0 0 0 15.116433290861096 178.22308763874207 0 178.22308763874207 181.42890494228777 0 0 0 0 2.5435775578516768 89.021274204347719 0 89.021274204347719 67.809955836724839 0 0 0 0 -64.689792286957527 23.303472967117614 0 23.303472967117614 142.66267437020724 0 0 0 0 -51.16401807362432 55.058585756081925 0 55.058585756081925 63.147395837932976 0 0 0 0 43.510779632502818 220.41569987283219 0 220.41569987283219 68.310645073463093 0 0 0 0 -417.87202041870842 389.13198817192097 0 389.13198817192097 306.18599309977981 0 0 0 0 -545.00113085221938 -135.7701061342359 0 -135.7701061342359 374.65299697707087 0 0 0 0 -176.32871605862601 21.080247844991391 0 21.080247844991391 93.888428186015517 0 0 0 0 -16.867518870314598 -179.91906577898044 0 -179.91906577898044 300.41819787054555 0 0 0 0 -148.56957434318974 86.876176682962978 0 86.876176682962978 200.43837025089761 0 0 0 0 -33.886785163485911 53.994003294314098 0 53.994003294314098 29.209281488467241 0 0 0 0 -71.747916062204922 26.214516231199653 0 26.214516231199653 22.119136541248221 0 0 0 0 -887.75942761354599 738.52086702332781 0 738.52086702332781 -584.26350399628063 0 0 0 0 -13.957946522113822 -0.1948192826457813 0 -0.1948192826457813 0.084978811665028964 0 0 0 0 -452.52663785069944 -383.23316374744536 0 -383.23316374744536 -361.57852156757144 0 0 0 0 -9.1204820049487374 4.2014114752265144 0 4.2014114752265144 -1.6220499144605185 0 0 0 0 -1033.5860258363218 -241.1854224937606 0 -241.1854224937606 930.14939856323326 0 0 0 0 -11.321582491015533 0.46668003579802075 0 0.46668003579802075 1.3512105679838342 0 0 0 0 -308.81774385209246 782.02693826055474 0 782.02693826055474 -167.33659119922231 0 0 0 0 -1176.3633184821356 55.132914259935205 0 55.132914259935205 425.60273308909382 0 0 0 0 -442.71852382295219 -53.956742699039751 0 -53.956742699039751 -82.573440125832349 0 0 0 0 -709.78985257887689 506.63627332814212 0 506.63627332814212 -146.97477310482645 0 0 0 0 -485.84778125195589 150.50278759013599 0 150.50278759013599 272.58264173873522 0 0 0 0 -542.23551647098611 -277.5156057778222 0 -277.5156057778222 -534.77695961004974 0 0 0 0 -795.55097141197075 657.50695882487298 0 657.50695882487298 -45.273765183563228 0 0 0 0 149.4617512979039 259.10235671039845 0 259.10235671039845 -68.948025938492265 0 0 0 0 -166.48089237476415 317.13609017101953 0 317.13609017101953 726.02803879004932 0 0 0 0 -20.29053176618303 4.4710330383401242 0 4.4710330383401242 1.0359168990748131 0 0 0 0 259.19955090837902 -47.80140254208527 0 -47.80140254208527 383.02554757202597 0 0 0 0 -1832.0963696432082 -20.099973977823538 0 -20.099973977823538 387.58851322518422 0 0 0 0 -590.33170072113535 125.25381481422119 0 125.25381481422119 -910.95313314644227 0 0 0 0 21.0859968177665 816.07451203818164 0 816.07451203818164 -769.86936856485408 0 0 0 0 -833.59360472150183 695.95799522472953 0 695.95799522472953 1159.0740136403838 0 0 0 0 127.20293831239906 230.77413006162897 0 230.77413006162897 119.21829909388907 0 0 0 0 -9.9924370975937791 1.9391452712462609 0 1.9391452712462609 0.31398500746846736 0 0 0 0 164.06257335965597 893.19048816249028 0 893.19048816249028 -722.89723741389025 0 0 0 0 -334.08970902067085 918.59727460897011 0 918.59727460897011 -475.00347028708711 0 0 0 0 -496.41521676955199 571.59032898115674 0 571.59032898115674 -197.31634675436362 0 0 0 0 -576.59434058872284 327.72904689780989 0 327.72904689780989 522.22204782093468 0 0 0 0 57.601954088225284 104.40465473257063 0 104.40465473257063 285.0531750011578 0 0 0 0 -371.10017598935156 41.421165669144102 0 41.421165669144102 857.82565877412708 0 0 0 0 -182.22715374984 330.34553828556454 0 330.34553828556454 138.23120090345401 0 0 0 0 -176.38632379242165 255.92494603715477 0 255.92494603715477 437.11223049781256 0 0 0 0 147.05732177456593 108.26382961231138 0 108.26382961231138 -0.18646859267209948 0 0 0 0 -34.851145085904136 469.42450298635958 0 469.42450298635958 112.31498902937528 0 0 0 0 -95.970903274534749 630.80920836748373 0 630.80920836748373 -385.13207800791861 0 0 0 0 -109.2510947860992 580.34052378118213 0 580.34052378118213 255.77418085319732 0 0 0 0 -90.622211464949942 566.51325270575762 0 566.51325270575762 263.1851257716844 0 0 0 0 -2479.4349244508339 520.87327994772568 0 520.87327994772568 265.41430845217837 0 0 0 0 235.43383535742396 3461.3402213424779 0 3461.3402213424779 -5.040112502016596 0 0 0 0 1236.2454963389889 461.55924152104717 0 461.55924152104717 -615.24200566420041 0 0 0 0 -470.65514404818168 152.13941277597769 0 152.13941277597769 123.13516492798226 0 0 0 0 -210.75022644741694 477.87460813428333 0 477.87460813428333 -553.46803798260589 0 0 0 0 12.179223378088565 11.533326694766316 0 11.533326694766316 9.6986585489383401 0 0 0 0 129.94520820921025 665.85975480320849 0 665.85975480320849 -249.30367773690159 0 0 0 0 -337.92276635629923 771.51907504111296 0 771.51907504111296 -486.75222901735106 0 0 0 0 28.503957305133696 30.540764236871524 0 30.540764236871524 28.770243035683905 0 0 0 0 -224.47507936252259 301.78749156137201 0 301.78749156137201 119.64267649563044 0 0 0 0 -154.11058934878383 464.38077791046317 0 464.38077791046317 -488.50290474305802 0 0 0 0 -574.8339300069274 506.40790400623155 0 506.40790400623155 -29.316893867960516 0 0 0 0 -36.719941408959585 208.33561194296726 0 208.33561194296726 -200.76373931412672 0 0 0 0 -523.34830883275208 796.15232666855445 0 796.15232666855445 -129.66014144608926 0 0 0 0 37.955684902196765 40.489087047743865 0 40.489087047743865 42.09393589649622 0 0 0 0 9.2642358068233079 69.13581472415899 0 69.13581472415899 -46.193144908975228 0 0 0 0 124.4113348101564 51.389239363001252 0 51.389239363001252 -262.5670822431257 0 0 0 0 80.364595326000654 -63.554687264151653 0 -63.554687264151653 -26.532781314832391 0 0 0 0 2.7477792474442708 3.0344027052342142 0 3.0344027052342142 2.7101089044479352 0 0 0 0 77.409538129409952 -166.73279481255327 0 -166.73279481255327 52.339410152511846 0 0 0 0 -63.213900040485896 50.794407183893782 0 50.794407183893782 75.154248652335809 0 0 0 0 -81.768099936040016 95.672871252649202 0 95.672871252649202 -20.194355852014269 0 0 0 0 -52.045148431556299 272.01290553582294 0 272.01290553582294 -458.60572647924346 0 0 0 0 -65.184657251303179 40.698150958665792 0 40.698150958665792 7.7850206136063207 0 0 0 0 -9.7727424148711179 11.820302843552327 0 11.820302843552327 15.429438300081529 0 0 0 0 12.777163387803157 7.3116463739789026 0 7.3116463739789026 5.6130104973928496 0 0 0 0 34.015279890794773 58.35404868407204 0 58.35404868407204 -85.299123897340905 0 0 0 0 34.875903223397472 46.117985289187345 0 46.117985289187345 -39.52629211526073 0 0 0 0 40.321511905116495 69.60868979395309 0 69.60868979395309 -43.206831066738232 0 0 0 0 40.264177322664182 55.570941964731901 0 55.570941964731901 -23.697168138955021 0 0 0 0 40.213905575088575 63.208182976130047 0 63.208182976130047 -17.426801342677209 0 0 0 0 16.772713213421383 19.873034971331663 0 19.873034971331663 4.8630139649386024 0 0 0 0 47.598498655563162 66.907552436226979 0 66.907552436226979 -23.992367117432877 0 0 0 0 1299.9093902009756 792.92220573268787 0 792.92220573268787 748.42763175965592 0 0 0 0 1231.0313124691766 979.11617425056829 0 979.11617425056829 350.82905495964587 0 0 0 0 3694.0842738713209 1328.3687288940655 0 1328.3687288940655 232.8582771651927 0 0 0 0 -32.849687547129115 60.574585932158634 0 60.574585932158634 9.5826975837142072 0 0 0 0 336.03569087427968 474.59557810611659 0 474.59557810611659 329.33799690544402 0 0 0 0 311.54124287888499 641.61398724756145 0 641.61398724756145 949.86256354130091 0 0 0 0 -560.23150205704587 599.4908097037769 0 599.4908097037769 574.76038204776705 0 0 0 0 -369.97335720356114 449.52393412921538 0 449.52393412921538 45.349703858672001 0 0 0 0 -204.22938282419091 803.29210081592464 0 803.29210081592464 533.22810757290608 0 0 0 0 529.69548890622355 445.20537522080303 0 445.20537522080303 232.92299672205627 0 0 0 0 197.64328823456208 946.64528211373363 0 946.64528211373363 243.17773032286641 0 0 0 0 1271.0295467962155 799.33710038643039 0 799.33710038643039 -601.81348105094185 0 0 0 0 -3.4228902038630622 802.04345444990895 0 802.04345444990895 -322.74867806346447 0 0 0 0 70.36428082033899 614.0583602925135 0 614.0583602925135 -408.81871691361448 0 0 0 0 -29.682303942446197 626.95106732547265 0 626.95106732547265 -384.33935252606898 0 0 0 0 62.483344880508412 605.73658383946895 0 605.73658383946895 -1092.8117473491729 0 0 0 0 -121.71445959262564 422.46753415420972 0 422.46753415420972 -1038.2933970642043 0 0 0 0 238.98198398714362 703.73861080857387 0 703.73861080857387 -595.84252981093596 0 0 0 0 408.09295678065246 784.82606392889647 0 784.82606392889647 -1473.2157510869438 0 0 0 0 -17.258485851187288 796.80091448435996 0 796.80091448435996 -401.12371734617091 0 0 0 0 -201.90162699087659 -25.970446499779882 0 -25.970446499779882 -1538.6143245230269 0 0 0 0 1559.3927705378719 1816.504179401506 0 1816.504179401506 175.87089674877643 0 0 0 0 1459.5900020144763 1251.6798792310692 0 1251.6798792310692 -2368.4665081922612 0 0 0 0 1308.041709316125 315.3299695692732 0 315.3299695692732 38.980910771264462 0 0 0 0 3057.7017482693732 1193.0814908863231 0 1193.0814908863231 -99.998873558479318 0 0 0 0 -46.371024056968963 553.04981244724968 0 553.04981244724968 -659.57020473876764 0 0 0 0 -38.230167807997795 67.675484660234645 0 67.675484660234645 30.402619531053659 0 0 0 0 55.836708048936998 -155.38508216846094 0 -155.38508216846094 -19.557423279446084 0 0 0 0 -465.85344084641474 -225.89850286181536 0 -225.89850286181536 13.795201542659925 0 0 0 0 -1032.9004490662628 230.61503113877916 0 230.61503113877916 187.62957694215174 0 0 0 0 -491.33587812874885 973.07130033242993 0 973.07130033242993 -317.64125644857995 0 0 0 0 1206.3843853401559 1029.1481609203456 0 1029.1481609203456 -334.11434150325567 0 0 0 0 219.27412059877315 469.52473933796682 0 469.52473933796682 -316.31515295835925 0 0 0 0 230.53438604794792 588.25914415465559 0 588.25914415465559 -189.07086681613873 0 0 0 0 359.20427880759598 517.39592598998934 0 517.39592598998934 -463.98809977340352 0 0 0 0 -78.135168018457989 310.15369597912832 0 310.15369597912832 -372.63652522517805 0 0 0 0 -179.1599891693113 808.89294580444039 0 808.89294580444039 53.497556962858653 0 0 0 0 538.64871945866253 209.0431981966849 0 209.0431981966849 47.161152735832729 0 0 0 0 30.033548057210282 499.1251994949871 0 499.1251994949871 510.20852810912766 0 0 0 0 -21.053081288165998 26.191197939856856 0 26.191197939856856 -16.855359492052827 0 0 0 0 708.02563508383173 741.27479353316448 0 741.27479353316448 369.51816204957868 0 0 0 0 -2382.1528225891216 36.869921912753853 0 36.869921912753853 449.62700364687043 0 0 0 0 -1628.1317121439133 169.69483778028734 0 169.69483778028734 337.73875013819998 0 0 0 0 -10.609053732122156 11.722247702246129 0 11.722247702246129 -5.1398122787014984 0 0 0 0 -665.46805461053464 515.06871712246721 0 515.06871712246721 222.79537521379098 0 0 0 0 -2299.0217975283158 -258.83928945045045 0 -258.83928945045045 476.81796344951545 0 0 0 0 3899.9007951874141 2154.357315561987 0 2154.357315561987 294.51636966868682 0 0 0 0 -347.18709439794384 -24.51166917298724 0 -24.51166917298724 -396.40886600535305 0 0 0 0 -21.539861147046309 41.083893480356252 0 41.083893480356252 3.0732273553988705 0 0 0 0 -5.536200575098519 368.41177673254697 0 368.41177673254697 383.13819922495895 0 0 0 0 253.10178847834959 1455.6663908829869 0 1455.6663908829869 633.7714386479347 0 0 0 0 -117.78050151486968 545.99911829672055 0 545.99911829672055 296.35598521063002 0 0 0 0 -20.380170646967226 27.167348190703716 0 27.167348190703716 -20.214056235126947 0 0 0 0 206.49702037905263 -364.65654582215211 0 -364.65654582215211 -207.69019968777502 0 0 0 0 -1221.1301396904141 1158.7954962192289 0 1158.7954962192289 -2.4688702447747346 0 0 0 0 1469.3533480625592 1251.9200232207768 0 1251.9200232207768 0.74148345435969532 0 0 0 0 -9.6692982264437006 12.596571225962549 0 12.596571225962549 -8.7017250092139591 0 0 0 0 -4255.2790003579121 -929.92728284633631 0 -929.92728284633631 613.95359738170009 0 0 0 0 -7.8077052329754508 14.33340842193553 0 14.33340842193553 0.7296418871864887 0 0 0 0 4276.3484333651586 1490.7741727627081 0 1490.7741727627081 -0.50800055298896041 0 0 0 0 1638.0461782758048 1375.7689071751956 0 1375.7689071751956 -0.42631291380530456 0 0 0 0 -789.85537689102057 -280.09559841190276 0 -280.09559841190276 -159.50898757600589 0 0 0 0 2427.4032881330581 -75.960382326451509 0 -75.960382326451509 -259.39880673961306 0 0 0 0 2200.9752065105822 494.86096203782108 0 494.86096203782108 306.28608051255287 0 0 0 0 963.90450432288048 2105.0448139247965 0 2105.0448139247965 -907.41189715639484 0 0 0 0 1053.4376065185538 397.93211201483427 0 397.93211201483427 501.13695248718068 0 0 0 0 1203.68280870534 1492.0309155321374 0 1492.0309155321374 960.17463147611852 0 0 0 0 -836.89581952656954 434.00210491979306 0 434.00210491979306 193.07556762833701 0 0 0 0 -199.9523341816639 -16.772775184297643 0 -16.772775184297643 371.17303621587598 0 0 0 0 257.3588115427201 584.26152412274314 0 584.26152412274314 956.64741985806177 0 0 0 0 -561.54790911980308 -473.43952435475148 0 -473.43952435475148 1368.4561547108824 0 0 0 0 -1518.3679889349669 382.07036902436084 0 382.07036902436084 933.73310512284752 0 0 0 0 667.35739839719099 -241.56815910131991 0 -241.56815910131991 182.51232328163314 0 0 0 0 -349.08937646712866 1075.5158944155992 0 1075.5158944155992 -1968.1208139877126 0 0 0 0 101.22840149791227 337.65718056723017 0 337.65718056723017 -759.71556712213351 0 0 0 0 -25.19789781652382 5.5227232577821326 0 5.5227232577821326 -0.982970904774632 0 0 0 0 -1177.7499045265436 1474.6512409703864 0 1474.6512409703864 -717.85335040886275 0 0 0 0 -896.09307117708647 947.31557456496012 0 947.31557456496012 0.80695992509572534 0 0 0 0 -813.15198782463835 853.34172734654567 0 853.34172734654567 -734.44931088845624 0 0 0 0 -618.99687190312898 349.2844863181017 0 349.2844863181017 -0.783433560274716 0 0 0 0 -406.53037756135541 437.83288208554586 0 437.83288208554586 -434.97935356025846 0 0 0 0 -4.6762642788381434 2.4771271010055074 0 2.4771271010055074 -1.0096589377852823 0 0 0 0 -39.771642269373842 -178.22114354402584 0 -178.22114354402584 -185.99785880838317 0 0 0 0 -582.88776242616245 422.55902832593711 0 422.55902832593711 126.18004995617957 0 0 0 0 -52.851901287048349 61.280736465574591 0 61.280736465574591 -45.871893908188213 0 0 0 0 -30.502478332986357 28.995755488231225 0 28.995755488231225 0.016678282918292098 0 0 0 0 -71.332467549973444 55.453523668918933 0 55.453523668918933 -0.27180364807162893 0 0 0 0 -102.06078030351699 -18.233514631421713 0 -18.233514631421713 206.74188701841922 0 0 0 0 -43.174121067737815 -39.030382887707674 0 -39.030382887707674 -21.054052280203905 0 0 0 0 -14.952346155103104 3.5433722208091041 0 3.5433722208091041 -0.87157333242675605 0 0 0 0 -227.10171809439544 289.48706242009212 0 289.48706242009212 208.91312318582641 0 0 0 0 -54.841894427807091 23.447938708034428 0 23.447938708034428 -4.5940694356554772 0 0 0 0 -38.782003463029469 -1.5482131460885284 0 -1.5482131460885284 51.266350607860659 0 0 0 0 -65.660945582510209 24.379498903915703 0 24.379498903915703 -4.3808715663872064 0 0 0 0 353.7105555225944 -277.9971316071933 0 -277.9971316071933 -484.64168212906225 0 0 0 0 152.89184057636885 747.44792910398246 0 747.44792910398246 1359.9467730958349 0 0 0 0 -3.0528405863888963 5.41222710882748 0 5.41222710882748 -1.5652720615311608 0 0 0 0 132.14633473076901 402.64872350844234 0 402.64872350844234 1170.4624811567119 0 0 0 0 5.7218309843228781 403.97119628962173 0 403.97119628962173 971.81018649246107 0 0 0 0 -59.650312921221527 18.047755573242455 0 18.047755573242455 -1.6563457083198614 0 0 0 0 -908.81450888643303 55.702680768379651 0 55.702680768379651 2591.7847856175649 0 0 0 0 -2074.5294608007098 1282.7453110039205 0 1282.7453110039205 1519.8205169750145 0 0 0 0 -44.734992185472947 1147.7655761981441 0 1147.7655761981441 614.62189011389637 0 0 0 0 699.77313113602577 211.6131094066368 0 211.6131094066368 163.63248563576781 0 0 0 0 469.57048454681353 640.58643984618539 0 640.58643984618539 -74.590759966245969 0 0 0 0 523.03821021342446 833.2301416078335 0 833.2301416078335 618.09214263864851 0 0 0 0 207.04233113517694 239.91601337035536 0 239.91601337035536 769.18439122555355 0 0 0 0 -8.1895585337277979 11.448827917381973 0 11.448827917381973 -9.1997802335829135 0 0 0 0 -1874.5094593906124 -221.10083687442602 0 -221.10083687442602 449.79930468118255 0 0 0 0 764.07276251380972 240.19040577208943 0 240.19040577208943 440.99003871782043 0 0 0 0 329.88640072950511 360.26410223541097 0 360.26410223541097 451.70965758574312 0 0 0 0 -712.41857228431127 -60.230470798676834 0 -60.230470798676834 13.271831395453773 0 0 0 0 -507.9937673380482 391.26597196657895 0 391.26597196657895 244.93274860918973 0 0 0 0 -19.421012115115282 24.015292289399682 0 24.015292289399682 -42.652384011367474 0 0 0 0 -656.34177974638624 196.60583007675996 0 196.60583007675996 47.68946396910178 0 0 0 0 82.187523639959181 76.958075940878189 0 76.958075940878189 128.62815243532896 0 0 0 0 420.56569802187005 428.1196604306424 0 428.1196604306424 136.85717595365713 0 0 0 0 238.50688421671293 182.5875863807596 0 182.5875863807596 453.9419829195831 0 0 0 0 163.20591715980481 322.00170534032077 0 322.00170534032077 419.94327391303523 0 0 0 0 94.752840898236173 206.0979260925742 0 206.0979260925742 410.12586734830256 0 0 0 0 243.60394287328563 399.38771202219505 0 399.38771202219505 585.080661163287 0 0 0 0 115.81449513438929 266.18045666709804 0 266.18045666709804 -64.940422814853264 0 0 0 0 224.24298177072706 220.60123359180579 0 220.60123359180579 -73.214764293719782 0 0 0 0 148.49015427138283 332.25838622378797 0 332.25838622378797 -352.20516687794589 0 0 0 0 262.13322383900595 279.64805965261075 0 279.64805965261075 -117.39295801969274 0 0 0 0 31.151619010018294 241.49216873349178 0 241.49216873349178 -355.41977204391878 0 0 0 0 251.91636308263242 123.14543266179498 0 123.14543266179498 -305.28435387529316 0 0 0 0 5.1790769678332254 68.643994465791778 0 68.643994465791778 -60.468057135869586 0 0 0 0 61.503878121569869 205.40446392033482 0 205.40446392033482 -398.79796098626321 0 0 0 0 184.10134400364404 214.88426208581586 0 214.88426208581586 -398.30681750645454 0 0 0 0 121.11216012446252 141.61178203077935 0 141.61178203077935 57.199798540056712 0 0 0 0 115.89843845859286 106.43089536941443 0 106.43089536941443 90.322742389338146 0 0 0 0 190.77340433122754 328.73788425156818 0 328.73788425156818 -629.29013892743387 0 0 0 0 188.43233713667723 235.75609912652726 0 235.75609912652726 135.26444979909684 0 0 0 0 10.667733313039207 304.06389831511615 0 304.06389831511615 404.05661219388094 0 0 0 0 31.863950973518115 -17.761847849409254 0 -17.761847849409254 -76.193926334597279 0 0 0 0 238.06127486166224 235.28383869832214 0 235.28383869832214 67.926403020140242 0 0 0 0 128.93040951171901 85.149021155753374 0 85.149021155753374 18.455424870957962 0 0 0 0 20.046714407933905 418.50822916202924 0 418.50822916202924 -520.16078037513762 0 0 0 0 -73.163274000966339 399.82181223632506 0 399.82181223632506 -382.1140775180902 0 0 0 0 -48.353018950176192 398.67756323070353 0 398.67756323070353 -912.45864346130475 0 0 0 0 -315.5281285115525 533.10761865876702 0 533.10761865876702 108.74616488659558 0 0 0 0 -342.08015270539818 371.2314424229794 0 371.2314424229794 -113.59846495964302 0 0 0 0 42.507407867451548 333.93347677970814 0 333.93347677970814 -452.42255038339499 0 0 0 0 -16.030346033880051 290.33092707626565 0 290.33092707626565 -314.15150105060275 0 0 0 0 52.966877338612179 77.858421099016937 0 77.858421099016937 33.480546493601821 0 0 0 0 371.52923733550415 380.3769212838788 0 380.3769212838788 -822.04753673186133 0 0 0 0 68.809720363293053 67.639251294344788 0 67.639251294344788 48.022488426683921 0 0 0 0 272.19299813332327 613.23097949552175 0 613.23097949552175 -480.11040370683804 0 0 0 0 105.36770127611999 289.51756746446335 0 289.51756746446335 -874.39183226277964 0 0 0 0 116.14652625292547 175.39323393999439 0 175.39323393999439 -211.29386616431475 0 0 0 0 -100.91842724580601 -64.789340625308796 0 -64.789340625308796 -474.07090764058739 0 0 0 0 82.900630804091634 -74.577356393596347 0 -74.577356393596347 -480.56031425087167 0 0 0 0 -256.26685997698951 243.19400919504187 0 243.19400919504187 -546.10778427407604 0 0 0 0 392.74427595834277 615.17855178909622 0 615.17855178909622 490.84775969131624 0 0 0 0 2.4279344450428084 0.96538788608747694 0 0.96538788608747694 -1.0815847690753202 0 0 0 0 348.3911702579353 345.58321361922935 0 345.58321361922935 426.73687346023553 0 0 0 0 -59.028815699450206 -166.6413900325424 0 -166.6413900325424 -437.60603704147434 0 0 0 0 40.329065936864936 75.817287126534211 0 75.817287126534211 -639.16040081712435 0 0 0 0 -55.380853434831806 11.436006564543277 0 11.436006564543277 -36.688656201501544 0 0 0 0 -83.584095596088446 -111.9828295995012 0 -111.9828295995012 -248.78592160784137 0 0 0 0 106.63684788919636 -19.582240130552236 0 -19.582240130552236 -214.53852839745559 0 0 0 0 0.75712006771585294 0.11320126423088084 0 0.11320126423088084 0.034247273726339955 0 0 0 0 5.5508687001735098 0.10218076139142163 0 0.10218076139142163 -1.3462881316380528 0 0 0 0 3.5771594346442726 0.41358428824514704 0 0.41358428824514704 -2.4507916438287793 0 0 0 0 381.66524877873599 289.71138442404617 0 289.71138442404617 203.04744998599199 0 0 0 0 4.451921291183254 1.3088585069298091 0 1.3088585069298091 -0.93855787203671071 0 0 0 0 387.78267712968227 278.15129083166994 0 278.15129083166994 197.2189831932119 0 0 0 0 389.98653159286187 275.86672761694081 0 275.86672761694081 158.66617530443364 0 0 0 0 366.48904496298928 266.48481123450802 0 266.48481123450802 192.3198104919602 0 0 0 0 357.58367604092928 283.3027441176273 0 283.3027441176273 208.73008783667683 0 0 0 0 483.37041047964158 397.88133830251763 0 397.88133830251763 163.86541580993435 0 0 0 0 379.89449881402834 262.96959587089032 0 262.96959587089032 259.84935156740539 0 0 0 0 427.79976726627501 307.98962545542054 0 307.98962545542054 161.82570696301445 0 0 0 0 374.86905857519014 231.0928384235267 0 231.0928384235267 100.10965362946081 0 0 0 0 396.86560211036704 222.27927785219617 0 222.27927785219617 80.929506379872691 0 0 0 0 364.19752467345097 241.88883872189672 0 241.88883872189672 81.01875481656316 0 0 0 0 128.27013251787139 224.78276518057646 0 224.78276518057646 87.389781745854634 0 0 0 0 237.87678018563747 127.11105842310917 0 127.11105842310917 34.694020101855131 0 0 0 0 420.3155311607843 247.49195814341056 0 247.49195814341056 -62.232334322425231 0 0 0 0 348.10129084124856 165.50646632014377 0 165.50646632014377 -572.11314425527053 0 0 0 0 522.91307520088958 508.52603162501191 0 508.52603162501191 97.685254341362452 0 0 0 0 154.13608983242011 239.54880456061073 0 239.54880456061073 17.160997832438625 0 0 0 0 -0.70911155689827865 249.93698849425891 0 249.93698849425891 54.432422103145655 0 0 0 0 -168.30294283868352 364.23528086477427 0 364.23528086477427 -4.0405269953371317 0 0 0 0 -134.15121798430846 32.860020830257326 0 32.860020830257326 -297.56996257631909 0 0 0 0 -59.192412968121062 274.46740983609016 0 274.46740983609016 47.561196967122669 0 0 0 0 -18.628557747892046 379.39651751872771 0 379.39651751872771 -182.67309494712936 0 0 0 0 -17.935674787499011 216.81986350876741 0 216.81986350876741 142.14560915908442 0 0 0 0 -5.8122954456339357 260.53627279375814 0 260.53627279375814 -81.608891429040796 0 0 0 0 -69.56345706355205 358.72705794298281 0 358.72705794298281 82.678994493385289 0 0 0 0 49.197363881289782 83.957283785322545 0 83.957283785322545 52.150271055583509 0 0 0 0 119.91127191585201 452.83039792098498 0 452.83039792098498 -711.31889906730066 0 0 0 0 -8.1656370326036267 292.71622972820114 0 292.71622972820114 -357.48461715161102 0 0 0 0 81.869892394789133 62.432771125082901 0 62.432771125082901 2.3400167732687152 0 0 0 0 -101.99580139898899 99.534422236341925 0 99.534422236341925 -197.30495862004318 0 0 0 0 116.48880732767429 225.98021942909691 0 225.98021942909691 -349.12240664193087 0 0 0 0 -54.222997126984183 452.48106220144973 0 452.48106220144973 -84.373551241427776 0 0 0 0 -93.4889710323896 117.62842789169372 0 117.62842789169372 -292.08778273192729 0 0 0 0 29.737028330770045 159.0370568807266 0 159.0370568807266 17.29992320756719 0 0 0 0 45.774683355633897 406.05732675869876 0 406.05732675869876 92.59843276454194 0 0 0 0 38.741521395684686 157.49321715671613 0 157.49321715671613 728.79290146804851 0 0 0 0 149.47062143843959 319.7093935926423 0 319.7093935926423 167.61224914602644 0 0 0 0 129.00737005913106 197.186814773886 0 197.186814773886 188.15509787547126 0 0 0 0 -50.030030370117856 316.54770482903223 0 316.54770482903223 561.95835640589212 0 0 0 0 64.282813877080116 151.21018647886376 0 151.21018647886376 107.58029743965017 0 0 0 0 269.47793321901327 657.16403668524435 0 657.16403668524435 446.18647112570761 0 0 0 0 -16.045496958975349 3.2253385977099178 0 3.2253385977099178 11.535511962020848 0 0 0 0 -330.40849983884436 86.566526292212075 0 86.566526292212075 176.03531085744908 0 0 0 0 -49.534847929018724 77.213108171445128 0 77.213108171445128 -94.167241284709235 0 0 0 0 65.990160803633216 64.473462474489651 0 64.473462474489651 45.29779374133215 0 0 0 0 218.99006168639266 797.31760584064978 0 797.31760584064978 -363.81334403147048 0 0 0 0 -101.11920395615562 -36.178722094526165 0 -36.178722094526165 -30.522119332810689 0 0 0 0 -258.18361676236827 32.203487996543117 0 32.203487996543117 170.15437913080677 0 0 0 0 -107.25301035473967 108.72526959338575 0 108.72526959338575 8.3266810021668789 0 0 0 0 -78.882266109693717 53.463811675714638 0 53.463811675714638 -23.48606718096535 0 0 0 0 -113.28413529328782 119.76056489382518 0 119.76056489382518 -9.1400088030059123 0 0 0 0 -103.2287517345103 109.61947731425607 0 109.61947731425607 -19.774431048841507 0 0 0 0 -69.412298276783076 80.556477004731278 0 80.556477004731278 -52.69832220216631 0 0 0 0 -35.896029664798668 38.852998696871467 0 38.852998696871467 -34.268976084982796 0 0 0 0 -75.201131284282383 111.88393087277655 0 111.88393087277655 -24.850818561855704 0 0 0 0 -102.27597343289744 131.64622815819166 0 131.64622815819166 -39.275127627581242 0 0 0 0 -22.429058715954852 90.210861932098851 0 90.210861932098851 -110.70261847693473 0 0 0 0 -10.710235034196558 48.336073934704473 0 48.336073934704473 34.521801021299325 0 0 0 0 5.353603799794584 17.940989062957073 0 17.940989062957073 -9.8600858477959861 0 0 0 0 0.13330718759243609 18.302514604351018 0 18.302514604351018 -75.118134244483372 0 0 0 0 -24.594670463033253 103.4135498770047 0 103.4135498770047 -279.40857868025341 0 0 0 0 -151.3636934989288 188.06622489990332 0 188.06622489990332 -115.53868184141174 0 0 0 0 -12.398662472630718 12.386383372414954 0 12.386383372414954 -3.9088261285293271 0 0 0 0 90.024214460961957 -18.90991225765174 0 -18.90991225765174 -219.0561080098305 0 0 0 0 -13.028032877096848 47.579820894141449 0 47.579820894141449 -57.242727008775546 0 0 0 0 -20.138890292078734 22.044717517774885 0 22.044717517774885 -11.355530708780897 0 0 0 0 -47.971073775423065 85.93777295280961 0 85.93777295280961 20.068589485294069 0 0 0 0 -24.360629383093055 20.040835037987563 0 20.040835037987563 2.9287519435511058 0 0 0 0 -19.935333994903093 13.491263684964835 0 13.491263684964835 -5.158967860476622 0 0 0 0 -0.36948509330886736 37.205671081585024 0 37.205671081585024 -36.68788971354661 0 0 0 0 -37.031815782552172 26.879038136619741 0 26.879038136619741 -12.648369490109172 0 0 0 0 -44.504914211202731 13.752490095061148 0 13.752490095061148 11.332304621551884 0 0 0 0 -23.863997798856758 7.1313093899227766 0 7.1313093899227766 -1.4076874521736329 0 0 0 0 -60.222156662081034 2.8643538427349995 0 2.8643538427349995 9.5698163823226423 0 0 0 0 39.444588671743986 67.568774014340306 0 67.568774014340306 0.038012653662008233 0 0 0 0 -0.72818731846007978 -1.7401270461448206 0 -1.7401270461448206 -1.4964408124465933 0 0 0 0 44.631442914336731 48.101028065033461 0 48.101028065033461 22.885631027034833 0 0 0 0 -0.49763084809405456 2.3698136377467449 0 2.3698136377467449 -0.74691484447234302 0 0 0 0 -63.615548588579259 57.82877871092569 0 57.82877871092569 181.00951639776758 0 0 0 0 30.745572973275557 62.502268588857987 0 62.502268588857987 34.058861121869995 0 0 0 0 21.495181896290887 59.460018284298712 0 59.460018284298712 70.729337869255687 0 0 0 0 -1.3828342516437928 5.8362821295213507 0 5.8362821295213507 -1.2438061281862147 0 0 0 0 -12.167074085740751 31.605019308452029 0 31.605019308452029 -20.662381369824288 0 0 0 0 27.813742566311703 51.055391842935933 0 51.055391842935933 35.152157810161953 0 0 0 0 -12.326217813244511 88.902602038320765 0 88.902602038320765 0.030333634276757948 0 0 0 0 -79.869390405550803 118.48278243201821 0 118.48278243201821 0.0066816144899348728 0 0 0 0 -52.143024935692665 80.967358857044019 0 80.967358857044019 44.431938366251416 0 0 0 0 -131.41465522623912 160.14850327615204 0 160.14850327615204 31.812385752113187 0 0 0 0 -57.378065105622227 155.29423778814453 0 155.29423778814453 -76.839683100231923 0 0 0 0 -55.746832460921723 144.76756593742175 0 144.76756593742175 -36.786129089159658 0 0 0 0 -56.178606538924214 119.73579516678728 0 119.73579516678728 -21.107946842548699 0 0 0 0 -56.349615629053801 91.759341557384573 0 91.759341557384573 -41.539639294482186 0 0 0 0 -88.86476536405462 86.949441424942052 0 86.949441424942052 -0.025087296096899081 0 0 0 0 -82.040825001848134 67.60436582399052 0 67.60436582399052 -45.103099504813144 0 0 0 0 -0.88246879830198566 1.8431005054852321 0 1.8431005054852321 3.4808342203728273 0 0 0 0 -93.174146895308695 95.669479844871603 0 95.669479844871603 -50.42141308959981 0 0 0 0 -74.432252830865764 71.249574381585262 0 71.249574381585262 -61.38605942522554 0 0 0 0 -12.756730585082551 99.708785769107635 0 99.708785769107635 -96.434395760174084 0 0 0 0 59.713427211416274 163.5671325699077 0 163.5671325699077 -65.847265345058986 0 0 0 0 -125.61832887141259 200.15443669287743 0 200.15443669287743 144.35300979510066 0 0 0 0 -1.5498967070497756 1.1877534869793607 0 1.1877534869793607 2.9793017735301532 0 0 0 0 77.061310487773881 -29.123235662609659 0 -29.123235662609659 -56.730982700144523 0 0 0 0 -149.28722687344271 35.87130386861827 0 35.87130386861827 132.04782882992004 0 0 0 0 -45.521192870837694 10.473215672609513 0 10.473215672609513 422.10518149287236 0 0 0 0 57.743473143582378 185.07149114945059 0 185.07149114945059 230.49480873638095 0 0 0 0 0.14161557919781842 2.396721857395093 0 2.396721857395093 2.0266739044343751 0 0 0 0 4.5452994338338613 133.16088440016028 0 133.16088440016028 154.19498834950173 0 0 0 0 63.669615358736337 125.6518754060744 0 125.6518754060744 13.524795220218948 0 0 0 0 -54.423997346537362 79.241596757929074 0 79.241596757929074 105.23963629110949 0 0 0 0 13.273633593944396 42.426108358908095 0 42.426108358908095 37.602211468934911 0 0 0 0 -91.61766219134006 89.106245994989877 0 89.106245994989877 67.212821604975034 0 0 0 0 -115.00116724244435 53.604751148443029 0 53.604751148443029 164.46983084941166 0 0 0 0 -94.318284009026684 61.20729302151085 0 61.20729302151085 -1.0554860723059392 0 0 0 0 -87.158095311060606 80.067890916150645 0 80.067890916150645 4.365495567490143 0 0 0 0 -103.51700930632137 67.959762821873483 0 67.959762821873483 21.885220394542557 0 0 0 0 -94.575193021744781 110.12917341561842 0 110.12917341561842 -17.086948446270981 0 0 0 0 -167.7804278593751 93.976977755821281 0 93.976977755821281 -5.6475351947301533 0 0 0 0 0.046345758404640947 177.44154569485545 0 177.44154569485545 -26.606567318929592 0 0 0 0 -24.704195005004294 214.83883373989374 0 214.83883373989374 155.06550588746995 0 0 0 0 -63.137480247358326 128.96470473105728 0 128.96470473105728 -31.627822763985023 0 0 0 0 51.297879460869808 88.883929644944146 0 88.883929644944146 -2.0287939844711218 0 0 0 0 59.030358235500898 39.356239045075199 0 39.356239045075199 11.177650624653324 0 0 0 0 165.84901913140129 81.017624489843001 0 81.017624489843001 0.0021463831071741879 0 0 0 0 147.24203501682859 -4.1992863942068652 0 -4.1992863942068652 9.6396601039305096 0 0 0 0 74.611287227873618 10.526937541668303 0 10.526937541668303 26.362767395752599 0 0 0 0 292.84971670100276 50.436536474291643 0 50.436536474291643 -47.273229186794197 0 0 0 0 53.703432755886297 63.489878033754394 0 63.489878033754394 -78.086117261118488 0 0 0 0 0.54075415888834222 -1.7950607426058838 0 -1.7950607426058838 -0.84332618295604789 0 0 0 0 228.62371586493828 250.29926721849188 0 250.29926721849188 -1.522943728662894 0 0 0 0 125.0897627620725 50.964451638696119 0 50.964451638696119 -77.83402889854915 0 0 0 0 -1.5447031739401353 0.88106772569494041 0 0.88106772569494041 2.6433316354146257 0 0 0 0 -77.812156513246009 49.988176609796938 0 49.988176609796938 -0.088474235266679302 0 0 0 0 64.797585642598278 -26.592498859103216 0 -26.592498859103216 -104.20501213221723 0 0 0 0 -19.052556237937097 135.09510612489612 0 135.09510612489612 -119.54893286767765 0 0 0 0 186.50167935395802 63.484224361476663 0 63.484224361476663 10.983381121361163 0 0 0 0 82.570059011539342 -25.588535497674457 0 -25.588535497674457 199.60669828789833 0 0 0 0 75.788089431662229 134.39907387405401 0 134.39907387405401 186.98634575124379 0 0 0 0 89.96298621947426 -7.2979130522726336 0 -7.2979130522726336 2.4733073365568998 0 0 0 0 196.80833494758554 75.430968266016862 0 75.430968266016862 65.95932021070621 0 0 0 0 0.27127849405493798 -1.4940875794726836 0 -1.4940875794726836 -0.58136838842767702 0 0 0 0 118.66993968573661 -3.8258503995130013 0 -3.8258503995130013 -16.84827922135446 0 0 0 0 0.43202605134767857 -1.4558641615944978 0 -1.4558641615944978 -1.2329894074804884 0 0 0 0 61.861008561972994 21.508347040624358 0 21.508347040624358 -46.245058161905035 0 0 0 0 158.49485975484276 75.562302234113304 0 75.562302234113304 -30.911207938119333 0 0 0 0 -100.59912779296792 177.1310059734642 0 177.1310059734642 0.30893276794813573 0 0 0 0 -26.886691983643686 130.03762796364026 0 130.03762796364026 -41.349108496739063 0 0 0 0 58.671383067616262 92.365693670937617 0 92.365693670937617 -25.997647237651108 0 0 0 0 46.028974653607293 64.503860553126287 0 64.503860553126287 -87.385222417389741 0 0 0 0 12.987627770668951 122.01772505979534 0 122.01772505979534 -73.118961154672434 0 0 0 0 -293.39112084623048 32.77382819927152 0 32.77382819927152 69.727200861743768 0 0 0 0 -86.073612964049971 71.349290783098695 0 71.349290783098695 -60.991087183530908 0 0 0 0 -95.618977452431864 249.56507430340571 0 249.56507430340571 142.93397248701513 0 0 0 0 -1.1142695646709058 0.55603274983040052 0 0.55603274983040052 2.9670420103428512 0 0 0 0 172.02216567966934 73.373474991636613 0 73.373474991636613 -89.634510787334875 0 0 0 0 160.31393793168627 159.4141217033648 0 159.4141217033648 -84.629634166631149 0 0 0 0 44.671605111212557 224.81785968195618 0 224.81785968195618 -60.96502825107018 0 0 0 0 63.223668718992144 44.344302221592031 0 44.344302221592031 -7.6632472515313026 0 0 0 0 208.88507042888523 136.58444714166399 0 136.58444714166399 -252.16472878812783 0 0 0 0 -8.1771111520756676 116.60991551091502 0 116.60991551091502 -15.97501596211805 0 0 0 0 30.580077222679392 219.21232209451409 0 219.21232209451409 -232.54638627649547 0 0 0 0 85.037603385895636 80.079413445564569 0 80.079413445564569 -194.77299041459628 0 0 0 0 14.188465731442577 72.791791176354025 0 72.791791176354025 -20.717189368832976 0 0 0 0 10.646717059855291 84.118132723473536 0 84.118132723473536 -130.58421191119123 0 0 0 0 23.49755601232755 150.42591793652537 0 150.42591793652537 -49.432426424449659 0 0 0 0 115.80096748636061 179.22950190427946 0 179.22950190427946 -67.035665022223839 0 0 0 0 149.60903047715692 117.80501651746818 0 117.80501651746818 -221.46244320349069 0 0 0 0 205.89547766601754 178.50776766447234 0 178.50776766447234 -103.81013990100473 0 0 0 0 2.3083363396763161 121.98457434424927 0 121.98457434424927 -94.345589262331487 0 0 0 0 19.006428351596696 95.135643890687788 0 95.135643890687788 15.921310052941408 0 0 0 0 -12.731413823035837 11.676399638032308 0 11.676399638032308 -227.65104560058717 0 0 0 0 34.270440743398893 60.216771168692233 0 60.216771168692233 -36.793420572584878 0 0 0 0 46.974849692611315 27.658042181181372 0 27.658042181181372 -283.1511913544382 0 0 0 0 28.02633097170542 28.724162607655593 0 28.724162607655593 -21.034303915134828 0 0 0 0 12.579242136995447 50.485498852570217 0 50.485498852570217 19.762120812826819 0 0 0 0 61.538864329610078 125.06625835879822 0 125.06625835879822 -188.41274700119357 0 0 0 0 18.565572561798035 200.49405250127529 0 200.49405250127529 -374.30755439234781 0 0 0 0 40.673615716128552 18.704616441198596 0 18.704616441198596 -124.82655487894954 0 0 0 0 16.906405129917857 49.247491609517986 0 49.247491609517986 19.02915157084135 0 0 0 0 12.759715774409415 60.820395328694303 0 60.820395328694303 40.364288332806609 0 0 0 0 -5.7298575746694667 17.759840371979863 0 17.759840371979863 13.216535230428418 0 0 0 0 -5.4300444800264813 47.059195134341138 0 47.059195134341138 39.888164000220513 0 0 0 0 -9.0102671987797294 56.706115156464591 0 56.706115156464591 64.934200690458965 0 0 0 0 36.720311734695585 33.245572880326492 0 33.245572880326492 -17.783043084730707 0 0 0 0 -2.8121456795706763 129.26714257149433 0 129.26714257149433 -130.4336350061385 0 0 0 0 -60.862719533324707 61.823562527890317 0 61.823562527890317 -293.72330788523686 0 0 0 0 -2.3909256075494341 100.68614664709548 0 100.68614664709548 2.8032041928297531 0 0 0 0 -25.085622320251787 82.987412856842042 0 82.987412856842042 0.91142159107111809 0 0 0 0 33.77389389884047 125.3356159868672 0 125.3356159868672 -257.76271759964948 0 0 0 0 14.249694172375484 54.825012519671738 0 54.825012519671738 -13.562926584302875 0 0 0 0 5.3135330925724702 74.67498795564984 0 74.67498795564984 100.77787261963863 0 0 0 0 -9.0117470616060018 75.177612576065712 0 75.177612576065712 131.28337101260422 0 0 0 0 10.824998832974643 12.42480039139528 0 12.42480039139528 -44.424422448403391 0 0 0 0 -23.555605306857615 92.394746122529341 0 92.394746122529341 112.92945171214524 0 0 0 0 -24.774110222357706 108.89899300565169 0 108.89899300565169 -38.528033369322202 0 0 0 0 14.963983041172924 124.88841370502496 0 124.88841370502496 -49.820147463513422 0 0 0 0 75.780622360056441 155.5721029907545 0 155.5721029907545 -142.10188188188295 0 0 0 0 -0.99840216993834474 87.667677178764279 0 87.667677178764279 -68.283016848392435 0 0 0 0 51.100154275653779 70.319069195339068 0 70.319069195339068 25.324699689970672 0 0 0 0 -68.784266356143448 53.876215201521759 0 53.876215201521759 0.99142079965204744 0 0 0 0 -169.89739617310082 249.12646697908531 0 249.12646697908531 60.708741222137178 0 0 0 0 -77.989117161274407 99.075024301127996 0 99.075024301127996 55.118503096287895 0 0 0 0 -43.085399850846443 60.012807370141672 0 60.012807370141672 9.4291721617046278 0 0 0 0 -13.731614819407874 48.819747106896642 0 48.819747106896642 -11.680163028647272 0 0 0 0 -110.46281857300164 28.066614083239983 0 28.066614083239983 35.9536016331258 0 0 0 0 0.20366958122203016 3.782265634133239 0 3.782265634133239 3.5533264477551256 0 0 0 0 -68.021835649145942 14.790022890272667 0 14.790022890272667 38.806108205288183 0 0 0 0 -0.73800982758807265 60.11533828541824 0 60.11533828541824 -17.172253275877779 0 0 0 0 -2.7147792473551817 54.140990358609997 0 54.140990358609997 5.6621911148977233 0 0 0 0 -6.1073079818233964 18.801146593454177 0 18.801146593454177 -55.769336190583999 0 0 0 0 15.541993790699053 56.555242198608539 0 56.555242198608539 110.66345134345465 0 0 0 0 2.2075816376832762 7.331883428464721 0 7.331883428464721 -4.1193246978157134 0 0 0 0 6.9133610542558017 34.578564085997641 0 34.578564085997641 -136.83208102594654 0 0 0 0 17.073407343988947 61.956549523514695 0 61.956549523514695 -77.16710387814237 0 0 0 0 -3.1071728174354263 50.515999878768852 0 50.515999878768852 -22.616541578642114 0 0 0 0 84.814238178898449 -9.1787724975110905 0 -9.1787724975110905 -46.575717130981502 0 0 0 0 -14.911835465216427 53.43409245442308 0 53.43409245442308 -84.984661922324449 0 0 0 0 4.3233995232258167 28.271581065717328 0 28.271581065717328 -89.954303773032734 0 0 0 0 -37.240512957083411 26.579927181766834 0 26.579927181766834 -87.450575966096949 0 0 0 0 72.104691371581794 43.700928809139441 0 43.700928809139441 -289.12847435445292 0 0 0 0 -42.014748657216842 55.566497337873443 0 55.566497337873443 -82.809058888611617 0 0 0 0 65.834949629268522 89.129752571838253 0 89.129752571838253 -58.880823915738802 0 0 0 0 2.0221419218643923 63.548326770740353 0 63.548326770740353 -41.867492459148849 0 0 0 0 13.908414452002035 43.885573065286735 0 43.885573065286735 -287.07992289467074 0 0 0 0 3.6589215202395451 -1.6220382434977836 0 -1.6220382434977836 -47.419339075987352 0 0 0 0 17.083429095292104 52.442457372763585 0 52.442457372763585 -98.686835161995674 0 0 0 0 -15.012911014545352 167.52911286128074 0 167.52911286128074 -92.414587815917912 0 0 0 0 -1.1081484245243445 57.363613255622511 0 57.363613255622511 -37.324058698516353 0 0 0 0 -2.3544045586493709 43.280823877183408 0 43.280823877183408 10.08326940861383 0 0 0 0 31.216206287755597 72.67694988622867 0 72.67694988622867 13.746388830994839 0 0 0 0 36.563707526307553 100.07293181529894 0 100.07293181529894 -268.92069089870802 0 0 0 0 17.04248280019965 91.842818295430334 0 91.842818295430334 -84.733408390813565 0 0 0 0 -4.8145675516425399 55.388246218746644 0 55.388246218746644 -34.392396505587385 0 0 0 0 -1.052006201532258 82.363452480817656 0 82.363452480817656 21.516301674606524 0 0 0 0 26.223618393167271 36.629584070935834 0 36.629584070935834 -166.19980653169023 0 0 0 0 35.104504492435808 108.42390598184829 0 108.42390598184829 -250.34734806649612 0 0 0 0 28.700153883539315 67.724565955810704 0 67.724565955810704 -208.38860169702684 0 0 0 0 34.25534605486655 108.36051676307108 0 108.36051676307108 -164.49509524263522 0 0 0 0 69.154634554615768 102.82831476651336 0 102.82831476651336 -92.253651282415376 0 0 0 0 7.9347634897554968 47.893024294022297 0 47.893024294022297 -81.816790248229069 0 0 0 0 31.379578066946124 30.997933018767981 0 30.997933018767981 -161.95963673660071 0 0 0 0 2.2247170150221791 77.479270842093683 0 77.479270842093683 -81.607172403746517 0 0 0 0 38.887719923379336 53.102635987050689 0 53.102635987050689 -108.86256203625817 0 0 0 0 23.513888042325821 38.276223194876849 0 38.276223194876849 -53.57984603787348 0 0 0 0 50.517331205497612 34.277386680898417 0 34.277386680898417 -11.96515426953556 0 0 0 0 36.773756142563613 42.867539146110204 0 42.867539146110204 -87.015101454102279 0 0 0 0 10.96111952685574 25.058843592391305 0 25.058843592391305 -58.151834453989238 0 0 0 0 26.756618020595823 46.709518880516207 0 46.709518880516207 -99.154485833571727 0 0 0 0 17.497968848532764 29.906724271874737 0 29.906724271874737 1.65437383134676 0 0 0 0 15.257703156854404 17.954336320638049 0 17.954336320638049 -25.978356271144435 0 0 0 0 -0.55966711585499418 19.760452336392433 0 19.760452336392433 -8.7286230106496898 0 0 0 0 11.77631439515244 25.890326110473325 0 25.890326110473325 -23.48780688695922 0 0 0 0 0.74641559758482856 0.53602203247030999 0 0.53602203247030999 -7.07209113724213 0 0 0 0 20.902815801109654 -2.5149755757996868 0 -2.5149755757996868 -16.629766846583557 0 0 0 0 6.6276295268170031 11.534155500261111 0 11.534155500261111 -15.401729696763075 0 0 0 0 14.388171464473999 25.911454184386457 0 25.911454184386457 -28.486651271836649 0 0 0 0 15.46265529782977 24.561103834534606 0 24.561103834534606 -28.765379509893364 0 0 0 0 36.239667607493175 2.6990866436754004 0 2.6990866436754004 -266.96026802340748 0 0 0 0 6.2526975321161018 2.4515098275492058 0 2.4515098275492058 -6.7280786690528629 0 0 0 0 66.400135195435723 128.47071692125974 0 128.47071692125974 -192.44058282002243 0 0 0 0 -28.757828264839191 1.7157322106868378 0 1.7157322106868378 -143.35083563932585 0 0 0 0 12.17527150078169 1.1429300273390126 0 1.1429300273390126 -2.998215627113813 0 0 0 0 9.4082129198941402 6.025705748184464 0 6.025705748184464 -10.866298555072149 0 0 0 0 38.54024513796503 74.407603931505719 0 74.407603931505719 -279.05772284171144 0 0 0 0 6.5055621914434596 50.267145073422398 0 50.267145073422398 -207.68510890749508 0 0 0 0 -4.312451198718918 95.919395329180588 0 95.919395329180588 -256.14161166826489 0 0 0 0 43.894080851871294 75.22523200827348 0 75.22523200827348 37.86421915688814 0 0 0 0 95.369823387940414 71.58924902025683 0 71.58924902025683 -657.12172305811418 0 0 0 0 -25.162265057851982 159.70990138463844 0 159.70990138463844 -353.1478575928104 0 0 0 0 27.864243536361755 59.564146077314717 0 59.564146077314717 -389.41122218784494 0 0 0 0 28.650854509047349 33.913276952686374 0 33.913276952686374 -255.14340643252308 0 0 0 0 31.960420811104996 -61.948145684601059 0 -61.948145684601059 -278.58195970679617 0 0 0 0 5.7681437544005689 1.5848145015084398 0 1.5848145015084398 -1.1879288976180042 0 0 0 0 13.588967527430214 8.0417076383685071 0 8.0417076383685071 1.1763123695463946 0 0 0 0 334.18978517102369 208.53880019244662 0 208.53880019244662 114.37268057534766 0 0 0 0 12.323608685863292 8.7137864656051534 0 8.7137864656051534 4.9918663221820907 0 0 0 0 6.5962518353458108 3.9950434540371056 0 3.9950434540371056 -5.2388269960746712 0 0 0 0 359.61265744161938 220.99495392583503 0 220.99495392583503 99.732117062074394 0 0 0 0 0.89506534587529529 0.29963031880464541 0 0.29963031880464541 0.22167102363129132 0 0 0 0 286.23704808743787 231.58024442063635 0 231.58024442063635 294.86453032989584 0 0 0 0 342.09527087541937 256.09811569799922 0 256.09811569799922 123.83811751090707 0 0 0 0 310.24024666701007 278.49270960792546 0 278.49270960792546 229.36792447115795 0 0 0 0 1.4492886578854183 0.46676861318128715 0 0.46676861318128715 1.4452371102888613 0 0 0 0 6.0385430936439661 9.63523344869418 0 9.63523344869418 7.4733825298509373 0 0 0 0 369.36763546874499 86.898897745864019 0 86.898897745864019 29.256773962943953 0 0 0 0 6.0020522237609839 7.107977239633783 0 7.107977239633783 8.6712650195856895 0 0 0 0 3.7758197816604877 3.994274922963438 0 3.994274922963438 -5.7216428493507747 0 0 0 0 13.599884326295069 12.081708701777529 0 12.081708701777529 -2.1344420012057981 0 0 0 0 14.686285453191886 11.074036318221374 0 11.074036318221374 -8.6194181520404527 0 0 0 0 5.4113160336273722 8.2076867758580647 0 8.2076867758580647 6.8729556078333189 0 0 0 0 0.93685474359517684 25.207150943127317 0 25.207150943127317 10.888246959107278 0 0 0 0 -2.0710423332484353 11.397727718445104 0 11.397727718445104 0.45722309231642733 0 0 0 0 1.9856605531276728 11.905570206500329 0 11.905570206500329 13.5915008438933 0 0 0 0 2.4622885594944819 12.156287465653349 0 12.156287465653349 9.0118063849977261 0 0 0 0 2.962014955781811 11.09647112497473 0 11.09647112497473 3.6406951186019008 0 0 0 0 3.175868851118139 27.605403999014015 0 27.605403999014015 -3.6992894553786755 0 0 0 0 3.0901080277141233 7.0143044002902037 0 7.0143044002902037 -2.1974913761743728 0 0 0 0 1.2722236827394227 22.54360760315285 0 22.54360760315285 -15.291410760339204 0 0 0 0 12.553016406076495 14.182955263011536 0 14.182955263011536 -25.042297975407564 0 0 0 0 -0.95575691607686153 6.3650016988271858 0 6.3650016988271858 1.5350543201600857 0 0 0 0 -0.78804191597981799 22.887468521171833 0 22.887468521171833 15.441056576546799 0 0 0 0 6.0164658547437284 9.3164317752687111 0 9.3164317752687111 3.5992916819895981 0 0 0 0 3.9723930219261092 7.7625704409642822 0 7.7625704409642822 6.7390996868061848 0 0 0 0 -33.794849216993043 -3.1018313899920713 0 -3.1018313899920713 23.316078860336347 0 0 0 0 -28.850309316647326 30.421173720768138 0 30.421173720768138 34.090629769953466 0 0 0 0 2.7560985305305792 -3.9832969473592357 0 -3.9832969473592357 9.3090823771273072 0 0 0 0 -0.068236550808933316 8.7983983808619293 0 8.7983983808619293 8.189172785246182 0 0 0 0 206.53848852445662 252.69431464107151 0 252.69431464107151 443.95858863120361 0 0 0 0 2.9918188521405682 31.749090538648488 0 31.749090538648488 -4.7342674033316143 0 0 0 0 8.3646005364938105 31.895987724538578 0 31.895987724538578 -7.0386955427238718 0 0 0 0 2.0490326688450295 29.799900934829566 0 29.799900934829566 -4.5226928412103007 0 0 0 0 17.38920469344157 58.488015375983196 0 58.488015375983196 19.262351095667327 0 0 0 0 -19.765738208461698 49.819980507021 0 49.819980507021 67.260449446909661 0 0 0 0 -65.506885332400998 -70.56437840723936 0 -70.56437840723936 34.675422864431141 0 0 0 0 304.28665788243234 376.08995315583547 0 376.08995315583547 456.00265960578793 0 0 0 0 325.77763463141309 278.93612689350857 0 278.93612689350857 404.00790556090897 0 0 0 0 304.10716489677361 315.00653082881183 0 315.00653082881183 470.80010053575711 0 0 0 0 363.13666391946026 295.20434639808309 0 295.20434639808309 397.64122269665449 0 0 0 0 321.85902296917629 328.68137305796995 0 328.68137305796995 575.11367398425625 0 0 0 0 338.25595113426243 313.19264331246802 0 313.19264331246802 465.47275789134733 0 0 0 0 326.64486761251464 306.41751296707781 0 306.41751296707781 546.10263508161586 0 0 0 0 363.24218663583451 280.78366196207764 0 280.78366196207764 559.39635987688985 0 0 0 0 325.30489871474128 244.17271689735591 0 244.17271689735591 460.61989325000644 0 0 0 0 344.42805311087432 268.90850792748063 0 268.90850792748063 464.41995033224248 0 0 0 0 360.6610830816935 291.12776114556323 0 291.12776114556323 440.2650218023889 0 0 0 0 330.9116228302737 243.97496916407613 0 243.97496916407613 405.45425551869812 0 0 0 0 383.81373406029888 231.12754448385272 0 231.12754448385272 289.12592907920589 0 0 0 0 301.73575095990236 258.85026053866 0 258.85026053866 457.02773377510857 0 0 0 0 344.80921863013646 266.64728370515564 0 266.64728370515564 360.57726484624663 0 0 0 0 307.30015987184015 230.72046194740608 0 230.72046194740608 340.19307816129549 0 0 0 0 -0.53467225819015596 1.318989250221108 0 1.318989250221108 4.0980936819496225 0 0 0 0 291.22844988795987 400.63950702881584 0 400.63950702881584 443.99457028253164 0 0 0 0 442.69862542714691 307.61914583747011 0 307.61914583747011 388.22711454588489 0 0 0 0 -136.86163970455527 110.22828226055572 0 110.22828226055572 -22.403393419064287 0 0 0 0 -310.04245807720872 192.28353983047305 0 192.28353983047305 -3.6527862694499618 0 0 0 0 -19.646752692336122 23.596533604340522 0 23.596533604340522 165.72463249816201 0 0 0 0 -0.39322981061619089 8.414566033211198 0 8.414566033211198 5.9348099949468924 0 0 0 0 -208.04447173763037 214.08989108516539 0 214.08989108516539 -140.79484349278255 0 0 0 0 -18.058548741617415 38.119942186161097 0 38.119942186161097 46.628342915124904 0 0 0 0 -49.39627239084075 19.042183543181864 0 19.042183543181864 -7.2118279376636565 0 0 0 0 -85.880050723353634 -19.868091397339867 0 -19.868091397339867 4.678941600831422 0 0 0 0 -268.6624191844603 4.1396291765347542 0 4.1396291765347542 46.401038301463132 0 0 0 0 -10.700304336991394 -13.992922577769832 0 -13.992922577769832 -10.962605610410492 0 0 0 0 36.637465869622247 30.565051410291517 0 30.565051410291517 -17.024148228303602 0 0 0 0 49.704165796953021 34.324934808248827 0 34.324934808248827 -33.058112018078646 0 0 0 0 -4.4673957597697154 33.81189383323408 0 33.81189383323408 -12.547806700855745 0 0 0 0 35.07263550976495 120.34497523909641 0 120.34497523909641 -33.194004789249448 0 0 0 0 -8.9851908911242475 13.376493030521729 0 13.376493030521729 -14.444082189602598 0 0 0 0 1.7939999623673089 3.6942996707555693 0 3.6942996707555693 -3.6743641877075435 0 0 0 0 19.240625242920942 54.84919680850544 0 54.84919680850544 -0.24579687255254612 0 0 0 0 15.729399555372765 -16.96979367537142 0 -16.96979367537142 44.625291878361168 0 0 0 0 15.231915816912078 0.041713240280387254 0 0.041713240280387254 -5.5124803631974828 0 0 0 0 -23.022095800639363 23.427435259634876 0 23.427435259634876 100.29057827416182 0 0 0 0 -17.559630617396891 23.943791361015588 0 23.943791361015588 6.5393617531225203 0 0 0 0 -14.970396428925596 34.330394249645224 0 34.330394249645224 38.163955111919222 0 0 0 0 -3.7878133802017544 12.244346812871008 0 12.244346812871008 3.6905985551272469 0 0 0 0 -8.9232899909256957 40.315879124753337 0 40.315879124753337 38.348182029377085 0 0 0 0 2.5018298217920574 10.423347762205751 0 10.423347762205751 -5.9466548749935457 0 0 0 0 -13.202462083446235 16.06975148778514 0 16.06975148778514 -1.7191027475282334 0 0 0 0 39.579054120949877 29.471718672103634 0 29.471718672103634 -3.9996773076309182 0 0 0 0 2.0917320657854361 21.111785807886918 0 21.111785807886918 -3.1733256982033708 0 0 0 0 -5.9244569391099731 18.211984989321934 0 18.211984989321934 0.15374609672460515 0 0 0 0 -22.285918634413974 -6.4150098287373112 0 -6.4150098287373112 26.412891890056926 0 0 0 0 0.74576527393185188 3.6430240399411531 0 3.6430240399411531 2.873797287518137 0 0 0 0 -14.472582521178992 5.2334470152891299 0 5.2334470152891299 29.149584046552263 0 0 0 0 -1.5783435232879128 0.80199320797692053 0 0.80199320797692053 26.758364788922336 0 0 0 0 -19.189470528595848 -10.506333671550237 0 -10.506333671550237 28.624210317902907 0 0 0 0 -21.147891319025803 4.447259599375684 0 4.447259599375684 -4.3326236938301008 0 0 0 0 8.8656970312367775 4.5618666939185459 0 4.5618666939185459 -62.565595919248153 0 0 0 0 8.5933255780837499 42.015390292951452 0 42.015390292951452 -5.8139144307015158 0 0 0 0 8.2315800406701101 16.439541866070719 0 16.439541866070719 -38.118018195498735 0 0 0 0 17.181058538499201 45.922589138632702 0 45.922589138632702 -84.094365874459982 0 0 0 0 -60.080152473674389 110.71015283517954 0 110.71015283517954 -21.489629632586002 0 0 0 0 -20.300677509323577 25.586247738067414 0 25.586247738067414 96.972940526671664 0 0 0 0 25.997562688069593 35.453293355415553 0 35.453293355415553 -3.5689159470816776 0 0 0 0 -62.37520920773386 75.465189061408182 0 75.465189061408182 137.17134143834301 0 0 0 0 -22.950310552820156 49.143137620141715 0 49.143137620141715 150.95034486867019 0 0 0 0 4.9479627143009566 24.601186079778927 0 24.601186079778927 94.416051495687498 0 0 0 0 19.581255875276838 48.430804829209819 0 48.430804829209819 124.86921917361587 0 0 0 0 5.5306202587671578 -41.379752920882765 0 -41.379752920882765 17.920740211597149 0 0 0 0 -128.515171882711 50.886854544338348 0 50.886854544338348 91.716442830260348 0 0 0 0 -65.311969210488087 178.67346427615678 0 178.67346427615678 -63.046637920864669 0 0 0 0 -56.980167923684348 11.232345821765193 0 11.232345821765193 24.795102832467364 0 0 0 0 -299.988341336546 154.79584588076204 0 154.79584588076204 -48.624896161036894 0 0 0 0 -1.2365069435496423 0.40801610739573846 0 0.40801610739573846 -0.0011996093697392851 0 0 0 0 6.4158589421967918 -56.959545840135831 0 -56.959545840135831 -56.120744848275081 0 0 0 0 -5.1841178506204955 7.8729015295531255 0 7.8729015295531255 -12.118852244365456 0 0 0 0 121.98228855392881 70.162217969810627 0 70.162217969810627 64.83092309819267 0 0 0 0 -500.01874115509418 62.121102221403589 0 62.121102221403589 20.977839284907873 0 0 0 0 -357.67900726913649 85.661935835765689 0 85.661935835765689 24.517575129833062 0 0 0 0 -342.50867804546942 71.787305169466833 0 71.787305169466833 -16.866189131156716 0 0 0 0 -297.17135032252281 232.02159285408379 0 232.02159285408379 44.992593592451158 0 0 0 0 -304.37049920241407 167.04680559021108 0 167.04680559021108 -75.203512895416679 0 0 0 0 -710.26800456266392 210.71798485833997 0 210.71798485833997 125.7825911390666 0 0 0 0 -1257.786541291207 227.32967958022346 0 227.32967958022346 18.201492462748092 0 0 0 0 160.44165790703482 198.77505339612475 0 198.77505339612475 -120.70251450143428 0 0 0 0 -1.902296914438395 2.6917947935468334 0 2.6917947935468334 -4.6203024460579734 0 0 0 0 -262.09041651149892 640.93942579511065 0 640.93942579511065 -108.74605932242767 0 0 0 0 -66.260884010775044 412.37674157616226 0 412.37674157616226 128.23821173211937 0 0 0 0 -56.668727278698498 447.21222089841035 0 447.21222089841035 239.35501765159216 0 0 0 0 -11.594015505477728 97.034644236633085 0 97.034644236633085 130.58487264085844 0 0 0 0 -40.522362144485669 68.226108028144381 0 68.226108028144381 286.58028895459029 0 0 0 0 -84.830762615260028 9.2392201124379767 0 9.2392201124379767 610.07120666434412 0 0 0 0 -43.16751027274222 393.14996571838213 0 393.14996571838213 419.26611013763443 0 0 0 0 41.056281796105395 521.93246853844414 0 521.93246853844414 568.18650822704399 0 0 0 0 -64.611829710129314 595.70779509058627 0 595.70779509058627 295.26013504927863 0 0 0 0 -182.90591458438576 405.35481021575697 0 405.35481021575697 301.97469047014283 0 0 0 0 -330.19144633178803 746.39291033116979 0 746.39291033116979 285.29196750539904 0 0 0 0 -89.924751255060983 607.07273265195977 0 607.07273265195977 337.87416957043638 0 0 0 0 -100.44191744601267 648.93625886333302 0 648.93625886333302 219.2777190522747 0 0 0 0 -266.62843499602968 442.94266298033745 0 442.94266298033745 188.3557247428331 0 0 0 0 26.427405400158023 506.76494122408724 0 506.76494122408724 197.94693898563298 0 0 0 0 -78.639879130922054 347.71399193202853 0 347.71399193202853 135.82407316879383 0 0 0 0 250.43047069014938 291.93086200038499 0 291.93086200038499 635.40389534636847 0 0 0 0 266.60235627030852 333.04080587353963 0 333.04080587353963 737.27924562979433 0 0 0 0 267.13532742832831 326.14070404668769 0 326.14070404668769 792.2133718749426 0 0 0 0 365.1455389185212 310.20506702863327 0 310.20506702863327 743.6404401420632 0 0 0 0 304.49014971479119 318.40344059897359 0 318.40344059897359 682.17873175680597 0 0 0 0 408.36363091191743 297.20071717296014 0 297.20071717296014 685.76753838098068 0 0 0 0 320.45686586324155 317.4144694525765 0 317.4144694525765 582.95721418322466 0 0 0 0 275.71771157458716 316.94002918464827 0 316.94002918464827 733.71050059679465 0 0 0 0 295.20451485708327 378.64083217271406 0 378.64083217271406 614.7956373291513 0 0 0 0 409.259201746494 576.86992487250848 0 576.86992487250848 835.16843469027742 0 0 0 0 2.446214993803963 -1.7772766590100701 0 -1.7772766590100701 2.1859431503307905 0 0 0 0 264.03058657905058 381.23447383925583 0 381.23447383925583 367.05082765622126 0 0 0 0 197.47172916102863 270.18042185069316 0 270.18042185069316 700.51459549312221 0 0 0 0 212.04033040638024 344.13840761301651 0 344.13840761301651 824.9726411394538 0 0 0 0 276.10936587931064 429.76476828361444 0 429.76476828361444 406.90484375015831 0 0 0 0 -13.521920718902038 387.96955665298566 0 387.96955665298566 492.91420786667709 0 0 0 0 129.29123743154923 535.03937854896526 0 535.03937854896526 342.31989149939432 0 0 0 0 324.31118757145305 639.75126950120898 0 639.75126950120898 315.75939512992147 0 0 0 0 162.91060396717421 429.62936366315432 0 429.62936366315432 455.35104509661664 0 0 0 0 359.16303496469482 755.37282183770412 0 755.37282183770412 663.93227280365261 0 0 0 0 311.27632447093492 445.95523289567836 0 445.95523289567836 587.35012452409774 0 0 0 0 261.1543210341415 426.7324228209385 0 426.7324228209385 740.42240620854182 0 0 0 0 316.76070225662625 527.74686924477692 0 527.74686924477692 784.72714790394764 0 0 0 0 850.75346764244023 1173.1843437880098 0 1173.1843437880098 1185.8153588332166 0 0 0 0 650.78009081167329 128.25243420185166 0 128.25243420185166 1332.3688956503613 0 0 0 0 -201.21549326637614 242.76880075848112 0 242.76880075848112 1326.1535200436263 0 0 0 0 738.3570596689533 1182.3148582558215 0 1182.3148582558215 1244.4581771475832 0 0 0 0 1548.5744144878336 625.12254391457554 0 625.12254391457554 703.46716393291763 0 0 0 0 714.95587380159122 573.6296000766074 0 573.6296000766074 729.1571195892584 0 0 0 0 885.08767845612783 805.98241497260074 0 805.98241497260074 782.52442944611084 0 0 0 0 316.32024612071382 494.68252495189637 0 494.68252495189637 949.96715956893786 0 0 0 0 370.44939326639724 265.15513708831008 0 265.15513708831008 968.73336080749868 0 0 0 0 364.40539517175057 356.21394890751736 0 356.21394890751736 736.91097805465949 0 0 0 0 678.39490684944394 351.79926906931564 0 351.79926906931564 735.71644490032577 0 0 0 0 654.44331372024317 611.90134834508194 0 611.90134834508194 783.23177134525622 0 0 0 0 587.4590325905956 574.56706811702668 0 574.56706811702668 770.68082705723464 0 0 0 0 384.34217070622344 557.88911481374271 0 557.88911481374271 791.51165300462662 0 0 0 0 363.09249141672626 554.34911023010909 0 554.34911023010909 804.31132877966934 0 0 0 0 230.68177361743437 449.32444762253897 0 449.32444762253897 801.17756416792804 0 0 0 0 327.27866659248684 370.41987346268729 0 370.41987346268729 680.28928737245531 0 0 0 0 493.47854226033451 382.89399723162353 0 382.89399723162353 671.00462894857924 0 0 0 0 408.79720090390038 954.23526879168276 0 954.23526879168276 1172.6120678806672 0 0 0 0 177.11035750779411 725.93732341073132 0 725.93732341073132 1158.1695747530541 0 0 0 0 321.72302367641169 790.6701289988232 0 790.6701289988232 902.18938255157855 0 0 0 0 266.21035475718782 698.45509714129253 0 698.45509714129253 1061.9854698563704 0 0 0 0 179.31931334686669 571.27856094147216 0 571.27856094147216 917.10675199682771 0 0 0 0 378.9522575091687 725.97539527428989 0 725.97539527428989 973.95230336615498 0 0 0 0 510.67174488355158 849.61826402280258 0 849.61826402280258 910.55436928690642 0 0 0 0 445.72081637527299 750.67528332700522 0 750.67528332700522 776.28494414574106 0 0 0 0 488.54173093565987 896.28253272008396 0 896.28253272008396 838.21212290176572 0 0 0 0 862.46534233020793 799.80237472523936 0 799.80237472523936 537.3171558633876 0 0 0 0 469.58772161647175 869.55206173967576 0 869.55206173967576 855.94808069725514 0 0 0 0 618.01766955421408 979.14436406938603 0 979.14436406938603 879.40976379770109 0 0 0 0 482.8247884041657 446.25597338747519 0 446.25597338747519 297.9529947794199 0 0 0 0 409.53856401942721 719.13420920807005 0 719.13420920807005 806.35577899107011 0 0 0 0 524.56808504639775 961.99905486400439 0 961.99905486400439 957.80695868660496 0 0 0 0 377.14648285687144 747.02458718404978 0 747.02458718404978 782.360184897007 0 0 0 0 179.16348644526443 702.82210670383574 0 702.82210670383574 951.87202919230492 0 0 0 0 342.88887266715028 553.99559135450909 0 553.99559135450909 608.20499208322053 0 0 0 0 151.30155882756299 472.96501057977366 0 472.96501057977366 740.75478823177036 0 0 0 0 64.359482274485345 226.69702119577505 0 226.69702119577505 591.07654180772943 0 0 0 0 -5.7838582176319093 3.6696481162768464 0 3.6696481162768464 3.5700746585193279 0 0 0 0 -461.46395154736729 -105.01970294703847 0 -105.01970294703847 455.80295965181813 0 0 0 0 -335.95846092964348 52.926091593613364 0 52.926091593613364 111.95273207393984 0 0 0 0 -232.39833248449577 110.25973914021597 0 110.25973914021597 140.33523512698594 0 0 0 0 -324.33042976440265 97.14095357606675 0 97.14095357606675 218.66366719704274 0 0 0 0 -232.73823685035677 237.59047613913299 0 237.59047613913299 186.37199905560078 0 0 0 0 -256.04227349611756 158.47333335110352 0 158.47333335110352 -39.8074276564912 0 0 0 0 -276.95271646200763 181.98799208373839 0 181.98799208373839 90.106749365353608 0 0 0 0 -352.87334357423606 -15.492031325785319 0 -15.492031325785319 -115.03381738786993 0 0 0 0 121.963238750237 21.89816740713195 0 21.89816740713195 -410.5288185989466 0 0 0 0 -10.11836028624748 97.935355887779224 0 97.935355887779224 63.992575857447264 0 0 0 0 -24.724953276576343 106.96211644754021 0 106.96211644754021 35.359292635403108 0 0 0 0 13.353180782878553 139.79133240069405 0 139.79133240069405 49.793660639283189 0 0 0 0 -62.577447883017157 137.81137543099248 0 137.81137543099248 62.050211379335451 0 0 0 0 -23.99915211154439 121.93838466331817 0 121.93838466331817 33.567367182577982 0 0 0 0 -116.30718515693297 108.06663927086811 0 108.06663927086811 50.330963548517502 0 0 0 0 -89.431109133300197 91.447317769205256 0 91.447317769205256 34.659276459364264 0 0 0 0 -217.66366175836265 29.128409123551137 0 29.128409123551137 23.98665759063806 0 0 0 0 -225.40203448128523 100.75691515053859 0 100.75691515053859 63.551420443686766 0 0 0 0 -195.62068589291448 120.70940542232711 0 120.70940542232711 51.856066301991632 0 0 0 0 -195.52934908138195 121.34803079379253 0 121.34803079379253 -33.461635540801581 0 0 0 0 -108.44945609480419 106.21945506204702 0 106.21945506204702 38.61757653910081 0 0 0 0 -65.936568871022246 100.2181916801992 0 100.2181916801992 56.899221516661783 0 0 0 0 -97.367807455111688 129.9414440747737 0 129.9414440747737 52.314970847841323 0 0 0 0 -82.626899713370221 94.001453676975871 0 94.001453676975871 44.347253526917939 0 0 0 0 -41.572304218549107 119.0500645852344 0 119.0500645852344 25.42678623444408 0 0 0 0 13.733945522872091 126.34794644098201 0 126.34794644098201 53.448123060296894 0 0 0 0 -6.6654386117097602 87.164683591028734 0 87.164683591028734 32.882517459751398 0 0 0 0 -9.4577213477441546 113.25799502320024 0 113.25799502320024 24.115165409906695 0 0 0 0 -53.151906137527476 74.746756587435812 0 74.746756587435812 41.836973453465134 0 0 0 0 -68.01334244975078 117.45483108605413 0 117.45483108605413 26.12516851559576 0 0 0 0 -91.054766928726167 119.47721177595668 0 119.47721177595668 -4.1626916479926876 0 0 0 0 -179.98061431204405 91.776460175899956 0 91.776460175899956 39.65476009441727 0 0 0 0 -174.37506617141162 124.94587527881191 0 124.94587527881191 -8.1220347555317858 0 0 0 0 -147.39184375365039 134.09904183924414 0 134.09904183924414 28.290973136720595 0 0 0 0 36.817359107420998 101.34409750157181 0 101.34409750157181 15.734319255782793 0 0 0 0 34.304866443748324 27.411053174842209 0 27.411053174842209 44.447165009811101 0 0 0 0 965.25977921217418 983.83001781153143 0 983.83001781153143 562.30866991943913 0 0 0 0 -0.56895491686957911 0.68497065697044945 0 0.68497065697044945 2.7661855279186938 0 0 0 0 -614.21224180089666 -321.63645468600907 0 -321.63645468600907 -140.77107097319777 0 0 0 0 921.28767336787132 936.76601822588316 0 936.76601822588316 606.21493596389246 0 0 0 0 -440.07221358963216 173.88126212298494 0 173.88126212298494 101.98202501940159 0 0 0 0 -604.33256487030121 75.053771178192164 0 75.053771178192164 131.11760741418493 0 0 0 0 -328.14891835151138 120.81680394287287 0 120.81680394287287 39.911143519525467 0 0 0 0 512.87754010914614 274.36748213672547 0 274.36748213672547 -834.63460088189527 0 0 0 0 -125.64442233829141 256.14462700994022 0 256.14462700994022 119.93867924277208 0 0 0 0 1089.6334703502725 1212.595887843639 0 1212.595887843639 672.9283619848884 0 0 0 0 699.025800473446 1122.5837606534128 0 1122.5837606534128 926.43275221534168 0 0 0 0 915.33660391996091 1404.6261305610069 0 1404.6261305610069 1104.8193720340951 0 0 0 0 465.80857999593354 823.39155225403363 0 823.39155225403363 1760.2200366916011 0 0 0 0 1309.8996305594064 1575.1991750446427 0 1575.1991750446427 1783.4684628311834 0 0 0 0 650.88138748421898 1852.459924400212 0 1852.459924400212 3276.1990461796363 0 0 0 0 11.701478567328692 7.0192682960336619 0 7.0192682960336619 -1.2602110747409236 0 0 0 0 508.43466093821189 1204.2803324503607 0 1204.2803324503607 2563.5579658983474 0 0 0 0 610.13438964821762 1668.0801150107329 0 1668.0801150107329 2513.5692874787683 0 0 0 0 681.48914022842746 1452.6834332391354 0 1452.6834332391354 2359.1806438874964 0 0 0 0 -0.24333536988426374 2.1958422450099917 0 2.1958422450099917 1.6946343243965394 0 0 0 0 160.79301324449079 214.85281306054787 0 214.85281306054787 367.59838320797667 0 0 0 0 -0.24962457216796352 1.0084500288985154 0 1.0084500288985154 1.6568896892851157 0 0 0 0 -1033.0369828324001 -400.6734958505084 0 -400.6734958505084 426.13207322595144 0 0 0 0 998.75441861307536 917.69702558297638 0 917.69702558297638 928.3235747792113 0 0 0 0 1096.4021237346897 1217.8435884547025 0 1217.8435884547025 1821.008365887752 0 0 0 0 -258.97916185734357 3.6049065378444993 0 3.6049065378444993 -135.60957891385561 0 0 0 0 615.7926609904971 807.50721712329596 0 807.50721712329596 1181.424877277595 0 0 0 0 -11.030330062232679 115.69072733578543 0 115.69072733578543 -72.376837523252561 0 0 0 0 28.206608735792447 10.396128455163064 0 10.396128455163064 -4.8211360981801752 0 0 0 0 995.28036480688388 1206.3889100815211 0 1206.3889100815211 1997.3036960303382 0 0 0 0 466.2135839229486 1477.2504253614106 0 1477.2504253614106 1878.8887397771337 0 0 0 0 76.613343743234054 958.1439987588285 0 958.1439987588285 2377.8325776383772 0 0 0 0 511.36098683911223 1653.342974978551 0 1653.342974978551 3170.7030013750064 0 0 0 0 55.44256677222802 141.12165871230127 0 141.12165871230127 217.57286561621959 0 0 0 0 -5.7485211183248346 -2.9981232719414788 0 -2.9981232719414788 8.5225957788941642 0 0 0 0 1004.6476472796292 1479.6413718546748 0 1479.6413718546748 1642.199217426471 0 0 0 0 93.799206194653379 126.23761127616581 0 126.23761127616581 142.41791926899168 0 0 0 0 103.70840948788873 162.1970692926219 0 162.1970692926219 270.05614976081415 0 0 0 0 175.93924824276428 142.38338746256522 0 142.38338746256522 -21.075359917410424 0 0 0 0 73.526153846759371 58.623034765254033 0 58.623034765254033 99.400512967974464 0 0 0 0 40.790943532504571 76.690296978985771 0 76.690296978985771 182.53359489510399 0 0 0 0 -2.8339270166729946 0.47184655392127439 0 0.47184655392127439 -2.0779050512309594 0 0 0 0 -375.14893674081031 136.96665734970543 0 136.96665734970543 102.3901014978328 0 0 0 0 -191.15942506251668 237.66453061246989 0 237.66453061246989 -11.597200049943694 0 0 0 0 344.75537105534022 289.02436076473896 0 289.02436076473896 247.50147215977313 0 0 0 0 183.22652681584077 199.25506544569032 0 199.25506544569032 283.61787844794367 0 0 0 0 247.32403565964341 155.18793754928333 0 155.18793754928333 73.512657304676395 0 0 0 0 30.590558234249329 128.03042055458013 0 128.03042055458013 91.398131216134061 0 0 0 0 141.13084725943645 142.69225425997115 0 142.69225425997115 78.277844605932842 0 0 0 0 26.702379244661852 39.714919288482307 0 39.714919288482307 16.97413629598708 0 0 0 0 86.699745601252289 173.42093534255559 0 173.42093534255559 59.646348397485781 0 0 0 0 -128.56157236946092 126.30008701579754 0 126.30008701579754 52.133809990380087 0 0 0 0 33.9119529732925 186.56827821051957 0 186.56827821051957 62.47601661336239 0 0 0 0 9.709450230684979 352.60973722336121 0 352.60973722336121 73.709202932441258 0 0 0 0 -52.088721118798276 340.05527349080262 0 340.05527349080262 99.820772469384337 0 0 0 0 -47.771908528697168 331.9822792744676 0 331.9822792744676 101.41838002241821 0 0 0 0 -106.95138893895478 334.57916407125452 0 334.57916407125452 124.50761398632585 0 0 0 0 -49.402525252531632 300.26665055424996 0 300.26665055424996 85.065849041299543 0 0 0 0 -50.228145233044415 300.54153856126578 0 300.54153856126578 185.37774223765609 0 0 0 0 -38.64072759031842 254.96153074367476 0 254.96153074367476 124.34167128392869 0 0 0 0 -28.896102177117427 215.33777632835154 0 215.33777632835154 264.42729816084079 0 0 0 0 -250.22807223206473 254.71026379667137 0 254.71026379667137 152.42666200172107 0 0 0 0 174.21926787541452 289.02078243162964 0 289.02078243162964 277.55000401887401 0 0 0 0 68.459846626348735 242.51277999608646 0 242.51277999608646 257.09798507596633 0 0 0 0 83.43615631772991 315.0928272065521 0 315.0928272065521 166.65297248320485 0 0 0 0 181.34154373548517 244.96210816036046 0 244.96210816036046 176.05274734617342 0 0 0 0 86.567821626391378 279.11400731246158 0 279.11400731246158 180.1248239382021 0 0 0 0 47.153094329085434 245.75709586449966 0 245.75709586449966 154.39798085786242 0 0 0 0 -60.564211696582788 329.26673252821547 0 329.26673252821547 144.36027457538148 0 0 0 0 37.267544535556226 341.21712810486588 0 341.21712810486588 131.06034337132314 0 0 0 0 19.456635342798108 312.99088389683448 0 312.99088389683448 66.429344119940652 0 0 0 0 1.415916557152741 313.80020623199312 0 313.80020623199312 121.59264729268762 0 0 0 0 20.173357252051574 194.31620517005956 0 194.31620517005956 123.21516940267611 0 0 0 0 118.34744743259216 181.88038055690231 0 181.88038055690231 41.236169937274099 0 0 0 0 180.21863141862559 182.80170492732668 0 182.80170492732668 95.777699672590529 0 0 0 0 154.21351453771786 226.10393913622465 0 226.10393913622465 92.248574913501216 0 0 0 0 222.02537172916345 175.86746619881887 0 175.86746619881887 74.512091079263428 0 0 0 0 257.86731556924497 213.03343524808542 0 213.03343524808542 93.359676640251564 0 0 0 0 266.69802535064082 177.2169355024871 0 177.2169355024871 93.14634377481525 0 0 0 0 263.07277476840682 191.69279235491558 0 191.69279235491558 131.96486263798624 0 0 0 0 205.39866554291802 213.17460634903864 0 213.17460634903864 123.27542155921583 0 0 0 0 266.27545010573522 202.26764741523493 0 202.26764741523493 117.47080206890178 0 0 0 0 107.38933966832701 254.16923242576195 0 254.16923242576195 133.80612880512308 0 0 0 0 183.42621562138811 218.06689546554571 0 218.06689546554571 129.23506179484826 0 0 0 0 346.62557875433413 252.31559349208237 0 252.31559349208237 158.35532059818797 0 0 0 0 353.8573003293277 223.59213592232118 0 223.59213592232118 110.99734389603145 0 0 0 0 354.01561125156877 226.59898540909671 0 226.59898540909671 122.78224828076782 0 0 0 0 360.6573144590875 223.01811745125815 0 223.01811745125815 95.728843844539369 0 0 0 0 363.39152141577506 230.49574956067045 0 230.49574956067045 109.76446384779774 0 0 0 0 366.13381310166369 211.60807017721538 0 211.60807017721538 82.168657460370014 0 0 0 0 361.34913982080616 232.56219997815788 0 232.56219997815788 108.69130759669497 0 0 0 0 328.61953643185552 172.70454486835024 0 172.70454486835024 66.432375162310336 0 0 0 0 317.43294128902926 213.73400686068089 0 213.73400686068089 108.69029239926567 0 0 0 0 332.3117646973551 196.74288761565367 0 196.74288761565367 95.429920817332004 0 0 0 0 352.74080347080599 231.14269821186667 0 231.14269821186667 137.49502189778468 0 0 0 0 348.73645712687721 214.27011715653271 0 214.27011715653271 104.51286962374979 0 0 0 0 349.19166429305915 220.24339625525772 0 220.24339625525772 109.04478319092777 0 0 0 0 325.88118560194562 217.14263043516848 0 217.14263043516848 171.08743544815479 0 0 0 0 319.14089672301361 224.18495587778594 0 224.18495587778594 150.79078921358359 0 0 0 0 320.55089730616601 203.21086183572334 0 203.21086183572334 145.20566841327218 0 0 0 0 299.83162128461845 253.79534979207187 0 253.79534979207187 260.71998660782356 0 0 0 0 333.28156518064498 222.93114037870896 0 222.93114037870896 172.36107234661051 0 0 0 0 325.5175572357366 250.42809644875285 0 250.42809644875285 268.07961696802295 0 0 0 0 177.80001219002952 222.95934514627629 0 222.95934514627629 176.77255050498661 0 0 0 0 259.7509927608553 194.58996409172323 0 194.58996409172323 199.55500345967857 0 0 0 0 268.75432908066432 228.80096324749138 0 228.80096324749138 175.77654291050135 0 0 0 0 199.28126419489854 200.51218888902326 0 200.51218888902326 278.87097843981883 0 0 0 0 163.09382650526823 254.96206024739638 0 254.96206024739638 260.06132017652408 0 0 0 0 253.52591700114863 270.52883880961235 0 270.52883880961235 342.64881820513665 0 0 0 0 231.32711328487858 237.33803684956627 0 237.33803684956627 386.40817682586248 0 0 0 0 282.97903266307549 263.23157779309236 0 263.23157779309236 394.58643517574274 0 0 0 0 205.30115612121881 250.02609778850547 0 250.02609778850547 533.91698835075408 0 0 0 0 207.1178926209177 204.50055584872857 0 204.50055584872857 427.86003000320181 0 0 0 0 301.9307084717766 231.65523032755496 0 231.65523032755496 374.07515297689133 0 0 0 0 336.25475651659508 259.69646876769366 0 259.69646876769366 271.38777228250535 0 0 0 0 311.18043431569095 268.90523326386835 0 268.90523326386835 361.27223113640048 0 0 0 0 296.91967193434539 209.88799209950866 0 209.88799209950866 281.76481669674013 0 0 0 0 262.64239487882878 246.6047009246102 0 246.6047009246102 472.62941384868236 0 0 0 0 314.06144285168557 284.32218840192536 0 284.32218840192536 430.68505802506183 0 0 0 0 340.32115375521971 266.36975994583679 0 266.36975994583679 440.20299981347847 0 0 0 0 283.74915029014483 305.3753912905139 0 305.3753912905139 589.33570770625863 0 0 0 0 280.15746941315592 253.15862045057324 0 253.15862045057324 473.68458937086501 0 0 0 0 324.1528787211646 314.07329139135032 0 314.07329139135032 588.03853828865158 0 0 0 0 225.89713278279669 297.31729601004815 0 297.31729601004815 618.38137974960898 0 0 0 0 278.72224269707658 333.84103565835431 0 333.84103565835431 559.89281484539833 0 0 0 0 331.54849354352723 439.64015815645871 0 439.64015815645871 739.5697144383646 0 0 0 0 135.91208196304069 404.86674738796023 0 404.86674738796023 837.92382615663291 0 0 0 0 179.75623364400235 414.85177932334648 0 414.85177932334648 757.30609043120705 0 0 0 0 309.88606096157309 526.48263210820369 0 526.48263210820369 832.85043264423734 0 0 0 0 -87.197694324349868 398.43021341733413 0 398.43021341733413 1039.7470707223736 0 0 0 0 461.46464242178081 904.64389522014699 0 904.64389522014699 1143.5885392027876 0 0 0 0 -47.715115883263934 842.69593493996354 0 842.69593493996354 1489.0208114306233 0 0 0 0 -15.373762504226761 206.78430814384296 0 206.78430814384296 330.94895069468544 0 0 0 0 -709.75374091821141 201.51636146082416 0 201.51636146082416 1259.4994796840988 0 0 0 0 -308.00641166500645 160.01194414541035 0 160.01194414541035 334.88421712250965 0 0 0 0 96.524557564378483 291.67075464236666 0 291.67075464236666 310.18727124054851 0 0 0 0 -10.843014244557708 236.13322295519663 0 236.13322295519663 745.96124799597749 0 0 0 0 103.14580533339904 197.94621648442092 0 197.94621648442092 382.65839443929463 0 0 0 0 202.73755251608895 301.16505317684175 0 301.16505317684175 449.10222093234461 0 0 0 0 -15.768104296073219 102.86649808711392 0 102.86649808711392 478.82970404012144 0 0 0 0 0.9440738846660679 419.52977421802007 0 419.52977421802007 348.30084151029405 0 0 0 0 209.42418490144973 243.31379836598944 0 243.31379836598944 165.35153865235407 0 0 0 0 36.943003191845492 96.20797161752489 0 96.20797161752489 130.07371897642952 0 0 0 0 38.086176520533627 95.476140474562271 0 95.476140474562271 12.023581516506965 0 0 0 0 58.747401547909249 63.411516138367006 0 63.411516138367006 -2.2316178797918838 0 0 0 0 178.87239690984279 143.42542455988041 0 143.42542455988041 -61.526967542100465 0 0 0 0 52.473154644299939 -23.072918295449199 0 -23.072918295449199 -180.15118247402825 0 0 0 0 -0.17892675287959037 -0.90493879937179145 0 -0.90493879937179145 1.4392056344846651 0 0 0 0 615.99931321651093 694.84339546748015 0 694.84339546748015 466.82708701288357 0 0 0 0 63.120718866939569 63.606072453572324 0 63.606072453572324 -10.714568486233475 0 0 0 0 63.411469331120315 60.780396536618355 0 60.780396536618355 -17.119781834007881 0 0 0 0 665.94016118451293 241.27032230195437 0 241.27032230195437 101.4285591250009 0 0 0 0 11.703404657846988 2.3583020544784858 0 2.3583020544784858 0.033716463129991325 0 0 0 0 67.12185577886703 9.4663646093395073 0 9.4663646093395073 -28.295609616914589 0 0 0 0 663.12484988363576 589.15105047315228 0 589.15105047315228 314.29186412767376 0 0 0 0 590.78125509955044 820.82264621418153 0 820.82264621418153 352.48059913569887 0 0 0 0 -0.023503742773755221 1283.4114878040491 0 1283.4114878040491 591.94306806970781 0 0 0 0 890.37020277546981 937.22640576266349 0 937.22640576266349 364.74045519369156 0 0 0 0 825.78219855282077 1973.3972773748828 0 1973.3972773748828 546.91424486834148 0 0 0 0 2155.3525947372254 2143.2629611319135 0 2143.2629611319135 118.15162564802449 0 0 0 0 3553.6934343391331 1078.3755316768656 0 1078.3755316768656 -0.19000947519382605 0 0 0 0 216.01805513228464 -105.04089494730943 0 -105.04089494730943 -16.826185108744539 0 0 0 0 -1.0937183221812603 -1.5915401312345807 0 -1.5915401312345807 -1.2331810019940121 0 0 0 0 15.090554157817678 255.98181351919629 0 255.98181351919629 366.20091639261227 0 0 0 0 9.5780181600450192 7.7247090558397389 0 7.7247090558397389 7.3105886306288426 0 0 0 0 4661.6961267191818 -732.65794522577198 0 -732.65794522577198 -41.996735493667074 0 0 0 0 4457.3475225633883 707.33526559101301 0 707.33526559101301 -191.97595729061868 0 0 0 0 2881.0200322448291 -765.27415871028825 0 -765.27415871028825 53.612683828803711 0 0 0 0 3278.7951404099294 1058.692736142737 0 1058.692736142737 -296.43341997807875 0 0 0 0 2001.2513887282985 981.65605390506244 0 981.65605390506244 -256.24112225289355 0 0 0 0 1800.5569473538781 -425.18305098108976 0 -425.18305098108976 -16.930405785657058 0 0 0 0 7.6722578128138821 3.570381055178359 0 3.570381055178359 -5.8627939160820404 0 0 0 0 13.865299009577981 21.999534070483691 0 21.999534070483691 22.37149421734108 0 0 0 0 1264.4433684033211 80.423598887984554 0 80.423598887984554 -91.443128180188069 0 0 0 0 93.268415755228489 127.64219187100389 0 127.64219187100389 -90.067559304650786 0 0 0 0 1204.0365508422542 1.7157095782930583 0 1.7157095782930583 -102.57999806010048 0 0 0 0 1566.7905187664146 806.21984469705603 0 806.21984469705603 -168.31979699456861 0 0 0 0 1219.8137587064994 759.2293597959906 0 759.2293597959906 -121.94131958050639 0 0 0 0 853.50773332114386 734.92483626123112 0 734.92483626123112 -4.3498855085999821 0 0 0 0 476.27531972644647 228.06849456087002 0 228.06849456087002 106.92468929194729 0 0 0 0 6.6091475024732063 24.54827118141111 0 24.54827118141111 3.2367257277655881 0 0 0 0 -59.06656463296531 56.209810943990306 0 56.209810943990306 7.5731804718452622 0 0 0 0 10.738302128876725 22.598909178314685 0 22.598909178314685 9.2400918475916001 0 0 0 0 3.024247334089921 39.732668794732689 0 39.732668794732689 6.6630757299655841 0 0 0 0 -83.568704912264366 31.132686702901992 0 31.132686702901992 9.2202567807944433 0 0 0 0 -59.126018837181618 11.310732455007383 0 11.310732455007383 2.0782764148443675 0 0 0 0 -12.338324384857373 17.387901797849509 0 17.387901797849509 -6.2961413908319628 0 0 0 0 -71.312499064697477 -9.5703543582021666 0 -9.5703543582021666 -0.67737769261293579 0 0 0 0 66.526460511049663 58.262959825158759 0 58.262959825158759 -312.99193432956235 0 0 0 0 -5.5509978221910217 4.3425290613310779 0 4.3425290613310779 -4.3681044227390373 0 0 0 0 91.806037476531856 -52.501443097507945 0 -52.501443097507945 -873.88873287124443 0 0 0 0 -2.1491703079542219 19.009588138086585 0 19.009588138086585 14.788071704345015 0 0 0 0 -12.643934542893476 52.534013222264548 0 52.534013222264548 -43.128750369563932 0 0 0 0 -18.320469511047122 69.856490090613079 0 69.856490090613079 -56.261658263581921 0 0 0 0 -41.52495769689267 75.671120039020025 0 75.671120039020025 -21.79288909623574 0 0 0 0 -44.056839805387426 98.40072432863235 0 98.40072432863235 -56.872154883943722 0 0 0 0 -88.040863424292183 372.57803694689937 0 372.57803694689937 -6.5821278653602349 0 0 0 0 -210.55766456169476 194.61898282178936 0 194.61898282178936 -105.17048289052036 0 0 0 0 -163.74949341114552 207.35196221592196 0 207.35196221592196 -109.74238779234292 0 0 0 0 94.564538664519205 345.96937844184868 0 345.96937844184868 -383.99715003398342 0 0 0 0 91.772613159431785 533.47295465870411 0 533.47295465870411 -692.19861508745817 0 0 0 0 8.3563372676144354 352.7852914574687 0 352.7852914574687 -64.99964651085611 0 0 0 0 158.9010154886455 545.84089703049904 0 545.84089703049904 1.6851364648609888 0 0 0 0 593.58839328066824 79.200364261800132 0 79.200364261800132 -132.67020004039023 0 0 0 0 -125.71715147958457 196.3582248451421 0 196.3582248451421 -161.41740936855786 0 0 0 0 -804.01538670872833 265.28382276427328 0 265.28382276427328 65.21858682637685 0 0 0 0 -279.45885296275083 490.09316635112191 0 490.09316635112191 -0.8250647092636868 0 0 0 0 -33.937283163641041 2.1887452758155632 0 2.1887452758155632 -50.343609293573536 0 0 0 0 72.238087111669302 94.328923146964371 0 94.328923146964371 0.11373337160330266 0 0 0 0 265.93583796866187 -643.44355603957774 0 -643.44355603957774 648.63357859630196 0 0 0 0 -57.248679840864497 72.690994539974781 0 72.690994539974781 -0.11230757436222802 0 0 0 0 2.7663948254550235 1.801648621251168 0 1.801648621251168 2.6616439717130618 0 0 0 0 483.36358909824776 80.166677856734168 0 80.166677856734168 -1074.8909596138983 0 0 0 0 -729.82303213980049 221.82221820460109 0 221.82221820460109 542.76708700312975 0 0 0 0 2.9065069515345385 128.3953583850307 0 128.3953583850307 -39.047469761393131 0 0 0 0 381.39958777545871 -366.28977800157008 0 -366.28977800157008 65.0544498906238 0 0 0 0 16.225725508338087 9.6840914398131375 0 9.6840914398131375 5.5816648867434822 0 0 0 0 145.46092313113331 156.5586413678684 0 156.5586413678684 -149.08316791184916 0 0 0 0 1.0264777823758777 176.43505376898975 0 176.43505376898975 -10.9953880028188 0 0 0 0 -371.5890037973877 -87.152863081821124 0 -87.152863081821124 -20.462682921395754 0 0 0 0 -420.21198531414848 245.8799017273559 0 245.8799017273559 9.9931855409231503 0 0 0 0 -171.73671376012499 61.731792170059634 0 61.731792170059634 25.381346752052195 0 0 0 0 5.2886736913351342 69.665748271399934 0 69.665748271399934 21.575718149422755 0 0 0 0 24.163576915008889 135.71655889053 0 135.71655889053 -15.589848220639396 0 0 0 0 59.980268229235662 150.47509724209522 0 150.47509724209522 -15.038926489144387 0 0 0 0 83.68867890493857 113.09489583348477 0 113.09489583348477 38.758982158738945 0 0 0 0 70.500563460445846 154.26057441958255 0 154.26057441958255 73.090732209449925 0 0 0 0 42.273737722607621 48.058736341488839 0 48.058736341488839 202.96385904368071 0 0 0 0 -16.923078082647407 156.70178893618504 0 156.70178893618504 398.65401636857132 0 0 0 0 -3.5653013477085267 -2.3086616086816889 0 -2.3086616086816889 -0.87625416758371522 0 0 0 0 95.422605557607312 234.05718267009797 0 234.05718267009797 184.43939377221068 0 0 0 0 42.613030607403743 18.274094934876302 0 18.274094934876302 -3.0328227227873867 0 0 0 0 63.313792053319048 131.0201791698637 0 131.0201791698637 51.163270378310699 0 0 0 0 64.274745285872086 89.898770888481067 0 89.898770888481067 122.61089171544882 0 0 0 0 -6.4514623900868173 75.186282110029424 0 75.186282110029424 37.56639855413232 0 0 0 0 -80.36071261716279 20.804218721194047 0 20.804218721194047 42.455081950247404 0 0 0 0 -76.532226716684818 37.271859569180378 0 37.271859569180378 -12.593099371762946 0 0 0 0 -68.869227927774773 28.170791754564561 0 28.170791754564561 -24.105629295940162 0 0 0 0 -61.494719221067498 36.301461564042256 0 36.301461564042256 -16.195149603212485 0 0 0 0 4.8006948736307855 43.742881439041582 0 43.742881439041582 3.867432985984351 0 0 0 0 -0.872949747950031 10.553624343015123 0 10.553624343015123 7.9616065998364149 0 0 0 0 -254.27767359931022 8.3221946062294592 0 8.3221946062294592 62.20636680660391 0 0 0 0 10.478399457636762 41.690851916035939 0 41.690851916035939 8.1609897154019961 0 0 0 0 58.405989869890618 59.32414380584305 0 59.32414380584305 -8.3632556569718872 0 0 0 0 -87.119528440438444 37.039730130818498 0 37.039730130818498 -27.752393899758317 0 0 0 0 168.10190611003782 68.316215076643857 0 68.316215076643857 -238.0890300803585 0 0 0 0 3.7982975160885246 3.0516010611685687 0 3.0516010611685687 2.3090501652494027 0 0 0 0 127.40385096162208 140.05527161212376 0 140.05527161212376 41.37443520362649 0 0 0 0 -41.766379929547156 51.561200849855311 0 51.561200849855311 53.909309503811528 0 0 0 0 -40.333921532495879 -7.1239137589436723 0 -7.1239137589436723 -16.052376114370418 0 0 0 0 -14.140663732789108 68.157117713228217 0 68.157117713228217 27.051958259595267 0 0 0 0 80.544368089831551 214.78870501153142 0 214.78870501153142 211.81114206957864 0 0 0 0 144.39075053428678 207.63928993931404 0 207.63928993931404 78.343938084644833 0 0 0 0 -23.965456816928054 74.285122981411405 0 74.285122981411405 32.543035747163231 0 0 0 0 70.016400825206802 174.00043507003647 0 174.00043507003647 99.34868651436409 0 0 0 0 -137.9701679251084 -112.23326587379051 0 -112.23326587379051 -2.896021370193921 0 0 0 0 132.27504103751562 429.69480475769524 0 429.69480475769524 182.43761524887304 0 0 0 0 169.86099623945483 -98.208247717340782 0 -98.208247717340782 -120.9676460911287 0 0 0 0 -131.36137284243887 188.09355238567332 0 188.09355238567332 54.357766884582816 0 0 0 0 17.485187928032246 75.307285679413326 0 75.307285679413326 -5.2433544325103867 0 0 0 0 10.912653421416184 52.318284055907782 0 52.318284055907782 6.7502500542881592 0 0 0 0 5.9146717628283909 0.64422105460466383 0 0.64422105460466383 -11.729373021515357 0 0 0 0 24.578668539579667 -7.0526857267577725 0 -7.0526857267577725 -62.345323171910422 0 0 0 0 142.99957759437416 64.918630520154579 0 64.918630520154579 -108.70990585807886 0 0 0 0 7.1677872723387566 58.556669597278187 0 58.556669597278187 -39.287740341789139 0 0 0 0 52.751155501471658 35.743196660885587 0 35.743196660885587 -113.50489719884354 0 0 0 0 23.285757371304499 63.382467472043572 0 63.382467472043572 -129.51007052916975 0 0 0 0 4.8708814138738603 43.562225625050516 0 43.562225625050516 -10.673198975018362 0 0 0 0 22.77213215501979 59.030345893159392 0 59.030345893159392 -91.757737040270513 0 0 0 0 25.990842456625387 51.888201728906907 0 51.888201728906907 22.64726675203481 0 0 0 0 33.419136323354905 77.050039218196616 0 77.050039218196616 -115.63122013082102 0 0 0 0 106.67238093228946 119.22115355864605 0 119.22115355864605 -231.23912519199075 0 0 0 0 104.39898769899446 -57.759283590203268 0 -57.759283590203268 -121.33115507450566 0 0 0 0 -36.061245064396644 31.552677918014524 0 31.552677918014524 -167.93620304537035 0 0 0 0 -75.389939336921088 139.02483621075953 0 139.02483621075953 -187.75736577532734 0 0 0 0 3.142465864373662 41.827819324851589 0 41.827819324851589 -185.40382425722783 0 0 0 0 74.120272587468207 154.14652529589148 0 154.14652529589148 -367.74597278335568 0 0 0 0 40.356281465530628 431.52314667792234 0 431.52314667792234 -57.417261110444088 0 0 0 0 460.78850663226331 286.9883409140748 0 286.9883409140748 42.815707691785065 0 0 0 0 -0.75091172266547801 570.23563218821073 0 570.23563218821073 1106.9949637654936 0 0 0 0 81.10790008083859 150.81578773369256 0 150.81578773369256 27.882136512780562 0 0 0 0 -20.59209243337682 -22.33515621719198 0 -22.33515621719198 -31.538063209562097 0 0 0 0 35.130036167407525 56.9583404254372 0 56.9583404254372 -48.867147171920806 0 0 0 0 24.70945767862213 55.681557376308774 0 55.681557376308774 -19.562645504796819 0 0 0 0 6.2486110243309554 15.090362698933177 0 15.090362698933177 9.3921016425744313 0 0 0 0 -3.1036341297731269 40.807765343561186 0 40.807765343561186 57.219103150389856 0 0 0 0 -115.63103441446583 74.826858652966621 0 74.826858652966621 76.470914981735405 0 0 0 0 52.74483878549654 -1.6294100207087467 0 -1.6294100207087467 -386.07627080156817 0 0 0 0 -2.5033825270884904 1.1984963779304394 0 1.1984963779304394 0.68631283389314035 0 0 0 0 38.930124891782754 55.503960428019923 0 55.503960428019923 24.229970069569745 0 0 0 0 -172.0640957516589 -99.048318112767447 0 -99.048318112767447 161.63180788538011 0 0 0 0 64.742109102895483 253.03302126169001 0 253.03302126169001 -268.50729997140661 0 0 0 0 -2.9719806676730514 201.00744780831883 0 201.00744780831883 -13.95890667815911 0 0 0 0 47.552854941471651 42.055108667313561 0 42.055108667313561 -83.491111011127941 0 0 0 0 6.4002367466869146 66.271806401709412 0 66.271806401709412 -18.980977549887598 0 0 0 0 17.375912233610762 101.84993327916754 0 101.84993327916754 -62.143372589076876 0 0 0 0 27.030251879179559 96.283238761265238 0 96.283238761265238 78.904012256487476 0 0 0 0 26.67125359174679 103.83129961229866 0 103.83129961229866 -231.70081785638135 0 0 0 0 31.879188446924672 79.958469908271979 0 79.958469908271979 -203.59960859139795 0 0 0 0 2.6298345552640967 86.252957723959526 0 86.252957723959526 -181.56921331946432 0 0 0 0 10.683207513793604 89.270486013389018 0 89.270486013389018 78.68892796641012 0 0 0 0 21.484550780536665 103.64151286751076 0 103.64151286751076 117.84065091273078 0 0 0 0 59.332810069317929 81.386603000712057 0 81.386603000712057 78.407931247536908 0 0 0 0 12.958810174741537 59.205155683588288 0 59.205155683588288 7.4838974421790851 0 0 0 0 3.8920868993736804 55.363937619840726 0 55.363937619840726 28.615358239338093 0 0 0 0 13.940992155579806 108.40121801219357 0 108.40121801219357 72.589572361423052 0 0 0 0 14.315199140080665 43.250001141900327 0 43.250001141900327 2.3922118935179277 0 0 0 0 91.419283800263656 -2.8034927717744722 0 -2.8034927717744722 -169.90579950452229 0 0 0 0 0.81984732939034188 3.794328761962845 0 3.794328761962845 -1.4166998397882082 0 0 0 0 -20.386754483196654 18.621965917792181 0 18.621965917792181 -7.7457188972026643 0 0 0 0 16.060617783929047 158.86809559550238 0 158.86809559550238 54.641878126974916 0 0 0 0 -12.992965934895039 33.162996235650041 0 33.162996235650041 0.89828830538260718 0 0 0 0 8.0713783188548405 33.855533817972173 0 33.855533817972173 11.204203722794773 0 0 0 0 -31.018779283942422 80.904096204401867 0 80.904096204401867 -62.764750396949239 0 0 0 0 114.12601841009746 89.73221929227293 0 89.73221929227293 -21.149628884186313 0 0 0 0 114.05452785023849 36.898755461388639 0 36.898755461388639 24.975300569392857 0 0 0 0 -47.181699060103711 75.344355482509854 0 75.344355482509854 -123.84430045087356 0 0 0 0 -100.65424838922627 -130.14598101158117 0 -130.14598101158117 -855.33330925053451 0 0 0 0 -62.572588012902997 156.58376991590922 0 156.58376991590922 122.63821514898154 0 0 0 0 14.550677914812695 88.861153590936738 0 88.861153590936738 28.746474931263947 0 0 0 0 -60.862582101195585 -29.580572001388646 0 -29.580572001388646 100.8358708716728 0 0 0 0 -6.0404367632071114 3.2816859714810107 0 3.2816859714810107 4.1828593350428775 0 0 0 0 20.992531045412761 70.765897067059996 0 70.765897067059996 11.772695748710248 0 0 0 0 15.502141243386731 38.254005974124595 0 38.254005974124595 37.640273740931917 0 0 0 0 -51.70498084798237 35.980595611939862 0 35.980595611939862 85.43284466327168 0 0 0 0 -80.404686580295675 132.86494196767308 0 132.86494196767308 92.618277541841962 0 0 0 0 -17.954283222398459 25.573338475092584 0 25.573338475092584 25.823947780509513 0 0 0 0 -8.9869184040115897 6.5731190529532313 0 6.5731190529532313 7.2599421642869046 0 0 0 0 44.225428872987322 60.874848964831926 0 60.874848964831926 67.932358469159226 0 0 0 0 -11.332722173814545 69.173443942330778 0 69.173443942330778 112.60467413110837 0 0 0 0 83.384508769239801 110.06777864257356 0 110.06777864257356 15.205334772443166 0 0 0 0 23.025480184369371 82.817537511451519 0 82.817537511451519 83.215585499416193 0 0 0 0 179.35856456343026 34.783200380508788 0 34.783200380508788 -10.144159782772476 0 0 0 0 49.45874950876896 75.968255233874515 0 75.968255233874515 -17.849523738135758 0 0 0 0 21.418304082406692 34.537363661577025 0 34.537363661577025 24.687372361556697 0 0 0 0 -793.76050170698363 312.19979974268426 0 312.19979974268426 153.41341573138197 0 0 0 0 4.8163364501439503 3.4568481849486474 0 3.4568481849486474 -3.8125558403233413 0 0 0 0 -428.28554000117583 -8.9040639387712872 0 -8.9040639387712872 9.8308026192098623 0 0 0 0 84.290237920416985 43.770572638950398 0 43.770572638950398 -67.172650887368945 0 0 0 0 23.739995317917675 24.514730548760973 0 24.514730548760973 16.793839161076733 0 0 0 0 -39.454766748563998 3.4919853274495836 0 3.4919853274495836 57.698713170437259 0 0 0 0 -352.57169506229548 270.71868625567004 0 270.71868625567004 -123.47528685228463 0 0 0 0 -286.75981488666002 15.679851584725839 0 15.679851584725839 -78.836212031688774 0 0 0 0 -663.74563233585377 244.01703433399416 0 244.01703433399416 0.21134603433165466 0 0 0 0 -1.5366863402064794 -1.0009422553570175 0 -1.0009422553570175 0.50650532316362273 0 0 0 0 198.31799765923643 -34.004668204688642 0 -34.004668204688642 -54.912805704450875 0 0 0 0 25.852810765865797 261.44153224182719 0 261.44153224182719 -0.26808312365756137 0 0 0 0 -199.60538661279134 207.46774920907046 0 207.46774920907046 36.681786818437104 0 0 0 0 159.63249956330401 337.04210838170548 0 337.04210838170548 38.402491880595335 0 0 0 0 106.55539181752829 196.94741852484003 0 196.94741852484003 -40.811308418742556 0 0 0 0 98.954991200538871 299.44709148435822 0 299.44709148435822 77.295238294420415 0 0 0 0 144.47700268433255 289.74537304584373 0 289.74537304584373 79.072073269751854 0 0 0 0 164.5876161575361 563.01432716976706 0 563.01432716976706 398.01853268141349 0 0 0 0 93.052091536232183 242.02587431868233 0 242.02587431868233 203.45188465437968 0 0 0 0 297.28705430316768 304.38490802005253 0 304.38490802005253 -42.898549411467684 0 0 0 0 -83.881762360178982 64.152739216719056 0 64.152739216719056 -13.516699756510206 0 0 0 0 22.550195701849589 631.79437351079105 0 631.79437351079105 -226.12578412369476 0 0 0 0 29.952418313740054 303.81241355371094 0 303.81241355371094 -597.33987402337516 0 0 0 0 -30.657311902636138 127.3919707974419 0 127.3919707974419 896.95093908252602 0 0 0 0 3.4611546925598304 2.3903951859586812 0 2.3903951859586812 1.2938614975184493 0 0 0 0 119.36580781990051 378.16849453916802 0 378.16849453916802 -562.54850744509895 0 0 0 0 -26.509952736144442 142.39701538345525 0 142.39701538345525 283.53420218243264 0 0 0 0 248.62532595313678 368.9079328854059 0 368.9079328854059 -760.0616181426758 0 0 0 0 -1485.8354742891388 -86.438993296993431 0 -86.438993296993431 -944.07929688924924 0 0 0 0 -3.5357941300608218 -4.0689675573958084 0 -4.0689675573958084 15.040685599255085 0 0 0 0 4.8755884469160264 6.8379555030688124 0 6.8379555030688124 3.9723145888744824 0 0 0 0 208.18500595720434 103.17627120724001 0 103.17627120724001 -1313.9855834763293 0 0 0 0 52.640421625277668 71.300718403232167 0 71.300718403232167 20.375632832437987 0 0 0 0 8.287178584848732 5.0836245968232561 0 5.0836245968232561 3.8328429500010444 0 0 0 0 5.3593530087355248 4.3341733449486384 0 4.3341733449486384 1.9083234454746787 0 0 0 0 30.656021712435177 10.929281767748762 0 10.929281767748762 20.748595069242583 0 0 0 0 38.353214826987823 48.77402935342252 0 48.77402935342252 43.141730322891817 0 0 0 0 33.097156855845242 16.080742992737214 0 16.080742992737214 -0.80704521721963829 0 0 0 0 55.264302279923868 75.870084673115343 0 75.870084673115343 8.7605954991158796 0 0 0 0 156.46560213190969 185.5801155256413 0 185.5801155256413 38.149719669854676 0 0 0 0 55.373022820494953 71.799980023177341 0 71.799980023177341 15.190246807949734 0 0 0 0 88.348890806824784 283.50055747658189 0 283.50055747658189 200.21194463718848 0 0 0 0 66.353547605292988 228.55326372362106 0 228.55326372362106 65.946098886954132 0 0 0 0 -8.1861673814128153 124.54435640899101 0 124.54435640899101 196.67016909748781 0 0 0 0 129.84481700019387 262.1944073236009 0 262.1944073236009 70.155222768293243 0 0 0 0 130.43939475203661 274.73064735141088 0 274.73064735141088 13.32269413285394 0 0 0 0 140.79759694306995 271.42405825768583 0 271.42405825768583 74.395916907291394 0 0 0 0 198.78223230452932 168.85250521919079 0 168.85250521919079 92.986332336949999 0 0 0 0 140.6287902598051 242.44790246898629 0 242.44790246898629 0.14177868437220498 0 0 0 0 46.244812857989018 218.00647065967678 0 218.00647065967678 26.514661950714071 0 0 0 0 -17.872289099403133 91.840853039488138 0 91.840853039488138 0.13107224614941515 0 0 0 0 -37.913595608028118 98.763282848500239 0 98.763282848500239 38.186984118859982 0 0 0 0 -60.62202967738267 209.14133589115227 0 209.14133589115227 91.092258349635813 0 0 0 0 251.50526874723801 176.73889103192596 0 176.73889103192596 -0.0063132774375844747 0 0 0 0 -1.0203296005860523 0.59631500563778417 0 0.59631500563778417 2.9337670379127871 0 0 0 0 -160.23048447191104 165.74258970508527 0 165.74258970508527 77.68544471952373 0 0 0 0 269.03316274819008 158.98893897482776 0 158.98893897482776 -35.606450189596217 0 0 0 0 -154.90930383000523 63.571430394506024 0 63.571430394506024 38.628900259595014 0 0 0 0 -26.19863032084686 26.476498067495413 0 26.476498067495413 -49.949319726554677 0 0 0 0 -134.7509451812075 119.60342401541129 0 119.60342401541129 -46.193640523037175 0 0 0 0 -0.2762424231189442 1.718588633024865 0 1.718588633024865 4.0663425903421455 0 0 0 0 -90.568398340371914 123.66020857480225 0 123.66020857480225 -74.525369929542649 0 0 0 0 72.567967395345477 66.068790864219409 0 66.068790864219409 -68.080995178504963 0 0 0 0 -82.692456107128237 55.388617563803564 0 55.388617563803564 -18.279144962201826 0 0 0 0 43.624519097662414 45.807822718197713 0 45.807822718197713 -66.791660693197628 0 0 0 0 23.683504543427262 -9.5147621991418418 0 -9.5147621991418418 -64.824735783528922 0 0 0 0 -74.530956334921939 33.269260100452811 0 33.269260100452811 -46.840522874561429 0 0 0 0 -122.68884870298643 -44.804559672127652 0 -44.804559672127652 -153.16886945848819 0 0 0 0 0.35802226040323148 195.86646723703052 0 195.86646723703052 -22.175503457925515 0 0 0 0 -24.342131106415763 5.5820366300176829 0 5.5820366300176829 84.09049761735514 0 0 0 0 0.94854082516926042 3.008057000477109 0 3.008057000477109 1.3223563066527007 0 0 0 0 -217.86781160268583 -15.887721237471851 0 -15.887721237471851 608.79884613095783 0 0 0 0 4.1940214658302182 -0.38177273868890893 0 -0.38177273868890893 1.751890304516472 0 0 0 0 317.53606942063197 84.115780236992578 0 84.115780236992578 -412.20250434394984 0 0 0 0 50.373847759233271 29.764463228937927 0 29.764463228937927 18.529803323798319 0 0 0 0 112.19819994216959 581.25352435938839 0 581.25352435938839 -474.44847470022069 0 0 0 0 259.81072159862742 -86.415767623675492 0 -86.415767623675492 -481.10530291916803 0 0 0 0 -439.30060964387667 470.88851599590998 0 470.88851599590998 367.98865219075378 0 0 0 0 305.37741024610295 241.63464826325071 0 241.63464826325071 -708.46992347200103 0 0 0 0 27.932219483996249 18.285635894016679 0 18.285635894016679 8.9428237901558418 0 0 0 0 7.8578682558436412 -0.16905179063178366 0 -0.16905179063178366 23.805264033158892 0 0 0 0 356.60075526946457 362.10907651476737 0 362.10907651476737 -690.24942265859863 0 0 0 0 -505.43441963354417 1447.9701509736769 0 1447.9701509736769 -536.18762747541041 0 0 0 0 582.83365159902314 584.82423065925104 0 584.82423065925104 -501.70888813510828 0 0 0 0 297.95846339334093 389.39565573119035 0 389.39565573119035 -514.68485924485412 0 0 0 0 -8.6324041607760194 4.8358852031003892 0 4.8358852031003892 -4.4875529225404307 0 0 0 0 -650.84211156157835 27.939941482953145 0 27.939941482953145 57.307310495292768 0 0 0 0 35.892845543112344 -287.29426715760746 0 -287.29426715760746 -1232.5925780699617 0 0 0 0 -1072.8279665712107 588.39397375504632 0 588.39397375504632 27.458291181043023 0 0 0 0 -231.34910709416727 315.65566801799287 0 315.65566801799287 88.390671501445468 0 0 0 0 -145.37864952164819 -45.178031213130453 0 -45.178031213130453 64.727956157092194 0 0 0 0 -407.34064386579121 197.14574666655608 0 197.14574666655608 75.900414585354156 0 0 0 0 -211.85859145356517 207.41885405411449 0 207.41885405411449 88.200126461510081 0 0 0 0 -94.882116864740965 102.76733774782042 0 102.76733774782042 88.048522757794672 0 0 0 0 -130.73392153678287 41.719323352197534 0 41.719323352197534 91.063296292093582 0 0 0 0 -13.436932901633554 176.36363911766966 0 176.36363911766966 75.659724604091025 0 0 0 0 -260.29135355839571 437.84511000229486 0 437.84511000229486 -172.61547726910794 0 0 0 0 -25.035373682432692 217.81083308191592 0 217.81083308191592 -60.705621813009202 0 0 0 0 -41.801594242191641 142.51306598334759 0 142.51306598334759 112.39808866908425 0 0 0 0 -4.3344972718259669 237.1848945378697 0 237.1848945378697 50.465750230187041 0 0 0 0 -45.881836463187938 156.82204306738277 0 156.82204306738277 133.87678234724444 0 0 0 0 2.288051765498949 99.621091453037565 0 99.621091453037565 -45.08877962528527 0 0 0 0 548.08674362988677 674.34496262175526 0 674.34496262175526 419.49958658169544 0 0 0 0 -113.76530298040598 375.6805348722454 0 375.6805348722454 514.298550088036 0 0 0 0 8.0293967300895019 576.89283804226534 0 576.89283804226534 -319.47063919024248 0 0 0 0 -31.569485652835283 129.45613188481954 0 129.45613188481954 -109.47645602540678 0 0 0 0 120.04354819273067 486.47338338636206 0 486.47338338636206 -1103.7247030205199 0 0 0 0 -465.33268117988337 -71.494727227650401 0 -71.494727227650401 1096.2368761443704 0 0 0 0 1.5265116795960978 2.3357132473500712 0 2.3357132473500712 1.0856616873722349 0 0 0 0 140.51851635585626 -95.054639523125957 0 -95.054639523125957 476.10860703396133 0 0 0 0 -41.384454849423491 52.134563190627318 0 52.134563190627318 406.98744401778663 0 0 0 0 12.396334965204005 62.714964090836474 0 62.714964090836474 112.65625656841121 0 0 0 0 1.0458671060784468 7.5383086588597763 0 7.5383086588597763 4.2334977492369124 0 0 0 0 -52.103986347254249 157.16051562267239 0 157.16051562267239 -260.63821161443047 0 0 0 0 108.06883137923433 88.070874055672903 0 88.070874055672903 -483.48292093900454 0 0 0 0 -10.297260326402238 103.08168368564856 0 103.08168368564856 -49.554941884491939 0 0 0 0 42.212744090807973 233.48990648576 0 233.48990648576 -69.578910342766903 0 0 0 0 -45.573623126270832 369.64146260983853 0 369.64146260983853 127.72338523869678 0 0 0 0 138.4065892974395 289.51662601145347 0 289.51662601145347 61.028094928377413 0 0 0 0 -26.549194184699445 178.80463892780585 0 178.80463892780585 93.242263751734129 0 0 0 0 -215.22968496889371 222.28841635529102 0 222.28841635529102 -34.671040663216814 0 0 0 0 -229.11990689453523 228.13372695092949 0 228.13372695092949 -34.561670841076356 0 0 0 0 -62.031858420115896 554.79592405295102 0 554.79592405295102 -604.94220466854949 0 0 0 0 -129.036111345471 293.7699953972965 0 293.7699953972965 -440.64995661939747 0 0 0 0 -147.87092961450981 261.39176632796011 0 261.39176632796011 13.861975384517791 0 0 0 0 247.1950181328325 381.86741439629776 0 381.86741439629776 -139.48118504186004 0 0 0 0 105.24010194817674 230.36119015247687 0 230.36119015247687 -301.04993173436822 0 0 0 0 -320.66866112416028 438.0299047024003 0 438.0299047024003 -308.66166232118553 0 0 0 0 86.160854666799423 58.522224330664585 0 58.522224330664585 -893.79867757700947 0 0 0 0 -19.158308039593976 148.38509956171913 0 148.38509956171913 -718.48559640961003 0 0 0 0 -3.4930614946206333 75.692664107633775 0 75.692664107633775 -384.07145254162333 0 0 0 0 -24.343837088323198 -124.92885919264199 0 -124.92885919264199 -726.37601760064854 0 0 0 0 1.5798233801107529 -0.17200327937392501 0 -0.17200327937392501 -0.083029886399854202 0 0 0 0 82.605956223924295 202.21990562430389 0 202.21990562430389 -152.75646554589446 0 0 0 0 111.47726812594919 101.96053695089037 0 101.96053695089037 -211.31707377606881 0 0 0 0 160.37508163139864 210.31759159675164 0 210.31759159675164 -328.3102279164948 0 0 0 0 105.96460456011118 71.168135623369153 0 71.168135623369153 -354.39795405722066 0 0 0 0 109.46054097858723 123.52948236839512 0 123.52948236839512 -465.21095227627387 0 0 0 0 -23.251227318323799 -93.151207853070218 0 -93.151207853070218 -151.70881146342299 0 0 0 0 80.438670004106825 15.473879339099881 0 15.473879339099881 -445.83840329350278 0 0 0 0 75.70737819338683 20.247484565064383 0 20.247484565064383 -264.38419897566905 0 0 0 0 65.228191394591704 37.234251047597922 0 37.234251047597922 -200.27157193724861 0 0 0 0 23.070947854721453 -21.958497228425131 0 -21.958497228425131 -100.21546801975046 0 0 0 0 67.260627769777784 45.176458918033404 0 45.176458918033404 -198.26486438013467 0 0 0 0 23.953661219755304 65.513434653748845 0 65.513434653748845 -78.923955287754097 0 0 0 0 7.2581707534477289 0.17085212805195482 0 0.17085212805195482 0.54141264396163269 0 0 0 0 2.737195824549417 12.834774048559211 0 12.834774048559211 -148.66083851836902 0 0 0 0 378.93117780642933 276.04383330010387 0 276.04383330010387 207.79966913024987 0 0 0 0 0.72245018342403 -0.52129871651206372 0 -0.52129871651206372 0.54622670711317189 0 0 0 0 160.6154537624534 288.17327318113757 0 288.17327318113757 298.48338386778141 0 0 0 0 6.2057171999181548 7.4864777804393441 0 7.4864777804393441 2.1857077565346463 0 0 0 0 92.269180899365892 22.528976359786441 0 22.528976359786441 39.874077147510434 0 0 0 0 12.456963098237338 7.6748725058982572 0 7.6748725058982572 2.5718475242535854 0 0 0 0 10.953844477233361 6.4249294610463039 0 6.4249294610463039 -0.56175848702923759 0 0 0 0 -1.9864792777007096 -22.877999154184636 0 -22.877999154184636 55.374985468835803 0 0 0 0 238.40017706177264 577.13958986434579 0 577.13958986434579 471.30709341745796 0 0 0 0 289.92429025299498 210.83348523210088 0 210.83348523210088 202.81312147633139 0 0 0 0 339.67168337028124 314.9157722189716 0 314.9157722189716 174.24476947236326 0 0 0 0 303.81499722258013 223.78095178636067 0 223.78095178636067 191.08781557792622 0 0 0 0 144.44054238483659 258.91666563923718 0 258.91666563923718 190.91985570108636 0 0 0 0 172.17457499707234 261.00190721630997 0 261.00190721630997 65.150423522828987 0 0 0 0 310.43833921308396 240.13749180637478 0 240.13749180637478 62.034475911660593 0 0 0 0 334.27389819065866 217.03010474913219 0 217.03010474913219 -18.451435916803575 0 0 0 0 389.3821288797335 174.6153862392847 0 174.6153862392847 35.090240649351927 0 0 0 0 316.0507674956043 158.76983370822001 0 158.76983370822001 107.65584040041176 0 0 0 0 409.96856522352027 241.6804927049177 0 241.6804927049177 69.218401945868209 0 0 0 0 329.09667157880904 205.97093036928209 0 205.97093036928209 54.540300009868361 0 0 0 0 334.1891016429654 212.75938090099373 0 212.75938090099373 47.541039220956463 0 0 0 0 391.55286593452729 119.84174271242507 0 119.84174271242507 30.108911696292807 0 0 0 0 362.26771937468584 203.64060624614126 0 203.64060624614126 5.3336625704125709 0 0 0 0 136.76221265212371 267.94512615272083 0 267.94512615272083 -15.208481555415347 0 0 0 0 370.40059853615094 211.62413040281581 0 211.62413040281581 -76.018731721559561 0 0 0 0 -114.65920147539873 208.17777726893291 0 208.17777726893291 -9.8318832547954571 0 0 0 0 -45.144980259421573 298.77882058503508 0 298.77882058503508 -43.141455786081679 0 0 0 0 93.761372579025192 186.86661335265319 0 186.86661335265319 4.3805422374252885 0 0 0 0 -19.971122852875851 283.46216299272328 0 283.46216299272328 12.918939969417977 0 0 0 0 -69.540266030253406 210.23966732575775 0 210.23966732575775 19.823940186804066 0 0 0 0 131.51014517023214 178.66386971333998 0 178.66386971333998 50.815097107407382 0 0 0 0 -194.65284645323845 294.15116151690802 0 294.15116151690802 90.992269961180227 0 0 0 0 -242.04977195434185 213.15232400565924 0 213.15232400565924 62.753242913650183 0 0 0 0 -411.7175492284041 140.36051467125549 0 140.36051467125549 11.476588711928343 0 0 0 0 -262.19668491370976 258.45854254539211 0 258.45854254539211 21.414714593073313 0 0 0 0 -192.7369607390865 368.93021921729246 0 368.93021921729246 -200.82905148825967 0 0 0 0 -551.14603766344953 264.55876594142524 0 264.55876594142524 25.899004418426671 0 0 0 0 -263.59739760302182 327.56899406568937 0 327.56899406568937 -323.11638971857576 0 0 0 0 -84.959447435001493 183.24619435747888 0 183.24619435747888 -221.4238601673153 0 0 0 0 113.68115745083924 169.34359800809483 0 169.34359800809483 -162.2655947255987 0 0 0 0 -44.000011509797332 257.40078460171344 0 257.40078460171344 -102.82803699640067 0 0 0 0 65.665860607150535 157.63101205607171 0 157.63101205607171 -34.770579434507468 0 0 0 0 80.70144400427489 196.87844378963806 0 196.87844378963806 -11.218163860101896 0 0 0 0 -155.10946940498252 98.801579965164137 0 98.801579965164137 -27.79202679759409 0 0 0 0 -135.98379500332521 87.565499340116787 0 87.565499340116787 -271.85655287502556 0 0 0 0 -199.43877773709028 267.95821703625319 0 267.95821703625319 167.01753233771376 0 0 0 0 15.095039019455726 132.79199135733847 0 132.79199135733847 -13.47235734478636 0 0 0 0 27.957489611550045 170.66659747225205 0 170.66659747225205 7.4118608696732053 0 0 0 0 40.333062587102177 221.93429975525203 0 221.93429975525203 175.29337778370717 0 0 0 0 97.712929408840864 627.67035630769772 0 627.67035630769772 22.743144954741524 0 0 0 0 141.46008775766677 289.25402368186235 0 289.25402368186235 116.92988800028868 0 0 0 0 91.096256841570721 460.97717661064775 0 460.97717661064775 -283.49482856964664 0 0 0 0 472.828464002705 215.5207878155004 0 215.5207878155004 -125.76536748799958 0 0 0 0 383.53948535128075 547.52755636655752 0 547.52755636655752 -470.16979918573861 0 0 0 0 1082.9903375342255 102.47223671774196 0 102.47223671774196 -216.12063418621784 0 0 0 0 399.06013248433737 171.19270216449956 0 171.19270216449956 -94.15662717625014 0 0 0 0 189.06371704236881 112.53806114841382 0 112.53806114841382 -36.110163639040195 0 0 0 0 117.94086552732097 199.05487138097712 0 199.05487138097712 26.173643610576164 0 0 0 0 719.26513783515111 187.87502466114449 0 187.87502466114449 -50.798217385721046 0 0 0 0 414.94219635283662 112.23915920658263 0 112.23915920658263 111.9510928157672 0 0 0 0 0.46910244661460432 3.5427328983394375 0 3.5427328983394375 1.4410453247813368 0 0 0 0 -49.127225471194834 105.92504239314803 0 105.92504239314803 -155.72828656995944 0 0 0 0 -425.57736816199031 97.351812981423734 0 97.351812981423734 78.83409080941378 0 0 0 0 -363.36194274739682 359.00842651087896 0 359.00842651087896 -333.52003865811844 0 0 0 0 -316.04202265628192 440.01080304915894 0 440.01080304915894 -244.7254101414494 0 0 0 0 -674.68780297265766 393.34031517662982 0 393.34031517662982 -257.85635394745884 0 0 0 0 0.27491570325909009 0.97535306102183483 0 0.97535306102183483 -0.71269063910056873 0 0 0 0 -543.60614443321174 267.91834205157545 0 267.91834205157545 -692.11165409343698 0 0 0 0 -752.31147326842984 442.26855919237329 0 442.26855919237329 -328.13640325372558 0 0 0 0 50.363922016600554 1286.7000703229467 0 1286.7000703229467 -504.64832263886774 0 0 0 0 -167.32370009056467 1266.3297014540929 0 1266.3297014540929 -76.393729892666897 0 0 0 0 -18.312800989704556 955.18479634484629 0 955.18479634484629 -367.09484133365515 0 0 0 0 32.453221577496151 782.05171905640532 0 782.05171905640532 -334.22395313521008 0 0 0 0 135.98091119249875 591.01375882043351 0 591.01375882043351 -196.44760439367269 0 0 0 0 181.10701807177247 542.60330891925321 0 542.60330891925321 -1144.3065617582915 0 0 0 0 2202.6063833100634 -1464.74403362373 0 -1464.74403362373 -391.9655147385829 0 0 0 0 6.0740115158338313 3.7772934625234029 0 3.7772934625234029 -2.485448095617425 0 0 0 0 2136.4453508926235 -97.516211813798691 0 -97.516211813798691 -1344.6790449235359 0 0 0 0 -244.1823430522636 71.456187186265197 0 71.456187186265197 -413.14312832576343 0 0 0 0 -124.49655294169497 -687.92857183055594 0 -687.92857183055594 -1605.8545240415965 0 0 0 0 1347.9406758122786 475.20181885496368 0 475.20181885496368 -1160.2204057934468 0 0 0 0 -321.36450478038751 -688.26835746983488 0 -688.26835746983488 -1500.034321332525 0 0 0 0 -0.60146363150067828 5.3273313310067323 0 5.3273313310067323 -11.038642157242418 0 0 0 0 -16.581849036723725 885.28437839779167 0 885.28437839779167 491.53348685923038 0 0 0 0 689.20559839707857 -521.26218787181188 0 -521.26218787181188 -539.3345052611885 0 0 0 0 21.34155184145493 134.31482904563984 0 134.31482904563984 -326.59910167948237 0 0 0 0 451.91318500545458 451.79311494385206 0 451.79311494385206 -938.20726773716831 0 0 0 0 -304.69329513765115 746.26752016561818 0 746.26752016561818 -1455.421701609502 0 0 0 0 947.71994980379168 -255.55120620925061 0 -255.55120620925061 -317.47919142243404 0 0 0 0 595.47890145234851 -312.21426946156032 0 -312.21426946156032 839.67638909949892 0 0 0 0 378.46758218039759 402.96116552240727 0 402.96116552240727 -352.00286223051887 0 0 0 0 632.51706224487134 194.41334492703277 0 194.41334492703277 -340.43333215075381 0 0 0 0 107.13649190004071 363.13651046262174 0 363.13651046262174 -0.17980691756889566 0 0 0 0 162.58870375854895 513.18717564647977 0 513.18717564647977 -524.67913529322595 0 0 0 0 -392.7866231900116 472.09464251868127 0 472.09464251868127 -228.2853869385697 0 0 0 0 -299.33829576917196 424.50419731661742 0 424.50419731661742 -236.08463903935876 0 0 0 0 -168.65912280825432 515.8506730517081 0 515.8506730517081 -250.62806133108256 0 0 0 0 -42.476139944270471 133.83075620555323 0 133.83075620555323 -521.68875092664962 0 0 0 0 252.63064341180143 -25.913489723730095 0 -25.913489723730095 -435.21770392976561 0 0 0 0 -0.0089413854166195961 496.4912068022802 0 496.4912068022802 -244.3421067114657 0 0 0 0 -29.078593500981526 32.093990724439053 0 32.093990724439053 -36.960808781765927 0 0 0 0 -62.647380235546734 54.992947793117764 0 54.992947793117764 129.93626461796862 0 0 0 0 -208.65972189484728 -62.763744364251892 0 -62.763744364251892 54.88969587080669 0 0 0 0 -3.3134150241792781 2.6555506281154564 0 2.6555506281154564 -2.9629082240899764 0 0 0 0 -4.2320801438618219 176.6435960566514 0 176.6435960566514 -384.45461780599749 0 0 0 0 -76.415274144070281 -22.585293158855848 0 -22.585293158855848 19.213946679509718 0 0 0 0 -1.8982975084253724 5.7240289506469111 0 5.7240289506469111 8.2616680189621352 0 0 0 0 -6.1211897112225415 13.659448201195573 0 13.659448201195573 37.79552748264814 0 0 0 0 -6.9043325571282992 10.146147576662855 0 10.146147576662855 -4.4307794550398363 0 0 0 0 -46.831001038575778 27.528346302896807 0 27.528346302896807 16.33008965115414 0 0 0 0 -66.266711206902983 37.574142620388898 0 37.574142620388898 50.645828131665894 0 0 0 0 -29.408537414077728 121.57712294425232 0 121.57712294425232 0.77960612133233553 0 0 0 0 -58.508743028360186 82.104358154756028 0 82.104358154756028 50.756471232135937 0 0 0 0 -32.836808602223755 82.26769972196189 0 82.26769972196189 41.198324962223523 0 0 0 0 -19.759392655803822 100.85731347562569 0 100.85731347562569 1.2361609492299976 0 0 0 0 -19.525292206410086 100.7973045764106 0 100.7973045764106 -90.05502288527714 0 0 0 0 63.053951721754856 65.449705779094074 0 65.449705779094074 -156.32803857677209 0 0 0 0 4.3340374064173233 7.424929829130221 0 7.424929829130221 -3.9678961592652335 0 0 0 0 25.558972351864213 19.754860923124397 0 19.754860923124397 -69.146379597592386 0 0 0 0 38.779278037062227 18.448217334844315 0 18.448217334844315 -8.2465227094702165 0 0 0 0 0.75297316362411948 72.379273289902585 0 72.379273289902585 -30.25616399373439 0 0 0 0 12.530899610109966 13.451496435604042 0 13.451496435604042 -0.89221311343435872 0 0 0 0 38.130984040309158 18.369995948589377 0 18.369995948589377 -19.274552766626584 0 0 0 0 8.7929170034476556 46.9795430816921 0 46.9795430816921 -36.635648352760882 0 0 0 0 -8.690591027319897 31.0361402466865 0 31.0361402466865 16.617850850375362 0 0 0 0 -38.65399464344955 60.704841661419778 0 60.704841661419778 -3.5614825690354337 0 0 0 0 42.324759920040378 41.674513361868776 0 41.674513361868776 -106.13437115790759 0 0 0 0 56.219546802545665 -6.0986772213714175 0 -6.0986772213714175 -121.11480205321868 0 0 0 0 78.291743858484551 -0.89867283696935374 0 -0.89867283696935374 -160.01664854909632 0 0 0 0 7.6845402434827763 3.4685556591615523 0 3.4685556591615523 0.14305596123606001 0 0 0 0 50.199500450355117 58.229638560343915 0 58.229638560343915 -229.52582947748431 0 0 0 0 51.055529706027301 69.534530074183692 0 69.534530074183692 -164.13625541416741 0 0 0 0 64.456133812404005 41.15413890595778 0 41.15413890595778 -187.07754183841644 0 0 0 0 53.192006241180934 72.676117251488108 0 72.676117251488108 -175.63056011227923 0 0 0 0 39.652728624991141 70.791473055984625 0 70.791473055984625 -126.23005624231109 0 0 0 0 35.342618805851089 62.642811775559721 0 62.642811775559721 -131.46944539243805 0 0 0 0 32.541346435224114 58.378796503709736 0 58.378796503709736 -90.476629493735345 0 0 0 0 39.078178307536291 88.831254861526531 0 88.831254861526531 -125.69380092605547 0 0 0 0 37.254802556490176 81.245883102960534 0 81.245883102960534 -129.49878771806698 0 0 0 0 39.806072971696267 90.110765258003994 0 90.110765258003994 -158.72495774700917 0 0 0 0 44.634507174865576 88.970990323767822 0 88.970990323767822 -170.3507262952578 0 0 0 0 51.288209579040995 86.956997666092377 0 86.956997666092377 -166.53525662485981 0 0 0 0 34.362488936792943 101.86016615836402 0 101.86016615836402 -174.92987083120619 0 0 0 0 42.22927225465537 102.80462922541511 0 102.80462922541511 -182.56654344745345 0 0 0 0 43.264373418234754 133.03395584395318 0 133.03395584395318 -221.66974663333502 0 0 0 0 42.445990044128848 101.71869790930668 0 101.71869790930668 -184.0276841484893 0 0 0 0 44.475687600905076 104.23693965442817 0 104.23693965442817 -188.21881772447557 0 0 0 0 44.291979282083048 49.16247931234102 0 49.16247931234102 -68.804699983462342 0 0 0 0 -7.4014315338750407 41.688243932194638 0 41.688243932194638 -20.649820016048039 0 0 0 0 11.308620040203095 29.697305297706407 0 29.697305297706407 -31.557335682695339 0 0 0 0 22.772602038791405 29.814630916065468 0 29.814630916065468 -53.010483345564595 0 0 0 0 18.960901050711982 75.499700918544477 0 75.499700918544477 -61.986359176946735 0 0 0 0 11.822141122540579 33.280647565492714 0 33.280647565492714 -42.357029961821972 0 0 0 0 57.187361189506191 70.692788365697268 0 70.692788365697268 -131.66920786803723 0 0 0 0 -46.445496438180271 102.6677251659795 0 102.6677251659795 -78.25512912555223 0 0 0 0 33.417003942013253 93.013513621568336 0 93.013513621568336 -81.586380177316641 0 0 0 0 20.878482937958324 70.276734570998485 0 70.276734570998485 -125.8533192821393 0 0 0 0 54.645459528561332 86.998895817187588 0 86.998895817187588 -118.24302471806095 0 0 0 0 24.499404259026051 123.62135555708062 0 123.62135555708062 -205.01576132340745 0 0 0 0 41.858447456994327 61.960770330382985 0 61.960770330382985 -135.60723315230072 0 0 0 0 -0.31306427833624184 74.831691994239009 0 74.831691994239009 -136.96703297126908 0 0 0 0 -49.000036496756366 112.89372855031634 0 112.89372855031634 -162.7308923866301 0 0 0 0 28.800698097038548 105.46784331092232 0 105.46784331092232 -161.66825474019851 0 0 0 0 38.170199900924253 52.421507649546342 0 52.421507649546342 -113.00855492087427 0 0 0 0 59.514828972212854 169.45082690562049 0 169.45082690562049 -124.89568771501217 0 0 0 0 36.775012808517204 67.177370698362211 0 67.177370698362211 -61.957281305887591 0 0 0 0 47.657181548928122 24.852326921325819 0 24.852326921325819 -20.719795897010449 0 0 0 0 23.630015171744162 92.881913364253705 0 92.881913364253705 -422.07900129518202 0 0 0 0 -41.233968802902382 157.04129188271327 0 157.04129188271327 -57.788105546118459 0 0 0 0 1.6317366704643064 5.9991234912645837 0 5.9991234912645837 16.155735792853498 0 0 0 0 -31.860951465423568 118.87404652494297 0 118.87404652494297 -162.53885354702652 0 0 0 0 71.622579735339968 80.381902807381266 0 80.381902807381266 -160.7365469615761 0 0 0 0 4.2051743928095675 102.84304789482212 0 102.84304789482212 -167.2466595924343 0 0 0 0 119.9349313416169 99.776568543335088 0 99.776568543335088 -83.1932900829961 0 0 0 0 -0.17089037638652371 159.55657048154717 0 159.55657048154717 -111.4392032873584 0 0 0 0 33.898877305466158 104.83798154670876 0 104.83798154670876 34.342548582721065 0 0 0 0 -39.16042626170065 54.646288045846319 0 54.646288045846319 -51.03999627141193 0 0 0 0 -27.263785045550321 137.00897107046262 0 137.00897107046262 94.701237569580826 0 0 0 0 97.914665620875894 179.07657710030617 0 179.07657710030617 -131.77489241235889 0 0 0 0 98.404151094298868 49.871153701314142 0 49.871153701314142 -159.57649608373504 0 0 0 0 -5.8213122775632655 30.943589564561989 0 30.943589564561989 -107.15174156571811 0 0 0 0 120.80947452261171 53.685445313374657 0 53.685445313374657 -126.84560162736852 0 0 0 0 120.13871853047749 126.84729970397348 0 126.84729970397348 -82.752138070098681 0 0 0 0 38.784107292653061 75.243933291847497 0 75.243933291847497 -92.33759272881889 0 0 0 0 68.408389714590157 41.510048306237877 0 41.510048306237877 -124.05222007938255 0 0 0 0 92.225870263639081 66.772332028906931 0 66.772332028906931 -160.28075586392515 0 0 0 0 49.657595880125882 75.226243857185182 0 75.226243857185182 -155.93035993537706 0 0 0 0 44.148589741729666 117.6959382922978 0 117.6959382922978 -206.12084502894868 0 0 0 0 49.305315763791441 64.030955652327975 0 64.030955652327975 -200.60266406356095 0 0 0 0 45.392839990307039 103.1102534414772 0 103.1102534414772 -137.9858556880281 0 0 0 0 66.879356310833828 73.072855572303524 0 73.072855572303524 -168.3858825921925 0 0 0 0 66.226586852557375 49.646479071496287 0 49.646479071496287 -141.72335392961031 0 0 0 0 45.78758667682996 19.719485654365599 0 19.719485654365599 -120.82953946330235 0 0 0 0 51.887624292779947 58.428523952967225 0 58.428523952967225 -133.44478937611711 0 0 0 0 -67.737779360359127 55.751379112067298 0 55.751379112067298 -105.307192757351 0 0 0 0 -27.055994711488893 32.14359226227316 0 32.14359226227316 -110.8988665191755 0 0 0 0 2.1539625432342291 34.845287005982755 0 34.845287005982755 -119.76207145161243 0 0 0 0 -10.222516177978832 61.340191386148945 0 61.340191386148945 -134.41488359488358 0 0 0 0 11.405264230794273 49.498034830630786 0 49.498034830630786 -126.31366036376312 0 0 0 0 11.82183358178353 51.45879320199731 0 51.45879320199731 -91.942392151684984 0 0 0 0 129.01949244419666 -32.321314275717668 0 -32.321314275717668 -90.795747877084068 0 0 0 0 60.164787085115677 136.92453473498608 0 136.92453473498608 -164.73433179819403 0 0 0 0 11.629283899168133 41.875573246683118 0 41.875573246683118 -102.13077770487666 0 0 0 0 19.203042214328889 70.240709952558973 0 70.240709952558973 -42.584116115365759 0 0 0 0 -9.5756025324080838 43.388516433931727 0 43.388516433931727 -115.20056338582162 0 0 0 0 -145.98842456543207 -3.8506773623439585 0 -3.8506773623439585 -120.19017001825978 0 0 0 0 32.819415909648342 27.69786777753211 0 27.69786777753211 -121.81190243621677 0 0 0 0 39.161569639560184 -26.845179942090908 0 -26.845179942090908 -264.08973699314083 0 0 0 0 86.84938090799551 111.41082217178518 0 111.41082217178518 -293.36856300311092 0 0 0 0 82.381255992800106 171.60470002658968 0 171.60470002658968 -88.932770570831053 0 0 0 0 270.36177419988599 -113.88172835100522 0 -113.88172835100522 -176.35328067508817 0 0 0 0 -14.039023409190122 106.92527582247567 0 106.92527582247567 -136.83301549322641 0 0 0 0 -349.47776895474817 -28.662188157217315 0 -28.662188157217315 65.98229236485713 0 0 0 0 -289.96543641475364 399.61298911521817 0 399.61298911521817 -376.28615772943886 0 0 0 0 200.82862470165855 235.49476799007243 0 235.49476799007243 -849.97165598618085 0 0 0 0 -178.64703550460035 -13.739843728882988 0 -13.739843728882988 -419.68247369317396 0 0 0 0 -232.19724872540974 85.361111979607813 0 85.361111979607813 -411.57512910518562 0 0 0 0 -8.6545604280763655 16.797664262956424 0 16.797664262956424 -28.927389998160521 0 0 0 0 20.299682070107529 41.850578062231762 0 41.850578062231762 -112.11035672552359 0 0 0 0 67.872604336000222 239.7926328625017 0 239.7926328625017 -115.86234503037031 0 0 0 0 21.547923726822773 220.22104550629956 0 220.22104550629956 78.974017079988698 0 0 0 0 71.211810942968441 174.11867807240594 0 174.11867807240594 157.85173139851577 0 0 0 0 103.85739209900203 312.27513195787571 0 312.27513195787571 129.599791535978 0 0 0 0 80.899382948191487 173.04692937977688 0 173.04692937977688 -90.164362032097415 0 0 0 0 80.538710630395144 85.180364415424492 0 85.180364415424492 -30.032871266404982 0 0 0 0 207.77476388568903 235.63190384168229 0 235.63190384168229 40.228306289344289 0 0 0 0 166.73188879791269 72.898750420331908 0 72.898750420331908 -40.785114382054871 0 0 0 0 97.159961524838764 -578.05436702635166 0 -578.05436702635166 -1282.3825345514165 0 0 0 0 1072.1977650680637 236.0321716727741 0 236.0321716727741 -1691.4027262828781 0 0 0 0 -10.676833727397394 11.385977865073102 0 11.385977865073102 -12.599881544868907 0 0 0 0 166.02680102494196 -44.855731295574401 0 -44.855731295574401 983.94417907489253 0 0 0 0 541.6150699345726 2081.0682496120698 0 2081.0682496120698 -88.442246579651169 0 0 0 0 854.21092313498957 -579.94454739459934 0 -579.94454739459934 457.69537069166313 0 0 0 0 265.55756156472125 -11.060302973567495 0 -11.060302973567495 -360.05230621423857 0 0 0 0 659.87450730867567 181.35782535253497 0 181.35782535253497 -284.95932410452582 0 0 0 0 444.27497069656965 18.680809691018908 0 18.680809691018908 154.58050101214735 0 0 0 0 992.3334139517101 33.610088256128847 0 33.610088256128847 -6.5716344591592133 0 0 0 0 24.301831838843498 6.762089323065382 0 6.762089323065382 -13.600775941882297 0 0 0 0 -944.10985867253112 510.44183145633451 0 510.44183145633451 -57.518160420680942 0 0 0 0 -758.68762945279013 1443.6129260851294 0 1443.6129260851294 -859.2157360011679 0 0 0 0 1443.9026121151837 504.11073875519196 0 504.11073875519196 -838.42278137961148 0 0 0 0 112.87273924848705 280.19638800548546 0 280.19638800548546 -1315.4915766204995 0 0 0 0 313.32198178225372 771.47503521927251 0 771.47503521927251 -114.2779196159081 0 0 0 0 397.71995142367086 -516.01767651969294 0 -516.01767651969294 155.50031480771236 0 0 0 0 -1471.7713911002993 2007.6103913977338 0 2007.6103913977338 -1268.6586386371 0 0 0 0 375.65530646151456 465.00162552813163 0 465.00162552813163 -833.42839551373345 0 0 0 0 -1816.7955865489348 562.90181826600565 0 562.90181826600565 -460.59771011001067 0 0 0 0 -167.9934629889176 -33.446527752035763 0 -33.446527752035763 -89.747037699209613 0 0 0 0 -196.46174836693535 33.099043278485624 0 33.099043278485624 -245.01524978896487 0 0 0 0 3.5419553155444987 4.092941362648304 0 4.092941362648304 -99.080722182810661 0 0 0 0 1896.8419219308998 -263.73323976810366 0 -263.73323976810366 -1027.7647731765301 0 0 0 0 -59.817821471049683 -86.443388210658668 0 -86.443388210658668 -236.46481462061274 0 0 0 0 -95.652044829446822 -38.033572576870938 0 -38.033572576870938 -301.57660572245368 0 0 0 0 -132.68202676669898 -54.69598773279904 0 -54.69598773279904 -230.92959281463845 0 0 0 0 -122.72918359932373 -54.648326606677074 0 -54.648326606677074 -286.41039969195117 0 0 0 0 -158.18591407952772 -12.928373007118353 0 -12.928373007118353 -304.54802359257019 0 0 0 0 413.0923675748345 696.82017605378314 0 696.82017605378314 -865.28906560036739 0 0 0 0 -21.90717763966677 -628.86681303893056 0 -628.86681303893056 196.15518302522105 0 0 0 0 28.50117257064332 25.364204455528025 0 25.364204455528025 -37.431303583696163 0 0 0 0 235.83527899335604 -920.09323003620375 0 -920.09323003620375 -1833.6869697705672 0 0 0 0 8.6152408379114078 6.1382470096580164 0 6.1382470096580164 -103.15161985433045 0 0 0 0 93.017535502476676 242.9170079770787 0 242.9170079770787 57.634361920936442 0 0 0 0 -157.48527073487094 -15.418238967761681 0 -15.418238967761681 -309.79840141400928 0 0 0 0 -185.39089473267813 -5.8253870691496559 0 -5.8253870691496559 -261.49439005445311 0 0 0 0 -154.916277107106 12.129772612013767 0 12.129772612013767 -400.75633716724406 0 0 0 0 -106.5674044534826 76.864049709383835 0 76.864049709383835 -118.08011438231915 0 0 0 0 -116.73076971890987 23.369428975338451 0 23.369428975338451 -397.44120991513046 0 0 0 0 -80.486320927542693 -81.570343100036553 0 -81.570343100036553 -260.37507664759141 0 0 0 0 -64.935777190130466 -9.6556703071610173 0 -9.6556703071610173 62.704141462338157 0 0 0 0 187.66962573317142 -217.26589814170802 0 -217.26589814170802 -321.14391214747593 0 0 0 0 -112.18733908518334 -46.609646841958238 0 -46.609646841958238 -294.98716523149051 0 0 0 0 -139.86049493942119 -33.268067473585688 0 -33.268067473585688 -294.37475184786604 0 0 0 0 -57.918955277797068 -3.6326039576251787 0 -3.6326039576251787 -326.29187746659591 0 0 0 0 -72.973991212964393 141.62249386455528 0 141.62249386455528 -689.92627560760593 0 0 0 0 -207.02995192811068 214.84534785844153 0 214.84534785844153 -409.05064815028891 0 0 0 0 -233.21030224682181 218.70091661074912 0 218.70091661074912 -332.86725430381011 0 0 0 0 -138.7712980069482 81.408847395779048 0 81.408847395779048 -402.37459888284138 0 0 0 0 -182.16150604194991 149.62160590972053 0 149.62160590972053 -621.7204902715257 0 0 0 0 0.13358057004370494 159.29317849207109 0 159.29317849207109 -655.02165892476842 0 0 0 0 -274.83844611659879 351.05315824914578 0 351.05315824914578 -272.77063508398714 0 0 0 0 0.93101883856093082 2.1574928236247501 0 2.1574928236247501 -4.4960958804284417 0 0 0 0 81.042727017309517 112.62467535459291 0 112.62467535459291 -73.462025564276701 0 0 0 0 280.72688793828274 49.830515224495684 0 49.830515224495684 -185.9231769881917 0 0 0 0 1.6208869450198833 2.8930506370114131 0 2.8930506370114131 -8.6978452969532896 0 0 0 0 63.971373051012051 59.715567938957975 0 59.715567938957975 -149.42180830811412 0 0 0 0 -0.28724923547270009 75.4613738145963 0 75.4613738145963 -41.033319446767564 0 0 0 0 17.849667017209867 128.02448358042238 0 128.02448358042238 61.851140236736683 0 0 0 0 44.016836319402501 -54.263331834341443 0 -54.263331834341443 80.101693001670355 0 0 0 0 0.30954917545022909 122.29343802431504 0 122.29343802431504 -399.39837374658237 0 0 0 0 359.15206945988757 -66.987687591547001 0 -66.987687591547001 -441.60502765646379 0 0 0 0 -326.71445923042484 490.71182571020654 0 490.71182571020654 -404.760604289615 0 0 0 0 -18.779185369188781 408.56378304296595 0 408.56378304296595 -861.08433091901679 0 0 0 0 1.1225123007585864 2.6143919253933063 0 2.6143919253933063 -4.9413158854725623 0 0 0 0 -25.844593773392262 29.733749267667008 0 29.733749267667008 -42.425603762465471 0 0 0 0 -207.78643884893245 284.82838026183526 0 284.82838026183526 -71.788759863215091 0 0 0 0 18.418543729019802 154.70074345216699 0 154.70074345216699 -337.32227981023607 0 0 0 0 -12.937759274427663 254.7209973792269 0 254.7209973792269 -281.35576146233871 0 0 0 0 7.203043336950941 254.42501480293868 0 254.42501480293868 -614.52373515025465 0 0 0 0 -11.411092628768529 217.76097850967562 0 217.76097850967562 -406.46086381930218 0 0 0 0 -16.808479286642978 250.85547985664016 0 250.85547985664016 -389.64454009882684 0 0 0 0 -83.605763573606964 207.6991718880472 0 207.6991718880472 -193.82408312619373 0 0 0 0 -4.2044965257082367 280.43174745110809 0 280.43174745110809 -411.22578307104413 0 0 0 0 18.741059050284093 266.6672278943297 0 266.6672278943297 -408.96158744778768 0 0 0 0 38.239968694137133 156.36018819105226 0 156.36018819105226 -268.59511740822927 0 0 0 0 25.756444342739997 -30.966386795786093 0 -30.966386795786093 -321.70838503233608 0 0 0 0 37.791846973589145 179.1752024048219 0 179.1752024048219 -563.69998073452734 0 0 0 0 -13.858677004856872 143.06171137247657 0 143.06171137247657 -259.63489189350366 0 0 0 0 33.452748007155606 88.670128271107387 0 88.670128271107387 -205.44026770143637 0 0 0 0 6.6608149205990799 11.08172607117244 0 11.08172607117244 -10.130143158218829 0 0 0 0 34.734049565005989 28.348098317132099 0 28.348098317132099 -76.864508652710356 0 0 0 0 14.751478063248214 -39.509428620491235 0 -39.509428620491235 -177.11729075408221 0 0 0 0 83.764803777507041 136.1326186760889 0 136.1326186760889 156.24422835357473 0 0 0 0 -20.60847810598716 21.871090086913682 0 21.871090086913682 -276.34867947201565 0 0 0 0 -2.1539424322898242 0.26396231896960387 0 0.26396231896960387 0.27194168519972806 0 0 0 0 48.099195812157632 181.75045737294931 0 181.75045737294931 386.21076873760467 0 0 0 0 265.52964898500795 191.34663387138608 0 191.34663387138608 -1103.3199604989131 0 0 0 0 -154.35100823458924 124.21180516548702 0 124.21180516548702 -1107.8057813862833 0 0 0 0 -0.90833260585100106 0.57239858318156678 0 0.57239858318156678 -0.7917860769359919 0 0 0 0 102.62297197576845 -68.965656076012237 0 -68.965656076012237 -994.84827155332459 0 0 0 0 72.993581189817633 96.610721437487882 0 96.610721437487882 -0.71350735907390117 0 0 0 0 -0.084585185235482641 233.81042839884958 0 233.81042839884958 74.822972049223608 0 0 0 0 158.73477988185186 211.57503286680731 0 211.57503286680731 -36.953152027659598 0 0 0 0 181.85230157510159 164.51256658388684 0 164.51256658388684 42.405829032384645 0 0 0 0 -3.4715676876928256 7.381906930718543 0 7.381906930718543 -15.862510908982394 0 0 0 0 285.10388712401618 172.11241811507352 0 172.11241811507352 23.809442350291647 0 0 0 0 19.173358302097768 -679.83154661098979 0 -679.83154661098979 479.09745542843666 0 0 0 0 -6.8077371061153826 -52.009719850496367 0 -52.009719850496367 603.21194566332838 0 0 0 0 -11.455983678343387 11.363420057535748 0 11.363420057535748 -11.046371423168907 0 0 0 0 47.30248905128974 -1074.8937442441638 0 -1074.8937442441638 -971.40716494708795 0 0 0 0 1246.3413385135063 -353.62648251587052 0 -353.62648251587052 -1051.9957442155828 0 0 0 0 257.30772985939984 -109.35526368793035 0 -109.35526368793035 337.38560891310772 0 0 0 0 76.52503279364646 1109.6711657289252 0 1109.6711657289252 -3924.4069195489537 0 0 0 0 0.81115662065457883 5.5566694660900566 0 5.5566694660900566 -20.867686154124662 0 0 0 0 643.55013995982154 209.82137296593464 0 209.82137296593464 -64.03225527289942 0 0 0 0 129.28109007998137 331.85045448408891 0 331.85045448408891 -42.467736825072279 0 0 0 0 850.1971976306786 -130.83699161892423 0 -130.83699161892423 -784.37079783910667 0 0 0 0 -0.41130943178383816 5.4204712451565626 0 5.4204712451565626 -10.919899584096598 0 0 0 0 -961.00481546194351 1962.5173319839432 0 1962.5173319839432 -1208.7628252596514 0 0 0 0 -976.07133185896237 2122.0876838781896 0 2122.0876838781896 -678.63900180725977 0 0 0 0 -657.41683306843333 930.51948488293965 0 930.51948488293965 -1323.6504047973267 0 0 0 0 171.78016320230381 667.9562513767396 0 667.9562513767396 -1280.6715649313646 0 0 0 0 230.32393743138527 139.23428255168437 0 139.23428255168437 -502.7981662414436 0 0 0 0 0.15889126273395959 336.01258271046208 0 336.01258271046208 -434.81205489337844 0 0 0 0 0.174008501242497 425.14014919293459 0 425.14014919293459 -767.32177378124652 0 0 0 0 -103.55143830596353 419.46555076511504 0 419.46555076511504 -662.72448316069858 0 0 0 0 -92.794374239332683 473.1615876821179 0 473.1615876821179 -681.47945842426452 0 0 0 0 -0.11711457786441315 341.20363480038941 0 341.20363480038941 -617.88740873731876 0 0 0 0 -158.54476080944733 327.07865639387455 0 327.07865639387455 -589.17543037901851 0 0 0 0 -239.81005632257438 404.911565331975 0 404.911565331975 -533.08132404029675 0 0 0 0 -168.38680381974336 333.30538514277578 0 333.30538514277578 -504.76153147046716 0 0 0 0 -0.2131126518778351 257.58433139599003 0 257.58433139599003 -559.95102099224823 0 0 0 0 -200.68736154063663 216.8963397734351 0 216.8963397734351 -364.90099723803723 0 0 0 0 -222.22400670724164 306.21937830487877 0 306.21937830487877 -421.91320804114912 0 0 0 0 -196.05262634349492 244.88513532718935 0 244.88513532718935 -455.25588508535293 0 0 0 0 -265.29972837193782 349.30706737407127 0 349.30706737407127 -461.6402547842099 0 0 0 0 -292.63730760897306 269.82381123285177 0 269.82381123285177 -335.31280922703081 0 0 0 0 -352.25699975975294 161.53365173268594 0 161.53365173268594 -309.82034161387492 0 0 0 0 -230.64315784948121 365.82625971663401 0 365.82625971663401 -453.76664825191074 0 0 0 0 -541.86703728949942 480.72699443694 0 480.72699443694 -495.62365272449824 0 0 0 0 -150.11839968280037 542.02512506065978 0 542.02512506065978 -583.18108703969119 0 0 0 0 -791.07649798040075 919.90457838122347 0 919.90457838122347 -788.69897321762073 0 0 0 0 -697.91857834429538 410.26787116163541 0 410.26787116163541 -355.37976438654368 0 0 0 0 -748.93206062143145 352.93761958546747 0 352.93761958546747 -417.92113666888326 0 0 0 0 88.93327549850801 322.42916877528296 0 322.42916877528296 -131.57550728490878 0 0 0 0 -312.2916819609236 -63.878569711055206 0 -63.878569711055206 -100.26234971584563 0 0 0 0 1043.2537479520834 1210.9082876964621 0 1210.9082876964621 1448.2108011821492 0 0 0 0 544.28333805389411 -524.02094710452184 0 -524.02094710452184 -1.3762112021686335 0 0 0 0 0.56864854689253264 -0.82257333529133803 0 -0.82257333529133803 -25.314661736819374 0 0 0 0 315.75434118295016 659.81439867055042 0 659.81439867055042 -1376.3743727909969 0 0 0 0 -968.472310338635 750.47948870167329 0 750.47948870167329 -494.78096567141256 0 0 0 0 -207.01009141402028 192.5870559020359 0 192.5870559020359 -563.2944200572565 0 0 0 0 12.727265545196133 -44.330347565633929 0 -44.330347565633929 -308.82486678729128 0 0 0 0 -258.99170660773234 349.59952685377175 0 349.59952685377175 -531.28299244388973 0 0 0 0 -399.15844825228123 265.27282817995547 0 265.27282817995547 -170.27604866498586 0 0 0 0 2.7464999611023941 -0.059942799147563619 0 -0.059942799147563619 -71.066125878765263 0 0 0 0 -112.36257672404645 107.47251973035918 0 107.47251973035918 -236.04788628874667 0 0 0 0 -243.66720346271177 171.78107622185053 0 171.78107622185053 -164.93252494088392 0 0 0 0 334.95950120322095 -23.658100783153998 0 -23.658100783153998 -46.832762078664018 0 0 0 0 -0.64788482050982665 -4.1177324843978482 0 -4.1177324843978482 -0.57850994918197785 0 0 0 0 -1044.4683572126269 974.12958528796435 0 974.12958528796435 -994.26859804974083 0 0 0 0 695.29581611050526 25.141542967319765 0 25.141542967319765 -102.20135054152161 0 0 0 0 1735.9607795306292 -356.71249815079523 0 -356.71249815079523 -279.81543699982467 0 0 0 0 664.34314707109297 -50.777906670467019 0 -50.777906670467019 148.856944981384 0 0 0 0 1032.5281677126623 -382.91206722669449 0 -382.91206722669449 136.08392874556034 0 0 0 0 -27.955169711536655 36.83314536656178 0 36.83314536656178 190.20505493379824 0 0 0 0 -5.5673283803293607 2.032481724106816 0 2.032481724106816 -0.44036613450136031 0 0 0 0 194.35954444385425 23.550374529162582 0 23.550374529162582 125.54009739771391 0 0 0 0 775.31595918707899 151.79644951947193 0 151.79644951947193 -76.57855808117165 0 0 0 0 -35.974476859717939 64.366750109139488 0 64.366750109139488 9.3433033572690363 0 0 0 0 862.94475042724025 314.24891366011849 0 314.24891366011849 20.954153075758768 0 0 0 0 69.595639591626423 66.915999882483732 0 66.915999882483732 21.426508246808226 0 0 0 0 -6.9195052620621027 22.563055457677279 0 22.563055457677279 -28.898861761307749 0 0 0 0 -81.081397083507909 110.13099251249446 0 110.13099251249446 49.826121048721234 0 0 0 0 1302.616561205883 -6.3417372774129035 0 -6.3417372774129035 -36.923698422313464 0 0 0 0 -3.112870702167795 8.8965921276321325 0 8.8965921276321325 9.2292181383549732 0 0 0 0 0.86064089479168615 17.842324118085259 0 17.842324118085259 -41.485145897882106 0 0 0 0 1403.2037253472445 -333.27906267299841 0 -333.27906267299841 -89.333266347217432 0 0 0 0 1235.477616655382 -194.65119021047985 0 -194.65119021047985 -159.29255644529621 0 0 0 0 983.5987162978563 2753.0533751339935 0 2753.0533751339935 -378.21854595119476 0 0 0 0 -22.767371485807587 45.304230375354834 0 45.304230375354834 -63.57003786452853 0 0 0 0 59.711332245773519 209.56451576688437 0 209.56451576688437 28.931142099913359 0 0 0 0 18.700287548650522 47.123310475509243 0 47.123310475509243 -48.416526915453005 0 0 0 0 0.98328293314936666 -1.2662128501461751 0 -1.2662128501461751 3.3451316450418531 0 0 0 0 -352.80695481898147 84.911737475971904 0 84.911737475971904 44.474342435550625 0 0 0 0 -90.642852957185823 184.36190571027328 0 184.36190571027328 -73.035822832854137 0 0 0 0 65.557670044989209 168.34467281461821 0 168.34467281461821 -92.384218452893947 0 0 0 0 721.60926188144003 511.30965606704171 0 511.30965606704171 -427.12834987510632 0 0 0 0 359.29399274520983 111.25877131303241 0 111.25877131303241 -855.35002523842377 0 0 0 0 276.43039260318619 209.85717344669592 0 209.85717344669592 -831.18706329081488 0 0 0 0 6.0347540935326833 -226.24043264094689 0 -226.24043264094689 -489.31843599022068 0 0 0 0 85.317173381467001 64.488727085680239 0 64.488727085680239 -126.81542303165043 0 0 0 0 10.979039113022736 54.917910899710932 0 54.917910899710932 19.395463051298037 0 0 0 0 64.176244410037725 27.60349997244154 0 27.60349997244154 -92.164131178369644 0 0 0 0 45.431178010052463 243.6199887834199 0 243.6199887834199 116.46089983102138 0 0 0 0 -24.636632170342267 41.39771514834959 0 41.39771514834959 -57.314743921009807 0 0 0 0 334.94933978876361 14.262946172461852 0 14.262946172461852 253.06331352685811 0 0 0 0 -22.468509240030784 34.494297223450943 0 34.494297223450943 -45.77063006803786 0 0 0 0 1226.4356813432969 1202.9757069390453 0 1202.9757069390453 845.30687038894393 0 0 0 0 230.57336795293668 210.90571989690307 0 210.90571989690307 -35.141272887785817 0 0 0 0 -66.524711883954296 126.29682671356204 0 126.29682671356204 475.44897736486018 0 0 0 0 -916.88015130066196 763.3546886332897 0 763.3546886332897 200.43835027994282 0 0 0 0 -10.979986318214401 15.163715566156299 0 15.163715566156299 -20.074494722054617 0 0 0 0 -1378.8512282221855 2637.7452155700703 0 2637.7452155700703 -1312.1472185745861 0 0 0 0 -48.653590974194231 189.96695024520955 0 189.96695024520955 -2769.3846110918257 0 0 0 0 -1849.3167735600873 1585.8465701794221 0 1585.8465701794221 572.51014811225343 0 0 0 0 -188.92209819283744 -475.0302480309274 0 -475.0302480309274 -821.56731319504706 0 0 0 0 374.28925630862068 -276.91487020959266 0 -276.91487020959266 -2245.7488638809882 0 0 0 0 -209.57930098907673 61.712736843838684 0 61.712736843838684 45.148043548686474 0 0 0 0 -1155.5216882623718 1630.1702641105749 0 1630.1702641105749 -844.60247115848142 0 0 0 0 85.687117107852828 1409.4960008345442 0 1409.4960008345442 -2596.010852232097 0 0 0 0 -1027.253286843712 548.94254359854858 0 548.94254359854858 216.49830494785419 0 0 0 0 -1407.6325616971808 2224.9036431383247 0 2224.9036431383247 -2287.5132340106766 0 0 0 0 -6.6829811993905253 7.1657724083596293 0 7.1657724083596293 -6.4821790104574575 0 0 0 0 -65.512378096638713 31.113975327272783 0 31.113975327272783 242.77888283106586 0 0 0 0 404.10826932308555 129.5878415919733 0 129.5878415919733 60.732723554510812 0 0 0 0 -531.6679675434716 891.656842966775 0 891.656842966775 -68.295515636975324 0 0 0 0 -645.13490384606121 374.04187075935715 0 374.04187075935715 252.46091706594234 0 0 0 0 -317.09238629262836 802.02473240753079 0 802.02473240753079 -109.24652012016486 0 0 0 0 45.461461907470948 963.30458080142671 0 963.30458080142671 -287.19548006546029 0 0 0 0 348.1385918512533 802.6954439661813 0 802.6954439661813 -425.14230230407975 0 0 0 0 -148.85450977479195 640.14459747471005 0 640.14459747471005 46.33729214185405 0 0 0 0 -101.54578420163671 1306.3802142342984 0 1306.3802142342984 -982.67905574343968 0 0 0 0 498.32247482728053 899.92766144943175 0 899.92766144943175 -636.0141325827517 0 0 0 0 752.60854671661218 501.35924137021266 0 501.35924137021266 -701.4400415858272 0 0 0 0 528.44435731162957 784.42227996080783 0 784.42227996080783 -1045.8779802742124 0 0 0 0 401.5682900538086 693.80666331730436 0 693.80666331730436 -1040.0449485438676 0 0 0 0 866.51736566858744 447.81480412356882 0 447.81480412356882 -228.79682259156607 0 0 0 0 774.65909187529542 566.44496189813253 0 566.44496189813253 -547.21442354501414 0 0 0 0 885.62946410382574 464.639142017626 0 464.639142017626 -475.43014229944038 0 0 0 0 679.76354928768342 662.98444880861916 0 662.98444880861916 -326.84743131868709 0 0 0 0 753.35694904777483 710.04310584475661 0 710.04310584475661 -378.65657635592129 0 0 0 0 846.51873810191319 519.42132217527524 0 519.42132217527524 -298.40233880462165 0 0 0 0 792.15714166569524 609.8660166309428 0 609.8660166309428 -120.61534169203151 0 0 0 0 839.2088004685138 520.0955792318764 0 520.0955792318764 24.941897250691682 0 0 0 0 1063.8245488828416 324.49771414062434 0 324.49771414062434 135.18528333204085 0 0 0 0 1005.9770087033648 470.65170958166641 0 470.65170958166641 -224.72142940401773 0 0 0 0 799.47620759598794 510.68381999910935 0 510.68381999910935 -232.45559897265355 0 0 0 0 796.09107610106003 473.54700518584877 0 473.54700518584877 -307.8815613868619 0 0 0 0 441.35980115800339 725.31684895190165 0 725.31684895190165 -357.3028524626925 0 0 0 0 682.13298709183891 497.01155769107299 0 497.01155769107299 -168.85547741846221 0 0 0 0 859.90032956919458 315.5352985024947 0 315.5352985024947 -247.10610333152727 0 0 0 0 664.93538889985211 441.52354581503005 0 441.52354581503005 -47.839844315483788 0 0 0 0 832.0962774571808 373.80322455199502 0 373.80322455199502 -299.64244083833819 0 0 0 0 928.22057629019218 186.60243219480355 0 186.60243219480355 -484.94967598274889 0 0 0 0 838.83205309957702 392.28937604067323 0 392.28937604067323 -40.651439620919973 0 0 0 0 1547.8290155188497 337.13701134759208 0 337.13701134759208 -136.11599519943456 0 0 0 0 809.98206232565281 355.38244101718556 0 355.38244101718556 21.145031117730696 0 0 0 0 828.39362608647207 300.34487108974395 0 300.34487108974395 46.23133209563548 0 0 0 0 768.50037339542541 495.80753307411635 0 495.80753307411635 -112.50997585824689 0 0 0 0 878.9561989415779 366.73789361490731 0 366.73789361490731 -51.966490879583034 0 0 0 0 693.5963017114118 463.22359564060957 0 463.22359564060957 -25.437474005031959 0 0 0 0 688.47333841824366 457.17248751395198 0 457.17248751395198 2.355949392758248 0 0 0 0 655.23964187291131 441.34622048466576 0 441.34622048466576 74.16474543215736 0 0 0 0 676.54842707354692 461.02259178571865 0 461.02259178571865 31.66845042048044 0 0 0 0 598.65107158352475 514.40215139671432 0 514.40215139671432 11.147583467272398 0 0 0 0 743.68409313552547 369.72247194039346 0 369.72247194039346 44.694407975652894 0 0 0 0 771.92090044190991 405.57624383080793 0 405.57624383080793 14.309755244431926 0 0 0 0 764.55600004178996 358.23404018188171 0 358.23404018188171 50.019140802704896 0 0 0 0 711.13169384964567 417.24357202702208 0 417.24357202702208 87.042436655361598 0 0 0 0 698.6108373221432 385.23316412803865 0 385.23316412803865 90.835843917189777 0 0 0 0 782.51937097587506 283.91725454472407 0 283.91725454472407 82.24021987771539 0 0 0 0 675.16679259241209 295.88816523544665 0 295.88816523544665 95.496546918944318 0 0 0 0 664.9014310023631 383.64637882719467 0 383.64637882719467 102.53304616052355 0 0 0 0 68.423256929001582 82.422849558793757 0 82.422849558793757 19.507563044629933 0 0 0 0 -2.2454374357003815 20.175033706817473 0 20.175033706817473 -27.481377190229246 0 0 0 0 569.93666029682208 278.21556368214715 0 278.21556368214715 139.70588333139835 0 0 0 0 14.845123548875563 38.182325561763719 0 38.182325561763719 140.87854716798756 0 0 0 0 -2.9772669951269108 11.669907296682609 0 11.669907296682609 -17.604040731252425 0 0 0 0 559.55827392816718 588.49446869565645 0 588.49446869565645 509.1736025726359 0 0 0 0 485.85498978261603 368.10655796585911 0 368.10655796585911 262.40022188252715 0 0 0 0 507.61754788886174 423.1877883764796 0 423.1877883764796 367.09891956269985 0 0 0 0 630.0347028185206 472.74475403886072 0 472.74475403886072 256.32691625115831 0 0 0 0 572.5330915042141 392.71282055806114 0 392.71282055806114 145.3102682549179 0 0 0 0 670.47464074056188 404.7148460072267 0 404.7148460072267 137.60288334615416 0 0 0 0 650.81662146458984 438.29672782119337 0 438.29672782119337 85.383343302854769 0 0 0 0 649.48301719861047 469.8442948595457 0 469.8442948595457 158.17289599529431 0 0 0 0 652.23801646035281 474.31367870939516 0 474.31367870939516 72.424485077011013 0 0 0 0 650.38080779969459 457.96306579475902 0 457.96306579475902 163.40795197139869 0 0 0 0 555.26390151710075 470.62157968126996 0 470.62157968126996 169.17703416965333 0 0 0 0 540.96269159423173 515.45553465133321 0 515.45553465133321 74.552345140360103 0 0 0 0 608.07778513844823 547.11416119303567 0 547.11416119303567 210.21910034816756 0 0 0 0 652.26443187563564 463.08264618300768 0 463.08264618300768 157.19590542952824 0 0 0 0 614.2361690459802 501.81520400370596 0 501.81520400370596 285.64269941862858 0 0 0 0 716.64642327328329 571.60660222922093 0 571.60660222922093 254.10220508851535 0 0 0 0 824.72403346309147 730.45233721162822 0 730.45233721162822 374.32025442437248 0 0 0 0 980.53484006294457 484.01384889909792 0 484.01384889909792 259.85863590730742 0 0 0 0 -3.1528321334310476 13.457337224332008 0 13.457337224332008 -23.973410247176147 0 0 0 0 652.53283684405324 493.28754149341137 0 493.28754149341137 275.39114686466064 0 0 0 0 468.55044550176535 447.93570383510837 0 447.93570383510837 299.6107025284291 0 0 0 0 654.49306835484458 574.68811527141361 0 574.68811527141361 301.99842588577883 0 0 0 0 461.30277042501257 528.56002077202879 0 528.56002077202879 335.48341274960239 0 0 0 0 697.892482687952 405.35672870312357 0 405.35672870312357 258.2600194825236 0 0 0 0 234.96119278871629 384.80050077087913 0 384.80050077087913 676.41736229661819 0 0 0 0 395.34250644795247 295.52975487032586 0 295.52975487032586 698.50625292884865 0 0 0 0 751.43035556550603 245.75809085760807 0 245.75809085760807 544.02029387093671 0 0 0 0 -211.26066059590448 -2.3507785130418597 0 -2.3507785130418597 372.72303988782005 0 0 0 0 -167.13483524319599 1143.6196174689503 0 1143.6196174689503 -2397.1768084784817 0 0 0 0 1.8050124828552896 2.9989948212256792 0 2.9989948212256792 -10.553630044063102 0 0 0 0 335.88132599553501 -285.29155370179433 0 -285.29155370179433 -416.6507914009635 0 0 0 0 238.12865038769087 42.56692139639199 0 42.56692139639199 -1374.1578306016945 0 0 0 0 -765.00879851623904 20.873049228148375 0 20.873049228148375 201.80416958644673 0 0 0 0 121.78783139502048 142.23893237710581 0 142.23893237710581 -76.337479650515888 0 0 0 0 -1.5435847081134852 700.63024105095951 0 700.63024105095951 102.55240256497336 0 0 0 0 -48.11722041647954 791.38913000603839 0 791.38913000603839 100.39849850359587 0 0 0 0 36.362197389327775 698.50778541110503 0 698.50778541110503 342.57807890819777 0 0 0 0 115.52288868598407 689.05524492273935 0 689.05524492273935 292.06235007190753 0 0 0 0 91.542990764632123 549.11398188124485 0 549.11398188124485 420.31267082023146 0 0 0 0 33.449997766962042 757.40500645409588 0 757.40500645409588 187.45233172695043 0 0 0 0 261.82482746271853 616.00828350910547 0 616.00828350910547 130.7656016935839 0 0 0 0 168.19793688237405 611.82884518745664 0 611.82884518745664 154.61155751035881 0 0 0 0 438.58716190216364 518.72189916538662 0 518.72189916538662 197.65311410766253 0 0 0 0 295.25740331398265 497.5229061432351 0 497.5229061432351 227.03374984132267 0 0 0 0 -72.619918550597504 770.80250448678362 0 770.80250448678362 164.9002370030662 0 0 0 0 159.35348895435709 707.01050237263496 0 707.01050237263496 66.177671924204788 0 0 0 0 21.395504857951892 657.69524841812859 0 657.69524841812859 251.7963474114365 0 0 0 0 48.902641181062791 696.93262265995122 0 696.93262265995122 151.43815244560824 0 0 0 0 524.26145093385276 519.31728130592205 0 519.31728130592205 -3.9601980442664058 0 0 0 0 400.92293370094558 627.26950798441271 0 627.26950798441271 -21.027672893931594 0 0 0 0 510.98083834235149 470.69910587397544 0 470.69910587397544 93.526916078699969 0 0 0 0 297.82097908596916 690.04013139901213 0 690.04013139901213 -91.679405756993674 0 0 0 0 535.32536331867595 541.99149421431594 0 541.99149421431594 -10.92940977775288 0 0 0 0 300.81135645766517 699.74652800445961 0 699.74652800445961 -138.57050535065582 0 0 0 0 188.90921897553926 675.90790669129024 0 675.90790669129024 -103.04140318890813 0 0 0 0 -388.11249155130645 642.74797061411664 0 642.74797061411664 -142.30272716319013 0 0 0 0 -171.21979283054679 906.32841339829383 0 906.32841339829383 -160.76078015638404 0 0 0 0 -39.519240552930569 792.12665463629958 0 792.12665463629958 44.842685157782284 0 0 0 0 -60.436767233059072 756.51561787335754 0 756.51561787335754 40.04441010016285 0 0 0 0 -76.834111263893647 759.60143316496237 0 759.60143316496237 143.13492405850457 0 0 0 0 -203.7979750353843 848.44952517411548 0 848.44952517411548 106.27074070137087 0 0 0 0 -378.39551539052627 719.07026602865517 0 719.07026602865517 288.28239911927994 0 0 0 0 -100.40439903987135 412.43142371955628 0 412.43142371955628 57.981137248906521 0 0 0 0 -45.503426032257266 524.43334361518816 0 524.43334361518816 280.18268204616288 0 0 0 0 -96.936342765198788 649.88569121407909 0 649.88569121407909 51.656250507987124 0 0 0 0 -45.619519763282369 343.36930031382383 0 343.36930031382383 397.28179659410375 0 0 0 0 -64.535345580512512 298.77063475567502 0 298.77063475567502 371.01869327831696 0 0 0 0 -311.38961466397086 584.79956558501476 0 584.79956558501476 484.03728802903038 0 0 0 0 234.1955029877281 323.46849564988906 0 323.46849564988906 274.35499724744909 0 0 0 0 -313.78565428438742 271.11456802771067 0 271.11456802771067 918.93164943552028 0 0 0 0 -4.3176491567085975 5.0584281343626785 0 5.0584281343626785 -2.7417280325970235 0 0 0 0 -671.62149474705802 854.48425889618238 0 854.48425889618238 295.99242688314098 0 0 0 0 218.19397838635632 911.18912952571009 0 911.18912952571009 -367.12327789362763 0 0 0 0 19.29996711473359 803.16197792246749 0 803.16197792246749 -414.21013373614369 0 0 0 0 -469.09830900956877 968.96142127442681 0 968.96142127442681 -179.23832570901232 0 0 0 0 -341.63421394239015 714.0613176651799 0 714.0613176651799 -435.06883392363034 0 0 0 0 -574.24979268281641 774.28614934166853 0 774.28614934166853 -150.14463279366828 0 0 0 0 35.613416121639602 909.95477565752185 0 909.95477565752185 -201.08290835215257 0 0 0 0 -511.17281870325678 786.84478537036148 0 786.84478537036148 -142.42755922480092 0 0 0 0 407.84480724489185 1178.9861918671613 0 1178.9861918671613 -511.97561884041806 0 0 0 0 -435.67409041315841 626.42036674781411 0 626.42036674781411 -302.49808319514818 0 0 0 0 -1844.3682210019306 801.01726257426958 0 801.01726257426958 -209.28145569132357 0 0 0 0 -1.4009125673312184 5.5586539553570447 0 5.5586539553570447 -6.3233669168879771 0 0 0 0 1991.0356116318144 802.30919500510026 0 802.30919500510026 -439.9064332014259 0 0 0 0 -534.0326371043011 429.90272435371253 0 429.90272435371253 -131.15191716047116 0 0 0 0 -602.55683977763692 669.8968310084864 0 669.8968310084864 -283.80836879017534 0 0 0 0 -272.36771225115808 726.04267622530779 0 726.04267622530779 -582.45877276510669 0 0 0 0 -339.5258344773174 845.652638746609 0 845.652638746609 -559.47123542815939 0 0 0 0 -350.96114491666231 359.81119760396632 0 359.81119760396632 -89.319060308554072 0 0 0 0 -449.22836493154136 408.37032019044727 0 408.37032019044727 4.5104430050359952 0 0 0 0 -373.68326657954822 348.80314052212219 0 348.80314052212219 -107.10624154678135 0 0 0 0 -407.1141542550904 467.29386865816116 0 467.29386865816116 -148.38636208578373 0 0 0 0 -310.18674147468846 470.9973761384399 0 470.9973761384399 -175.3878586103383 0 0 0 0 -500.33322029271949 446.20048545662712 0 446.20048545662712 -123.33484583800555 0 0 0 0 -660.14781751847113 341.55668734740595 0 341.55668734740595 46.874133800496566 0 0 0 0 1333.411782542591 651.31089465906746 0 651.31089465906746 94.695122701322362 0 0 0 0 -5.1762467518756452 15.973653575573891 0 15.973653575573891 -13.676910822012058 0 0 0 0 -529.645102899427 239.87584680421105 0 239.87584680421105 124.41069484602781 0 0 0 0 -5.1002009548028582 173.92478615288292 0 173.92478615288292 82.704586814522372 0 0 0 0 -447.22274113771709 296.46757871104592 0 296.46757871104592 322.01979936072712 0 0 0 0 -696.52694502411759 1119.6576319964552 0 1119.6576319964552 -353.87117064506674 0 0 0 0 -6.7050824719845039 17.932059425780679 0 17.932059425780679 -15.617134027521374 0 0 0 0 399.82011084086116 557.29582453733951 0 557.29582453733951 130.63991211364646 0 0 0 0 1222.5727933212765 -3.7499274119700203 0 -3.7499274119700203 -8.1104522639716379 0 0 0 0 -289.90434790901782 424.3677757617852 0 424.3677757617852 570.20964665986685 0 0 0 0 -279.36278085478261 112.95060496537189 0 112.95060496537189 128.57357119675453 0 0 0 0 -556.32666009867535 145.74865365125152 0 145.74865365125152 249.54319600879717 0 0 0 0 -415.83750843178132 123.31651788240015 0 123.31651788240015 126.07156718170108 0 0 0 0 -613.09242661063035 -141.70798326425756 0 -141.70798326425756 -136.1054401247975 0 0 0 0 -401.09690711719304 281.16620278650907 0 281.16620278650907 57.579146221734845 0 0 0 0 -447.11235921290245 246.61444137673308 0 246.61444137673308 32.351613417463341 0 0 0 0 -347.35664252988136 81.249419116492163 0 81.249419116492163 -214.00209569426079 0 0 0 0 -181.17343557447384 238.62424054685653 0 238.62424054685653 -175.85944543754158 0 0 0 0 -101.94638732281601 155.54835102862398 0 155.54835102862398 -245.67199045503185 0 0 0 0 -142.51296759821707 157.82615895841809 0 157.82615895841809 -202.46097599348207 0 0 0 0 -67.353690778931195 314.87405665696997 0 314.87405665696997 -381.65409210546795 0 0 0 0 -212.43682849075776 -29.167265145938927 0 -29.167265145938927 -591.42762783365833 0 0 0 0 -162.4718087945439 320.63665224945748 0 320.63665224945748 -143.34180222227315 0 0 0 0 -155.0416408499259 323.30093469491749 0 323.30093469491749 -159.05397175407052 0 0 0 0 -6.2512502180173328 3.0900154537053623 0 3.0900154537053623 1.1580764052683215 0 0 0 0 591.33330278220092 1070.4042081133048 0 1070.4042081133048 181.14045479186575 0 0 0 0 -40.779876355558372 76.341722318837583 0 76.341722318837583 370.87325182767563 0 0 0 0 -297.43522200139705 262.63355577543007 0 262.63355577543007 767.8067591474927 0 0 0 0 -17.141402877440598 9.2196801881438333 0 9.2196801881438333 2.263068008018676 0 0 0 0 53.894464515251457 459.24358412292258 0 459.24358412292258 262.52711157280555 0 0 0 0 -616.13088038229762 -589.13007467787202 0 -589.13007467787202 -109.82061724820323 0 0 0 0 -167.56150554243868 20.385398939151173 0 20.385398939151173 1492.1402135107328 0 0 0 0 -429.28109293784655 -37.660167650627955 0 -37.660167650627955 406.79076841298138 0 0 0 0 -310.34054963145172 170.23938102713419 0 170.23938102713419 481.00509571803036 0 0 0 0 -113.67564923634018 42.566590154076039 0 42.566590154076039 506.25784504493549 0 0 0 0 346.66069303850963 773.60326278002549 0 773.60326278002549 745.05607179228934 0 0 0 0 -322.21620096873448 452.69156999133952 0 452.69156999133952 340.88815867711492 0 0 0 0 -35.061508872182458 170.47803024233235 0 170.47803024233235 -8.8461088066151206 0 0 0 0 -532.64472179337463 -168.93966987337717 0 -168.93966987337717 339.23019386138958 0 0 0 0 -505.09048566481943 -78.292467500042221 0 -78.292467500042221 150.27420544260531 0 0 0 0 -446.19364482285164 -284.03976863775381 0 -284.03976863775381 -72.536534180302624 0 0 0 0 1016.1774005883908 426.62790295315074 0 426.62790295315074 -998.03806632236956 0 0 0 0 -537.82988178326923 -670.93977953859758 0 -670.93977953859758 -817.37298866005494 0 0 0 0 -208.60189069561602 -214.98101834837507 0 -214.98101834837507 -187.72969653217842 0 0 0 0 -17.103631471764459 3.0494797854499822 0 3.0494797854499822 -1.4031282039985733 0 0 0 0 -1138.3667552561237 -531.42649844624884 0 -531.42649844624884 -83.816126874982729 0 0 0 0 -149.6499423969326 -4.3637563179893277 0 -4.3637563179893277 -1506.0026200635766 0 0 0 0 -1225.4213193994801 526.14627187387578 0 526.14627187387578 -99.969634492572368 0 0 0 0 -1232.1545349970256 -400.00991458762746 0 -400.00991458762746 -131.51268774794426 0 0 0 0 -759.64994183580166 990.630585830982 0 990.630585830982 -393.66003473432647 0 0 0 0 1590.6490548162219 775.86764632953464 0 775.86764632953464 -848.10822761694726 0 0 0 0 1050.4153758385073 996.44913444640952 0 996.44913444640952 -959.75448360457972 0 0 0 0 1054.0984902937198 907.73632365577032 0 907.73632365577032 -209.54729509802928 0 0 0 0 -3.5987422406741416 7.1586613962014098 0 7.1586613962014098 -8.3868367683306673 0 0 0 0 -2888.1401561189487 -775.64132920772863 0 -775.64132920772863 639.01497095199738 0 0 0 0 785.23343221399409 774.86285854857488 0 774.86285854857488 414.52177377074804 0 0 0 0 848.16410339539289 460.02336318288781 0 460.02336318288781 281.66976253051962 0 0 0 0 823.3416622777986 738.59057806229021 0 738.59057806229021 448.60139912012528 0 0 0 0 534.86335869555478 474.25708371009932 0 474.25708371009932 432.78248855144921 0 0 0 0 623.55436264661694 591.53824805587101 0 591.53824805587101 479.58916097909787 0 0 0 0 592.07145717942331 643.021525354392 0 643.021525354392 409.46666734464998 0 0 0 0 -1189.2604571072479 1256.934949534289 0 1256.934949534289 -803.95653419895461 0 0 0 0 -252.8857168517934 -149.8466452541652 0 -149.8466452541652 -169.08109127813896 0 0 0 0 -30.250032430078591 28.054514921428932 0 28.054514921428932 -2.093277743215376 0 0 0 0 -4.0489576710302799 17.252688518118987 0 17.252688518118987 -0.61586665769242899 0 0 0 0 -1815.6881219640782 376.22928795962798 0 376.22928795962798 1085.2778177651944 0 0 0 0 1015.0828363092987 322.28710191766959 0 322.28710191766959 518.31607951174374 0 0 0 0 -348.91971006402309 -114.21486569201261 0 -114.21486569201261 -99.626885063062673 0 0 0 0 -388.09853500835743 -129.44141334827782 0 -129.44141334827782 213.26800076756535 0 0 0 0 66.146310762629582 6.4207635751152878 0 6.4207635751152878 -7.6105901036462118 0 0 0 0 572.67984447896015 510.47715291090935 0 510.47715291090935 430.25511378130977 0 0 0 0 -337.85774024338934 -61.51789445651707 0 -61.51789445651707 89.838970840715774 0 0 0 0 212.59177166660447 95.346131641746524 0 95.346131641746524 -137.66663580653403 0 0 0 0 -42.9447673903788 80.623143114223765 0 80.623143114223765 2.0154111034655635 0 0 0 0 -409.9142039223043 51.529905173862289 0 51.529905173862289 373.54827013885642 0 0 0 0 -401.77080590077821 58.931103662646137 0 58.931103662646137 29.873130667229475 0 0 0 0 -403.96658297435351 -7.8221424145567653 0 -7.8221424145567653 178.6531412252898 0 0 0 0 108.19464742107812 262.38794156823224 0 262.38794156823224 -239.83837823393924 0 0 0 0 195.49004596892337 49.566214656259945 0 49.566214656259945 -629.33918534322765 0 0 0 0 101.05648513117922 285.2999650919478 0 285.2999650919478 -121.23638969454146 0 0 0 0 59.086319860551157 15.241971924182963 0 15.241971924182963 -282.47666474956213 0 0 0 0 136.47589043335756 279.88608707155299 0 279.88608707155299 -87.003018528708935 0 0 0 0 46.198281414021039 106.60049660779669 0 106.60049660779669 21.387638771359889 0 0 0 0 607.31746271392331 1036.8905057870197 0 1036.8905057870197 1440.2884946252398 0 0 0 0 37.630329572463722 -1.8743732324452935 0 -1.8743732324452935 -2.6948803246566122 0 0 0 0 399.80916769237956 611.44331329102397 0 611.44331329102397 652.99703594463972 0 0 0 0 629.06415819110407 806.49207698446935 0 806.49207698446935 682.92832796013772 0 0 0 0 768.89886198862951 883.92456784785554 0 883.92456784785554 501.63445289555602 0 0 0 0 774.20868803159829 817.2802392314079 0 817.2802392314079 372.94872799916266 0 0 0 0 796.82298313151659 822.90127268944502 0 822.90127268944502 431.67961743844171 0 0 0 0 761.47660016149166 768.18568283049899 0 768.18568283049899 247.83772721875994 0 0 0 0 803.70587069030444 886.1097451094538 0 886.1097451094538 367.60399145922474 0 0 0 0 724.55605137658131 734.04772438393047 0 734.04772438393047 133.70868113676079 0 0 0 0 742.76448741895729 814.23925615927578 0 814.23925615927578 187.55645131649726 0 0 0 0 765.94878939626506 817.82509708941916 0 817.82509708941916 75.57175086567986 0 0 0 0 657.9846088396589 797.80526573166208 0 797.80526573166208 72.738730640716312 0 0 0 0 799.13867425564968 755.84903091264914 0 755.84903091264914 172.5037973235867 0 0 0 0 800.62610489676786 825.18304057339731 0 825.18304057339731 176.61280199565226 0 0 0 0 794.41748454712797 840.57405002782616 0 840.57405002782616 220.7139685233501 0 0 0 0 857.4795457403161 790.42560101738263 0 790.42560101738263 196.37871808389173 0 0 0 0 786.63451869827259 805.06424904311916 0 805.06424904311916 378.79032234765509 0 0 0 0 995.14625052981137 737.81483813030354 0 737.81483813030354 317.80568155616493 0 0 0 0 990.78475169875492 847.90165866487155 0 847.90165866487155 316.50717291835099 0 0 0 0 1494.8986497106089 555.13379858883309 0 555.13379858883309 241.31120720817125 0 0 0 0 1049.0384764773626 741.38893539766741 0 741.38893539766741 250.65589955898849 0 0 0 0 851.82187241521024 787.03298213481321 0 787.03298213481321 311.23773239808725 0 0 0 0 -2711.8539045673024 -759.76446858867075 0 -759.76446858867075 334.73328872709681 0 0 0 0 -3.8849718846003682 5.6688919751110518 0 5.6688919751110518 -2.0088345377259316 0 0 0 0 1839.9591111793561 1074.9769430385427 0 1074.9769430385427 18.508198644922231 0 0 0 0 -144.44192312059022 473.31827885258235 0 473.31827885258235 276.2226728704245 0 0 0 0 1137.1474590725556 1267.399245128543 0 1267.399245128543 210.84739500845353 0 0 0 0 286.03445466634003 1169.7876192539798 0 1169.7876192539798 214.68368868019797 0 0 0 0 807.40170950914035 833.34992438441623 0 833.34992438441623 40.322689416896537 0 0 0 0 886.63148065093264 799.38743118195271 0 799.38743118195271 42.466945965537889 0 0 0 0 1013.8789379651789 813.10270410649173 0 813.10270410649173 108.15047060387042 0 0 0 0 824.69570534006925 864.66622405071575 0 864.66622405071575 96.328725983852564 0 0 0 0 806.85283872675063 829.3304871884302 0 829.3304871884302 53.940079565874839 0 0 0 0 761.47311898295447 864.33216925693978 0 864.33216925693978 47.357686153668965 0 0 0 0 629.53517388299224 475.43189074333986 0 475.43189074333986 229.11721567197083 0 0 0 0 899.21939208903495 616.02040588206182 0 616.02040588206182 289.74148466213137 0 0 0 0 804.82526072853943 686.00279041330941 0 686.00279041330941 92.880166848212866 0 0 0 0 898.40873353905772 636.11585679423752 0 636.11585679423752 -52.72288881937402 0 0 0 0 804.76525492040128 714.40961799549586 0 714.40961799549586 -166.08652692116266 0 0 0 0 713.00124905817211 768.00282948301992 0 768.00282948301992 -26.690066802108049 0 0 0 0 715.80715234005447 723.309004572915 0 723.309004572915 -154.03206120473806 0 0 0 0 568.1977581440442 844.33504177086616 0 844.33504177086616 -253.13689997740767 0 0 0 0 572.0701432924252 811.37333383735677 0 811.37333383735677 -20.942350204879403 0 0 0 0 719.03464538660046 745.64872167302269 0 745.64872167302269 6.4214564068552136 0 0 0 0 699.87881359655876 783.41469142165624 0 783.41469142165624 76.547213202552882 0 0 0 0 818.85780886835346 788.90234773770226 0 788.90234773770226 -50.2849672723205 0 0 0 0 789.17190948817006 813.42985340757605 0 813.42985340757605 41.755394812703798 0 0 0 0 412.3927311940497 654.44735483946442 0 654.44735483946442 -1.4446319843682431 0 0 0 0 199.82878016014729 602.55363376497007 0 602.55363376497007 89.989354367768101 0 0 0 0 236.11882628616149 568.97369308281304 0 568.97369308281304 82.816688095290374 0 0 0 0 428.66633275261847 588.26994247443054 0 588.26994247443054 90.293549488450253 0 0 0 0 543.70800032246916 740.876832791987 0 740.876832791987 42.113120514646653 0 0 0 0 551.86604606207402 674.16685842449533 0 674.16685842449533 4.7889005390316015 0 0 0 0 400.08029933275884 773.82611783717516 0 773.82611783717516 -55.380338997912986 0 0 0 0 393.63919907208037 714.75862586096719 0 714.75862586096719 -88.763247767270514 0 0 0 0 380.69510643570175 744.91374906231067 0 744.91374906231067 -152.1611157970674 0 0 0 0 131.21846454228216 792.08666916142283 0 792.08666916142283 -65.821603785560001 0 0 0 0 74.567339237331907 569.92893482998227 0 569.92893482998227 86.929568842355366 0 0 0 0 18.322733333770884 628.66195288727158 0 628.66195288727158 26.423748260614047 0 0 0 0 38.004979908437235 283.31912425257997 0 283.31912425257997 195.16667449670604 0 0 0 0 -180.49665668749003 376.10495645526544 0 376.10495645526544 189.51535487398542 0 0 0 0 308.24241393517877 222.09903329165172 0 222.09903329165172 113.64181511682273 0 0 0 0 6.8115284325576795 174.31663488209961 0 174.31663488209961 121.89649116934379 0 0 0 0 160.06796055934683 232.46296770042568 0 232.46296770042568 147.37299586444897 0 0 0 0 112.21671785985745 323.84350854515696 0 323.84350854515696 173.97223070940345 0 0 0 0 190.28126466055983 284.92722065471844 0 284.92722065471844 186.99866470974848 0 0 0 0 218.85021919608698 314.42008867356799 0 314.42008867356799 172.11202153957197 0 0 0 0 274.39305387207423 247.77698367595121 0 247.77698367595121 148.36341025855108 0 0 0 0 74.913223142764764 420.47179865847056 0 420.47179865847056 158.66868784771395 0 0 0 0 160.47412550833542 361.531165114744 0 361.531165114744 160.69891225775564 0 0 0 0 289.76373822944879 420.76730412865982 0 420.76730412865982 155.0138383530591 0 0 0 0 203.78162614014582 326.68789250016926 0 326.68789250016926 172.17253938502108 0 0 0 0 292.49411549980869 343.18579773372767 0 343.18579773372767 175.2067206761767 0 0 0 0 354.76740687100391 316.51774273823139 0 316.51774273823139 126.89748632549527 0 0 0 0 205.9273430370522 288.47404210529658 0 288.47404210529658 187.45717124087128 0 0 0 0 249.32209946587682 264.84851031295602 0 264.84851031295602 178.92225690575287 0 0 0 0 243.99463817165088 334.76273174211656 0 334.76273174211656 178.26692695554448 0 0 0 0 156.2470847734312 321.73520572060625 0 321.73520572060625 172.62231585276822 0 0 0 0 145.38260486357467 276.31474957594662 0 276.31474957594662 190.25139092974132 0 0 0 0 492.84099697605416 399.06473916746927 0 399.06473916746927 140.50164652744638 0 0 0 0 371.31759786670591 201.85688020829093 0 201.85688020829093 60.718815335056206 0 0 0 0 546.83014592884138 360.1941779972376 0 360.1941779972376 118.80507319896969 0 0 0 0 651.35185560983518 588.44950165890259 0 588.44950165890259 205.10574427306892 0 0 0 0 714.899009708839 545.41405767977176 0 545.41405767977176 120.66877230663226 0 0 0 0 457.28537668721401 480.55481227195287 0 480.55481227195287 140.11969346538103 0 0 0 0 470.4129843931878 470.19340166663505 0 470.19340166663505 140.74102707572456 0 0 0 0 600.71290065922221 618.40748306034038 0 618.40748306034038 114.4138316324952 0 0 0 0 447.07316636478208 569.91332780453558 0 569.91332780453558 104.9520438052532 0 0 0 0 267.08286649294314 442.05721472092682 0 442.05721472092682 140.44632598741373 0 0 0 0 630.07684080446779 672.86526533192659 0 672.86526533192659 91.689724107742222 0 0 0 0 593.40378109201265 614.41648870369136 0 614.41648870369136 139.34180251058933 0 0 0 0 680.34065300799557 740.05261825541493 0 740.05261825541493 123.19712544735194 0 0 0 0 847.30814248677052 734.34209264641049 0 734.34209264641049 226.02942635097043 0 0 0 0 706.22212104208302 752.33548766727563 0 752.33548766727563 238.33181003316531 0 0 0 0 734.85003134819726 698.06121246341581 0 698.06121246341581 155.04255791086325 0 0 0 0 768.16614286761614 677.34680183641467 0 677.34680183641467 145.43721752867521 0 0 0 0 1154.3739467363048 886.76059008223183 0 886.76059008223183 330.87226071751252 0 0 0 0 787.10886181062233 765.05656413771158 0 765.05656413771158 368.80202861363068 0 0 0 0 930.82896318820713 645.04327353139433 0 645.04327353139433 160.73197086914024 0 0 0 0 758.0063184407918 613.82853074463947 0 613.82853074463947 336.47567741485 0 0 0 0 1050.9654339634944 587.52241833890912 0 587.52241833890912 317.57543613877124 0 0 0 0 843.76386653610825 794.88621351593747 0 794.88621351593747 747.91339960947789 0 0 0 0 835.94002658574027 986.32924924926647 0 986.32924924926647 776.86357745246642 0 0 0 0 1109.612903569534 1744.671560078194 0 1744.671560078194 2549.3234245212043 0 0 0 0 838.5082603186238 970.35040472925357 0 970.35040472925357 782.55826648558718 0 0 0 0 1838.1112024093381 1153.4844597233628 0 1153.4844597233628 449.15633793967572 0 0 0 0 270.43333307538705 -322.6329380687132 0 -322.6329380687132 -921.139427318451 0 0 0 0 14.229275369701156 0.81275550685523257 0 0.81275550685523257 -0.4246620866993851 0 0 0 0 530.60485716760013 536.86015947930355 0 536.86015947930355 497.64118185454936 0 0 0 0 823.48852554721816 1086.1307284215281 0 1086.1307284215281 647.2530552770711 0 0 0 0 1191.4271052450713 497.05493020040512 0 497.05493020040512 887.59439445989744 0 0 0 0 959.20901171138394 897.27204591072291 0 897.27204591072291 329.00598424048803 0 0 0 0 229.94963568747335 727.40760444963826 0 727.40760444963826 419.59019969357405 0 0 0 0 295.13696987259755 249.57248607812107 0 249.57248607812107 4.4753914661378076 0 0 0 0 380.25610329954361 602.8690592856783 0 602.8690592856783 531.81591913263583 0 0 0 0 963.73439026245978 559.2773679387617 0 559.2773679387617 96.613814946841558 0 0 0 0 500.52044386937632 276.56203256151366 0 276.56203256151366 181.74714566933221 0 0 0 0 842.92141478651683 542.96340740590495 0 542.96340740590495 112.72991362720859 0 0 0 0 266.40929487961512 432.1526768945306 0 432.1526768945306 147.14692641182592 0 0 0 0 257.68230392982605 288.51301103783504 0 288.51301103783504 -184.01446035301888 0 0 0 0 -505.29289634017186 -19.980260475410432 0 -19.980260475410432 -63.517590336738976 0 0 0 0 -1639.126192229116 306.43152151548793 0 306.43152151548793 427.02819599129543 0 0 0 0 -0.19570150088969918 5.2845953043194385 0 5.2845953043194385 5.7161780626813155 0 0 0 0 1982.2986732876234 902.59182191457921 0 902.59182191457921 -143.07917721627564 0 0 0 0 877.87111635650945 375.28908636685537 0 375.28908636685537 165.26818495750194 0 0 0 0 -1.2905677152408632 11.993101773882472 0 11.993101773882472 13.83106213691368 0 0 0 0 305.8140263617338 535.91439480527197 0 535.91439480527197 124.56066188386558 0 0 0 0 -838.14992853821605 240.1437214218995 0 240.1437214218995 297.25543852469309 0 0 0 0 -71.919085653120419 487.56482269411481 0 487.56482269411481 -46.128006095347359 0 0 0 0 144.77673085931019 191.98684285135096 0 191.98684285135096 -96.098611222720137 0 0 0 0 -577.31436120030412 494.97516303864279 0 494.97516303864279 71.204439663877565 0 0 0 0 -1.1526366829143448 12.908652842893261 0 12.908652842893261 14.822571471267544 0 0 0 0 377.89024608599721 619.98592499398887 0 619.98592499398887 344.0886954955929 0 0 0 0 293.96065715102304 639.82333841405557 0 639.82333841405557 374.2004266735953 0 0 0 0 0.12338986490794923 617.99803227125619 0 617.99803227125619 -21.285693996564078 0 0 0 0 67.529561638919404 378.09009239454303 0 378.09009239454303 32.099931863134543 0 0 0 0 49.02678928282694 728.15850632302727 0 728.15850632302727 107.23944080537967 0 0 0 0 -0.08703111442446243 653.28160984864212 0 653.28160984864212 246.84911124142172 0 0 0 0 120.18207388049632 796.29329318468126 0 796.29329318468126 403.96676681215649 0 0 0 0 84.999787566731356 619.0697574284909 0 619.0697574284909 174.11836383463742 0 0 0 0 -0.34791554432013072 583.24198477578557 0 583.24198477578557 -328.92623134402311 0 0 0 0 -180.07100113062188 534.16961553269903 0 534.16961553269903 263.96322024993151 0 0 0 0 -705.10815642858506 45.037335685414291 0 45.037335685414291 -724.59551769572499 0 0 0 0 -4.06224507039218 3.2690309599279033 0 3.2690309599279033 -2.8019002511271616 0 0 0 0 -86.808854969000095 588.65941884097265 0 588.65941884097265 -1003.4188554390889 0 0 0 0 176.29611661410308 452.43354636540153 0 452.43354636540153 -1236.1363523300606 0 0 0 0 92.720073367308942 96.297749383055816 0 96.297749383055816 -294.96325829871421 0 0 0 0 56.599515129375504 -121.09551121703407 0 -121.09551121703407 -796.59725002416053 0 0 0 0 142.18797835209989 -148.14461072143331 0 -148.14461072143331 -1085.4857452618587 0 0 0 0 107.70564383141755 435.82648430728386 0 435.82648430728386 -537.91369871831193 0 0 0 0 70.473172053134476 755.25327343038771 0 755.25327343038771 -83.970677894216351 0 0 0 0 188.18536727242463 266.4965388778819 0 266.4965388778819 -323.68117129673738 0 0 0 0 353.8920066585124 448.48160542455298 0 448.48160542455298 248.00676440477855 0 0 0 0 843.72651347378633 1186.9414275123665 0 1186.9414275123665 457.09652743522201 0 0 0 0 183.99450492364122 415.70450518519738 0 415.70450518519738 271.29089618633407 0 0 0 0 649.27228942429065 661.6884301369937 0 661.6884301369937 -170.80143838373624 0 0 0 0 -328.786271538047 178.86623934174622 0 178.86623934174622 174.0516098451626 0 0 0 0 -425.61869985861995 841.12667794063327 0 841.12667794063327 194.84196993267506 0 0 0 0 521.16019257166772 809.35535322178657 0 809.35535322178657 169.12815896733764 0 0 0 0 122.81337934900603 573.42312383645776 0 573.42312383645776 46.740656348731136 0 0 0 0 98.878281370285549 337.14083953819318 0 337.14083953819318 187.2852295135508 0 0 0 0 617.20782207912998 449.24648216518653 0 449.24648216518653 71.935873399273078 0 0 0 0 266.44763606888591 331.00356732411637 0 331.00356732411637 130.31669452871211 0 0 0 0 0.37529254709894033 0.75297736734961518 0 0.75297736734961518 -2.0857113327665928 0 0 0 0 923.94655231384968 306.50407796380296 0 306.50407796380296 -122.04735423792954 0 0 0 0 -311.23960611604707 235.47082691312789 0 235.47082691312789 -189.01888978875832 0 0 0 0 423.14523388167072 624.61249165617528 0 624.61249165617528 -410.83652386239191 0 0 0 0 -73.091140965640079 305.32798480036581 0 305.32798480036581 -548.79129491539334 0 0 0 0 615.05843957308889 497.15495058453706 0 497.15495058453706 -225.2326024642316 0 0 0 0 -180.85589226239244 65.589684576887521 0 65.589684576887521 14.254949155529175 0 0 0 0 -3.6446515059135969 5.6215667644009528 0 5.6215667644009528 -4.609432158870284 0 0 0 0 -13.155961159266553 20.725583531059101 0 20.725583531059101 -0.12732930456149916 0 0 0 0 -7.3146445707045018 9.0998573687635087 0 9.0998573687635087 -11.120171956063437 0 0 0 0 368.49430444736208 208.05751475539728 0 208.05751475539728 84.914990168254008 0 0 0 0 497.20923659617256 185.62862221807472 0 185.62862221807472 84.592188031335354 0 0 0 0 344.93220123404171 321.5588998844496 0 321.5588998844496 131.43658933081042 0 0 0 0 393.00213339616585 271.66620667468817 0 271.66620667468817 96.854884904520077 0 0 0 0 316.16318569606301 208.02644051263064 0 208.02644051263064 116.32091346539346 0 0 0 0 113.71624105839874 175.26343692067167 0 175.26343692067167 78.305117977524787 0 0 0 0 189.58323851098248 168.80161206134471 0 168.80161206134471 78.797248995938389 0 0 0 0 114.79414734796228 169.35725442345802 0 169.35725442345802 106.21869387063271 0 0 0 0 -39.54490674038243 231.37054909531253 0 231.37054909531253 101.50634921379003 0 0 0 0 -0.069589239363267552 223.5592017998124 0 223.5592017998124 -11.433150888951786 0 0 0 0 -2.130353785421903 261.8726789247778 0 261.8726789247778 159.71462548830459 0 0 0 0 58.782671734355972 101.97574032856392 0 101.97574032856392 193.261778779015 0 0 0 0 339.15077452290734 175.7794766824336 0 175.7794766824336 -868.87655832369092 0 0 0 0 276.65957584523767 386.96893307054097 0 386.96893307054097 -948.34003832273811 0 0 0 0 4.3903373515753046 3.2782292238637787 0 3.2782292238637787 1.2608540716583878 0 0 0 0 332.45285457867431 640.65061544353739 0 640.65061544353739 -1029.1314422758933 0 0 0 0 -569.42993715517514 87.617651970653242 0 87.617651970653242 -809.12497989223721 0 0 0 0 11.178106497525732 143.22299507113121 0 143.22299507113121 -197.37750327788581 0 0 0 0 -100.62807976108888 107.20270126589003 0 107.20270126589003 -114.31705668685936 0 0 0 0 43.51791998794215 91.240714571264107 0 91.240714571264107 -116.76144482428754 0 0 0 0 -36.805285646085395 79.815761486122938 0 79.815761486122938 -25.57134522083652 0 0 0 0 -21.453896046587033 -10.946705335063598 0 -10.946705335063598 107.18279471377446 0 0 0 0 -5.7988706536816608 141.49939196834475 0 141.49939196834475 51.196582823635254 0 0 0 0 2.7222142592946845 9.1979095119792831 0 9.1979095119792831 -10.576768798975978 0 0 0 0 -32.729334618004941 26.614545105669094 0 26.614545105669094 -16.619772247136552 0 0 0 0 -32.82220735884016 111.88035104356476 0 111.88035104356476 -42.54902831792424 0 0 0 0 -40.876133915655373 64.817709875186665 0 64.817709875186665 -35.272823214104392 0 0 0 0 -32.110713459114777 35.680041001454811 0 35.680041001454811 -143.56360447072029 0 0 0 0 -50.589113902770805 57.272742666645172 0 57.272742666645172 -39.345573091162805 0 0 0 0 -33.1980584558587 70.241392667870514 0 70.241392667870514 -52.641578204968027 0 0 0 0 9.0238303175976569 9.1485460806282433 0 9.1485460806282433 -1.2853430586887526 0 0 0 0 -646.26094004545303 193.85513439627789 0 193.85513439627789 -70.869671209361286 0 0 0 0 20.327234509037226 62.155045169876871 0 62.155045169876871 -67.461559000994384 0 0 0 0 -16.209747921871724 1.6733843393811938 0 1.6733843393811938 -4.5840618371452395 0 0 0 0 -0.59820704542063652 2.5012618323795124 0 2.5012618323795124 -9.622673923656599 0 0 0 0 5.884533601350995 -52.36574589778229 0 -52.36574589778229 -501.26655862591724 0 0 0 0 -52.141388056741562 -245.22639022973215 0 -245.22639022973215 -1089.7878943070023 0 0 0 0 -17.638743916188105 229.62812004164519 0 229.62812004164519 -512.48343919876504 0 0 0 0 50.635118712038093 287.32368685153085 0 287.32368685153085 -751.6880216085317 0 0 0 0 -211.0714977016105 437.90239867330854 0 437.90239867330854 -553.99483142209476 0 0 0 0 -269.4576893084195 645.07079778291416 0 645.07079778291416 -1187.955232931042 0 0 0 0 -773.91748272694076 106.65828391803164 0 106.65828391803164 -346.45616741668027 0 0 0 0 -183.77757389712315 48.32237906946493 0 48.32237906946493 -340.91922117773021 0 0 0 0 -504.21422104135672 405.77883896441216 0 405.77883896441216 -250.93646803279739 0 0 0 0 -347.98309215543486 378.03994630764555 0 378.03994630764555 -209.15260667739324 0 0 0 0 -342.52432989734734 385.28337975902332 0 385.28337975902332 -252.40004341327949 0 0 0 0 -28.911883284918076 209.05772449652341 0 209.05772449652341 -314.22477830427465 0 0 0 0 191.37074300945824 438.2304321582078 0 438.2304321582078 -79.858970927684709 0 0 0 0 286.13171617176158 -114.49111564439033 0 -114.49111564439033 88.239987741863274 0 0 0 0 24.687615030577945 268.36257168374686 0 268.36257168374686 -329.24151102379005 0 0 0 0 640.88793098592578 252.26640778543765 0 252.26640778543765 -903.29204244229936 0 0 0 0 341.64625174481989 -27.129676450085412 0 -27.129676450085412 -413.05025209270468 0 0 0 0 0.15317143198835836 -0.52401050026593055 0 -0.52401050026593055 -6.6916901845996639 0 0 0 0 -752.89939353354339 904.07815959503591 0 904.07815959503591 -449.00773237388967 0 0 0 0 1076.5630626485599 -200.13036967517073 0 -200.13036967517073 -594.94781426193219 0 0 0 0 -396.91164260298501 430.45574281515542 0 430.45574281515542 -112.12047279555634 0 0 0 0 -1229.325639573588 624.62676873024463 0 624.62676873024463 -21.403102466105338 0 0 0 0 -0.54431361167104519 -1.089985636875916 0 -1.089985636875916 2.6048835468926139 0 0 0 0 -769.55487427296885 851.01383421100661 0 851.01383421100661 -246.46579943950428 0 0 0 0 -375.20847147390668 534.15358611471356 0 534.15358611471356 -311.44625435112266 0 0 0 0 -490.611847798913 499.31983535057952 0 499.31983535057952 -308.4548982935612 0 0 0 0 -638.06331934373884 620.39552386635205 0 620.39552386635205 -244.75506576879161 0 0 0 0 -801.94433340774322 301.72089788426274 0 301.72089788426274 -233.12302742153952 0 0 0 0 -24.890571356096189 140.95332930013683 0 140.95332930013683 -216.28237084714601 0 0 0 0 -333.14227925248633 304.51312604228679 0 304.51312604228679 -236.53267906317365 0 0 0 0 -388.42784109310378 585.50285364355068 0 585.50285364355068 -202.25256492407084 0 0 0 0 -419.5367716736655 528.11692316589097 0 528.11692316589097 -296.80682727393105 0 0 0 0 -31.387040047836763 138.26833329443252 0 138.26833329443252 -45.377095203767567 0 0 0 0 -35.936844730999837 29.062150041741006 0 29.062150041741006 -4.9578243167325127 0 0 0 0 -32.715207304074283 84.907080413580843 0 84.907080413580843 302.73548153705269 0 0 0 0 295.02986778442573 -102.15877812941198 0 -102.15877812941198 -15.244936785789832 0 0 0 0 -291.71518547152937 -267.85014089303422 0 -267.85014089303422 -279.69599228091488 0 0 0 0 -5.8844183773109862 26.45438942401783 0 26.45438942401783 -51.899101088826683 0 0 0 0 -43.253483439244519 18.632795418207024 0 18.632795418207024 42.340398649957933 0 0 0 0 -99.949280694236222 252.80672979707197 0 252.80672979707197 113.89076876311992 0 0 0 0 12.981751274792259 72.200665611593649 0 72.200665611593649 -38.193975404807134 0 0 0 0 143.01488381633291 283.51618619514375 0 283.51618619514375 102.25898362610496 0 0 0 0 30.815051386260386 56.78088323160047 0 56.78088323160047 -1.5178007264708349 0 0 0 0 158.97451581584755 43.535486705066205 0 43.535486705066205 32.300022176699713 0 0 0 0 -26.542474140722334 81.534554170630145 0 81.534554170630145 -24.199568299045495 0 0 0 0 -6.6126011691402162 69.946015784206452 0 69.946015784206452 39.497320781148275 0 0 0 0 -3.3418238293567715 72.123675965730996 0 72.123675965730996 -18.183600046505454 0 0 0 0 -25.820679562246369 86.409440296141838 0 86.409440296141838 -25.67563759679615 0 0 0 0 -36.65068529752898 89.002861609895263 0 89.002861609895263 15.889280237694948 0 0 0 0 11.468378125352501 48.561345050305135 0 48.561345050305135 -33.67924598792797 0 0 0 0 -23.220812187103192 34.416051138820812 0 34.416051138820812 19.454763724344996 0 0 0 0 -59.969587445200887 95.631304729660769 0 95.631304729660769 -11.854034642685292 0 0 0 0 -58.945038307121649 94.823139669128523 0 94.823139669128523 -17.881888925978274 0 0 0 0 4.3100514088509954 68.503600738902605 0 68.503600738902605 -51.621384951580694 0 0 0 0 587.51756863338233 32.555021568890879 0 32.555021568890879 -63.763995305909702 0 0 0 0 21.331905879967042 20.17779086623549 0 20.17779086623549 -31.026671816866546 0 0 0 0 655.34121148575286 251.21532818238666 0 251.21532818238666 67.742375626105058 0 0 0 0 1.8165714221140234 8.8999120597530332 0 8.8999120597530332 6.2345683726217729 0 0 0 0 -10.960039434736245 12.837142447820952 0 12.837142447820952 36.284298627142562 0 0 0 0 -122.56014504365672 89.86291531079118 0 89.86291531079118 18.450694819545575 0 0 0 0 413.00618371641031 51.498200791053932 0 51.498200791053932 -3.473461675607723 0 0 0 0 -155.0059832181505 148.42364997372852 0 148.42364997372852 6.7209066161349256 0 0 0 0 -0.14191775999648115 2.1745331921043842 0 2.1745331921043842 0.71812115671122889 0 0 0 0 -39.707521536491186 205.66568112663799 0 205.66568112663799 -330.75228042607159 0 0 0 0 -37.997549001109292 21.372719086751204 0 21.372719086751204 -268.35947039257053 0 0 0 0 -4.2958187373963881 11.132815642846751 0 11.132815642846751 3.8260533641436858 0 0 0 0 -137.89491712079689 211.62971257990966 0 211.62971257990966 -182.33702728650951 0 0 0 0 -142.40175684029964 105.63164167261493 0 105.63164167261493 -101.83578412880433 0 0 0 0 -17.508541568335097 23.201636460221732 0 23.201636460221732 27.582108021833974 0 0 0 0 -3.4308226437733538 42.694776565643679 0 42.694776565643679 -5.795461062931281 0 0 0 0 -19.174144327567774 25.666327941260533 0 25.666327941260533 66.800863694170403 0 0 0 0 -97.621777869971993 -13.977589700010867 0 -13.977589700010867 48.641882068813175 0 0 0 0 42.833752680691759 122.18303569544742 0 122.18303569544742 -72.810760198215576 0 0 0 0 -11.145264686861992 51.647165470760683 0 51.647165470760683 17.612620968226111 0 0 0 0 -28.288248446242505 35.083415722482641 0 35.083415722482641 2.9488395972239232 0 0 0 0 -1.7350361096469751 13.33861610335785 0 13.33861610335785 18.391105524931916 0 0 0 0 3.3796590231759183 48.13546840464096 0 48.13546840464096 -3.3411908297930495 0 0 0 0 -209.75019966419131 122.66211793321554 0 122.66211793321554 6.0526740025552499 0 0 0 0 -19.098503070305014 20.573191704927922 0 20.573191704927922 29.078680310069331 0 0 0 0 -33.22779342515247 70.326967559672681 0 70.326967559672681 7.4979230526683907 0 0 0 0 677.54714916558441 226.69295444789168 0 226.69295444789168 65.575276306160958 0 0 0 0 -25.136225567323201 12.126365288194963 0 12.126365288194963 9.6625344665596842 0 0 0 0 -150.66353141251966 55.015474461870326 0 55.015474461870326 -29.530386616510441 0 0 0 0 -79.182512276089255 177.12840076615885 0 177.12840076615885 -46.487099966425376 0 0 0 0 2.9931126975503304 0.81452654935191582 0 0.81452654935191582 3.7085302599039167 0 0 0 0 -140.04330470861487 102.05906493230623 0 102.05906493230623 195.07580615228835 0 0 0 0 -144.57028115356661 34.107851219882832 0 34.107851219882832 118.19459855164678 0 0 0 0 187.32350024359584 6.4283402916898922 0 6.4283402916898922 -172.51396131668753 0 0 0 0 -101.26591586869654 80.717580592595368 0 80.717580592595368 78.474926188100653 0 0 0 0 -96.059355493676776 16.646906549024607 0 16.646906549024607 -9.2504109522124054 0 0 0 0 -121.94606749170271 72.310791336787588 0 72.310791336787588 92.572848966701713 0 0 0 0 -101.28094115254862 78.714178829779485 0 78.714178829779485 57.498493014534688 0 0 0 0 -47.27815189021203 100.47032008710448 0 100.47032008710448 43.353958227373369 0 0 0 0 -91.545282981656783 85.713563233515742 0 85.713563233515742 53.892451280464229 0 0 0 0 -82.079051280656131 114.76317316510085 0 114.76317316510085 115.60994697677233 0 0 0 0 -49.004478324361116 148.96982526633292 0 148.96982526633292 60.4827791947273 0 0 0 0 -97.498780961195735 143.72873232594975 0 143.72873232594975 61.969652940839296 0 0 0 0 -75.907927347205259 195.06581737815395 0 195.06581737815395 174.54531829987536 0 0 0 0 5.8322094375907909 217.08245794446702 0 217.08245794446702 40.796969042683486 0 0 0 0 -112.61924014735087 62.321204817114449 0 62.321204817114449 31.462449960074082 0 0 0 0 -115.46534842150686 72.438385624686816 0 72.438385624686816 0.2567708944552578 0 0 0 0 -59.336747503373772 122.25305046712583 0 122.25305046712583 34.380511302266314 0 0 0 0 -32.735903062777652 123.50549345617947 0 123.50549345617947 -45.996330651678363 0 0 0 0 36.417715171035525 105.58713992340927 0 105.58713992340927 25.721791501615371 0 0 0 0 -35.351672696058472 159.27451722031003 0 159.27451722031003 42.580734663577459 0 0 0 0 -36.703283227834618 116.38096630622476 0 116.38096630622476 13.11920570374059 0 0 0 0 -25.08687397337053 139.86667039486201 0 139.86667039486201 43.705087646467746 0 0 0 0 -51.098992748744422 69.2674297484823 0 69.2674297484823 48.546733137462979 0 0 0 0 95.038677457320773 35.736807891599483 0 35.736807891599483 -9.5942358626143687 0 0 0 0 14.030633538239499 67.997481156965534 0 67.997481156965534 -139.30179069149744 0 0 0 0 0.90084549029620931 3.4015029904312719 0 3.4015029904312719 15.986985438074136 0 0 0 0 -561.87307327734379 125.82611884888638 0 125.82611884888638 372.44608938609872 0 0 0 0 -259.28024965969053 -101.0971573962056 0 -101.0971573962056 -81.486881311178877 0 0 0 0 -466.11396021273322 -5.886713942226379 0 -5.886713942226379 145.07833751661474 0 0 0 0 -0.14098545216387492 1.189248690626318 0 1.189248690626318 6.0948024201153217 0 0 0 0 204.70452475769071 9.7673755194961132 0 9.7673755194961132 -109.6706988745409 0 0 0 0 -5.9248957702970877 13.99275374432996 0 13.99275374432996 -2.9052436960983243 0 0 0 0 5.9411014382112626 48.998275977909998 0 48.998275977909998 -35.019181173936886 0 0 0 0 205.31853482820588 -41.280384707325084 0 -41.280384707325084 2.5198660228033987 0 0 0 0 2.274852613635808 19.210588572518418 0 19.210588572518418 25.925991731000526 0 0 0 0 -83.048415982448205 8.580616475968327 0 8.580616475968327 18.817766730569929 0 0 0 0 -64.251763165946613 51.849132451829064 0 51.849132451829064 33.614120652175416 0 0 0 0 -9.8788998231775622 34.942185334405622 0 34.942185334405622 -8.1760814127610502 0 0 0 0 -20.709520880523826 38.941072635645156 0 38.941072635645156 15.022743848287064 0 0 0 0 -16.976804406197985 23.682165510336485 0 23.682165510336485 9.4945823668298051 0 0 0 0 -20.665536294363847 41.813020077898273 0 41.813020077898273 4.2488108903007742 0 0 0 0 -2.3824454852405097 13.275586146572262 0 13.275586146572262 19.727369465244372 0 0 0 0 -35.298843142423721 44.949005587481224 0 44.949005587481224 -5.3854667337627689 0 0 0 0 -20.927493613540719 19.833921452396226 0 19.833921452396226 3.2654553271897129 0 0 0 0 -22.723296432999632 21.493094723300715 0 21.493094723300715 27.341989020592337 0 0 0 0 -19.593402179260771 24.711820325076204 0 24.711820325076204 15.871559732524549 0 0 0 0 -49.756496667683678 60.363844181895729 0 60.363844181895729 5.389541589923283 0 0 0 0 -46.944127335511439 40.015064910667206 0 40.015064910667206 44.302296912203019 0 0 0 0 -42.212564411223866 40.381419505436952 0 40.381419505436952 1.7876142242494097 0 0 0 0 3.2385070016779736 16.431107045040104 0 16.431107045040104 13.614904738818943 0 0 0 0 -19.550657628019991 13.516666124470115 0 13.516666124470115 21.964544720761182 0 0 0 0 188.58279839445095 381.42200857212481 0 381.42200857212481 355.13329721762943 0 0 0 0 -22.666685750238685 -19.199650294870878 0 -19.199650294870878 133.26608158050976 0 0 0 0 -24.073325455855965 29.973149127504616 0 29.973149127504616 -18.33123588527824 0 0 0 0 -66.096205509940773 -31.249495816170594 0 -31.249495816170594 40.587251665592191 0 0 0 0 -28.166805507160461 57.006538441483826 0 57.006538441483826 -43.714177243672566 0 0 0 0 173.27626303705983 386.68740307087114 0 386.68740307087114 590.11506905046076 0 0 0 0 -1.8968935265492348 7.5622946454979356 0 7.5622946454979356 -2.3714731492685233 0 0 0 0 30.941471765978349 87.718017912739469 0 87.718017912739469 48.34225917232834 0 0 0 0 84.062975863416796 129.70673593838279 0 129.70673593838279 -84.172692967341561 0 0 0 0 121.16491555813172 837.90930875683841 0 837.90930875683841 -102.58576888185598 0 0 0 0 1048.7501525193366 574.68034931906004 0 574.68034931906004 -496.3697387339023 0 0 0 0 401.15609286761173 194.71528784849102 0 194.71528784849102 56.80217659774263 0 0 0 0 4.8750627060924998 5.7671822860007254 0 5.7671822860007254 9.9787513854317638 0 0 0 0 2049.238175421473 118.53788330014731 0 118.53788330014731 -73.198567918621848 0 0 0 0 635.50686890617362 31.658339905178536 0 31.658339905178536 -66.43296641764482 0 0 0 0 -35.098497162325657 487.53338555658968 0 487.53338555658968 659.19978147326856 0 0 0 0 304.8861315036138 1017.9775141013033 0 1017.9775141013033 84.333103785502772 0 0 0 0 602.01897987819393 604.65910731029658 0 604.65910731029658 -110.43373747476357 0 0 0 0 -5.1731500219627407 6.1273455217184392 0 6.1273455217184392 -4.0877121102031895 0 0 0 0 -21.455388767317345 477.31079121363592 0 477.31079121363592 831.19226375109406 0 0 0 0 552.995422346532 506.8836524369699 0 506.8836524369699 408.40355090310777 0 0 0 0 340.57375405362109 626.26586381653317 0 626.26586381653317 238.52855593524646 0 0 0 0 171.79907790893674 538.23597378545014 0 538.23597378545014 57.147078609887558 0 0 0 0 171.16097486408398 548.23280340457541 0 548.23280340457541 266.64747356289945 0 0 0 0 55.020999533124268 536.1308515818788 0 536.1308515818788 504.57973022421629 0 0 0 0 419.90140719139163 571.17959307212209 0 571.17959307212209 205.04825867980071 0 0 0 0 403.41580180722303 662.27427759687771 0 662.27427759687771 251.46171662201311 0 0 0 0 379.21951528791033 428.08518771566992 0 428.08518771566992 587.66085174061391 0 0 0 0 274.63418056183582 539.72145174229343 0 539.72145174229343 493.3113572401262 0 0 0 0 327.81138251598895 438.96829776692448 0 438.96829776692448 398.07778830702387 0 0 0 0 -10.547311376846281 14.824456644031926 0 14.824456644031926 -14.176866897745699 0 0 0 0 336.18296694338642 695.45734759880543 0 695.45734759880543 637.71394495862137 0 0 0 0 168.36159857151142 1216.2115638523103 0 1216.2115638523103 864.67448521558322 0 0 0 0 567.62067934931838 68.087862667991203 0 68.087862667991203 30.132868499387882 0 0 0 0 289.95091214908462 271.39076095603701 0 271.39076095603701 424.92624087218547 0 0 0 0 103.0379307524272 308.24498179740033 0 308.24498179740033 449.56089099189961 0 0 0 0 -4.1271848523519168 -1.1756065916290908 0 -1.1756065916290908 -0.66031712685497368 0 0 0 0 74.721427634878637 294.61701844196961 0 294.61701844196961 789.15874193141713 0 0 0 0 530.09252639735223 732.26916489430926 0 732.26916489430926 504.49172051266214 0 0 0 0 -11.706530599714043 14.685495175340378 0 14.685495175340378 -11.890156117907951 0 0 0 0 141.24757677095477 596.0728129909819 0 596.0728129909819 758.32830868325163 0 0 0 0 -9.6106171878956275 8.900015141882001 0 8.900015141882001 -4.0530440951513773 0 0 0 0 248.57058071871143 326.36638392276245 0 326.36638392276245 339.66165235363519 0 0 0 0 -275.33876115975727 307.30147840753955 0 307.30147840753955 920.94801147134149 0 0 0 0 155.35234427052319 759.38673634038264 0 759.38673634038264 53.306797930791618 0 0 0 0 -4.1126634123033483 4.6232302191646397 0 4.6232302191646397 -2.0987290498635494 0 0 0 0 -378.01891911178973 496.67820858756301 0 496.67820858756301 684.9722504586307 0 0 0 0 -120.36822448812381 764.4094800487419 0 764.4094800487419 271.31099619618112 0 0 0 0 -217.39907330521237 371.20327700841381 0 371.20327700841381 688.57027456048399 0 0 0 0 -107.85259295266223 305.51199372089854 0 305.51199372089854 555.85388780020503 0 0 0 0 -116.42440394604091 515.62498195582407 0 515.62498195582407 402.30732208741415 0 0 0 0 122.70584533249439 693.21074655298253 0 693.21074655298253 815.81622196157343 0 0 0 0 223.38490540079874 307.06918580573938 0 307.06918580573938 529.85157289195286 0 0 0 0 99.90966145560742 393.63227309157537 0 393.63227309157537 228.37357939478102 0 0 0 0 -14.863828901899979 780.85335219564513 0 780.85335219564513 -186.16158728973528 0 0 0 0 241.80825424113573 274.6437924236883 0 274.6437924236883 365.48316310638597 0 0 0 0 -62.496566651243484 692.55620517444845 0 692.55620517444845 -264.37588310271212 0 0 0 0 153.17073639901355 611.71533953653523 0 611.71533953653523 -554.10936086662059 0 0 0 0 -57.299122377313324 633.5967201967394 0 633.5967201967394 -551.2044676089273 0 0 0 0 8.556187861609942 512.37734399375677 0 512.37734399375677 -979.2461980418509 0 0 0 0 -231.62509738028166 905.25833773941099 0 905.25833773941099 -125.20195290033485 0 0 0 0 -160.03447315935773 979.8635674224538 0 979.8635674224538 -616.15767030099437 0 0 0 0 -440.72954705729717 555.17442669689717 0 555.17442669689717 613.49893257951135 0 0 0 0 -448.48667930837587 387.99396196755436 0 387.99396196755436 -642.93130164915942 0 0 0 0 -444.30652322830372 857.95058199280641 0 857.95058199280641 -750.16486179035655 0 0 0 0 -250.38304079469162 488.2729510345805 0 488.2729510345805 -440.15915438309185 0 0 0 0 -184.22458847804228 650.76224830109072 0 650.76224830109072 -548.88488463317526 0 0 0 0 -152.6185458130567 486.24160182861681 0 486.24160182861681 -613.07077776948609 0 0 0 0 -147.18632438697023 528.11069827257438 0 528.11069827257438 -486.308422479201 0 0 0 0 -67.627073969422781 575.82852260873824 0 575.82852260873824 -615.26309645373931 0 0 0 0 -141.11492953116613 533.01707392333765 0 533.01707392333765 -579.0092212288796 0 0 0 0 -183.67080921476008 568.20305400821417 0 568.20305400821417 -401.71513510789146 0 0 0 0 -76.264127212751191 687.46274692634597 0 687.46274692634597 -585.28759522638848 0 0 0 0 455.76113988572251 135.02851993395751 0 135.02851993395751 -749.68412090304037 0 0 0 0 78.866483846497431 290.46510244536194 0 290.46510244536194 -783.71965833286447 0 0 0 0 70.881520569815621 185.032492360286 0 185.032492360286 -1092.4115846846755 0 0 0 0 -170.00755449256394 522.02852018659837 0 522.02852018659837 -582.58454613193408 0 0 0 0 -326.30177371264836 645.85088356327651 0 645.85088356327651 -666.23020079226467 0 0 0 0 -183.32182810142058 489.14653585064764 0 489.14653585064764 -90.96720680212411 0 0 0 0 884.5648136927075 854.75767930165387 0 854.75767930165387 -25.838781398146693 0 0 0 0 390.85164038385119 318.8547925342229 0 318.8547925342229 -72.404334791513534 0 0 0 0 -3.5299540128503111 6.1719576192199312 0 6.1719576192199312 -7.1126765283206446 0 0 0 0 515.40612015870283 528.93843007710416 0 528.93843007710416 -1418.870774631305 0 0 0 0 532.58191957018062 138.13163841333937 0 138.13163841333937 -741.11140011359271 0 0 0 0 338.12986709833058 497.37531640602913 0 497.37531640602913 -875.420322878516 0 0 0 0 56.534739791773518 547.36211479183692 0 547.36211479183692 -599.5605372073428 0 0 0 0 44.92978659763321 629.01660941056434 0 629.01660941056434 -645.57977988297148 0 0 0 0 18.62306313253066 538.60505993954803 0 538.60505993954803 -593.06167246894552 0 0 0 0 -103.37786454831439 334.24195772564934 0 334.24195772564934 -405.34894407040474 0 0 0 0 29.413134063055622 275.89034585675427 0 275.89034585675427 -615.20644220811971 0 0 0 0 -0.7106759625311696 1.0175244026931125 0 1.0175244026931125 0.34234333015030005 0 0 0 0 425.21282410113827 143.02851551646444 0 143.02851551646444 -575.72302699496322 0 0 0 0 -62.015033459010738 404.77564636102079 0 404.77564636102079 -681.23526903114146 0 0 0 0 -0.29011224808269276 2.5140329552246534 0 2.5140329552246534 1.6347865699921678 0 0 0 0 -140.31328629295422 383.33774702707262 0 383.33774702707262 -95.287499774127355 0 0 0 0 -2.3088797590517061 288.28146636240331 0 288.28146636240331 -69.167863403220053 0 0 0 0 -114.1797865569024 447.51122056214945 0 447.51122056214945 -61.985826118806926 0 0 0 0 -19.553177589194092 307.60215756490311 0 307.60215756490311 -206.36967240663034 0 0 0 0 11.136652158540528 298.84210600721792 0 298.84210600721792 -418.1780982186674 0 0 0 0 109.05452050605163 397.46480721104092 0 397.46480721104092 -434.79489152662018 0 0 0 0 -27.482043379237439 345.4120537169606 0 345.4120537169606 -360.68658999690342 0 0 0 0 -37.682328388920723 490.05025844574152 0 490.05025844574152 -378.77546887155131 0 0 0 0 -160.77947598253377 585.44656996736649 0 585.44656996736649 -293.08235975546586 0 0 0 0 -186.09501466182701 588.3906827917009 0 588.3906827917009 -289.8004648027063 0 0 0 0 -120.32308232413925 481.87141773660824 0 481.87141773660824 -254.02486058930026 0 0 0 0 -167.46990722875853 516.13591867533046 0 516.13591867533046 -13.130715660597161 0 0 0 0 -293.63245627236756 490.91123249253587 0 490.91123249253587 462.21638175070439 0 0 0 0 -388.07074011859368 723.31520696725147 0 723.31520696725147 -88.810011367246489 0 0 0 0 -163.26549830077056 772.46773662117016 0 772.46773662117016 -267.61241950515523 0 0 0 0 -190.47923497499323 790.23678775024177 0 790.23678775024177 -105.19870134965458 0 0 0 0 -363.13047563783766 1038.4989394412069 0 1038.4989394412069 -268.17131068333174 0 0 0 0 -296.717046214937 898.81867786859129 0 898.81867786859129 -19.630717949193695 0 0 0 0 12.424172014551004 -647.19957619016077 0 -647.19957619016077 2100.4744581565346 0 0 0 0 -546.49025607675139 1014.9955103853817 0 1014.9955103853817 203.03816426146477 0 0 0 0 -4.9411502788397854 3.8332094938832846 0 3.8332094938832846 6.1180590483591164 0 0 0 0 -439.17692380746303 564.39007969087925 0 564.39007969087925 1699.505485149185 0 0 0 0 37.08704053909014 -107.79410336445326 0 -107.79410336445326 748.06359471152791 0 0 0 0 -191.44899903202895 230.44489276458808 0 230.44489276458808 1006.8622166840714 0 0 0 0 119.83546255418332 229.01957987290052 0 229.01957987290052 492.63477536410119 0 0 0 0 -156.13842123168433 387.00197766018732 0 387.00197766018732 469.14908862552784 0 0 0 0 -89.760640751694154 337.42487663614611 0 337.42487663614611 54.021993267921971 0 0 0 0 -294.70105479772292 573.74951823971446 0 573.74951823971446 -399.18001886206639 0 0 0 0 -203.56475839395716 472.33881105909018 0 472.33881105909018 -290.19584230149303 0 0 0 0 -132.37671796477116 552.99484442782773 0 552.99484442782773 -400.25046501516135 0 0 0 0 -180.72225135302142 566.71418582566957 0 566.71418582566957 -317.6978949854265 0 0 0 0 -171.85134676576854 489.01075698188242 0 489.01075698188242 -448.89362751718181 0 0 0 0 -140.44501409193617 546.57593757576342 0 546.57593757576342 -374.61767065329559 0 0 0 0 -192.14870015450924 558.30800259282614 0 558.30800259282614 -375.59169344754446 0 0 0 0 -139.69362179759992 659.28122140486403 0 659.28122140486403 -199.42513205754722 0 0 0 0 80.464366017396969 758.66974062501276 0 758.66974062501276 -431.3778029055984 0 0 0 0 65.852673596240493 572.01135972369548 0 572.01135972369548 -341.75852536292086 0 0 0 0 -16.185891387969605 594.15725780067987 0 594.15725780067987 -340.2219953406011 0 0 0 0 -97.345587005736888 572.92209319107997 0 572.92209319107997 -324.07807376994765 0 0 0 0 -40.047089041312574 395.13108251852896 0 395.13108251852896 -291.14942252847868 0 0 0 0 31.174260422601947 392.92542009308818 0 392.92542009308818 -304.59035311188109 0 0 0 0 -65.11568454947701 207.41365373339477 0 207.41365373339477 -241.10413961555878 0 0 0 0 -149.71286263876391 446.42233568379379 0 446.42233568379379 -303.05497819772722 0 0 0 0 -270.71258680531537 305.62553396874523 0 305.62553396874523 -153.87114700822258 0 0 0 0 -104.20582153983014 196.84050380907934 0 196.84050380907934 47.677176592778778 0 0 0 0 168.66748765713419 185.08433631286971 0 185.08433631286971 -208.17195732161872 0 0 0 0 -38.020005377906273 265.24726116503621 0 265.24726116503621 -202.73983169756775 0 0 0 0 210.41148656242513 294.67618849069231 0 294.67618849069231 -256.13978339467758 0 0 0 0 609.25506384501205 105.82029451465451 0 105.82029451465451 41.177914216810677 0 0 0 0 189.3851012769494 388.23970438235784 0 388.23970438235784 -147.81134542832751 0 0 0 0 497.34518909879989 504.35461603791055 0 504.35461603791055 -299.56635935606755 0 0 0 0 575.54177418686595 696.596104224996 0 696.596104224996 100.30819386604708 0 0 0 0 322.47886025352 578.18879212214063 0 578.18879212214063 -413.52885936546681 0 0 0 0 254.91090627160429 661.61101451554794 0 661.61101451554794 -539.86471027525477 0 0 0 0 223.7958677310271 532.20864927997081 0 532.20864927997081 -239.53110857456886 0 0 0 0 55.408526173279824 724.70371172982505 0 724.70371172982505 -370.48579326371237 0 0 0 0 157.70636841342639 445.11123875664998 0 445.11123875664998 -168.59331308393303 0 0 0 0 91.154470255729393 370.02001684244442 0 370.02001684244442 311.49922759812034 0 0 0 0 95.996033029918181 304.44856085697819 0 304.44856085697819 -282.77035502288527 0 0 0 0 20.290402744245512 7.1241386462002083 0 7.1241386462002083 148.93495213582537 0 0 0 0 0.7009093058804865 65.1378306646684 0 65.1378306646684 201.90664671263403 0 0 0 0 -16.414545310552057 26.064875414336939 0 26.064875414336939 9.0932373031282623 0 0 0 0 -12.459425740210065 16.162769669400753 0 16.162769669400753 -4.3499025380815404 0 0 0 0 -14.934659108345038 9.2191931263381548 0 9.2191931263381548 7.3284472647068686 0 0 0 0 -24.086786296727951 20.912095648191553 0 20.912095648191553 7.1400766250280867 0 0 0 0 -10.073549704660081 23.433331731384676 0 23.433331731384676 6.2393266012247111 0 0 0 0 550.38232403869188 376.54907787155844 0 376.54907787155844 200.96151430199916 0 0 0 0 -0.21264223058096832 33.629886050850018 0 33.629886050850018 9.4715269648166895 0 0 0 0 -17.367159559008115 22.307073725720677 0 22.307073725720677 -7.6739048255488438 0 0 0 0 -42.351788698342716 -44.992521360856244 0 -44.992521360856244 535.26047163203657 0 0 0 0 145.71011254817859 528.43506857446027 0 528.43506857446027 611.42898545177377 0 0 0 0 780.49499883693352 438.40362961857318 0 438.40362961857318 217.39329823953267 0 0 0 0 -3.381275456357983 7.9073265877959571 0 7.9073265877959571 0.28598344522856323 0 0 0 0 58.156943606722052 429.83046742976467 0 429.83046742976467 505.79492712888168 0 0 0 0 209.88228034706844 623.55885077875246 0 623.55885077875246 528.63305178648079 0 0 0 0 598.49523217979367 624.36854997912906 0 624.36854997912906 414.98669523357603 0 0 0 0 261.94799161072297 497.00786100346522 0 497.00786100346522 368.20156662117643 0 0 0 0 260.83053406569536 453.13829615924686 0 453.13829615924686 466.26770162362118 0 0 0 0 -62.717652439147059 869.65405149867547 0 869.65405149867547 1203.9251011202919 0 0 0 0 378.57155618185061 480.18358334960021 0 480.18358334960021 474.90648665550634 0 0 0 0 -764.4787284969525 470.0626348608946 0 470.0626348608946 673.74924906099841 0 0 0 0 10.862968009780161 638.46792415465825 0 638.46792415465825 -222.01604433028933 0 0 0 0 -263.59913586128459 1096.7444496353003 0 1096.7444496353003 -1665.040205264133 0 0 0 0 520.50658862340788 -648.00718354603123 0 -648.00718354603123 -2098.7597541219261 0 0 0 0 -405.74807235102162 1099.4977903799063 0 1099.4977903799063 -3741.8429406819014 0 0 0 0 127.64643637900735 1512.7433614654976 0 1512.7433614654976 -3625.5283295373329 0 0 0 0 -2954.4593950159433 2088.1902886255893 0 2088.1902886255893 -3500.7533892453903 0 0 0 0 337.92382915611961 260.93497375837342 0 260.93497375837342 208.11918420671327 0 0 0 0 -15.26880271130554 6.6848840178261879 0 6.6848840178261879 9.9144935635248359 0 0 0 0 -7.2017158310142975 10.798062017152709 0 10.798062017152709 -8.2217972218954785 0 0 0 0 -390.76943115562608 2215.3624191808781 0 2215.3624191808781 -4293.2382123076641 0 0 0 0 -1479.1118663566886 1573.374328351134 0 1573.374328351134 -575.24450709014138 0 0 0 0 -15.413698488897353 -116.88699601659209 0 -116.88699601659209 767.36509362857669 0 0 0 0 -1754.2674233051771 1.9845995611286114 0 1.9845995611286114 45.837020014585505 0 0 0 0 -7.3734749741728223 12.933860204576812 0 12.933860204576812 15.394568429108002 0 0 0 0 -1114.6343772656692 2259.0319364227757 0 2259.0319364227757 -1709.2276034622732 0 0 0 0 -1875.7340067579298 2794.1988741216396 0 2794.1988741216396 -2019.4901668702259 0 0 0 0 -1141.5944843050479 1700.9903906448687 0 1700.9903906448687 -548.30959454511049 0 0 0 0 197.08691819734668 891.69027419803297 0 891.69027419803297 -1622.2781580515084 0 0 0 0 56.577359206909023 776.76189722375057 0 776.76189722375057 -610.12770553344853 0 0 0 0 73.594236808079586 822.24358063988802 0 822.24358063988802 -715.01239018266097 0 0 0 0 14.611210002214648 40.541689577130455 0 40.541689577130455 -474.87933355875157 0 0 0 0 148.65578418499217 524.28189812795449 0 524.28189812795449 -861.14444843530873 0 0 0 0 38.412047781755973 -45.337164257092127 0 -45.337164257092127 -3.3492342720504666 0 0 0 0 -71.01193421885182 11.62532443064265 0 11.62532443064265 50.922662247556218 0 0 0 0 -18.758092988269411 18.974613712321869 0 18.974613712321869 -11.586023998438304 0 0 0 0 -0.56311849787186929 0.077101607556365082 0 0.077101607556365082 0.25713894440371021 0 0 0 0 -20.308329355634626 20.253844226386541 0 20.253844226386541 -8.5408559606184973 0 0 0 0 -74.020871701677606 17.022844574470128 0 17.022844574470128 67.323816288948819 0 0 0 0 -18.642605215354706 32.243647341168526 0 32.243647341168526 10.874001569838583 0 0 0 0 -26.219573233814216 16.912465653224068 0 16.912465653224068 -3.9686713831298093 0 0 0 0 252.53107729271005 290.05750931729369 0 290.05750931729369 181.2026777964893 0 0 0 0 -2.0092032989196014 37.072861654205099 0 37.072861654205099 27.756930279789685 0 0 0 0 3.9300200784764456 69.177575181837597 0 69.177575181837597 31.817929592591099 0 0 0 0 -9.5197288352479745 16.364328790468004 0 16.364328790468004 -11.108859753337317 0 0 0 0 386.88158484257656 732.64511372354082 0 732.64511372354082 718.72451005683547 0 0 0 0 458.48300958290929 522.55616309594507 0 522.55616309594507 107.20170860733924 0 0 0 0 255.92086482236846 343.43658254913589 0 343.43658254913589 516.03711546252634 0 0 0 0 -33.655025643922571 28.308300580157599 0 28.308300580157599 -14.765374523416433 0 0 0 0 -38.072768388716213 250.57821202830382 0 250.57821202830382 238.67145138846809 0 0 0 0 346.82388100444223 -310.55664410506142 0 -310.55664410506142 301.78868794016034 0 0 0 0 -1.4941550771676191 -1.0294667490297869 0 -1.0294667490297869 6.521061509257243 0 0 0 0 394.26378873736394 -606.62278671520062 0 -606.62278671520062 -1036.4525203293388 0 0 0 0 666.49058454070109 -107.28605668940452 0 -107.28605668940452 686.41353206708663 0 0 0 0 -175.38051356688811 415.0552487077498 0 415.0552487077498 48.187832304543917 0 0 0 0 535.82151919924036 155.58868970610888 0 155.58868970610888 126.34640775086154 0 0 0 0 808.07652506737941 588.10691163738284 0 588.10691163738284 268.40387476872638 0 0 0 0 288.31107767875073 401.31128539499696 0 401.31128539499696 319.52200655314823 0 0 0 0 -772.95932015365725 517.4168086328059 0 517.4168086328059 152.04631345043117 0 0 0 0 -455.38714083477316 503.72214054680717 0 503.72214054680717 357.29186725383079 0 0 0 0 -458.48835209483877 565.82755192264358 0 565.82755192264358 -32.472580508278952 0 0 0 0 -139.84090103031485 479.7823603401348 0 479.7823603401348 -289.61581800010026 0 0 0 0 -771.0558868447788 924.71839317267495 0 924.71839317267495 -390.53290929199466 0 0 0 0 -878.48789743901943 1349.3036238713507 0 1349.3036238713507 -1500.1624031200645 0 0 0 0 -0.72845442695591345 1.2074594886755037 0 1.2074594886755037 -4.1621513636942105 0 0 0 0 -497.11812666198603 1645.2255473881705 0 1645.2255473881705 -1742.5831020240635 0 0 0 0 -1159.7600726441451 2475.6248420060347 0 2475.6248420060347 -1602.3435914249394 0 0 0 0 -988.61460230411103 1820.6212468342924 0 1820.6212468342924 -1057.0641281956759 0 0 0 0 -246.76121458607668 1743.0821962085174 0 1743.0821962085174 -2532.4913543189305 0 0 0 0 -340.99221199068779 2202.9192701815077 0 2202.9192701815077 -3749.0724837639264 0 0 0 0 -1354.7284420583474 2914.7511811219601 0 2914.7511811219601 -2478.1794074146637 0 0 0 0 -1052.7761191633635 1224.4261680239547 0 1224.4261680239547 -3353.4097327150425 0 0 0 0 -1184.3734273294722 1092.8305815625972 0 1092.8305815625972 1677.7575693204617 0 0 0 0 -14.688925381371298 11.387839712413877 0 11.387839712413877 -6.6112479955909196 0 0 0 0 -2217.7574150647461 2405.3324549193385 0 2405.3324549193385 14.626150354526544 0 0 0 0 -63.028182264661154 796.86187751483976 0 796.86187751483976 -2446.5707293195255 0 0 0 0 -1956.088533180844 979.97115041781763 0 979.97115041781763 -393.40000042013207 0 0 0 0 -6.5392406138273209 12.223342569996891 0 12.223342569996891 18.827161341838327 0 0 0 0 -1034.3210806936986 1616.8882677712695 0 1616.8882677712695 -1685.2991390841057 0 0 0 0 -893.55688527174425 1436.5300741655496 0 1436.5300741655496 -1900.441079915935 0 0 0 0 -20.082080772056671 25.422166455000081 0 25.422166455000081 39.913876037085572 0 0 0 0 -998.92547706244477 1564.3879552702811 0 1564.3879552702811 -1735.7898671415278 0 0 0 0 -76.065261599829682 36.662909174023298 0 36.662909174023298 91.868914637804664 0 0 0 0 -18.589117051574632 40.623558073069759 0 40.623558073069759 43.963993381222394 0 0 0 0 -196.34097690516137 -23.498253394862331 0 -23.498253394862331 72.817423645613871 0 0 0 0 -37.571591640087718 25.35578959673694 0 25.35578959673694 87.726598708610254 0 0 0 0 0.10186338324274402 10.27691221551504 0 10.27691221551504 44.993584835794536 0 0 0 0 -26.273148742721787 -24.063493177636701 0 -24.063493177636701 65.794751677869499 0 0 0 0 -63.46355721317741 -46.219413262638682 0 -46.219413262638682 -2.3575551690364591 0 0 0 0 -322.18886663305057 313.23702733730261 0 313.23702733730261 381.42079726405973 0 0 0 0 -2.7556056168460401 3.0280919820023442 0 3.0280919820023442 -1.719687374455301 0 0 0 0 -2121.2843767408413 951.57182270359181 0 951.57182270359181 -1917.551034010517 0 0 0 0 -24.895474750951323 23.646972609650263 0 23.646972609650263 30.152064795070594 0 0 0 0 -65.354351688118186 1721.887886097679 0 1721.887886097679 -5234.6672418715389 0 0 0 0 -2142.3362243403972 3054.913391605206 0 3054.913391605206 -3411.7242848162628 0 0 0 0 0.14420275092743395 4.8416414803332373 0 4.8416414803332373 63.817388851852229 0 0 0 0 -135.35517857255036 75.787794573114297 0 75.787794573114297 598.20798031708728 0 0 0 0 -8.4950054515878577 1.8395020442311534 0 1.8395020442311534 6.9440205665729682 0 0 0 0 -76.735527128490503 47.713147287791799 0 47.713147287791799 577.30847030398172 0 0 0 0 -20.043675423097739 14.771957472167742 0 14.771957472167742 590.15912160898915 0 0 0 0 -152.33426241054622 178.49909328889817 0 178.49909328889817 607.04416328071056 0 0 0 0 -91.334654299986141 25.895652258244809 0 25.895652258244809 633.41575118869332 0 0 0 0 -88.364404798288888 209.0795610751527 0 209.0795610751527 391.0184786593145 0 0 0 0 -194.9890416910639 366.2784279751952 0 366.2784279751952 421.86226741642304 0 0 0 0 -192.93390140851625 392.61356313350643 0 392.61356313350643 250.75727101233269 0 0 0 0 -104.62713047312536 427.53434580381679 0 427.53434580381679 27.351306345432022 0 0 0 0 -46.982382078137562 248.21331305273566 0 248.21331305273566 219.96129422846207 0 0 0 0 19.322478006861274 77.218917807362686 0 77.218917807362686 438.43795563331241 0 0 0 0 -20.672013830291689 310.32890754480422 0 310.32890754480422 126.07796202618829 0 0 0 0 -206.30172222050533 317.01020096011268 0 317.01020096011268 -276.56033058757021 0 0 0 0 -771.02883225671576 523.07004186297172 0 523.07004186297172 87.680916968925885 0 0 0 0 -69.259967081605282 467.47348313540533 0 467.47348313540533 6.4941257889850021 0 0 0 0 -217.3508930101998 330.61329639241421 0 330.61329639241421 169.69389177991434 0 0 0 0 -51.515985269325029 453.70001329985598 0 453.70001329985598 -114.20213696103019 0 0 0 0 -278.03657119505078 503.79281888277683 0 503.79281888277683 139.13118992548743 0 0 0 0 -87.723826866542367 564.68344019210622 0 564.68344019210622 61.458555030400021 0 0 0 0 -51.850753663115029 568.14095493287687 0 568.14095493287687 -40.363253827372091 0 0 0 0 -279.89397647840997 96.85867799131654 0 96.85867799131654 72.059979451101754 0 0 0 0 1.2814898482913311 0.92484956239813343 0 0.92484956239813343 -12.828591367797205 0 0 0 0 398.30170745250962 341.46984623156686 0 341.46984623156686 -331.58014131253822 0 0 0 0 158.21673788095359 360.34145479584754 0 360.34145479584754 -125.71967710484569 0 0 0 0 25.691805904778448 186.34026475798305 0 186.34026475798305 -433.90250085597427 0 0 0 0 140.83228994777369 546.6627297020882 0 546.6627297020882 -514.94763680407004 0 0 0 0 -0.69533552930620601 3.1558961380064865 0 3.1558961380064865 3.0252688964255734 0 0 0 0 0.1968642822255191 4.4852778948219409 0 4.4852778948219409 3.742178704930561 0 0 0 0 -183.09095776498725 239.59944620886995 0 239.59944620886995 -343.13456122758043 0 0 0 0 -183.79946723082685 508.26423646059084 0 508.26423646059084 -483.00990615446381 0 0 0 0 -292.25863629285595 245.42320317712756 0 245.42320317712756 -78.491036050765615 0 0 0 0 -694.13331627885964 1214.2293563680046 0 1214.2293563680046 -700.2051739008898 0 0 0 0 -234.22334846975673 739.33839010019756 0 739.33839010019756 -218.61506295819254 0 0 0 0 -221.29548075295634 704.57907760969374 0 704.57907760969374 -544.55886922244042 0 0 0 0 59.860253238649875 391.60269794747683 0 391.60269794747683 -494.06857688500634 0 0 0 0 97.129346904576096 361.77578467677631 0 361.77578467677631 -536.40636504250142 0 0 0 0 82.840748131223449 244.15706311662643 0 244.15706311662643 -578.99251864785583 0 0 0 0 556.10648907606355 268.00279883064894 0 268.00279883064894 -711.46289512116755 0 0 0 0 -1667.7336583241777 679.75945340989938 0 679.75945340989938 431.87880226597008 0 0 0 0 -0.43444557054612787 2.0525747833652961 0 2.0525747833652961 -22.634529913101979 0 0 0 0 210.57502569596795 736.46798912742804 0 736.46798912742804 -1239.0781804079772 0 0 0 0 -787.02574471089974 760.85175058863092 0 760.85175058863092 -269.90204612658027 0 0 0 0 32.854950829474546 784.47221484849831 0 784.47221484849831 -1216.5605689972172 0 0 0 0 -1599.118006817346 1441.3076444767059 0 1441.3076444767059 -793.21514733184677 0 0 0 0 -11.814654289755708 484.82631205081458 0 484.82631205081458 -220.98541870609759 0 0 0 0 615.49734150401491 259.30989546174214 0 259.30989546174214 -469.81237034254235 0 0 0 0 421.84170040766912 -447.48294258102419 0 -447.48294258102419 -14.897645290175888 0 0 0 0 875.31154077547399 -420.16653272940857 0 -420.16653272940857 -258.73342076477275 0 0 0 0 -0.21473410982344632 -1.5363257055585215 0 -1.5363257055585215 -5.1428641025553894 0 0 0 0 -1323.9716423272512 124.93001178795873 0 124.93001178795873 -207.28091821877933 0 0 0 0 -213.34419839528164 390.99402380999049 0 390.99402380999049 -2320.620672017536 0 0 0 0 -235.02062325528823 134.0437153613633 0 134.0437153613633 -504.40168923968361 0 0 0 0 175.51344758384494 249.48967768954807 0 249.48967768954807 -689.12821548559759 0 0 0 0 557.12219664326403 -466.86321430239059 0 -466.86321430239059 -267.03139553235951 0 0 0 0 96.674479101178804 672.55025453592498 0 672.55025453592498 -24.291083625837018 0 0 0 0 463.25746284595698 -357.2238899133531 0 -357.2238899133531 448.95611890017972 0 0 0 0 -466.52351292658386 147.12847503190369 0 147.12847503190369 225.73011350484376 0 0 0 0 -357.16813694707162 243.62584783789862 0 243.62584783789862 254.54828806317346 0 0 0 0 -49.53250708683845 540.34569587756232 0 540.34569587756232 468.7990192737625 0 0 0 0 818.41877312727138 102.72231291056778 0 102.72231291056778 -36.917125965900595 0 0 0 0 24.855632368370152 -192.78364114517581 0 -192.78364114517581 573.05122386916628 0 0 0 0 0.4587334950066122 3.9573938220164386 0 3.9573938220164386 11.939990655418171 0 0 0 0 -155.80853204869794 194.2972659070424 0 194.2972659070424 -41.084291212760945 0 0 0 0 -301.8214522957922 706.14605892170164 0 706.14605892170164 -233.83393678051652 0 0 0 0 -416.47014274145749 413.20750073415547 0 413.20750073415547 688.60817049215348 0 0 0 0 -345.72469522907295 630.84948366675962 0 630.84948366675962 -265.76875063555417 0 0 0 0 -194.15485511148347 568.25803069967606 0 568.25803069967606 -555.00527655466431 0 0 0 0 -144.30937592597763 327.70684184958827 0 327.70684184958827 169.7957302144041 0 0 0 0 31.814464545959709 79.652853290273924 0 79.652853290273924 -107.6081399706236 0 0 0 0 -63.486731813089193 123.72380395849541 0 123.72380395849541 43.15400299333669 0 0 0 0 -158.83603627397531 34.708866966649737 0 34.708866966649737 20.393989765609149 0 0 0 0 -8.3539363418709343 21.818226864517328 0 21.818226864517328 -8.1840442794120634 0 0 0 0 -38.576701766453368 3.7093399173863872 0 3.7093399173863872 76.30607860096643 0 0 0 0 148.12311993302683 70.488159110819652 0 70.488159110819652 -24.732405360717166 0 0 0 0 1.7015636882991672 20.521174469155689 0 20.521174469155689 20.820254164942064 0 0 0 0 -17.724684893057656 71.250792585507043 0 71.250792585507043 46.065694011710548 0 0 0 0 -24.251639923179269 32.797471555471162 0 32.797471555471162 -16.60916406546432 0 0 0 0 63.373691326076369 129.85674401664164 0 129.85674401664164 -11.26108328455939 0 0 0 0 -16.467209998375893 66.681260632647707 0 66.681260632647707 29.873347950676362 0 0 0 0 -112.80985320524451 60.450711606690675 0 60.450711606690675 28.895492518128776 0 0 0 0 8.3888511355561803 31.393716253419058 0 31.393716253419058 36.772635771527547 0 0 0 0 -260.87925714438597 251.26953193799045 0 251.26953193799045 8.6017625522126764 0 0 0 0 204.31682003507922 181.42181543845436 0 181.42181543845436 -100.3312457494485 0 0 0 0 101.48174389354244 91.92554816124175 0 91.92554816124175 -25.452683415677939 0 0 0 0 18.667506408388363 141.73198995993334 0 141.73198995993334 94.792699032028395 0 0 0 0 26.240716529455312 117.65282739337363 0 117.65282739337363 49.107178222786388 0 0 0 0 -38.430665605063197 43.031653208758399 0 43.031653208758399 -14.199292497524759 0 0 0 0 315.36353941253219 -289.10691880007653 0 -289.10691880007653 366.91674422743381 0 0 0 0 -66.497957114835344 127.457526389375 0 127.457526389375 112.23287902810262 0 0 0 0 -32.461313692593215 30.187164991111871 0 30.187164991111871 -29.839550945668883 0 0 0 0 -10.875871431092264 135.82272109032692 0 135.82272109032692 -94.617606662008257 0 0 0 0 -629.88565194817613 348.52681076093495 0 348.52681076093495 609.41929633311065 0 0 0 0 -191.51392101972363 307.88812062917441 0 307.88812062917441 -64.120161243165057 0 0 0 0 -57.13089193859048 131.40045412584868 0 131.40045412584868 -2.1906050987163326 0 0 0 0 -51.602355564490267 99.164612387297893 0 99.164612387297893 182.78739182602112 0 0 0 0 -36.671389748274805 28.382095506555743 0 28.382095506555743 86.933575750553246 0 0 0 0 -0.38712846765452014 -5.5679291131830269 0 -5.5679291131830269 8.3718836968055257 0 0 0 0 1.8432313828676246 2.3640082515557985 0 2.3640082515557985 4.2860888716722574 0 0 0 0 -164.97438471888472 -37.577595368713901 0 -37.577595368713901 285.4590128477239 0 0 0 0 -30.693606889259968 27.518769814030748 0 27.518769814030748 9.6097879645294597 0 0 0 0 131.54303625582111 123.61536266436599 0 123.61536266436599 -99.470269426328059 0 0 0 0 15.192369660864838 37.336835165856073 0 37.336835165856073 25.559743275793444 0 0 0 0 -28.275418518922834 55.74817855356423 0 55.74817855356423 28.528265101757256 0 0 0 0 -23.92477489586409 57.386079414710821 0 57.386079414710821 9.8033213128610441 0 0 0 0 -22.44884359560433 70.879604601919709 0 70.879604601919709 17.959311817688103 0 0 0 0 15.237920988854398 73.084898099933071 0 73.084898099933071 6.7711324549309211 0 0 0 0 -6.5511133051659272 52.764033566704711 0 52.764033566704711 38.599992599208008 0 0 0 0 -43.743476466020866 48.652184842787165 0 48.652184842787165 23.453862603123525 0 0 0 0 -39.948781135066611 69.734841686300115 0 69.734841686300115 -15.272628226832239 0 0 0 0 -38.340881358491842 64.041060887674405 0 64.041060887674405 17.614505544097483 0 0 0 0 -45.666163857566971 36.905236945924116 0 36.905236945924116 43.415904593116466 0 0 0 0 -37.237211572915157 82.796106413422876 0 82.796106413422876 71.124124749399925 0 0 0 0 -24.41906713621961 27.528023899185428 0 27.528023899185428 -35.882547180152869 0 0 0 0 -36.666300209904421 56.908033217776392 0 56.908033217776392 -1.4792974595857231 0 0 0 0 -35.856370205048734 53.567329170132325 0 53.567329170132325 8.6536217583147845 0 0 0 0 -57.054076853303968 59.599194918636385 0 59.599194918636385 -30.48026292735176 0 0 0 0 -31.119681278607914 78.838830931648772 0 78.838830931648772 -16.91518056388486 0 0 0 0 -16.315591945528467 66.488145680329581 0 66.488145680329581 -19.689822292672034 0 0 0 0 -8.6179224010097641 49.110572011640215 0 49.110572011640215 -60.500110146811494 0 0 0 0 1.3877487902563148 22.15689794631928 0 22.15689794631928 36.342214551173704 0 0 0 0 -12.12443735337672 56.399493507556144 0 56.399493507556144 -68.372980488513349 0 0 0 0 -51.709604788571511 102.49463837410445 0 102.49463837410445 -46.666033957615582 0 0 0 0 7.0570276903885745 10.412998441162296 0 10.412998441162296 5.7045872026875664 0 0 0 0 -1463.4843772132933 1217.7728978679361 0 1217.7728978679361 -550.22245432882437 0 0 0 0 -685.26561749037046 801.60938379866366 0 801.60938379866366 -414.04355284247595 0 0 0 0 -7.1355855419805145 36.456016272979795 0 36.456016272979795 38.36233501160585 0 0 0 0 -5.7277373255152018 0.079508496358787539 0 0.079508496358787539 14.795884997690417 0 0 0 0 -94.999774296456962 86.845151833027558 0 86.845151833027558 244.56283234391594 0 0 0 0 -15.41277110881299 88.547609856643817 0 88.547609856643817 -64.583448284620317 0 0 0 0 -309.38110121851332 673.30843412954414 0 673.30843412954414 -1171.1387217606207 0 0 0 0 -514.89966266216288 1125.7830262004873 0 1125.7830262004873 -1235.3058049409481 0 0 0 0 -566.21307924715188 1036.028819961183 0 1036.028819961183 -798.43900941218635 0 0 0 0 -721.53223824854967 927.59739074193635 0 927.59739074193635 -623.94779914130595 0 0 0 0 -271.79142620412313 928.39206758407954 0 928.39206758407954 -1021.5494433871263 0 0 0 0 -171.91165464075323 459.01872240047504 0 459.01872240047504 -518.11290829474819 0 0 0 0 -371.89841247936238 957.66037330338258 0 957.66037330338258 -800.5981123131935 0 0 0 0 -347.61092907967827 680.40604152997162 0 680.40604152997162 -621.98177752540869 0 0 0 0 -270.01851431179148 774.39942381200899 0 774.39942381200899 -1845.9359742524521 0 0 0 0 -672.86935870873242 -162.75618766650314 0 -162.75618766650314 -9.9779137518580683 0 0 0 0 -5.1961052870506022 12.507985760776631 0 12.507985760776631 5.4528944612681034 0 0 0 0 -534.70526854508785 1305.7979213152114 0 1305.7979213152114 -1318.8755378804944 0 0 0 0 -238.36109094257313 757.40486341611245 0 757.40486341611245 -1328.1503588441574 0 0 0 0 -1553.1724187801774 1259.1488008415097 0 1259.1488008415097 -89.721132664803918 0 0 0 0 -1174.1255815106879 1878.217913419664 0 1878.217913419664 41.540710212064369 0 0 0 0 -1056.1049627029388 1562.798474535269 0 1562.798474535269 883.99840237121953 0 0 0 0 -1053.9176726759117 1233.0511296923469 0 1233.0511296923469 -178.08233637930471 0 0 0 0 -398.53014953210254 554.81309871316296 0 554.81309871316296 -378.80034060674228 0 0 0 0 -1034.261631383496 2050.4280965977309 0 2050.4280965977309 427.24617119775439 0 0 0 0 98.870361098519879 1900.5080794948894 0 1900.5080794948894 158.53048789102502 0 0 0 0 95.279886916102441 871.17808143254138 0 871.17808143254138 -540.37596093056663 0 0 0 0 348.49606187208065 471.39356767594131 0 471.39356767594131 -55.702645829941503 0 0 0 0 -62.739596943826086 38.256699299868785 0 38.256699299868785 -186.42440762961905 0 0 0 0 649.07538138974496 57.531820478234636 0 57.531820478234636 -552.1040602211192 0 0 0 0 1130.334100880902 1774.8337376373802 0 1774.8337376373802 1022.1044787836213 0 0 0 0 1867.7037704114105 2077.556233054931 0 2077.556233054931 91.225637733964049 0 0 0 0 -7.7415792023419421 2.1136310103783265 0 2.1136310103783265 19.371722835926494 0 0 0 0 -629.80845584933741 390.60571642754229 0 390.60571642754229 -173.64622102091244 0 0 0 0 2606.9887832347194 3188.268259357013 0 3188.268259357013 1569.2092495386314 0 0 0 0 11.00229042084306 11.472005192525604 0 11.472005192525604 9.5024707498810006 0 0 0 0 2364.0574634802924 1123.3540318521543 0 1123.3540318521543 -437.70570849993055 0 0 0 0 -246.60746063137412 2449.2967566516363 0 2449.2967566516363 2768.3805693833256 0 0 0 0 -0.12521706842188962 23.611364226381117 0 23.611364226381117 0.42789447778957523 0 0 0 0 -734.33511459699366 956.35801173896289 0 956.35801173896289 2017.2583548849498 0 0 0 0 -121.60145110578742 404.80866747373875 0 404.80866747373875 -628.476240029986 0 0 0 0 28.343999142859538 30.598560024996388 0 30.598560024996388 3.6791822882378105 0 0 0 0 5993.6987091002375 622.05514338141802 0 622.05514338141802 1671.5744447117613 0 0 0 0 -527.46251246520114 -468.70433622136079 0 -468.70433622136079 936.51648189237039 0 0 0 0 -405.16171439231402 618.35405986269325 0 618.35405986269325 -422.7440374824273 0 0 0 0 -298.4734809959773 308.19221935134738 0 308.19221935134738 156.54470393615338 0 0 0 0 -101.38360749787898 183.11915692015282 0 183.11915692015282 119.15143547657499 0 0 0 0 -336.12359064053453 222.95565749009256 0 222.95565749009256 896.40035835020899 0 0 0 0 255.46216412761714 -167.58805712444519 0 -167.58805712444519 881.8469237646641 0 0 0 0 -1157.6248067016495 163.5202038121206 0 163.5202038121206 476.66575890976674 0 0 0 0 -941.09902714450436 -347.86153804195465 0 -347.86153804195465 989.27787712177815 0 0 0 0 -299.81874558094478 -400.16307522708826 0 -400.16307522708826 789.63552482307568 0 0 0 0 -49.868833653973731 64.485453149284979 0 64.485453149284979 22.620496225691806 0 0 0 0 -357.48528971090127 209.02946576098202 0 209.02946576098202 99.117082658103755 0 0 0 0 5.7031311911996454 82.145827614925793 0 82.145827614925793 -30.03367239245199 0 0 0 0 -180.24061604289091 299.07906344162529 0 299.07906344162529 -488.15996334623196 0 0 0 0 3.8233759444847237 79.355782659484021 0 79.355782659484021 -30.602187627047897 0 0 0 0 -157.00072658966928 288.83136731748846 0 288.83136731748846 -78.367097246093181 0 0 0 0 -128.5978682177556 178.94221794943473 0 178.94221794943473 202.08518371001355 0 0 0 0 -698.04919219155136 -411.95356622988101 0 -411.95356622988101 72.707047906497678 0 0 0 0 -27.974039711939653 7.2090005367132095 0 7.2090005367132095 -4.9047235063105656 0 0 0 0 -170.48242682448972 1166.0248387462541 0 1166.0248387462541 -3055.7605193274144 0 0 0 0 -476.154875304283 346.82209265810366 0 346.82209265810366 -226.60513425354702 0 0 0 0 13.23664728064341 443.49795831501251 0 443.49795831501251 -369.16655003971437 0 0 0 0 -74.311519242750279 30.503429393711418 0 30.503429393711418 4.8546307185407613 0 0 0 0 -13.626152730836111 255.90031335307685 0 255.90031335307685 686.90231233138729 0 0 0 0 98.084395297407355 265.02658578060027 0 265.02658578060027 393.26228224842635 0 0 0 0 2.2207945232912607 103.46870607957499 0 103.46870607957499 520.3168209597834 0 0 0 0 -4.2213246907955195 2.8188293259736419 0 2.8188293259736419 -1.9713054251472828 0 0 0 0 38.904015412088484 159.34514092005384 0 159.34514092005384 476.21034158008297 0 0 0 0 412.99031206777363 1035.7083651387438 0 1035.7083651387438 1396.9762691096853 0 0 0 0 1.3464285479360925 -0.17794990187914195 0 -0.17794990187914195 1.6504311928350912 0 0 0 0 122.06182397859266 113.76640258942189 0 113.76640258942189 250.72774473018944 0 0 0 0 731.50719829341324 1200.1876197830534 0 1200.1876197830534 1392.2038455887778 0 0 0 0 687.77097989733738 1301.4127630043477 0 1301.4127630043477 1897.267125071703 0 0 0 0 359.94381367597816 141.19572657010031 0 141.19572657010031 1456.0283685499571 0 0 0 0 -221.24309252000239 3279.4767788395784 0 3279.4767788395784 5329.8137844590983 0 0 0 0 4051.9747988097297 687.53182762364304 0 687.53182762364304 -2553.0986587975913 0 0 0 0 10.869271238427572 5.6909750804821559 0 5.6909750804821559 0.40447240427259157 0 0 0 0 1966.4739535995977 753.52143679607252 0 753.52143679607252 94.003932436615287 0 0 0 0 2048.3482990714401 1720.066920670939 0 1720.066920670939 1063.6010778668642 0 0 0 0 1406.1568002139174 1591.2494099189098 0 1591.2494099189098 1314.8719216375393 0 0 0 0 1259.7281640785004 1989.6016928664103 0 1989.6016928664103 2351.6758247152829 0 0 0 0 345.08777457618271 333.16741757893124 0 333.16741757893124 3160.3522673960742 0 0 0 0 -1765.6662529301575 -64.50490082685883 0 -64.50490082685883 2046.255369765679 0 0 0 0 3182.2429160799329 1874.4096366383637 0 1874.4096366383637 2094.4367224128891 0 0 0 0 1119.6539299664764 -608.25285989728582 0 -608.25285989728582 -1345.6749196798655 0 0 0 0 342.09672196847896 575.32057000321402 0 575.32057000321402 519.92019978441203 0 0 0 0 186.57107622506192 364.91320873257473 0 364.91320873257473 -1387.9858886480961 0 0 0 0 19.303477630998202 15.156750431582726 0 15.156750431582726 9.171091623362102 0 0 0 0 -538.38018140407712 335.06702045393922 0 335.06702045393922 57.963143949194546 0 0 0 0 -537.63946044371346 447.22645502907949 0 447.22645502907949 -205.51187546259143 0 0 0 0 -456.89003692586266 332.45804327429505 0 332.45804327429505 -146.62832913703664 0 0 0 0 252.70475714076201 -526.40391014942179 0 -526.40391014942179 -270.07330570822535 0 0 0 0 -285.5405552488246 97.474529604123063 0 97.474529604123063 -100.95468628722165 0 0 0 0 5.9415292869846894 4.0258043516847231 0 4.0258043516847231 2.5028469823441348 0 0 0 0 124.80980176165576 299.37616010465717 0 299.37616010465717 -529.65355570770407 0 0 0 0 375.87874659308 -278.59606401953897 0 -278.59606401953897 -2145.219751149797 0 0 0 0 -251.1611303470263 -242.56441920436805 0 -242.56441920436805 -734.89676170597613 0 0 0 0 403.63697571399643 200.218318770812 0 200.218318770812 -525.65461474939275 0 0 0 0 -295.09844903238536 434.50299838653086 0 434.50299838653086 -219.469710724984 0 0 0 0 163.45825170177523 86.200926532316998 0 86.200926532316998 -327.74081527297767 0 0 0 0 119.59599990186507 -99.546544166419039 0 -99.546544166419039 -74.271578611176665 0 0 0 0 -292.40898945154549 301.94884201558125 0 301.94884201558125 -488.89767089768702 0 0 0 0 -451.86909512795319 270.72340547117051 0 270.72340547117051 -382.62039839477438 0 0 0 0 -2.1736428439705691 0.20647426819881787 0 0.20647426819881787 -0.66121561778345495 0 0 0 0 -867.87797011778366 742.88502929436072 0 742.88502929436072 -519.79105822638871 0 0 0 0 -1253.6307159303283 319.99362593983005 0 319.99362593983005 -652.94385543645149 0 0 0 0 -1119.5800844314872 1424.289642545885 0 1424.289642545885 -1210.5522184338784 0 0 0 0 -1032.3698927692712 738.28125220340644 0 738.28125220340644 -347.16892733904024 0 0 0 0 -1.6434517629175076 0.51094386385283741 0 0.51094386385283741 -4.1763288606905391 0 0 0 0 -621.90023210386425 636.25256578354583 0 636.25256578354583 -508.97170257596258 0 0 0 0 -5.6951543717850655 97.3073053907749 0 97.3073053907749 -246.64516941299826 0 0 0 0 -263.19447904829394 357.96589697593663 0 357.96589697593663 -271.17775695420778 0 0 0 0 -374.73069834946091 213.69044783609456 0 213.69044783609456 -439.36901335871698 0 0 0 0 -673.78810647740102 309.63497087981659 0 309.63497087981659 -564.62343696446078 0 0 0 0 -469.39754104136591 539.50443018304759 0 539.50443018304759 -315.44940006118077 0 0 0 0 -128.3147846404554 382.58957254974757 0 382.58957254974757 -239.82608407012776 0 0 0 0 -365.18352067445539 238.29440465039761 0 238.29440465039761 -242.56956805321533 0 0 0 0 359.67651271887917 300.18505282355318 0 300.18505282355318 -167.73158137623068 0 0 0 0 119.40180496562971 134.53187457437161 0 134.53187457437161 -115.67783385744224 0 0 0 0 195.76463215393596 94.124624743783897 0 94.124624743783897 -136.26023032073726 0 0 0 0 88.030536630636561 201.43667759597702 0 201.43667759597702 -158.9014602608695 0 0 0 0 379.99359210952571 249.83529182101938 0 249.83529182101938 -100.9967070682851 0 0 0 0 261.05267202620053 226.47212624972553 0 226.47212624972553 15.739540413415853 0 0 0 0 335.65235331248232 336.12291409465104 0 336.12291409465104 8.4519384554059798 0 0 0 0 352.77696396503234 294.75630417056254 0 294.75630417056254 53.86044685266188 0 0 0 0 282.58926284627705 240.75402256016014 0 240.75402256016014 51.941260488996249 0 0 0 0 330.06216107656792 357.64714111090734 0 357.64714111090734 138.94531385931896 0 0 0 0 -20.653416925633792 30.289038752655415 0 30.289038752655415 8.0285188856386185 0 0 0 0 -17.625623637152636 15.093095344736202 0 15.093095344736202 -5.9116224564389412 0 0 0 0 255.11224683726323 79.450723284850937 0 79.450723284850937 28.493525421758932 0 0 0 0 -6.766337365099389 27.084299875297233 0 27.084299875297233 8.5543143839895492 0 0 0 0 233.00065910781632 97.988350976510446 0 97.988350976510446 29.50793646551017 0 0 0 0 -51.238850660847675 96.837824241242743 0 96.837824241242743 -112.03393078985391 0 0 0 0 -1.0917707241936156 7.8973912752913549 0 7.8973912752913549 7.8780630082241565 0 0 0 0 382.67786447648564 265.56939936198302 0 265.56939936198302 -20.158955998468628 0 0 0 0 548.25219845442916 286.70385778770378 0 286.70385778770378 -23.816176077083583 0 0 0 0 429.28862835925793 1.7710124694057185 0 1.7710124694057185 -49.240188534011395 0 0 0 0 690.79640126495178 456.07998486162296 0 456.07998486162296 205.21977742517174 0 0 0 0 285.48806609000894 246.29283853685229 0 246.29283853685229 108.20259851168339 0 0 0 0 -26.504355939894594 84.897951232949708 0 84.897951232949708 -117.05828944191762 0 0 0 0 1103.7977416751746 53.293483752627253 0 53.293483752627253 -46.079405727382436 0 0 0 0 1.1655998545135127 2.0213277104922724 0 2.0213277104922724 3.5591685532314763 0 0 0 0 -154.21374368890747 270.687742454317 0 270.687742454317 325.97366017207059 0 0 0 0 -84.998558387116645 31.42867197212604 0 31.42867197212604 42.72896174761263 0 0 0 0 39.03867323403756 225.06116870784035 0 225.06116870784035 259.51220666633708 0 0 0 0 197.16715296234543 280.70688933759902 0 280.70688933759902 31.337390050925023 0 0 0 0 409.20273855521918 607.24663124872995 0 607.24663124872995 301.86521422840997 0 0 0 0 355.50727348800137 305.450367265159 0 305.450367265159 33.296431080938419 0 0 0 0 252.52739895144805 107.90733213229532 0 107.90733213229532 408.59303246333093 0 0 0 0 836.15738508139111 203.55800320148501 0 203.55800320148501 -74.948963587751763 0 0 0 0 279.82396776657333 142.68102217114983 0 142.68102217114983 8.9245789680890084 0 0 0 0 -84.691512844818135 124.52076215503666 0 124.52076215503666 153.13561109440218 0 0 0 0 79.056134970842322 -34.1486354012427 0 -34.1486354012427 114.33323627262962 0 0 0 0 -2.5598466263572845 67.480638191886101 0 67.480638191886101 151.62609577454441 0 0 0 0 308.66835350915426 208.43203674854203 0 208.43203674854203 -15.861269722876386 0 0 0 0 -14.786869077976007 13.258469122199585 0 13.258469122199585 -9.2552114167117452 0 0 0 0 -4.8705271264175707 2.2468077548632124 0 2.2468077548632124 -1.3440752307604438 0 0 0 0 -42.217502998340933 96.496863787872826 0 96.496863787872826 -297.42159247684503 0 0 0 0 -45.391762817467679 30.378014540016011 0 30.378014540016011 97.484929184109205 0 0 0 0 -14.395052767619418 9.9233496061452531 0 9.9233496061452531 -5.9286660395254804 0 0 0 0 -66.912874331508647 93.319167323890213 0 93.319167323890213 12.958994784326023 0 0 0 0 6.7175819678232074 31.438620280811847 0 31.438620280811847 -34.747113527574356 0 0 0 0 -19.989559540533065 18.817754441433696 0 18.817754441433696 -9.0839204264742897 0 0 0 0 -18.921446160413325 32.232207469356581 0 32.232207469356581 78.263613731551231 0 0 0 0 -11.217906653735554 19.144480171122268 0 19.144480171122268 82.843977083620757 0 0 0 0 -29.586264915073116 48.981380284389161 0 48.981380284389161 63.354408746939953 0 0 0 0 10.938319080174551 26.293237263460924 0 26.293237263460924 63.545458039714504 0 0 0 0 -1.8057505904289428 71.734543347061845 0 71.734543347061845 24.139051033027044 0 0 0 0 9.2423802021976371 55.433091878006721 0 55.433091878006721 37.62750122059424 0 0 0 0 -28.008092849522654 61.361469287953696 0 61.361469287953696 69.966561042300327 0 0 0 0 -21.395615864314237 10.281025103161966 0 10.281025103161966 -4.1606985269095222 0 0 0 0 -25.900227755977539 16.566042227241269 0 16.566042227241269 15.452490489993579 0 0 0 0 -31.865246907167602 31.36515750328843 0 31.36515750328843 61.560617579720201 0 0 0 0 -2.9876136452220052 3.8264879520398196 0 3.8264879520398196 -2.9398606905544398 0 0 0 0 -14.402873006562004 18.340084985679823 0 18.340084985679823 -6.1001846784699865 0 0 0 0 -15.901357050148363 15.112557299978562 0 15.112557299978562 -7.2587074909225748 0 0 0 0 43.604716479036142 1.9866310981233255 0 1.9866310981233255 -51.863547841050604 0 0 0 0 -14.645546369929434 23.020804981743368 0 23.020804981743368 8.4121610495822097 0 0 0 0 -5.9705464024154935 21.284634233070392 0 21.284634233070392 8.7124717540118581 0 0 0 0 -16.903826523499447 42.581830223584006 0 42.581830223584006 24.816987223828164 0 0 0 0 -19.570232721585015 14.586078755448233 0 14.586078755448233 -3.1723274610570842 0 0 0 0 -19.383156498257136 19.564940505475697 0 19.564940505475697 -10.334433394019428 0 0 0 0 -12.97547930078872 15.75622952046524 0 15.75622952046524 17.266608106827334 0 0 0 0 -16.55320398373793 18.888312268568015 0 18.888312268568015 14.289442821728228 0 0 0 0 -40.989347928159056 35.987173109518949 0 35.987173109518949 -2.995803769077475 0 0 0 0 -34.68917224217148 22.490036953253366 0 22.490036953253366 6.185097089789565 0 0 0 0 -26.593131139573757 19.516740020731781 0 19.516740020731781 14.563506641890909 0 0 0 0 -16.9061748456134 7.0554918670882216 0 7.0554918670882216 17.524606394895748 0 0 0 0 -21.673302490080459 33.354106824503276 0 33.354106824503276 6.3350055816144959 0 0 0 0 -56.770539751309116 98.192538142347985 0 98.192538142347985 -11.65567685568567 0 0 0 0 -79.326580970275245 3.6262426096500349 0 3.6262426096500349 20.621480759833503 0 0 0 0 -2.4556818031094636 1.5440832760807446 0 1.5440832760807446 4.2342088901517307 0 0 0 0 12.748622614890337 -30.425613946288649 0 -30.425613946288649 -75.106258822575455 0 0 0 0 -48.63322129232256 90.771435938292598 0 90.771435938292598 -162.32092620873846 0 0 0 0 -114.4489595816558 90.866397313136076 0 90.866397313136076 -76.026466169068954 0 0 0 0 -33.243238183153153 6.8502116889867466 0 6.8502116889867466 5.2083201666191599 0 0 0 0 -69.560770558782679 -28.901294404119653 0 -28.901294404119653 -22.520244642695616 0 0 0 0 0.54862408721237443 -1.3744834645749506 0 -1.3744834645749506 -13.834089382448838 0 0 0 0 -2.898628821382772 -11.754347381432012 0 -11.754347381432012 4.6788544706323592 0 0 0 0 -13.040148903001864 55.376251036446888 0 55.376251036446888 64.669366249116138 0 0 0 0 84.366703369876632 69.656037156694765 0 69.656037156694765 27.909679218505516 0 0 0 0 44.171365939197131 38.351961600889808 0 38.351961600889808 25.886333924634528 0 0 0 0 260.04497672779326 113.41188721997696 0 113.41188721997696 -2.708500284926231 0 0 0 0 133.57106337303776 10.02724468823908 0 10.02724468823908 -43.052091311192271 0 0 0 0 153.6110663467407 128.59782130733947 0 128.59782130733947 68.696633918435509 0 0 0 0 48.792997278134862 32.286975471546612 0 32.286975471546612 32.211674057005439 0 0 0 0 68.104453825399105 35.868605914578438 0 35.868605914578438 31.663756343525165 0 0 0 0 13.66387478611432 -15.846334647334515 0 -15.846334647334515 21.619072943867877 0 0 0 0 2.995270983134219 9.7258135064365945 0 9.7258135064365945 2.681664999424207 0 0 0 0 -8.7342133284619194 54.900064896416552 0 54.900064896416552 -43.184690659854823 0 0 0 0 6.5724644742931559 1.6477153952150729 0 1.6477153952150729 0.60600070099826553 0 0 0 0 -50.697931311751745 -11.439087728496816 0 -11.439087728496816 39.888738973848376 0 0 0 0 -42.879631918132418 30.720463163305681 0 30.720463163305681 12.818513100462951 0 0 0 0 6.6231374479320948 -44.333494332214741 0 -44.333494332214741 -19.296668346934894 0 0 0 0 98.366240935363749 -11.650956319210309 0 -11.650956319210309 -31.471790412052542 0 0 0 0 60.563912842924765 22.260446588385093 0 22.260446588385093 -101.86576895706185 0 0 0 0 -11.047295419407327 14.416706732733658 0 14.416706732733658 -11.078557203678168 0 0 0 0 -0.33844740640506643 17.388457956832667 0 17.388457956832667 -10.627530379397285 0 0 0 0 40.429724469152461 24.941971457493878 0 24.941971457493878 -22.576814073623609 0 0 0 0 4.0014545164158335 -5.6041408795554162 0 -5.6041408795554162 9.105264093795995 0 0 0 0 5.3268774419457259 -18.869467258163922 0 -18.869467258163922 -17.747435750028671 0 0 0 0 -12.473935982856347 12.301440185397041 0 12.301440185397041 -10.265931448354422 0 0 0 0 -14.464507536788005 10.846967296608454 0 10.846967296608454 -10.937913843928072 0 0 0 0 -192.92626727676543 207.89396982902326 0 207.89396982902326 -278.84313175604802 0 0 0 0 -3.7428010541312631 0.06169501705858238 0 0.06169501705858238 -1.5626943454341014 0 0 0 0 -0.45584062917522061 7.8229572553024411 0 7.8229572553024411 -13.160945985405126 0 0 0 0 -25.732139166017078 18.952444924761721 0 18.952444924761721 0.27067878040543292 0 0 0 0 -2.50405436181547 0.014334332269768879 0 0.014334332269768879 -5.0978054908696908 0 0 0 0 41.072663062928768 -19.719752188287202 0 -19.719752188287202 -33.016521712158465 0 0 0 0 -179.12776123847834 316.07904503870884 0 316.07904503870884 -748.63199670269205 0 0 0 0 -127.31325264207771 451.66786381785823 0 451.66786381785823 -1072.9157138886767 0 0 0 0 -470.59505323745543 692.70973127173556 0 692.70973127173556 -765.93166070793268 0 0 0 0 -845.25927375637548 549.08557815140944 0 549.08557815140944 -155.57026840594972 0 0 0 0 0.60387657870710143 -0.28566894811375221 0 -0.28566894811375221 -3.5606245431031525 0 0 0 0 -193.28391096545965 501.60980201510438 0 501.60980201510438 -853.92503586175189 0 0 0 0 -264.65983675546886 305.56324428789003 0 305.56324428789003 -824.97950198783883 0 0 0 0 -187.10549433527376 535.56551280703627 0 535.56551280703627 -704.35427752104988 0 0 0 0 -257.13589713099645 348.08857447276887 0 348.08857447276887 -620.46719152656738 0 0 0 0 -142.69605386330295 452.93021374567638 0 452.93021374567638 -552.26636721894829 0 0 0 0 -69.510885367351875 358.72009471417641 0 358.72009471417641 -502.05295342372756 0 0 0 0 -234.60494679224257 426.09693169602048 0 426.09693169602048 -433.71765600056369 0 0 0 0 -127.55408194538177 180.72705383948551 0 180.72705383948551 -245.13307507041918 0 0 0 0 59.040439181240799 284.76873634732681 0 284.76873634732681 -474.06270584231436 0 0 0 0 -116.7136346182524 431.29043148897199 0 431.29043148897199 -179.65375957792264 0 0 0 0 -27.994071383076516 124.83661363234521 0 124.83661363234521 -134.29984322595237 0 0 0 0 -82.459565647955969 311.35351018101198 0 311.35351018101198 -539.09394443206202 0 0 0 0 -87.587338793834988 380.69358502844369 0 380.69358502844369 -665.64220211808606 0 0 0 0 -269.2046654804908 315.57439412960639 0 315.57439412960639 -388.51911511002254 0 0 0 0 -203.72004182217643 417.37581209511222 0 417.37581209511222 -627.49682998237267 0 0 0 0 -364.61155411233267 506.62551669538709 0 506.62551669538709 -511.59494995195246 0 0 0 0 -655.57655753022118 460.54484083874672 0 460.54484083874672 -577.09389343049588 0 0 0 0 -643.94653459492838 649.34506121438608 0 649.34506121438608 -591.76816576397096 0 0 0 0 -418.55000299365929 544.59083041900601 0 544.59083041900601 -543.14960718230122 0 0 0 0 -290.18887525014725 549.86143563143287 0 549.86143563143287 -757.83361208158203 0 0 0 0 -318.10338049718848 437.60047500824601 0 437.60047500824601 -335.96916261675415 0 0 0 0 -127.81734652248269 350.61290699021629 0 350.61290699021629 -527.90418588229636 0 0 0 0 -321.95418577575765 280.90346396938992 0 280.90346396938992 -233.58571565312457 0 0 0 0 -258.1862413042254 318.40353615160211 0 318.40353615160211 -446.78744946689119 0 0 0 0 -367.60567605668257 435.15101674434402 0 435.15101674434402 -384.39641098382049 0 0 0 0 -435.88556282607169 454.25119424946411 0 454.25119424946411 -586.45060050006339 0 0 0 0 -272.84585972970672 520.70728188569001 0 520.70728188569001 -568.79201538726693 0 0 0 0 -447.43873652385082 467.93843895516648 0 467.93843895516648 -813.55980993391177 0 0 0 0 -409.76792720276262 624.82746019493186 0 624.82746019493186 -666.05712652864895 0 0 0 0 -357.66488966876932 408.77793658168548 0 408.77793658168548 -645.16635290786689 0 0 0 0 -281.60805247451572 497.4409883649106 0 497.4409883649106 -565.33638191855607 0 0 0 0 59.843534241279485 197.10926467514662 0 197.10926467514662 -438.13881607104486 0 0 0 0 5.4520910743142181 4.7602028663999008 0 4.7602028663999008 2.3237997510974466 0 0 0 0 -280.89432563258015 659.41688570781162 0 659.41688570781162 -1074.628756292338 0 0 0 0 -52.011480723351269 -48.070901481782357 0 -48.070901481782357 36.449851086893887 0 0 0 0 -515.3870639034576 655.14567052817802 0 655.14567052817802 -696.22554819091215 0 0 0 0 -649.14832993931384 971.04954596117466 0 971.04954596117466 -906.58452330149612 0 0 0 0 -1.9200418800194967 -0.38363650109594261 0 -0.38363650109594261 -0.52605175600593945 0 0 0 0 217.87899365783232 56.987406915858628 0 56.987406915858628 7.2462782259735832 0 0 0 0 -465.73127102426224 520.98826782587412 0 520.98826782587412 -444.65444264102081 0 0 0 0 226.30837173931832 107.69537225809063 0 107.69537225809063 -1.9906222426361637 0 0 0 0 469.06553287925635 36.55538770707426 0 36.55538770707426 -9.2671775179264841 0 0 0 0 -841.36000333777156 881.16041110203525 0 881.16041110203525 -638.23215465417343 0 0 0 0 1177.6073431981567 -266.5221057142453 0 -266.5221057142453 -238.66990317336456 0 0 0 0 -357.80234397532831 838.92499059029217 0 838.92499059029217 -828.19308425195049 0 0 0 0 1.0089104537466866 1.5555301822478782 0 1.5555301822478782 1.1483853123259902 0 0 0 0 123.44279233861107 228.41165858826719 0 228.41165858826719 -972.3499335894868 0 0 0 0 1.0093630181618209 564.80291112007012 0 564.80291112007012 -814.2023855915229 0 0 0 0 -351.4113553962452 509.38066247750305 0 509.38066247750305 -502.50908172172376 0 0 0 0 -7.2145292632449127 214.67968495660386 0 214.67968495660386 -540.79523884025491 0 0 0 0 -62.27119965378828 30.77656562879578 0 30.77656562879578 -9.9274086904684236 0 0 0 0 58.769776961496746 335.06408139182986 0 335.06408139182986 -221.60300487508175 0 0 0 0 -285.58730582692101 16.592828584289236 0 16.592828584289236 178.59996174751177 0 0 0 0 -274.25285951196565 226.33203533113033 0 226.33203533113033 118.61100660454895 0 0 0 0 -138.56712310561534 131.70797992418557 0 131.70797992418557 168.55595671381889 0 0 0 0 -70.036950010019609 225.38931797297482 0 225.38931797297482 -308.15543853525435 0 0 0 0 -241.91877711848429 257.35210452669708 0 257.35210452669708 68.45018685816467 0 0 0 0 -88.438568786054134 39.825771357905751 0 39.825771357905751 -6.3304792467216906 0 0 0 0 0.27667909260911516 12.045741028976291 0 12.045741028976291 5.3342810715882267 0 0 0 0 -245.92047735148662 77.766833933298187 0 77.766833933298187 -14.250503506010148 0 0 0 0 -290.28303516565938 291.18238978416468 0 291.18238978416468 -300.30206561410387 0 0 0 0 -174.70751906201622 366.46812848036404 0 366.46812848036404 -527.43405173760948 0 0 0 0 -207.72408151351556 289.84429227572798 0 289.84429227572798 -314.97660565866818 0 0 0 0 -35.008576772870583 32.663061578135924 0 32.663061578135924 -36.48728926350168 0 0 0 0 -255.25889907943747 166.27708311493086 0 166.27708311493086 -90.343541359754653 0 0 0 0 -142.41773769736028 275.89134389133079 0 275.89134389133079 -268.48581567194725 0 0 0 0 -234.64971110114493 188.75922815267313 0 188.75922815267313 80.551173762432654 0 0 0 0 -56.736154979564162 226.86643124003308 0 226.86643124003308 -76.923459098570447 0 0 0 0 -10.900260243390221 28.295198319397969 0 28.295198319397969 8.4301517469466489 0 0 0 0 -19.796430994161675 35.728020266905176 0 35.728020266905176 -3.7554996556247113 0 0 0 0 20.154080078808974 34.700723381624833 0 34.700723381624833 -30.394137403118972 0 0 0 0 -139.24929728148345 26.014310102399662 0 26.014310102399662 155.9320043202008 0 0 0 0 -31.510977045309005 45.50186849842477 0 45.50186849842477 -2.7792270310065641 0 0 0 0 -8.6929741105331431 13.666268977794324 0 13.666268977794324 11.426766616122389 0 0 0 0 176.94799733233594 214.31123785614449 0 214.31123785614449 66.366381897707811 0 0 0 0 59.988067203252285 278.34175400093289 0 278.34175400093289 68.630156512262374 0 0 0 0 4.866165416135118 -281.65745545813047 0 -281.65745545813047 -1464.696146438707 0 0 0 0 5.9095306545459607 203.53093620749007 0 203.53093620749007 -713.66601819968309 0 0 0 0 -83.13258563335512 233.212532715821 0 233.212532715821 -600.51025338860336 0 0 0 0 67.698890029305403 -37.881850239440382 0 -37.881850239440382 -495.80557135697109 0 0 0 0 -42.543206960688622 89.068027858587357 0 89.068027858587357 46.001218502409529 0 0 0 0 315.78286462563847 190.60213869250993 0 190.60213869250993 -75.16555917499619 0 0 0 0 327.99520876782117 279.81668498289832 0 279.81668498289832 -352.50005542933104 0 0 0 0 669.61074962574639 236.21425702460101 0 236.21425702460101 -258.86471842615174 0 0 0 0 467.04779702779706 355.03523454510218 0 355.03523454510218 -163.2752211598845 0 0 0 0 226.04161657467193 328.62777664717237 0 328.62777664717237 -226.76148515956834 0 0 0 0 843.61732279567241 300.916148757217 0 300.916148757217 -621.15978974774998 0 0 0 0 167.07784220722533 -46.0376954772114 0 -46.0376954772114 -495.32306085844652 0 0 0 0 -35.528838652359823 21.367125878950169 0 21.367125878950169 -7.4536312746053053 0 0 0 0 233.36791359339759 -270.10375818327157 0 -270.10375818327157 -1473.0703164421427 0 0 0 0 -81.348964964920015 150.9861903301794 0 150.9861903301794 -546.07765014490474 0 0 0 0 416.11584429776485 362.7697259955861 0 362.7697259955861 -913.50510459698876 0 0 0 0 -194.55782663594073 224.54034405266248 0 224.54034405266248 347.8842343719125 0 0 0 0 -10.836795705916757 -0.28492148999703204 0 -0.28492148999703204 313.76168785134905 0 0 0 0 20.446157492301609 384.35184536197085 0 384.35184536197085 253.9503413463201 0 0 0 0 46.249070134540489 73.825746305750727 0 73.825746305750727 401.12498251275156 0 0 0 0 52.700021732893219 170.42263026058208 0 170.42263026058208 467.59423858796254 0 0 0 0 13.159674760046073 59.322149052747591 0 59.322149052747591 504.14235546580494 0 0 0 0 50.701940975006437 158.84021685674816 0 158.84021685674816 453.97236150022127 0 0 0 0 -15.780304837543831 12.057447736273801 0 12.057447736273801 -4.9302484091892023 0 0 0 0 2.78773039724895 0.7071789430061699 0 0.7071789430061699 0.51742732814271974 0 0 0 0 40.380999169638926 170.81902432329298 0 170.81902432329298 487.99476391074313 0 0 0 0 348.98781016321118 362.02373120042739 0 362.02373120042739 63.751893772872791 0 0 0 0 426.2014150260643 824.61685270190242 0 824.61685270190242 560.39002596595128 0 0 0 0 243.97781372017926 209.5846607316289 0 209.5846607316289 -750.73541698636473 0 0 0 0 9.3098062929473002 5.9545282525051206 0 5.9545282525051206 4.3173460434450845 0 0 0 0 0.48681993733253037 -1.1645760687896676 0 -1.1645760687896676 0.77647036030460193 0 0 0 0 -241.63592470804178 309.38778722235475 0 309.38778722235475 -555.39661779122798 0 0 0 0 -41.908397934405002 236.5797337472568 0 236.5797337472568 687.20930361171486 0 0 0 0 23.608026539594537 19.010379733310501 0 19.010379733310501 13.041723502831644 0 0 0 0 56.755043992011451 183.39977994028141 0 183.39977994028141 -554.92056571156354 0 0 0 0 103.00488833786085 583.00364645897662 0 583.00364645897662 -532.69988752610152 0 0 0 0 -56.636305696637464 97.433130390620136 0 97.433130390620136 586.41833116411181 0 0 0 0 -43.287161126843785 87.613122370490601 0 87.613122370490601 523.81821583097189 0 0 0 0 -71.173663597090126 65.558274631079257 0 65.558274631079257 633.11561589753728 0 0 0 0 -70.310964592916534 -300.17278436905377 0 -300.17278436905377 1911.7404167295863 0 0 0 0 -174.08125819362249 185.33429509947564 0 185.33429509947564 903.41946578839634 0 0 0 0 -271.65372496969758 571.73113913169072 0 571.73113913169072 803.55879821938379 0 0 0 0 -213.25113567959943 306.70492958661453 0 306.70492958661453 577.36211758451827 0 0 0 0 -222.96337231749021 401.63407947238193 0 401.63407947238193 283.6234775446901 0 0 0 0 16.028080585158932 496.03711719595867 0 496.03711719595867 217.39410424613743 0 0 0 0 786.11192427377409 180.8393093873259 0 180.8393093873259 382.50106672912079 0 0 0 0 808.1833900129659 556.73018533210416 0 556.73018533210416 155.90769884617112 0 0 0 0 -48.027110784583328 643.88236228759342 0 643.88236228759342 1447.5548626597792 0 0 0 0 -16.549485284243019 65.774301233341703 0 65.774301233341703 -1.5950807596527738 0 0 0 0 -99.324466943848165 23.592260856927169 0 23.592260856927169 11.78003016486764 0 0 0 0 -16.310931719770451 77.162787595849295 0 77.162787595849295 -46.009379799223098 0 0 0 0 19.016379903903726 34.283898125784617 0 34.283898125784617 -107.86375269979283 0 0 0 0 114.37824777666356 120.9847053113117 0 120.9847053113117 47.103709310812064 0 0 0 0 -6.9394978773034381 37.285846289056281 0 37.285846289056281 74.072315391924349 0 0 0 0 -4.0219205971561678 40.298598210472846 0 40.298598210472846 32.334491427776811 0 0 0 0 91.446008167348737 129.99441007234782 0 129.99441007234782 83.52455129082955 0 0 0 0 170.85644238723398 233.29702435153013 0 233.29702435153013 142.68024860325659 0 0 0 0 41.732575380323397 103.48969138294342 0 103.48969138294342 122.86919971808948 0 0 0 0 -27.287648468380212 53.010576710102214 0 53.010576710102214 -8.7022415499013732 0 0 0 0 54.948627209931146 132.58924234206552 0 132.58924234206552 -19.80562403575459 0 0 0 0 34.102510808494394 27.97138118842939 0 27.97138118842939 13.311781164780676 0 0 0 0 91.044442605560107 104.80444528981752 0 104.80444528981752 5.3986840869984007 0 0 0 0 77.908365009149747 99.908620148397858 0 99.908620148397858 -6.8006095560194808 0 0 0 0 -43.344045274678138 83.596408556255483 0 83.596408556255483 247.61612598792271 0 0 0 0 34.424738177982363 335.82259248455375 0 335.82259248455375 400.02499405113667 0 0 0 0 -121.65932818799592 391.45949193287379 0 391.45949193287379 469.96401275121752 0 0 0 0 -15.42737049823063 517.40881134908068 0 517.40881134908068 339.7948078767804 0 0 0 0 -13.729343183222227 538.56584690842647 0 538.56584690842647 570.71306488160917 0 0 0 0 -256.05733092028458 180.8049560209256 0 180.8049560209256 564.40530956956945 0 0 0 0 -41.592043281956649 737.45523613158548 0 737.45523613158548 659.00332534642803 0 0 0 0 -326.34615687958922 546.47639134178462 0 546.47639134178462 609.7654272537111 0 0 0 0 363.24061444167637 502.51046017742556 0 502.51046017742556 194.86641264795617 0 0 0 0 36.400511728425045 730.82371178847461 0 730.82371178847461 1522.5666237466958 0 0 0 0 337.42264748424714 701.47520952031846 0 701.47520952031846 430.4960575603036 0 0 0 0 1607.603707881266 1408.6928084467436 0 1408.6928084467436 532.921890645659 0 0 0 0 519.15273299341061 628.52861607756495 0 628.52861607756495 277.52513014942087 0 0 0 0 214.60152843882679 424.10144475222842 0 424.10144475222842 252.5674506031155 0 0 0 0 25.420595238763781 299.083402722541 0 299.083402722541 255.74837574394041 0 0 0 0 223.75942983280765 442.56413202863405 0 442.56413202863405 289.09097423871572 0 0 0 0 417.42564563973156 267.83347601715104 0 267.83347601715104 78.428559791078442 0 0 0 0 134.05560016194704 114.81049082621212 0 114.81049082621212 39.858525456897041 0 0 0 0 171.77285559420852 54.202685084756013 0 54.202685084756013 1.5262870969236246 0 0 0 0 -91.04563471450092 -259.43475731273793 0 -259.43475731273793 12.604125275669503 0 0 0 0 927.06021920819694 205.62717803425039 0 205.62717803425039 -25.808155275620265 0 0 0 0 -155.99172889271722 733.7404279477596 0 733.7404279477596 792.01681067490426 0 0 0 0 1799.8409591293541 -195.12001592042316 0 -195.12001592042316 -744.51446088144439 0 0 0 0 -96.28607267652211 254.15643093883466 0 254.15643093883466 -72.833880237660196 0 0 0 0 -11.088370007673646 0.52140521138896645 0 0.52140521138896645 0.69096938663270357 0 0 0 0 28.672240864549167 125.59834112278622 0 125.59834112278622 -300.45081382672288 0 0 0 0 -44.051981793918458 63.953681921218958 0 63.953681921218958 -111.01152644703689 0 0 0 0 -131.8241115792116 -50.279369369425694 0 -50.279369369425694 -16.655721777389772 0 0 0 0 -67.370387206178748 76.640622291290128 0 76.640622291290128 45.822653511844692 0 0 0 0 -35.736347695896256 44.593084952113713 0 44.593084952113713 49.9345047997449 0 0 0 0 -53.581003986406358 132.79300182086445 0 132.79300182086445 -31.738316364873754 0 0 0 0 22.374821854209586 66.343847831143648 0 66.343847831143648 187.95823185531845 0 0 0 0 -9.7621151549174101 -52.57232353551808 0 -52.57232353551808 160.01774514911813 0 0 0 0 53.191263611923205 21.568197008069546 0 21.568197008069546 137.08348885142186 0 0 0 0 -146.09363202598252 10.622389286854741 0 10.622389286854741 357.6690227200088 0 0 0 0 -88.042492680418945 -187.39859632909065 0 -187.39859632909065 -30.424789373217209 0 0 0 0 44.199013551542976 -92.345115833507862 0 -92.345115833507862 13.975272485229652 0 0 0 0 72.823463978875225 -126.10386233610188 0 -126.10386233610188 -214.01987043373083 0 0 0 0 30.533128948052763 -12.993309077908634 0 -12.993309077908634 -30.576320074615069 0 0 0 0 -709.54764196741962 -126.92652110604831 0 -126.92652110604831 386.61106487407233 0 0 0 0 6.7941977284353925 88.978076122664788 0 88.978076122664788 -195.714306681577 0 0 0 0 370.08590118130087 285.96901713808256 0 285.96901713808256 123.44259597040946 0 0 0 0 2.658284805102177 3.8710364125025478 0 3.8710364125025478 -3.4984592179170022 0 0 0 0 36.256160097975709 28.775640490646083 0 28.775640490646083 10.045367142091735 0 0 0 0 77.584883573552361 16.596848677407252 0 16.596848677407252 -246.59671881407667 0 0 0 0 47.564364894709797 124.58415527689431 0 124.58415527689431 -65.921181626232283 0 0 0 0 381.75576796802488 342.43123659470893 0 342.43123659470893 -276.64573202219617 0 0 0 0 1136.7014340863207 829.22771258718058 0 829.22771258718058 26.007116474262148 0 0 0 0 176.41237740693214 345.47873156686001 0 345.47873156686001 613.26985933096876 0 0 0 0 1303.9756490311083 -552.28632977958841 0 -552.28632977958841 -502.9069553523077 0 0 0 0 1213.2829789714542 -278.96034788389625 0 -278.96034788389625 111.63673738157195 0 0 0 0 18.495778882255784 7.4968074201446626 0 7.4968074201446626 4.5565218629892428 0 0 0 0 -151.19433632620257 -87.218961243353988 0 -87.218961243353988 231.30245498099248 0 0 0 0 1798.8258498538498 1101.9283616084317 0 1101.9283616084317 -202.93033141817432 0 0 0 0 1478.6077517280282 852.16843475045243 0 852.16843475045243 -1990.1594754417747 0 0 0 0 12.284954186825203 6.4235433769785502 0 6.4235433769785502 1.6651507939479302 0 0 0 0 25.142623496651396 16.728249012456722 0 16.728249012456722 5.6509244403539896 0 0 0 0 -76.588641374117287 557.98304425454444 0 557.98304425454444 -581.1232447047114 0 0 0 0 -616.11429610851337 7.9293257343560981 0 7.9293257343560981 -687.3049071458845 0 0 0 0 131.59930691254795 1192.3315944905316 0 1192.3315944905316 -1172.6120793780428 0 0 0 0 -493.3507352975721 188.21362714499446 0 188.21362714499446 1032.099039717481 0 0 0 0 719.53521638772781 -122.02707428993654 0 -122.02707428993654 612.2760173238712 0 0 0 0 -32.208518737294071 371.11503936826921 0 371.11503936826921 389.36568792048774 0 0 0 0 951.25604676950752 740.03199449125168 0 740.03199449125168 270.52917025285205 0 0 0 0 1171.7996761856648 779.79233807351193 0 779.79233807351193 187.96024675536319 0 0 0 0 719.99128649416525 879.13975925921113 0 879.13975925921113 675.23927973141917 0 0 0 0 400.40616029761986 365.41253194557248 0 365.41253194557248 191.91456294069212 0 0 0 0 966.20842595275553 708.83041048341056 0 708.83041048341056 203.25311710216192 0 0 0 0 721.48016024034769 261.80102873534361 0 261.80102873534361 32.532547612310736 0 0 0 0 670.57365372129425 380.84930421362515 0 380.84930421362515 -111.68857143855621 0 0 0 0 117.92745637305779 120.29074762333403 0 120.29074762333403 204.14446897134621 0 0 0 0 310.91014897876448 383.61316976077433 0 383.61316976077433 385.95537368792247 0 0 0 0 121.49020767803449 52.841093978286153 0 52.841093978286153 135.91217667193268 0 0 0 0 -238.42804667995915 452.48893072947612 0 452.48893072947612 1574.8894759364648 0 0 0 0 10.663819698613942 5.9207832949135195 0 5.9207832949135195 2.0713177666403411 0 0 0 0 1043.3922679613497 529.10328252637919 0 529.10328252637919 -1693.8631151804711 0 0 0 0 1185.763362135644 1067.1638957511377 0 1067.1638957511377 125.02514344813244 0 0 0 0 904.03067169152564 374.77765861751686 0 374.77765861751686 -106.42461846546939 0 0 0 0 -165.04947881466296 154.31329837118642 0 154.31329837118642 -9.2757498517494241 0 0 0 0 -309.85042013271232 277.69454383310585 0 277.69454383310585 146.44799563926608 0 0 0 0 -0.49766244326724518 791.17094922546858 0 791.17094922546858 -1076.1812396671558 0 0 0 0 -383.56724467341155 593.84195894161167 0 593.84195894161167 229.52106019822349 0 0 0 0 -180.70412189512535 289.95242577139288 0 289.95242577139288 -218.24743457889781 0 0 0 0 23.718627946115177 15.938635894712291 0 15.938635894712291 5.9774674350784949 0 0 0 0 -131.21303146013088 568.62006532165833 0 568.62006532165833 33.653718889479933 0 0 0 0 -397.2764400134829 443.1518401038611 0 443.1518401038611 554.66318388911168 0 0 0 0 -4.2659302275951632 522.68360204001146 0 522.68360204001146 565.12912608726992 0 0 0 0 -37.861613880991172 411.02234851875028 0 411.02234851875028 316.50348528139875 0 0 0 0 48.155016184945453 518.15632720019585 0 518.15632720019585 224.42738047886087 0 0 0 0 757.93574409758185 1124.8882933240657 0 1124.8882933240657 711.76547586872766 0 0 0 0 1234.9583844435247 323.76695069958168 0 323.76695069958168 -231.109028256491 0 0 0 0 555.48069521652178 166.63010313192717 0 166.63010313192717 484.75557195194415 0 0 0 0 501.54734062459465 464.42143199336351 0 464.42143199336351 -6.051683321499695 0 0 0 0 1497.5671003307516 1374.0060994323285 0 1374.0060994323285 -217.71978912963823 0 0 0 0 -28.013059685049015 46.498822136212937 0 46.498822136212937 -69.975722251820315 0 0 0 0 -1077.0667181150297 217.79789799570062 0 217.79789799570062 456.34358845024872 0 0 0 0 -557.82958296625793 977.18583443885655 0 977.18583443885655 748.91527769235836 0 0 0 0 -362.43496235641214 844.97612138290424 0 844.97612138290424 125.99130211577722 0 0 0 0 -503.49973266744928 740.61963335152905 0 740.61963335152905 -939.78193840591848 0 0 0 0 -2245.060966404094 2048.5126624350596 0 2048.5126624350596 1986.1258267848589 0 0 0 0 -84.893499385259929 204.32000677557153 0 204.32000677557153 468.03317531419452 0 0 0 0 -28.531602705763589 0.61534886591479676 0 0.61534886591479676 0.30797138764203424 0 0 0 0 -1473.7155171214436 823.17588551405061 0 823.17588551405061 437.79771033162251 0 0 0 0 1592.4073955809176 -749.73076748299354 0 -749.73076748299354 -958.56758422913845 0 0 0 0 -3411.2161281872482 -5349.1358750193176 0 -5349.1358750193176 -1511.7980463964632 0 0 0 0 -255.36618390110016 498.34089208845398 0 498.34089208845398 -109.47279689571587 0 0 0 0 140.4555342646272 -160.99198660653383 0 -160.99198660653383 -192.0781080765737 0 0 0 0 326.07317267074541 425.16542282953014 0 425.16542282953014 -370.5594002465823 0 0 0 0 537.78817494743271 347.91840045234858 0 347.91840045234858 -384.24607869595638 0 0 0 0 713.20238472001802 867.92691636864402 0 867.92691636864402 -171.52543946843889 0 0 0 0 602.01223843207663 1154.3839622761479 0 1154.3839622761479 533.25299485459595 0 0 0 0 119.10090098002183 184.23433596595714 0 184.23433596595714 79.021139647913515 0 0 0 0 -46.837529171597467 53.317158028935026 0 53.317158028935026 -53.776482828882436 0 0 0 0 358.53141176383542 344.12536676135733 0 344.12536676135733 -637.56785029359162 0 0 0 0 -441.59096303914885 -34.110264056172582 0 -34.110264056172582 -111.79958221624111 0 0 0 0 2.5473153620019175 6.762906516512615 0 6.762906516512615 -8.9005001396209664 0 0 0 0 126.19490747440068 432.90165988398621 0 432.90165988398621 812.85112789277446 0 0 0 0 -133.97862173328758 15.368858273759542 0 15.368858273759542 36.484171469783178 0 0 0 0 -123.67924341049365 24.624312182546419 0 24.624312182546419 31.072065012282053 0 0 0 0 -234.54140455634479 24.200564527145616 0 24.200564527145616 31.070515226332134 0 0 0 0 -118.89864428800502 -40.429515547941264 0 -40.429515547941264 -31.963164181419415 0 0 0 0 -130.82777163400897 7.6161915580451023 0 7.6161915580451023 39.25171052308724 0 0 0 0 42.038529783609192 48.895883663751874 0 48.895883663751874 366.18185094163709 0 0 0 0 -87.820840867578227 20.164636827732465 0 20.164636827732465 7.92090830795496 0 0 0 0 -9.4224164808754978 9.4795180390373908 0 9.4795180390373908 6.573958451584744 0 0 0 0 -30.437021636343431 33.502252849737907 0 33.502252849737907 34.205051523112793 0 0 0 0 -124.14494860410196 7.0711841521006136 0 7.0711841521006136 39.293543598995711 0 0 0 0 21.236196244783059 214.94749982013309 0 214.94749982013309 22.511906559724594 0 0 0 0 -16.931795029276145 233.06044551755258 0 233.06044551755258 86.135161137688556 0 0 0 0 -114.13135651208358 18.943692051983817 0 18.943692051983817 31.869065393737401 0 0 0 0 -23.107320645002542 84.629329217420462 0 84.629329217420462 65.327710733546468 0 0 0 0 -167.7248413017478 182.53756148380489 0 182.53756148380489 236.91174948193657 0 0 0 0 -116.65383244546683 12.30899046425111 0 12.30899046425111 37.002254937264297 0 0 0 0 13.507133188082662 96.910759468808465 0 96.910759468808465 57.166804236803728 0 0 0 0 19.570940539206859 82.804122161291261 0 82.804122161291261 44.675755648396269 0 0 0 0 -81.047192986428399 45.997380156748477 0 45.997380156748477 39.961425200133817 0 0 0 0 -81.071113813450211 114.22571302471624 0 114.22571302471624 181.70214837450476 0 0 0 0 -41.146717353851272 60.204733545584531 0 60.204733545584531 60.88858319575229 0 0 0 0 -30.678271766959618 72.345207007377013 0 72.345207007377013 45.472277050243513 0 0 0 0 -55.516426522609983 63.777403443736873 0 63.777403443736873 80.26451455979813 0 0 0 0 -82.468494613807252 -18.07890278701052 0 -18.07890278701052 36.173560134033323 0 0 0 0 -11.693578256086749 14.570024509737202 0 14.570024509737202 6.3590563336645118 0 0 0 0 -19.689443219487657 123.41299892235838 0 123.41299892235838 -46.543980094516883 0 0 0 0 -36.24104068759334 153.85985264534247 0 153.85985264534247 -31.809135372837773 0 0 0 0 -40.802217930880488 108.08983434362199 0 108.08983434362199 100.07927724480396 0 0 0 0 -53.302662691232399 122.79125610386836 0 122.79125610386836 104.229658742639 0 0 0 0 -44.258464016937069 88.627524628216634 0 88.627524628216634 146.47524891945068 0 0 0 0 -6.0479239976630197 73.655262817890616 0 73.655262817890616 78.550693504046649 0 0 0 0 8.2750611058927461 159.19325672455307 0 159.19325672455307 230.09121952345595 0 0 0 0 -185.21397149779659 144.19372245152772 0 144.19372245152772 50.787732947543191 0 0 0 0 -82.830755666920027 12.215226185961015 0 12.215226185961015 22.273473207235828 0 0 0 0 -65.275094443477428 170.61479490363854 0 170.61479490363854 256.58182459145246 0 0 0 0 -96.623144935258097 142.9928775022272 0 142.9928775022272 -62.758025797302253 0 0 0 0 -911.90306074230966 -181.04398468870568 0 -181.04398468870568 -206.71861231109506 0 0 0 0 -280.82848595259384 211.76284784439486 0 211.76284784439486 -79.437305891386131 0 0 0 0 -36.346321104982053 153.20898775065871 0 153.20898775065871 -32.356403493766265 0 0 0 0 -72.857490243433858 186.47383875839296 0 186.47383875839296 -5.4031304920645198 0 0 0 0 -17.897815869870101 148.39366023262846 0 148.39366023262846 -80.832746772837709 0 0 0 0 -148.34658066072734 43.589163402775739 0 43.589163402775739 -222.99758645208203 0 0 0 0 -32.808150272925559 179.84645409445511 0 179.84645409445511 -67.569607958364941 0 0 0 0 81.118201675923046 235.72525810419756 0 235.72525810419756 -448.02628542575258 0 0 0 0 29.78578553047555 332.1611216757301 0 332.1611216757301 -83.118885596821201 0 0 0 0 -79.897303831363388 248.56208541832893 0 248.56208541832893 -135.55873547350711 0 0 0 0 -161.70172706923404 187.36649720217247 0 187.36649720217247 8.7975101004340104 0 0 0 0 -0.37593562170206951 23.844218976725724 0 23.844218976725724 80.534828807934957 0 0 0 0 -79.952492659973359 207.29080014923966 0 207.29080014923966 -5.0015746403078083 0 0 0 0 6.0555963376245927 22.241322809379199 0 22.241322809379199 60.159987240142073 0 0 0 0 -18.792086741638968 14.743237638842174 0 14.743237638842174 66.922326239186077 0 0 0 0 -14.657076677875011 5.2708315518175368 0 5.2708315518175368 143.30621981373406 0 0 0 0 8.3323000263844733 63.29357455641366 0 63.29357455641366 -115.17612970293112 0 0 0 0 13.15660385789306 62.172182019720822 0 62.172182019720822 115.4269718448154 0 0 0 0 1.1288727337634725 2.4803319210720716 0 2.4803319210720716 13.789267045004999 0 0 0 0 -1.9309830629198359 29.256036850223786 0 29.256036850223786 41.581850980745735 0 0 0 0 -3.71336411498487 36.544350131225656 0 36.544350131225656 7.0356072903323366 0 0 0 0 0.21185155757599183 63.442217540972294 0 63.442217540972294 38.045876515307668 0 0 0 0 77.59789345311583 -0.15478626035474008 0 -0.15478626035474008 22.476175241208466 0 0 0 0 130.21224206023908 166.36495468603061 0 166.36495468603061 -16.028757576288626 0 0 0 0 3.6447361302282459 60.394970632734825 0 60.394970632734825 46.050364529177045 0 0 0 0 2.7704571029504876 39.422925494916484 0 39.422925494916484 66.756994063024266 0 0 0 0 -87.669664427323369 99.578520014270907 0 99.578520014270907 111.73744916074793 0 0 0 0 18.34242678731971 64.201627934853605 0 64.201627934853605 123.54175620831666 0 0 0 0 -79.966073070303537 137.58159304618312 0 137.58159304618312 156.36498213434243 0 0 0 0 157.37534453971057 714.2286117074018 0 714.2286117074018 972.04873494218191 0 0 0 0 313.36488458870008 37.690593256898865 0 37.690593256898865 -61.24704503864632 0 0 0 0 603.58975613828443 442.49959150870018 0 442.49959150870018 171.85605448037677 0 0 0 0 2.913827945885572 2.0405162738706011 0 2.0405162738706011 2.7852901256948499 0 0 0 0 281.36655792591046 568.06005316461778 0 568.06005316461778 1002.6149957585767 0 0 0 0 -11.426387400985931 -1.5681663765916483 0 -1.5681663765916483 44.040453482177369 0 0 0 0 24.820505884417798 34.222456760820933 0 34.222456760820933 236.40765135002493 0 0 0 0 -10.229472925453592 59.722608573191337 0 59.722608573191337 240.69483109800785 0 0 0 0 38.075332009233534 36.112504998691293 0 36.112504998691293 -302.74644388652314 0 0 0 0 -9.9187571295871493 15.493089679353837 0 15.493089679353837 -3.3032617701095859 0 0 0 0 13.122534424481273 -119.96188103624263 0 -119.96188103624263 71.890388177931527 0 0 0 0 0.32484322745615657 -0.16181949655698702 0 -0.16181949655698702 -0.68144437633914556 0 0 0 0 12.430893911107773 172.93407201219202 0 172.93407201219202 74.6327965506498 0 0 0 0 56.50516610600971 136.8862104415366 0 136.8862104415366 -75.060616079921601 0 0 0 0 -26.267724223216646 149.35211863748191 0 149.35211863748191 184.80790400502883 0 0 0 0 22.052398937066755 97.460852066567895 0 97.460852066567895 49.873137845643214 0 0 0 0 28.640656716764624 20.8660235497332 0 20.8660235497332 -336.58874342268609 0 0 0 0 -4.1287849456800956 3.3033134915366631 0 3.3033134915366631 -3.3831271866520183 0 0 0 0 -524.89017816072737 -17.666725154549567 0 -17.666725154549567 12.185341006203089 0 0 0 0 -172.79170673804765 481.7587719784442 0 481.7587719784442 -618.80490304900468 0 0 0 0 34.513333049086214 102.94526056494033 0 102.94526056494033 -519.66785058876121 0 0 0 0 37.637125282220609 32.6119138606295 0 32.6119138606295 -307.8648478280702 0 0 0 0 -58.609910590366781 264.20932643747074 0 264.20932643747074 -204.46319247115025 0 0 0 0 20.421094248144072 150.14520025432648 0 150.14520025432648 -411.04812209514785 0 0 0 0 21.743598168599419 21.548014052536018 0 21.548014052536018 -269.04241767673739 0 0 0 0 19.16605634433472 114.58358459604324 0 114.58358459604324 -163.82436081560445 0 0 0 0 34.28139447443391 167.38450572799775 0 167.38450572799775 -206.5574504572287 0 0 0 0 -26.329771037271712 260.93016009095481 0 260.93016009095481 106.56549767083197 0 0 0 0 -19.135045576195353 231.56071317034321 0 231.56071317034321 -14.966673495928262 0 0 0 0 -71.867805584595772 260.69748954179886 0 260.69748954179886 -31.055399185481292 0 0 0 0 -79.563422224584428 304.07706090060128 0 304.07706090060128 -236.39784957817756 0 0 0 0 -404.08142285310532 393.29673042092327 0 393.29673042092327 68.266826329549076 0 0 0 0 356.4933434961913 152.37306024838699 0 152.37306024838699 -27.295564400556032 0 0 0 0 3.0526373812027039 10.510437754987649 0 10.510437754987649 -0.70156687139283491 0 0 0 0 -135.3553981531868 123.73238499678291 0 123.73238499678291 4.8224649426774704 0 0 0 0 19.128177736129146 253.29740255970682 0 253.29740255970682 113.47630561496044 0 0 0 0 -87.131083608313929 250.39394487442769 0 250.39394487442769 334.38085114924979 0 0 0 0 125.41907374985749 362.06068659370612 0 362.06068659370612 229.22396263490555 0 0 0 0 3.3424175330878825 76.395480780537582 0 76.395480780537582 -92.061948686867254 0 0 0 0 11.693244867341491 172.71047078270749 0 172.71047078270749 -2.5325548400614935 0 0 0 0 63.179324932338204 136.40890989476247 0 136.40890989476247 -128.15187060426706 0 0 0 0 -16.793209031226979 137.57802557514196 0 137.57802557514196 78.585957595882064 0 0 0 0 117.64076731479872 202.87663816824897 0 202.87663816824897 23.335297699606599 0 0 0 0 52.887789898411938 266.34229219696772 0 266.34229219696772 110.95027833231507 0 0 0 0 77.039152174002083 220.09498722093304 0 220.09498722093304 -31.97607937434077 0 0 0 0 205.20442835900758 292.49101608958154 0 292.49101608958154 76.256267462607866 0 0 0 0 -1520.6996329072463 -0.55634559569989506 0 -0.55634559569989506 143.47581693931079 0 0 0 0 167.81792782206685 292.85512743056188 0 292.85512743056188 232.51019609579453 0 0 0 0 255.26237297991247 494.37455184632063 0 494.37455184632063 302.66504240596987 0 0 0 0 458.62343960819999 545.29054460351108 0 545.29054460351108 202.29211514405506 0 0 0 0 188.10861633473542 348.3413871116245 0 348.3413871116245 112.1405209219879 0 0 0 0 229.31175882424577 338.08048921528643 0 338.08048921528643 70.435728308446414 0 0 0 0 -86.647683409850288 295.57264079703964 0 295.57264079703964 54.131985714790062 0 0 0 0 -20.402563680014282 227.5762312056504 0 227.5762312056504 164.89835253495403 0 0 0 0 5.2336641138463165 35.543905141676078 0 35.543905141676078 -302.51923542624718 0 0 0 0 -1.9535622154837782 2.5851452462489419 0 2.5851452462489419 3.5902019669636118 0 0 0 0 -33.676552571887896 72.816704615389696 0 72.816704615389696 46.119424324801763 0 0 0 0 -1569.1374247232034 -351.41106865510687 0 -351.41106865510687 26.220937044410675 0 0 0 0 778.56542932324191 378.30774188135911 0 378.30774188135911 7.6666627203812823 0 0 0 0 472.97100596215751 84.764233894326026 0 84.764233894326026 95.084869203963535 0 0 0 0 406.96208024499174 239.81053317000988 0 239.81053317000988 145.0381390675102 0 0 0 0 458.48838133184955 331.16645009894455 0 331.16645009894455 125.97390413710673 0 0 0 0 192.99358912919706 286.01934679477745 0 286.01934679477745 195.44950331823566 0 0 0 0 192.45359174769692 279.26336440203158 0 279.26336440203158 179.91073711784338 0 0 0 0 35.813690559029055 302.9386629830733 0 302.9386629830733 74.996008980195256 0 0 0 0 32.591601214488037 298.83618087175546 0 298.83618087175546 228.76463338716894 0 0 0 0 51.925394484329445 298.18990709638274 0 298.18990709638274 206.35466240358164 0 0 0 0 165.19019648212998 224.19359472953329 0 224.19359472953329 158.88482537187519 0 0 0 0 125.99710636032614 153.66255072778222 0 153.66255072778222 80.971787264385057 0 0 0 0 163.20197602172266 221.0324368986885 0 221.0324368986885 157.91045392880551 0 0 0 0 59.907490162426257 197.77554415463601 0 197.77554415463601 153.65943041048467 0 0 0 0 0.19863103233365109 249.48343486140584 0 249.48343486140584 219.42674335133415 0 0 0 0 24.138389870921856 232.98810860412209 0 232.98810860412209 227.62328014276864 0 0 0 0 -24.748246600669518 181.54097874940271 0 181.54097874940271 181.42098568297297 0 0 0 0 41.365640888658163 180.46887964306416 0 180.46887964306416 148.50369511464669 0 0 0 0 42.260292209859472 171.30217549107692 0 171.30217549107692 151.09795162562932 0 0 0 0 -32.546786410323506 76.179572549387785 0 76.179572549387785 30.665880009576441 0 0 0 0 112.09099741281898 123.19116865878641 0 123.19116865878641 115.45121267450941 0 0 0 0 -1231.9405476209213 -156.86132051551704 0 -156.86132051551704 -59.70053732877841 0 0 0 0 -2.6180595477246982 4.6124944601319271 0 4.6124944601319271 9.0706101715176501 0 0 0 0 -277.07653232864413 8.1642651503639172 0 8.1642651503639172 -20.306119435241271 0 0 0 0 -247.11294831368104 203.01144953948369 0 203.01144953948369 37.3333145109209 0 0 0 0 -1231.242120881976 -149.80626866577768 0 -149.80626866577768 -17.146734798232501 0 0 0 0 272.1395661495626 73.750541555587915 0 73.750541555587915 112.7769548155029 0 0 0 0 -202.63228994230303 327.03243171943086 0 327.03243171943086 293.295308678742 0 0 0 0 -171.30475336287782 238.24077420591584 0 238.24077420591584 169.49485900930449 0 0 0 0 -126.55821935327913 372.79997903178628 0 372.79997903178628 84.68505893544534 0 0 0 0 -18.184731458237366 282.27538069762068 0 282.27538069762068 241.85782872231312 0 0 0 0 -78.206101434019729 283.84668138860616 0 283.84668138860616 243.05397846519372 0 0 0 0 -112.02583387885625 251.69693800922914 0 251.69693800922914 261.57456906277002 0 0 0 0 -32.92615407082485 194.06472613467486 0 194.06472613467486 302.60043027292977 0 0 0 0 -127.98820800454087 172.1354296064253 0 172.1354296064253 435.77211870800602 0 0 0 0 -50.012010709971946 114.92331926341831 0 114.92331926341831 344.00155025961249 0 0 0 0 -31.984451967304267 43.424313273726057 0 43.424313273726057 177.63577171805809 0 0 0 0 -56.544106156194175 45.253162072713621 0 45.253162072713621 433.77808726226431 0 0 0 0 0.10644135691460122 1.1434927722094375 0 1.1434927722094375 1.892180762078457 0 0 0 0 -23.454193487900397 47.371426867866646 0 47.371426867866646 -227.44075446242914 0 0 0 0 -22.717272644476907 62.286110230443228 0 62.286110230443228 -22.996232049156106 0 0 0 0 -434.17903371811371 216.31903149781988 0 216.31903149781988 45.016519130314009 0 0 0 0 -459.18377125597362 119.24014715480007 0 119.24014715480007 -48.668403127815054 0 0 0 0 -19.241722259534999 9.0185994345942504 0 9.0185994345942504 16.089316358584774 0 0 0 0 -850.78169972680917 -152.82748268755859 0 -152.82748268755859 -34.504453490299056 0 0 0 0 -857.36213596389643 -211.2839316867412 0 -211.2839316867412 -42.960929835905063 0 0 0 0 -121.08460618498793 287.70113452972328 0 287.70113452972328 132.73347489880689 0 0 0 0 142.81183825110202 287.79863103288881 0 287.79863103288881 -198.57131051410397 0 0 0 0 41.48207184925559 -17.851712513926032 0 -17.851712513926032 -301.03314563256572 0 0 0 0 -88.6506301358786 -2.0789559717168231 0 -2.0789559717168231 60.721902690218485 0 0 0 0 17.199667476314062 66.896041387524747 0 66.896041387524747 48.724363204799374 0 0 0 0 80.86051242560643 104.11777255867855 0 104.11777255867855 33.888401087482634 0 0 0 0 13.391482525679749 32.048592624541925 0 32.048592624541925 -16.105450557017321 0 0 0 0 35.662130377830181 114.38275414068949 0 114.38275414068949 110.23033824135928 0 0 0 0 15.496877238147135 133.57435462680951 0 133.57435462680951 97.91931326678241 0 0 0 0 -22.85665685802087 -19.535351175416508 0 -19.535351175416508 9.3326243477795288 0 0 0 0 -31.845340271327586 35.464417610817691 0 35.464417610817691 64.841902332579593 0 0 0 0 -55.118427889319719 55.787977291249263 0 55.787977291249263 52.248634416890582 0 0 0 0 -13.188615315935749 74.701217957489916 0 74.701217957489916 -7.4039551451242005 0 0 0 0 -7.5029692111208988 14.003026993296164 0 14.003026993296164 5.5702859152306505 0 0 0 0 -626.70142601904081 -172.35727228597534 0 -172.35727228597534 -46.885620273576933 0 0 0 0 -38.391990513420296 76.90057974992456 0 76.90057974992456 12.05018377561975 0 0 0 0 -282.61576871616489 -211.80634810622087 0 -211.80634810622087 273.26694671119185 0 0 0 0 1180.3084785536048 153.15335350947498 0 153.15335350947498 -225.65302867711944 0 0 0 0 -907.69100002299456 -168.43729103961778 0 -168.43729103961778 -8.6931366841890849 0 0 0 0 -363.68411630611081 262.39845073905053 0 262.39845073905053 647.08660992473779 0 0 0 0 -15.865034888859304 11.682710196575293 0 11.682710196575293 5.8866339550506552 0 0 0 0 939.23396683263127 583.95566519571366 0 583.95566519571366 998.36918388072627 0 0 0 0 -158.18258335972155 24.050956269753062 0 24.050956269753062 45.478989222986492 0 0 0 0 -902.27521515637636 -113.4705629649925 0 -113.4705629649925 -2.8754025991784147 0 0 0 0 98.146545882795181 41.993836066279982 0 41.993836066279982 143.64233123875601 0 0 0 0 224.42942974912148 -170.22456577288676 0 -170.22456577288676 31.377397227406618 0 0 0 0 828.40200712652586 162.73706664408746 0 162.73706664408746 88.641183790095965 0 0 0 0 1099.2910684640665 69.662289909916581 0 69.662289909916581 -62.460584663363989 0 0 0 0 296.70174339911318 -449.35380156581232 0 -449.35380156581232 -106.23293612344423 0 0 0 0 446.28947295987746 -312.29824804591408 0 -312.29824804591408 -260.98618066094059 0 0 0 0 1206.4448402196431 958.73771877378022 0 958.73771877378022 453.54645336126487 0 0 0 0 956.69743759169069 209.4081570733324 0 209.4081570733324 -60.072987781541087 0 0 0 0 1720.9229251173456 771.27337719331081 0 771.27337719331081 165.52045798244944 0 0 0 0 897.27203974874101 927.40552732903961 0 927.40552732903961 572.87660187624351 0 0 0 0 1480.3951825032582 1416.8775909183587 0 1416.8775909183587 774.28204547461064 0 0 0 0 1271.2406555125854 755.14837989762054 0 755.14837989762054 141.39162768942333 0 0 0 0 692.07679296655988 351.54860437563548 0 351.54860437563548 94.660784964951745 0 0 0 0 487.34977011238516 466.3500501485596 0 466.3500501485596 127.20927783248521 0 0 0 0 560.68986537812452 342.67689088975385 0 342.67689088975385 -52.585421189840417 0 0 0 0 621.73701191063446 450.97172352557209 0 450.97172352557209 60.60224847626705 0 0 0 0 125.00762403233421 402.31811639648367 0 402.31811639648367 77.11474451860704 0 0 0 0 846.57587485402291 814.93680334942565 0 814.93680334942565 275.45881812586231 0 0 0 0 54.831244838707789 41.304149566210981 0 41.304149566210981 -135.96669358041254 0 0 0 0 47.32043566080074 116.57405585300285 0 116.57405585300285 40.411643315652327 0 0 0 0 709.35663162332639 758.25315614698229 0 758.25315614698229 408.0474920791421 0 0 0 0 616.32558849494671 759.9981882819684 0 759.9981882819684 458.91749524948136 0 0 0 0 587.41690745493088 969.25258801128257 0 969.25258801128257 1015.6077835452506 0 0 0 0 870.63296102522872 804.4751401108424 0 804.4751401108424 277.37350276741927 0 0 0 0 793.06881592502145 1122.2960323099558 0 1122.2960323099558 890.85415436105905 0 0 0 0 301.20203460533776 665.99999849422329 0 665.99999849422329 968.23201726590378 0 0 0 0 355.65677240379046 623.90144907116155 0 623.90144907116155 887.00334249338812 0 0 0 0 443.04000144041129 741.57823142405869 0 741.57823142405869 529.94116848714475 0 0 0 0 618.52562728919838 919.17706796529365 0 919.17706796529365 681.48193120241649 0 0 0 0 587.6446528382512 631.49549719439892 0 631.49549719439892 587.11701350718795 0 0 0 0 607.06279583241667 643.3748678996426 0 643.3748678996426 346.2476658899177 0 0 0 0 618.54017290222691 301.12303384930055 0 301.12303384930055 823.68793083063838 0 0 0 0 530.97069841849225 510.83981225614934 0 510.83981225614934 344.47746717585687 0 0 0 0 929.38369530242107 489.12229521978043 0 489.12229521978043 345.55134939871641 0 0 0 0 675.65489034449274 710.13028945809674 0 710.13028945809674 470.76476588980404 0 0 0 0 398.32393457765465 484.77496634134332 0 484.77496634134332 405.97902723890365 0 0 0 0 433.81387918227119 519.62208273397118 0 519.62208273397118 336.2216601141663 0 0 0 0 454.77102566663962 442.78822166516329 0 442.78822166516329 163.9222794336747 0 0 0 0 -246.10577121068491 -67.995576290404642 0 -67.995576290404642 -35.38742823395296 0 0 0 0 -3.8046960157730609 2.1220769657158751 0 2.1220769657158751 1.8463461673004815 0 0 0 0 -310.12093090298731 -41.554584165195593 0 -41.554584165195593 20.786759573828022 0 0 0 0 -465.0041368928687 -85.565712053094103 0 -85.565712053094103 54.789936161019796 0 0 0 0 413.95797213273545 377.62066170567687 0 377.62066170567687 228.91425138253544 0 0 0 0 291.97802571145075 506.8040105750606 0 506.8040105750606 236.81595725717852 0 0 0 0 508.21779448764937 505.3402980220344 0 505.3402980220344 261.88188788941989 0 0 0 0 -122.58919724442239 -3.3978135577631292 0 -3.3978135577631292 1695.3126468199844 0 0 0 0 370.23615451442311 264.85190551482538 0 264.85190551482538 12.482268838862751 0 0 0 0 5.0082652778441741 4.8881104411925946 0 4.8881104411925946 5.9685174610963685 0 0 0 0 353.13872247722611 809.83955522219003 0 809.83955522219003 1298.4259065350016 0 0 0 0 217.33392369744615 69.835499102352514 0 69.835499102352514 -29.009867538490653 0 0 0 0 0.54155536500911694 109.08293271610546 0 109.08293271610546 248.9363973220843 0 0 0 0 -26.420711018101429 -112.25384127384859 0 -112.25384127384859 88.827569206068802 0 0 0 0 -101.36327582690865 2.8806614142777107 0 2.8806614142777107 25.216645125075956 0 0 0 0 -37.624991455159034 145.67331295140775 0 145.67331295140775 101.6166941741244 0 0 0 0 11.336546979729206 14.009791078111149 0 14.009791078111149 12.559225771767721 0 0 0 0 10.592393088946835 10.820050442898431 0 10.820050442898431 2.7477479689514963 0 0 0 0 93.208363512123469 28.490642683642363 0 28.490642683642363 -166.29784133148132 0 0 0 0 -33.014692874305183 -13.072685019807068 0 -13.072685019807068 23.416999649285117 0 0 0 0 22.367879637233273 -2.7902998374809158 0 -2.7902998374809158 127.26671814504334 0 0 0 0 92.061479814292397 112.18593835760748 0 112.18593835760748 87.914129322779445 0 0 0 0 39.44646323613415 120.0394038648401 0 120.0394038648401 316.70635674050254 0 0 0 0 -50.815165588093805 -34.207896423048624 0 -34.207896423048624 379.70437014148047 0 0 0 0 74.135745710591436 130.90938138553247 0 130.90938138553247 94.57030367228208 0 0 0 0 10.666991459598648 49.161160296822345 0 49.161160296822345 285.81735392432893 0 0 0 0 -95.741114329386619 72.575766355756059 0 72.575766355756059 847.96626310444663 0 0 0 0 -6.2748758492234629 500.9214274015203 0 500.9214274015203 1079.0115105210766 0 0 0 0 -19.274689268582733 128.4515652173136 0 128.4515652173136 567.21108275081497 0 0 0 0 11.183401184855029 331.21943590667615 0 331.21943590667615 525.54861419216218 0 0 0 0 109.01647416582273 466.79280048990131 0 466.79280048990131 687.14194160193074 0 0 0 0 218.16905264696697 607.3219237010627 0 607.3219237010627 566.25152012780927 0 0 0 0 225.47371055099211 801.74679190779216 0 801.74679190779216 906.29793446464464 0 0 0 0 52.986467791051837 667.44179971640324 0 667.44179971640324 807.30849491070421 0 0 0 0 103.64556219150836 934.79069540777664 0 934.79069540777664 980.50795629794766 0 0 0 0 219.8591392891758 679.77890147908283 0 679.77890147908283 1071.7161803489189 0 0 0 0 38.871625365438376 711.69442135414215 0 711.69442135414215 1141.3053112109938 0 0 0 0 246.71322216340195 904.23027510128213 0 904.23027510128213 1312.8098899390261 0 0 0 0 0.061981847145943902 370.63358864276279 0 370.63358864276279 1813.4199537081272 0 0 0 0 564.10601573470194 654.4235496033441 0 654.4235496033441 1027.8809776600829 0 0 0 0 0.18702437882166123 878.29535662707281 0 878.29535662707281 929.40108767034758 0 0 0 0 23.106075630562373 727.45548445636121 0 727.45548445636121 724.395360821748 0 0 0 0 135.69750118894626 1164.9504025361332 0 1164.9504025361332 792.86270402563559 0 0 0 0 -399.46102279011393 585.36485948769518 0 585.36485948769518 752.0145216969205 0 0 0 0 -0.17058094788808376 718.08454907381429 0 718.08454907381429 159.12082191191922 0 0 0 0 -323.1507125866774 1075.0576175155311 0 1075.0576175155311 889.31728845396674 0 0 0 0 -188.5185152930344 471.11490949145707 0 471.11490949145707 -90.839366946121402 0 0 0 0 -177.91987412871913 601.96616854695048 0 601.96616854695048 93.623561649094995 0 0 0 0 1272.0549193360566 933.21966552454637 0 933.21966552454637 381.47803194564472 0 0 0 0 -0.14600998919751973 6.8820850283939734 0 6.8820850283939734 6.7608203328271852 0 0 0 0 -1679.6433867790838 328.73061324399828 0 328.73061324399828 489.70627265230257 0 0 0 0 792.40499390027253 1279.6754161352014 0 1279.6754161352014 1121.6727897993003 0 0 0 0 2179.2784818249761 1507.1061907010398 0 1507.1061907010398 551.2952795885044 0 0 0 0 363.88412335647445 870.43335553979682 0 870.43335553979682 811.7055590438913 0 0 0 0 400.71818504660041 968.7714103662106 0 968.7714103662106 779.8707922868025 0 0 0 0 151.86302279318625 905.69092436012306 0 905.69092436012306 769.96886881911178 0 0 0 0 565.81138821627246 822.53381849074981 0 822.53381849074981 618.91110598217892 0 0 0 0 266.78410599051858 666.74658300508008 0 666.74658300508008 632.6062852540033 0 0 0 0 345.91070926011889 444.90710417089531 0 444.90710417089531 387.31252845932022 0 0 0 0 412.64235732307861 575.17005878450823 0 575.17005878450823 495.94674229006841 0 0 0 0 271.68016247368359 320.42412658194417 0 320.42412658194417 307.82982507209636 0 0 0 0 536.74095549422782 545.83469918970923 0 545.83469918970923 361.67723093592031 0 0 0 0 478.48769692835049 574.60906071547493 0 574.60906071547493 363.69956534734496 0 0 0 0 549.54777529263811 798.66954831150485 0 798.66954831150485 657.96569648321076 0 0 0 0 433.05365422717296 576.89220208301458 0 576.89220208301458 485.85420848463036 0 0 0 0 649.07339140920703 769.72196864139414 0 769.72196864139414 646.91283128360033 0 0 0 0 665.82176683167199 1093.3261041683986 0 1093.3261041683986 896.85156068465903 0 0 0 0 627.459111960874 966.064099850096 0 966.064099850096 488.55951116959068 0 0 0 0 709.03028702296433 866.53441455008442 0 866.53441455008442 595.3068558487721 0 0 0 0 891.9372009527724 1285.3768608307917 0 1285.3768608307917 1066.8465363571222 0 0 0 0 829.40957955036356 1110.8391998359334 0 1110.8391998359334 580.43489420939613 0 0 0 0 980.63318278707447 296.62057189729035 0 296.62057189729035 -433.17434215255798 0 0 0 0 1346.4028632492482 975.31504221695434 0 975.31504221695434 162.76212918711462 0 0 0 0 713.56834184531147 588.94292348687179 0 588.94292348687179 229.79694910197554 0 0 0 0 519.19028252796852 402.72206876523251 0 402.72206876523251 56.704852808533346 0 0 0 0 533.59718548264937 301.20547043561322 0 301.20547043561322 148.59456064144626 0 0 0 0 145.90145539496552 329.26332551106151 0 329.26332551106151 165.93951163034717 0 0 0 0 176.02864969192888 205.18697826332522 0 205.18697826332522 201.30479921919198 0 0 0 0 197.19077026696777 238.01522053396161 0 238.01522053396161 181.96153412760589 0 0 0 0 190.27960435940713 304.37505258086253 0 304.37505258086253 272.18716456945822 0 0 0 0 332.64920232734585 287.18104869260401 0 287.18104869260401 181.22998141237963 0 0 0 0 284.94966230895079 346.93510675687116 0 346.93510675687116 284.4687975897362 0 0 0 0 252.40316581012667 347.73820252834525 0 347.73820252834525 274.8861405954367 0 0 0 0 155.59306508020381 140.94260168762366 0 140.94260168762366 140.52236843565424 0 0 0 0 144.11210710756131 273.4239275844709 0 273.4239275844709 239.18885910019299 0 0 0 0 -15.871281517618627 31.518986776508086 0 31.518986776508086 59.982137948346463 0 0 0 0 119.52906412865559 140.75622537697436 0 140.75622537697436 108.96030478200555 0 0 0 0 59.085933270129317 178.64395259049832 0 178.64395259049832 144.34520356707799 0 0 0 0 12.56542466780229 36.872705359721749 0 36.872705359721749 75.881685958149319 0 0 0 0 -71.189106696983799 63.049316663978061 0 63.049316663978061 100.42090905725127 0 0 0 0 -28.261256072044489 1.295945612374453 0 1.295945612374453 5.6945670428849553 0 0 0 0 26.788339161823387 47.602796743922227 0 47.602796743922227 98.512805353227805 0 0 0 0 -7.9531937207793817 98.480764905265119 0 98.480764905265119 26.813790327647439 0 0 0 0 120.04715641181974 186.76617702650992 0 186.76617702650992 144.12336548070675 0 0 0 0 106.07676408564294 158.88591043721203 0 158.88591043721203 218.2445611072535 0 0 0 0 267.00465690058627 304.06404375210468 0 304.06404375210468 250.36604558185718 0 0 0 0 125.5942513691698 342.27965415271865 0 342.27965415271865 459.97980529300276 0 0 0 0 135.45904043045084 270.77862420948497 0 270.77862420948497 335.93376266896848 0 0 0 0 159.63783103194146 270.54483871447565 0 270.54483871447565 322.75834660986675 0 0 0 0 118.40805409445602 147.71572424970327 0 147.71572424970327 105.21269954999752 0 0 0 0 36.864175306691322 139.79258306622887 0 139.79258306622887 238.63614767396865 0 0 0 0 20.370604161122174 25.817991374476151 0 25.817991374476151 75.853747257613577 0 0 0 0 118.98216156401759 75.602052665824885 0 75.602052665824885 15.736113413457133 0 0 0 0 5.7827079462294932 62.774097414156131 0 62.774097414156131 236.08575036673346 0 0 0 0 106.32549004189787 152.36416883993797 0 152.36416883993797 205.13664870910907 0 0 0 0 4.672764978648047 104.53520327444767 0 104.53520327444767 31.045616276824148 0 0 0 0 15.172646270148107 49.125270404849289 0 49.125270404849289 18.60677655081264 0 0 0 0 6.221863148208115 8.934702808061612 0 8.934702808061612 -0.44513539937506907 0 0 0 0 40.698898998522054 -36.757590410794421 0 -36.757590410794421 -127.97558786808804 0 0 0 0 -15.0277786085353 -44.959813339406537 0 -44.959813339406537 -47.361288803440402 0 0 0 0 -15.489118337914988 -20.613765817516651 0 -20.613765817516651 -100.97386010647278 0 0 0 0 -0.60254070849947539 12.845655565250411 0 12.845655565250411 -4.7338905164269871 0 0 0 0 -177.02186769937543 28.34410925734187 0 28.34410925734187 29.198763868225797 0 0 0 0 -9.173668589533662 7.8926131433011903 0 7.8926131433011903 0.55412214553439298 0 0 0 0 -78.544838540110504 -43.081823503073792 0 -43.081823503073792 -66.044215557516509 0 0 0 0 -73.312407786961813 48.40455648647125 0 48.40455648647125 -0.84445182222688731 0 0 0 0 -34.782724329881603 26.747929860716795 0 26.747929860716795 -119.90013666472896 0 0 0 0 -159.64694100241195 49.197150068066549 0 49.197150068066549 14.893490934759029 0 0 0 0 36.135352877274272 51.763196997949308 0 51.763196997949308 -3.5717847157520737 0 0 0 0 -25.28939996202098 -9.4459917115773351 0 -9.4459917115773351 6.6939959508326865 0 0 0 0 7.6121904504102123 46.135634441548817 0 46.135634441548817 25.983445105890802 0 0 0 0 41.06550276913913 38.72948641968469 0 38.72948641968469 8.8410842023477016 0 0 0 0 -170.91931976426986 -57.318163299427198 0 -57.318163299427198 0.54462262864944933 0 0 0 0 -40.846662956566433 -53.192383727357992 0 -53.192383727357992 -114.16525388675609 0 0 0 0 -14.18848098046216 35.854390595774888 0 35.854390595774888 7.0564907490339372 0 0 0 0 -268.12062360904747 -75.112363984325498 0 -75.112363984325498 13.288891700773092 0 0 0 0 -13.948888122380229 0.60569961837364872 0 0.60569961837364872 0.39169774721011308 0 0 0 0 -31.488056676490629 42.083711541252399 0 42.083711541252399 11.804759166959613 0 0 0 0 -66.018545794635429 40.770877958364963 0 40.770877958364963 16.60308855504627 0 0 0 0 -12.575414591683483 44.009384595379267 0 44.009384595379267 8.6963099815858076 0 0 0 0 -113.5318542511086 125.15637686011087 0 125.15637686011087 -5.9962718143870006 0 0 0 0 -225.80378326493155 149.36446914241674 0 149.36446914241674 29.158410109615943 0 0 0 0 53.69553929094792 54.714220419679336 0 54.714220419679336 -6.0240962811376315 0 0 0 0 113.44074706990887 20.743621479194864 0 20.743621479194864 62.30167439758452 0 0 0 0 7.9767673656533589 65.924182472738266 0 65.924182472738266 22.574459668328927 0 0 0 0 47.62843242701274 7.3162068543505541 0 7.3162068543505541 83.346591167057909 0 0 0 0 80.338337660563411 33.161645372773933 0 33.161645372773933 84.667013898908564 0 0 0 0 -25.576020828681067 168.64968842629605 0 168.64968842629605 380.79297931852921 0 0 0 0 202.57842024497222 -43.983512903061637 0 -43.983512903061637 253.94245712027691 0 0 0 0 53.261591165405662 18.027631138281087 0 18.027631138281087 107.31089885449535 0 0 0 0 37.599476028277422 17.643579975775253 0 17.643579975775253 144.89968398805104 0 0 0 0 43.036586477195954 47.876267982485395 0 47.876267982485395 -0.81497990586573077 0 0 0 0 47.326344719229951 11.819800928307448 0 11.819800928307448 48.00156712948592 0 0 0 0 7.1143633216270246 -21.536703876686374 0 -21.536703876686374 96.677534569774593 0 0 0 0 91.490109983238654 6.422913372609969 0 6.422913372609969 69.97124615532789 0 0 0 0 48.012511212655227 -25.885052423554043 0 -25.885052423554043 51.214083603534391 0 0 0 0 167.13721229325893 6.858965572466218 0 6.858965572466218 7.9924714755458126 0 0 0 0 -66.373448663871386 -11.357575741953326 0 -11.357575741953326 50.137631167462132 0 0 0 0 -54.791316809576529 46.516174915500187 0 46.516174915500187 -15.831493267748783 0 0 0 0 -85.532593207732134 36.925574805439282 0 36.925574805439282 -8.8755868294995253 0 0 0 0 -339.38309577525433 170.03281021547144 0 170.03281021547144 -59.670713194257132 0 0 0 0 2.6023195066045446 -94.428767390998473 0 -94.428767390998473 18.292607386514646 0 0 0 0 40.574710526358103 25.5498829682424 0 25.5498829682424 -23.645598503120482 0 0 0 0 -130.69474051771249 -5.126257104862816 0 -5.126257104862816 -3.3811917834555061 0 0 0 0 -3.4046076089169048 21.505743582261303 0 21.505743582261303 5.3065098559893951 0 0 0 0 257.06448667057703 100.08732667296317 0 100.08732667296317 111.29276908489271 0 0 0 0 244.90019151191154 -53.04007376333152 0 -53.04007376333152 -14.495047462690309 0 0 0 0 -25.241484010161003 26.880207944710946 0 26.880207944710946 8.8068226865016186 0 0 0 0 -14.415103353623508 39.808369422028832 0 39.808369422028832 11.7871509292479 0 0 0 0 -57.301917140472142 -15.059358056103292 0 -15.059358056103292 -4.9190506942122738 0 0 0 0 -218.8504183410223 -32.811570088624421 0 -32.811570088624421 53.384599738679754 0 0 0 0 -19.02758744468143 17.847305208276509 0 17.847305208276509 3.28462725800021 0 0 0 0 -149.10095630883006 16.236116955867146 0 16.236116955867146 22.210256728945296 0 0 0 0 -148.1189842094318 -58.286485229648861 0 -58.286485229648861 19.525632467945343 0 0 0 0 -45.917366967900307 80.490682184882644 0 80.490682184882644 -19.579672906183191 0 0 0 0 -234.44268990306591 9.9465187699147464 0 9.9465187699147464 91.323258067110146 0 0 0 0 -6.9947238164022565 -23.693538765793392 0 -23.693538765793392 -25.599634697482088 0 0 0 0 36.940460878890008 178.34901388528442 0 178.34901388528442 108.83178669895347 0 0 0 0 -373.89976702410058 -7.8839343690034269 0 -7.8839343690034269 -43.242461150091685 0 0 0 0 -34.189657557862283 -13.643528708551315 0 -13.643528708551315 -0.81422445779740293 0 0 0 0 -8.6317662238093007 19.94063388212146 0 19.94063388212146 4.08723966527341 0 0 0 0 -166.05538835855259 9.6950589578489144 0 9.6950589578489144 4.2350198929159433 0 0 0 0 -35.798705389483203 77.205445654467738 0 77.205445654467738 4.2217990354190249 0 0 0 0 728.47249015499983 150.47114726814686 0 150.47114726814686 -207.45446717121422 0 0 0 0 -4.9225561953298396 2.7333406624757401 0 2.7333406624757401 -0.62752997761435303 0 0 0 0 -3.9591197026603773 3.0905087216867173 0 3.0905087216867173 2.6865929699278519 0 0 0 0 -427.89990598175791 -56.364385927950138 0 -56.364385927950138 80.269311968628472 0 0 0 0 223.48788647564652 229.6743492837748 0 229.6743492837748 104.23381371708638 0 0 0 0 100.96276063744153 256.71124784615876 0 256.71124784615876 202.48580007003255 0 0 0 0 174.1003671985527 158.75735279192463 0 158.75735279192463 4.6828832674178358 0 0 0 0 150.18259576769196 256.58916800568869 0 256.58916800568869 193.53792454088011 0 0 0 0 82.605897180692409 179.4690507300952 0 179.4690507300952 159.84905387510025 0 0 0 0 104.76850826478039 243.07084767738309 0 243.07084767738309 248.89647064507471 0 0 0 0 96.452897346833197 274.41873581671229 0 274.41873581671229 204.79386178327536 0 0 0 0 167.9244145557459 295.81728333600319 0 295.81728333600319 178.55003324217114 0 0 0 0 137.79125827191456 305.32368187971417 0 305.32368187971417 195.47603440564671 0 0 0 0 81.875681366422214 274.81652485584254 0 274.81652485584254 200.44038436429548 0 0 0 0 -194.76845950214192 99.004773723548283 0 99.004773723548283 -34.681510151846851 0 0 0 0 -43.284344300083617 81.291464579506709 0 81.291464579506709 -1.796470171279579 0 0 0 0 -286.76447638099125 176.87428232241143 0 176.87428232241143 -20.990179392534174 0 0 0 0 -422.30247471220355 53.640675912890856 0 53.640675912890856 278.97211076980329 0 0 0 0 129.41972406625428 278.81259930914166 0 278.81259930914166 20.93153716296456 0 0 0 0 81.438846085533442 283.66761491586385 0 283.66761491586385 166.03430913200464 0 0 0 0 82.627977463045681 232.1516013688273 0 232.1516013688273 32.165811733765622 0 0 0 0 62.84714241954498 179.82193941580476 0 179.82193941580476 -42.125004874792467 0 0 0 0 152.19842234547832 265.00532339612641 0 265.00532339612641 -28.124007011333561 0 0 0 0 -814.84805811560727 120.86779535559037 0 120.86779535559037 435.54256474352951 0 0 0 0 -457.1775650179552 73.462769313887975 0 73.462769313887975 366.80616188489057 0 0 0 0 -43.691352646869397 82.335162284199555 0 82.335162284199555 -0.953101609660715 0 0 0 0 -403.77449175200309 265.0680826563605 0 265.0680826563605 287.99683196497404 0 0 0 0 133.2634809553565 240.92319688631483 0 240.92319688631483 -6.6326564611513277 0 0 0 0 -208.28780548679424 267.37461283078812 0 267.37461283078812 239.45634286458676 0 0 0 0 -160.3186839044065 139.92255653210952 0 139.92255653210952 215.06546753821698 0 0 0 0 614.24418435313237 545.20785747521938 0 545.20785747521938 -327.98077065574421 0 0 0 0 -1211.2173289928 -210.09959705070082 0 -210.09959705070082 159.82076606559247 0 0 0 0 -260.6810172404621 335.25551564917112 0 335.25551564917112 127.54219181685608 0 0 0 0 -1187.8963683960028 760.46326283428903 0 760.46326283428903 -50.657143889700137 0 0 0 0 -552.24722959614155 446.37571809258316 0 446.37571809258316 224.10947601107796 0 0 0 0 -555.49157170626131 -220.76297251625056 0 -220.76297251625056 -264.06214146567856 0 0 0 0 34.575932827094221 288.83892841394686 0 288.83892841394686 198.80205783846168 0 0 0 0 23.371395180387481 399.49252496231497 0 399.49252496231497 -889.51598819295691 0 0 0 0 463.5775295689964 -184.25822188036204 0 -184.25822188036204 -176.98513214618163 0 0 0 0 -2.451344580175828 22.281576510423371 0 22.281576510423371 4.4927493535988106 0 0 0 0 -2.2407243311468221 50.905633755632714 0 50.905633755632714 -171.00159747664202 0 0 0 0 193.60062697821195 -118.36440959075992 0 -118.36440959075992 -84.370697996154831 0 0 0 0 -858.06083195472456 456.80550215390042 0 456.80550215390042 -156.35122498978762 0 0 0 0 -157.81058689251222 -122.5175502424039 0 -122.5175502424039 -61.731631585423202 0 0 0 0 -143.3586567011007 251.17816621093448 0 251.17816621093448 -107.16003189830576 0 0 0 0 -149.58570124721518 286.69919560795813 0 286.69919560795813 -240.48478894215668 0 0 0 0 -35.230069431760057 235.5391103289619 0 235.5391103289619 -534.7634121276734 0 0 0 0 373.08017084740277 321.35404010490879 0 321.35404010490879 -528.53997635072653 0 0 0 0 -104.88821715446829 137.6977528819823 0 137.6977528819823 -406.3765376874843 0 0 0 0 -55.227177601620497 203.75708747220494 0 203.75708747220494 -318.5093837768045 0 0 0 0 -305.09984179724415 172.27897528048561 0 172.27897528048561 -393.31427437780724 0 0 0 0 -123.50162766022186 -88.509211119908969 0 -88.509211119908969 -699.65368069545093 0 0 0 0 56.06095618022664 10.328118848207509 0 10.328118848207509 -630.10502111421283 0 0 0 0 241.57627654500538 224.78317371589537 0 224.78317371589537 -540.20103889072629 0 0 0 0 -74.419676023055217 733.75912031559142 0 733.75912031559142 -520.21648711045918 0 0 0 0 1140.3067267858787 789.33972940572721 0 789.33972940572721 -518.369560983518 0 0 0 0 -9.5657621041398073 7.0002123224759671 0 7.0002123224759671 -3.2418688428187217 0 0 0 0 853.37670922343023 -357.19207566166693 0 -357.19207566166693 -211.81641845547983 0 0 0 0 -330.14088155230274 -58.582135670052594 0 -58.582135670052594 155.0185528633221 0 0 0 0 -608.76518805492378 964.53081398747781 0 964.53081398747781 -388.85703562487902 0 0 0 0 -713.07495435320016 868.26113125496022 0 868.26113125496022 -279.2535732395354 0 0 0 0 -372.45598195931962 40.287352013541977 0 40.287352013541977 1820.0310733261779 0 0 0 0 -404.42399887197826 1994.960484785895 0 1994.960484785895 554.91591949065992 0 0 0 0 -615.13959633017657 909.10017039679883 0 909.10017039679883 -504.19380110041766 0 0 0 0 -20.52531025781451 13.387379286269677 0 13.387379286269677 -1.5542039374762888 0 0 0 0 -32.19453812672873 392.98789389497597 0 392.98789389497597 488.0520984790337 0 0 0 0 -7.7734512446554334 3.8474556076657933 0 3.8474556076657933 -0.44427505288282765 0 0 0 0 605.99778508170493 754.62276862630756 0 754.62276862630756 1547.3315353657795 0 0 0 0 -168.07175144580833 260.72852014133514 0 260.72852014133514 595.18254016743185 0 0 0 0 -452.26604692767432 97.042121338589141 0 97.042121338589141 477.78159500831407 0 0 0 0 -253.18955734178599 43.054538421063626 0 43.054538421063626 345.52751830319357 0 0 0 0 37.951695281051798 224.95463475613087 0 224.95463475613087 288.5793629087666 0 0 0 0 -390.79983722123143 598.33845720314139 0 598.33845720314139 1812.0773369138178 0 0 0 0 106.10108090658468 -49.974618644614566 0 -49.974618644614566 -13.260313303069779 0 0 0 0 -17.938909253014316 12.833061817690151 0 12.833061817690151 -4.4760834014738311 0 0 0 0 -105.71502408311062 13.160702065686735 0 13.160702065686735 124.3632459159262 0 0 0 0 -74.001459966748371 631.69547894368031 0 631.69547894368031 1218.4208547448611 0 0 0 0 21.293664232081937 -58.93207489894462 0 -58.93207489894462 979.24821358535883 0 0 0 0 63.219366454097326 -63.075806009368307 0 -63.075806009368307 -212.71513646515814 0 0 0 0 -314.12182576987834 407.47162436203052 0 407.47162436203052 -796.24135130935724 0 0 0 0 -716.77027800703218 811.73627757405575 0 811.73627757405575 -380.018574603248 0 0 0 0 -759.06122908956604 447.03059396313438 0 447.03059396313438 246.01064477531395 0 0 0 0 -4.1957471232598067 2.9586417528837696 0 2.9586417528837696 -1.9569000013211486 0 0 0 0 111.67326527836849 42.727093981693997 0 42.727093981693997 15.094032211115916 0 0 0 0 -1.0706439486857562 -41.92742402680642 0 -41.92742402680642 127.28380217094764 0 0 0 0 87.655421333238337 65.211106200714198 0 65.211106200714198 20.464450279389894 0 0 0 0 -3.3635445305446297 3.1498938095724682 0 3.1498938095724682 -2.1200922662069575 0 0 0 0 -72.314224622597976 163.36268182712138 0 163.36268182712138 -414.1515686425455 0 0 0 0 -11.198714644405953 7.3448880188144265 0 7.3448880188144265 -3.9431531613951614 0 0 0 0 -22.32758274743901 232.93514908608017 0 232.93514908608017 -619.78143120873119 0 0 0 0 -138.64503639643226 234.14939916979938 0 234.14939916979938 -347.75577907040224 0 0 0 0 -942.55567372570658 331.07592576767274 0 331.07592576767274 -421.76094375610228 0 0 0 0 -102.7117855272445 496.11661911443139 0 496.11661911443139 -1463.5845354800365 0 0 0 0 -225.69834458925106 275.74751421187329 0 275.74751421187329 -473.69318082196605 0 0 0 0 -264.08841020658292 247.69484118549599 0 247.69484118549599 -422.68142976955096 0 0 0 0 -341.81206801720691 410.7935977711013 0 410.7935977711013 -455.09428030259369 0 0 0 0 -118.69649212728837 316.91023598773791 0 316.91023598773791 -459.82799005671581 0 0 0 0 -165.02140810588025 268.18841270580765 0 268.18841270580765 -418.83081601226854 0 0 0 0 -178.33124606269121 503.92332740337724 0 503.92332740337724 -627.38310391068671 0 0 0 0 -68.123551081262121 446.32215141360666 0 446.32215141360666 -701.77718609439262 0 0 0 0 -51.974737153366732 415.56181744383707 0 415.56181744383707 -653.80492475818301 0 0 0 0 -49.486422381094599 397.94546400535 0 397.94546400535 -553.41732621382334 0 0 0 0 -80.085923373218975 348.76403494892338 0 348.76403494892338 -459.90763623737985 0 0 0 0 -145.7457718306614 386.38342738120468 0 386.38342738120468 -499.95077973964771 0 0 0 0 -50.578900440697907 270.74490538983514 0 270.74490538983514 -445.09966225102562 0 0 0 0 -90.36617124411714 283.89179293288714 0 283.89179293288714 -387.55720490900467 0 0 0 0 5.8249324181088014 236.67798637037026 0 236.67798637037026 -466.02203854809585 0 0 0 0 -59.931240777754283 203.01024511265746 0 203.01024511265746 -133.02563304859575 0 0 0 0 -17.768161725613936 132.93507336318464 0 132.93507336318464 -250.51258891466887 0 0 0 0 -49.849946049314894 109.70205019217157 0 109.70205019217157 -5.78252842308666 0 0 0 0 -53.721534031777992 253.59259341495783 0 253.59259341495783 74.071204283302791 0 0 0 0 -37.002892662225349 105.71253586137908 0 105.71253586137908 -140.47204986216468 0 0 0 0 -84.474744533865305 153.30596259683264 0 153.30596259683264 5.2946513659611583 0 0 0 0 -53.900746319181053 124.96168197260306 0 124.96168197260306 -222.7434870231632 0 0 0 0 -106.56273212806263 213.46780490211927 0 213.46780490211927 -215.65902671019285 0 0 0 0 -63.720437940635748 187.05550656983951 0 187.05550656983951 -331.58712464934297 0 0 0 0 -187.33395914480934 303.72848358733734 0 303.72848358733734 -376.43070057639079 0 0 0 0 -127.85856131029323 183.04016012257802 0 183.04016012257802 -330.07056331171862 0 0 0 0 -119.75335574985365 224.20405511705417 0 224.20405511705417 -297.01262467459037 0 0 0 0 -53.619357097650209 143.79662248340082 0 143.79662248340082 -327.4828672859062 0 0 0 0 -118.31757387905236 182.25384820748957 0 182.25384820748957 -172.10067369343392 0 0 0 0 -72.038367720495444 128.32600929747491 0 128.32600929747491 -205.29809765586464 0 0 0 0 -150.05110700045043 145.83487557752557 0 145.83487557752557 -80.42496642252604 0 0 0 0 -16.658812168498116 42.30518170976211 0 42.30518170976211 -56.900975483859398 0 0 0 0 -87.916037946804863 104.39406427737646 0 104.39406427737646 -21.098493825451214 0 0 0 0 -109.49774813317708 158.23799361671581 0 158.23799361671581 -103.40277654818988 0 0 0 0 -33.452482147855335 86.821657949377254 0 86.821657949377254 -154.33109589701391 0 0 0 0 -33.357595904933987 73.800755819638539 0 73.800755819638539 -62.885225478047801 0 0 0 0 -75.995749121757399 120.55707649901436 0 120.55707649901436 32.814681270979065 0 0 0 0 22.992082157012192 56.31164966349786 0 56.31164966349786 64.480350417995965 0 0 0 0 30.794152466885862 84.271833678839926 0 84.271833678839926 85.42649402459449 0 0 0 0 55.354547807735798 103.79644916003269 0 103.79644916003269 111.5204448783536 0 0 0 0 -71.489093862473965 112.70133148942034 0 112.70133148942034 111.41513737530266 0 0 0 0 -35.741069293604596 54.906721708154521 0 54.906721708154521 100.49869563177049 0 0 0 0 6.150550124446454 14.445852221503685 0 14.445852221503685 28.629141237948744 0 0 0 0 11.303504063442233 9.2483653884180228 0 9.2483653884180228 122.6712022146932 0 0 0 0 -33.604822888522904 35.00651492912899 0 35.00651492912899 181.44620554336953 0 0 0 0 -24.654170152542065 53.077474579307562 0 53.077474579307562 267.94616878445134 0 0 0 0 31.942935401340662 52.11249829695273 0 52.11249829695273 -3.0533957877046753 0 0 0 0 25.703505301838959 80.571118927180351 0 80.571118927180351 185.57954175637238 0 0 0 0 8.7081908421059779 6.4591201117724424 0 6.4591201117724424 18.838920010557541 0 0 0 0 -26.64363584916282 96.143859627546476 0 96.143859627546476 371.12864099685157 0 0 0 0 137.73929835082163 42.93657289852149 0 42.93657289852149 251.83656814269455 0 0 0 0 84.649346133155632 162.36705850416911 0 162.36705850416911 261.86952736010903 0 0 0 0 24.999147059639753 54.090131147290045 0 54.090131147290045 -0.7803246441688203 0 0 0 0 95.31452311607427 27.425139322116081 0 27.425139322116081 121.33296774950168 0 0 0 0 20.261368445877451 -14.057990359820451 0 -14.057990359820451 205.38485348292761 0 0 0 0 35.746146122963182 98.441538010682962 0 98.441538010682962 338.53047079659154 0 0 0 0 1.8213155263860159 0.17980035086348245 0 0.17980035086348245 -2.8460550353797132 0 0 0 0 -43.544626317147049 133.17282247980827 0 133.17282247980827 145.19413020408905 0 0 0 0 -56.872357327825739 130.14326023618088 0 130.14326023618088 337.59211488285939 0 0 0 0 97.536256220213545 138.68428642397265 0 138.68428642397265 80.997065720494476 0 0 0 0 -0.35170377358281257 9.1767781654355431 0 9.1767781654355431 15.597209534252052 0 0 0 0 15.436643271360069 53.671450134490996 0 53.671450134490996 -11.279431686171179 0 0 0 0 52.619535434576392 28.522793667162631 0 28.522793667162631 -29.363384826225872 0 0 0 0 9.1038791445527067 76.742769093169841 0 76.742769093169841 15.992208758284452 0 0 0 0 35.329977883098763 148.14478264783929 0 148.14478264783929 169.70247961239232 0 0 0 0 -0.19717280341865262 186.17366036148439 0 186.17366036148439 167.4440942672326 0 0 0 0 33.172413425640116 212.27192934669063 0 212.27192934669063 45.191907808242945 0 0 0 0 -34.121732307554339 139.29992326882305 0 139.29992326882305 7.8415759777958982 0 0 0 0 -23.235314849682254 80.643318372751011 0 80.643318372751011 104.27960676845046 0 0 0 0 -45.026535404263996 68.41024497880062 0 68.41024497880062 5.9754323476490754 0 0 0 0 -211.46525457342796 102.59295886970358 0 102.59295886970358 -1.037483434760361 0 0 0 0 61.016507304186234 53.440236524755164 0 53.440236524755164 -39.584965237859251 0 0 0 0 -37.040683563573111 106.39009343639736 0 106.39009343639736 -23.08009464254792 0 0 0 0 -27.098628132440822 46.899666751215072 0 46.899666751215072 -0.97626815191999583 0 0 0 0 53.881708900200465 54.931832147009118 0 54.931832147009118 9.387148824200267 0 0 0 0 7.3487202721007634 9.3220060842977546 0 9.3220060842977546 189.9087185030512 0 0 0 0 21.579756962935789 24.449053902008018 0 24.449053902008018 101.48366365490074 0 0 0 0 63.916825054417131 -111.93216210350511 0 -111.93216210350511 -40.048233134009934 0 0 0 0 -34.910521441241144 31.927504854058498 0 31.927504854058498 371.65743571392522 0 0 0 0 -7.8167440288161743 97.337291127299977 0 97.337291127299977 -44.114144372098963 0 0 0 0 -15.952247199679732 188.94881838941956 0 188.94881838941956 -243.44960153904685 0 0 0 0 109.19632883737722 -52.794967626376092 0 -52.794967626376092 -194.25073387472366 0 0 0 0 -197.73128756098595 227.12675620756818 0 227.12675620756818 96.620000195758621 0 0 0 0 -1.3240034350826306 6.4404291129897047 0 6.4404291129897047 -2.7113214264416889 0 0 0 0 26.27546791396162 155.22031251117733 0 155.22031251117733 -53.494710381928599 0 0 0 0 2.6662725485075498 60.038871953203852 0 60.038871953203852 -121.08166326272476 0 0 0 0 -19.010117946363607 92.476502947401968 0 92.476502947401968 -87.35683599607728 0 0 0 0 -13.062383636075538 118.74491581879556 0 118.74491581879556 -38.774873827613192 0 0 0 0 0.1133807656098611 4.2866663296925367 0 4.2866663296925367 -1.4102154996610778 0 0 0 0 142.02917493454879 230.95843652909025 0 230.95843652909025 144.23980301573624 0 0 0 0 303.36113856571319 143.26911295429454 0 143.26911295429454 -569.47791541809056 0 0 0 0 -101.08173714766963 16.837473248127935 0 16.837473248127935 472.37676168130201 0 0 0 0 176.10142106954299 37.185357150785421 0 37.185357150785421 -366.20614911052689 0 0 0 0 170.18673704160028 156.83447441390308 0 156.83447441390308 -230.03401929133543 0 0 0 0 289.26170869873022 294.49213720716943 0 294.49213720716943 -163.468337621307 0 0 0 0 141.67058940496645 298.86519378513003 0 298.86519378513003 -267.49310980043811 0 0 0 0 173.36750001020846 179.92016655604675 0 179.92016655604675 4.9414804799598642 0 0 0 0 322.78465637436602 338.6446859322059 0 338.6446859322059 218.21333733695792 0 0 0 0 110.00353559700307 98.544463265752711 0 98.544463265752711 376.14668918535608 0 0 0 0 407.21435123475385 85.556572226079879 0 85.556572226079879 26.296081528038485 0 0 0 0 45.218846046394901 85.584204970196879 0 85.584204970196879 6.9777863044655533 0 0 0 0 27.171294356870931 67.281931359801092 0 67.281931359801092 614.96591980320227 0 0 0 0 -3.4407141035894426 3.0938917042586667 0 3.0938917042586667 0.28116658904659175 0 0 0 0 157.16368567748577 201.46260543369863 0 201.46260543369863 10.088116900064051 0 0 0 0 324.32322556751024 301.06418319096883 0 301.06418319096883 31.832783256802941 0 0 0 0 -28.938577192209777 21.971101926355914 0 21.971101926355914 -21.795923801833851 0 0 0 0 175.73980026456411 240.2182539528585 0 240.2182539528585 207.85211920458096 0 0 0 0 -11.466545067556325 22.095842339719169 0 22.095842339719169 -8.6043126408454569 0 0 0 0 -58.347997765798937 -26.890041394595755 0 -26.890041394595755 9.4410378001206823 0 0 0 0 -0.81498513687762397 3.1027294730341275 0 3.1027294730341275 -1.2940455687664354 0 0 0 0 -124.80083034996642 -11.924851739306177 0 -11.924851739306177 9.8677423026128963 0 0 0 0 -7.9068541813245332 11.158141381458819 0 11.158141381458819 14.679007687069138 0 0 0 0 12.783289654165856 125.64575685236559 0 125.64575685236559 -42.143688034149818 0 0 0 0 -21.827096057357267 47.697290348078241 0 47.697290348078241 -45.76577646088117 0 0 0 0 -4.0455445252591744 32.79442415961239 0 32.79442415961239 -50.704797202266491 0 0 0 0 -5.8194393007870531 22.39466120817815 0 22.39466120817815 -43.509040561661095 0 0 0 0 -51.279277613841259 39.409799728995495 0 39.409799728995495 -0.67975764565198915 0 0 0 0 -1.3207180746805143 10.914792628971526 0 10.914792628971526 -25.712947042191104 0 0 0 0 0.73267924143146956 23.914489205046266 0 23.914489205046266 -35.55969181844921 0 0 0 0 -12.474292746643187 31.374606028261042 0 31.374606028261042 -28.267669009353995 0 0 0 0 -0.098485561360715845 21.136512749453985 0 21.136512749453985 -27.975719828589703 0 0 0 0 -12.468890108706546 19.921227986164013 0 19.921227986164013 -17.543832544452016 0 0 0 0 21.052744123779121 32.356149870609443 0 32.356149870609443 -14.029720270995313 0 0 0 0 -3.3880285513769195 33.78361188824465 0 33.78361188824465 5.1868988962378353 0 0 0 0 11.772944846161408 56.106140557476465 0 56.106140557476465 -2.7012110192772525 0 0 0 0 16.732715789461508 64.577670981532719 0 64.577670981532719 -34.389753846840904 0 0 0 0 -8.8628514773722173 8.7399450230636972 0 8.7399450230636972 -4.5734758618139537 0 0 0 0 -5.7297061183198821 42.102749136320199 0 42.102749136320199 -56.708873667863372 0 0 0 0 -41.982852985805948 21.537466999980097 0 21.537466999980097 -12.433047093361893 0 0 0 0 -10.903585983460388 20.155618477429414 0 20.155618477429414 17.986741111169998 0 0 0 0 -27.073196178833314 65.808935996978107 0 65.808935996978107 7.5961558700387286 0 0 0 0 0.5009296584794356 102.06366368271301 0 102.06366368271301 -5.8530549114875612 0 0 0 0 -53.626218944918946 74.846397825287568 0 74.846397825287568 5.1580961983308953 0 0 0 0 -58.502558393986874 80.575242310832436 0 80.575242310832436 -22.978088785577711 0 0 0 0 -10.997217904528952 88.66383753214177 0 88.66383753214177 -12.048121414725756 0 0 0 0 -14.675075568393062 45.608288395836972 0 45.608288395836972 -25.005023688414155 0 0 0 0 -45.417172480478825 74.715716110994322 0 74.715716110994322 -20.365999733076023 0 0 0 0 -35.339188438774727 43.312403976968199 0 43.312403976968199 4.8489004109433154 0 0 0 0 1.7833108682211787 37.981304529423468 0 37.981304529423468 -5.7673164417275729 0 0 0 0 -21.578295545361485 48.894557847904387 0 48.894557847904387 5.1844842153068385 0 0 0 0 -16.601102653955465 53.472071284324166 0 53.472071284324166 23.67194960933714 0 0 0 0 12.835886694630609 45.221093048635836 0 45.221093048635836 -14.297187633363421 0 0 0 0 -11.263009048401727 55.160680565124494 0 55.160680565124494 14.576783816955867 0 0 0 0 -27.817074638362101 52.645259774169972 0 52.645259774169972 -10.105415411206195 0 0 0 0 -40.572766300474406 28.983654921716095 0 28.983654921716095 12.796094395486508 0 0 0 0 0.67176660663317733 31.90138029043834 0 31.90138029043834 -2.0803692277363126 0 0 0 0 -59.401140743822907 20.935550077221706 0 20.935550077221706 -58.599255845518201 0 0 0 0 -54.592035940982896 77.118684472967288 0 77.118684472967288 -10.886009665497113 0 0 0 0 -38.865400567887264 33.091286222952476 0 33.091286222952476 -86.10927936500957 0 0 0 0 -42.173641951798345 -4.4447343552637903 0 -4.4447343552637903 -22.539119926572312 0 0 0 0 -30.320933474053163 13.898276449457626 0 13.898276449457626 -67.271671107853763 0 0 0 0 -14.840094917308306 20.028283686377108 0 20.028283686377108 -76.578298723426997 0 0 0 0 -8.8844510199851356 12.256193038236233 0 12.256193038236233 -76.564757561893202 0 0 0 0 -23.281605025747986 39.17863858542907 0 39.17863858542907 24.953276128732227 0 0 0 0 -65.551856790201782 -5.810329178448228 0 -5.810329178448228 -14.382228465154185 0 0 0 0 21.577187093265849 39.758512623301847 0 39.758512623301847 -10.975850739979444 0 0 0 0 -135.27473795194237 131.10574076298144 0 131.10574076298144 33.440421875355241 0 0 0 0 -3.4093859195199911 86.771973723622068 0 86.771973723622068 -30.393546667175542 0 0 0 0 53.321902357813087 118.45524572539216 0 118.45524572539216 -82.590268404688686 0 0 0 0 -58.746007944268058 312.9924493006547 0 312.9924493006547 61.886713302708813 0 0 0 0 298.43127987487242 220.26649405152057 0 220.26649405152057 -76.885275755063049 0 0 0 0 132.58355687654694 426.80616646568524 0 426.80616646568524 57.814602632613969 0 0 0 0 -53.462967953499174 -22.735490553714044 0 -22.735490553714044 7.4308903445344185 0 0 0 0 -119.58848910345114 36.49205972917116 0 36.49205972917116 64.097631007316522 0 0 0 0 -70.438458765071118 12.452756989128829 0 12.452756989128829 1.8589105614082655 0 0 0 0 44.18520092550898 -308.36150984631968 0 -308.36150984631968 95.10858383597224 0 0 0 0 350.24550721745254 -19.846430427979612 0 -19.846430427979612 45.651640804542694 0 0 0 0 308.94772281404585 -335.69823408286902 0 -335.69823408286902 -6.564427881850861 0 0 0 0 -9.2569033205436426 -52.104316548342467 0 -52.104316548342467 28.778833433258114 0 0 0 0 12.748792927079194 -22.453305753741006 0 -22.453305753741006 1.4318091560635366 0 0 0 0 7.6234376001229975 5.6512911335885292 0 5.6512911335885292 -93.078813772357535 0 0 0 0 26.597578117899047 -58.382877097753862 0 -58.382877097753862 -45.278411334438715 0 0 0 0 -8.1878189286326233 -15.663695268220181 0 -15.663695268220181 -30.717224149528192 0 0 0 0 -26.452304730788455 -13.765880030943663 0 -13.765880030943663 -22.770394758219481 0 0 0 0 -53.859411950827052 -22.734457907805336 0 -22.734457907805336 27.026656878748327 0 0 0 0 -25.203727041698585 -23.700116552885447 0 -23.700116552885447 -15.460919333061611 0 0 0 0 -38.256754548980098 -24.071372732811142 0 -24.071372732811142 24.815874398445885 0 0 0 0 -65.512689320701611 -9.239265375850664 0 -9.239265375850664 77.131571744990651 0 0 0 0 -40.538781251600085 -13.253737078461654 0 -13.253737078461654 89.188975473341998 0 0 0 0 29.666157890547765 -7.0012444095991668 0 -7.0012444095991668 76.878748798695597 0 0 0 0 89.206783602850919 -6.6236027392515098 0 -6.6236027392515098 105.82692677948944 0 0 0 0 -128.08401686463185 127.65783328750695 0 127.65783328750695 44.21643168812443 0 0 0 0 -65.960931976022039 21.978483905963003 0 21.978483905963003 96.924339719844284 0 0 0 0 -47.450497152458411 -10.389381229309947 0 -10.389381229309947 126.53465521812905 0 0 0 0 -62.873177221947117 32.304922373368754 0 32.304922373368754 131.26537976035615 0 0 0 0 -61.608171236010094 18.634196075523505 0 18.634196075523505 70.370227932191483 0 0 0 0 -104.14600862498628 -221.9987306559633 0 -221.9987306559633 150.15383595542517 0 0 0 0 -15.635444478282359 33.508178075160288 0 33.508178075160288 23.943674650593238 0 0 0 0 -121.78887826839036 33.085608503446565 0 33.085608503446565 65.30038886526745 0 0 0 0 -200.87342366979283 -110.70491600374226 0 -110.70491600374226 119.63698890188243 0 0 0 0 -93.091577397659421 4.5462020044287783 0 4.5462020044287783 98.204137472508592 0 0 0 0 69.620782698497351 -41.435251194055127 0 -41.435251194055127 121.46071416253108 0 0 0 0 -159.73582604197145 -11.729225784427399 0 -11.729225784427399 138.97138559666928 0 0 0 0 -124.63719008253247 27.438138060708297 0 27.438138060708297 135.61027643728448 0 0 0 0 -113.31202849196688 49.179767777065535 0 49.179767777065535 -0.24927219020901248 0 0 0 0 -84.998583748689271 109.89596915995935 0 109.89596915995935 -61.640666506158595 0 0 0 0 47.921872113474429 36.715697029570237 0 36.715697029570237 16.523365953186982 0 0 0 0 -423.90820541349058 1939.8695507485641 0 1939.8695507485641 -1246.9485670556896 0 0 0 0 -132.06333280827312 242.90750806481083 0 242.90750806481083 -43.328830217525137 0 0 0 0 -177.90134295726239 108.22509780491055 0 108.22509780491055 -302.40298575087218 0 0 0 0 122.51962847806135 -118.39111567997134 0 -118.39111567997134 9.2911082084683585 0 0 0 0 -183.42457119869505 170.13058380695657 0 170.13058380695657 117.24868458165656 0 0 0 0 -99.29860778713919 27.625680798977555 0 27.625680798977555 212.44815504692815 0 0 0 0 -37.497006712437724 -150.66150428758556 0 -150.66150428758556 -756.96663577101208 0 0 0 0 158.90631849200145 -67.122768319826719 0 -67.122768319826719 -956.95687129875296 0 0 0 0 156.17333993763896 -18.433940240480297 0 -18.433940240480297 -699.91316977222232 0 0 0 0 214.39285806560656 -260.04448012618377 0 -260.04448012618377 -916.12666933581932 0 0 0 0 180.93602160595765 -169.65417150844587 0 -169.65417150844587 -900.4388148766011 0 0 0 0 129.47339775666478 -274.70882118907321 0 -274.70882118907321 -688.50992306025 0 0 0 0 210.49477339575242 -336.66583423736301 0 -336.66583423736301 -933.59049073376809 0 0 0 0 326.89021828191471 456.47456307345419 0 456.47456307345419 -3170.5248067954381 0 0 0 0 261.88270678833942 -338.23102819564519 0 -338.23102819564519 -1096.7243553365697 0 0 0 0 -31.370108041993603 18.032972853385346 0 18.032972853385346 33.728535373501558 0 0 0 0 179.24512498444528 -95.415327868991881 0 -95.415327868991881 -966.63056868518288 0 0 0 0 298.95227634439652 -107.32179697974789 0 -107.32179697974789 -1344.1166591666552 0 0 0 0 -2.5028319539495669 3.0678657190546801 0 3.0678657190546801 3.715568564768958 0 0 0 0 -37.118858638088568 93.051994571822433 0 93.051994571822433 176.87705142368213 0 0 0 0 175.58503326040227 214.24473071632383 0 214.24473071632383 -1149.5549278925864 0 0 0 0 -111.97798953042366 21.044062021072023 0 21.044062021072023 114.77422974669025 0 0 0 0 -128.1236454610771 -29.426390712389548 0 -29.426390712389548 76.032176354783587 0 0 0 0 -46.460281163977925 90.147642754338449 0 90.147642754338449 157.00426526537922 0 0 0 0 -86.118399382190546 33.448833623609971 0 33.448833623609971 83.119529019177207 0 0 0 0 -15.193450024700724 111.83178547217176 0 111.83178547217176 183.11414084568969 0 0 0 0 -88.647912711996469 27.427922237620805 0 27.427922237620805 118.88779959277599 0 0 0 0 -47.862552820326528 -53.719573580572614 0 -53.719573580572614 120.50708269767347 0 0 0 0 -39.736861842568032 72.187660867406521 0 72.187660867406521 145.51605975990242 0 0 0 0 75.543246905901469 62.081814719786053 0 62.081814719786053 126.59151727566496 0 0 0 0 43.331875163887162 -15.847214128094492 0 -15.847214128094492 101.20089610635478 0 0 0 0 -44.226933077996364 84.333466403986677 0 84.333466403986677 163.02299840023625 0 0 0 0 8.5300040606525727 116.13368671553326 0 116.13368671553326 172.09804660726877 0 0 0 0 0.39468442668980241 -3.1153707827318726 0 -3.1153707827318726 3.0885803361345836 0 0 0 0 6.2025282997419708 140.00378595247821 0 140.00378595247821 204.51911593887053 0 0 0 0 13.540559691551607 157.16387938402477 0 157.16387938402477 209.28514931687459 0 0 0 0 319.62562071164893 187.56242170228211 0 187.56242170228211 -505.7468598659616 0 0 0 0 208.24771500928182 6.5814367167949968 0 6.5814367167949968 -833.85657968907617 0 0 0 0 -7.6140398598217871 305.04627934488235 0 305.04627934488235 -684.09417346838745 0 0 0 0 164.49733707486143 107.65543256001877 0 107.65543256001877 -1001.5031725679873 0 0 0 0 165.82879216061224 33.562468069202623 0 33.562468069202623 -599.64852436000365 0 0 0 0 -96.555196781933773 309.52511389098072 0 309.52511389098072 -10.5666168819007 0 0 0 0 -34.420478820145945 -61.838262923960428 0 -61.838262923960428 622.2338340395363 0 0 0 0 -25.974613083148142 30.996529381896835 0 30.996529381896835 -64.96122966985422 0 0 0 0 -0.50220524161454305 1.6660976928327926 0 1.6660976928327926 12.096830636605318 0 0 0 0 333.6311475652833 -157.12749445031955 0 -157.12749445031955 30.062752381869359 0 0 0 0 57.352328676892284 142.33471772307166 0 142.33471772307166 213.66327630267915 0 0 0 0 25.042672140378272 146.44740692256892 0 146.44740692256892 232.49527670608586 0 0 0 0 69.602536443722784 15.56598302895145 0 15.56598302895145 -63.344661871393328 0 0 0 0 5.25871959501589 3.4639136026917043 0 3.4639136026917043 -0.98693638625701396 0 0 0 0 136.78142875066987 167.82539711534628 0 167.82539711534628 197.76367831278185 0 0 0 0 198.52540751689958 53.082603022812691 0 53.082603022812691 -80.453630539690494 0 0 0 0 83.699281538836658 92.932668961751915 0 92.932668961751915 -63.886785248589149 0 0 0 0 38.65336421658867 31.690934878330154 0 31.690934878330154 -79.322197214798052 0 0 0 0 61.233042881234724 5.641735857425374 0 5.641735857425374 -84.183726848190418 0 0 0 0 11.566057964121285 36.001985141557753 0 36.001985141557753 -17.682087362383328 0 0 0 0 10.5277114283017 35.394285805494292 0 35.394285805494292 -101.38641025363177 0 0 0 0 -34.961003607939347 32.166364122491359 0 32.166364122491359 -58.716935553427902 0 0 0 0 3.4526635987116538 27.902022938394587 0 27.902022938394587 -35.689776888668575 0 0 0 0 -0.54807009886368974 38.821364472266303 0 38.821364472266303 -15.15102553562553 0 0 0 0 11.842736483173212 57.924786319119448 0 57.924786319119448 -48.77572537117203 0 0 0 0 -4.4591030323790619 43.364792814059911 0 43.364792814059911 -14.757801960062352 0 0 0 0 5.4059123831527813 55.503804375883078 0 55.503804375883078 -33.053846171351324 0 0 0 0 -0.22715199123183538 50.716135341726186 0 50.716135341726186 -80.765974324607669 0 0 0 0 1.0417660605889978 12.825831571237359 0 12.825831571237359 -33.961470914953679 0 0 0 0 146.89799314590528 245.37526191963116 0 245.37526191963116 -198.18304240852012 0 0 0 0 231.74192281698379 -213.64336045169148 0 -213.64336045169148 -135.5061951749376 0 0 0 0 -161.64491015250678 149.0945233622333 0 149.0945233622333 -135.47716893338531 0 0 0 0 -303.73097580706235 141.18556327644546 0 141.18556327644546 -219.98107567022089 0 0 0 0 -4.4518588610150687 35.653413732748987 0 35.653413732748987 11.658868722342213 0 0 0 0 12.070494663916179 44.485486549125199 0 44.485486549125199 -51.815824527700897 0 0 0 0 -7.1479175891436171 -217.27059150840068 0 -217.27059150840068 332.09749491700313 0 0 0 0 188.10057099588448 -24.745930588978808 0 -24.745930588978808 11.48096103440912 0 0 0 0 37.654123400301614 -46.891169008689758 0 -46.891169008689758 -122.97471590837813 0 0 0 0 18.732331284903921 -63.38827531482093 0 -63.38827531482093 232.94274624205718 0 0 0 0 65.269420332682785 222.20772795827361 0 222.20772795827361 -0.97675730494665913 0 0 0 0 61.162930782294097 283.76218909304089 0 283.76218909304089 -242.36085565635585 0 0 0 0 -350.47185462612833 255.52290941159299 0 255.52290941159299 -107.82635174607276 0 0 0 0 -112.39956770050048 485.21636949076856 0 485.21636949076856 -704.41780753772764 0 0 0 0 -43.53057588316733 147.50940954750695 0 147.50940954750695 -419.49320498439556 0 0 0 0 -60.531892669503577 -13.520589464977093 0 -13.520589464977093 106.26273137884709 0 0 0 0 17.764320996364404 60.893770255835989 0 60.893770255835989 -388.67029367209761 0 0 0 0 -173.94007573646377 578.89985220850212 0 578.89985220850212 -841.27160397897387 0 0 0 0 51.148744701880787 39.095877983621904 0 39.095877983621904 -692.98768382695562 0 0 0 0 74.0537791064271 592.77326169584558 0 592.77326169584558 -929.03958712168969 0 0 0 0 -285.05207847238853 942.6489356944985 0 942.6489356944985 -1174.2513526204129 0 0 0 0 -174.35590721314657 647.72338254262286 0 647.72338254262286 -618.93483859071057 0 0 0 0 -369.19525899854852 1025.7263340650961 0 1025.7263340650961 -775.83550326380646 0 0 0 0 -279.74617420732102 818.59181310596614 0 818.59181310596614 -707.26611585773708 0 0 0 0 -255.20681622059783 1391.6847114926859 0 1391.6847114926859 -642.1250679896475 0 0 0 0 -387.95279070659308 1142.5941143676682 0 1142.5941143676682 -1066.7404717973914 0 0 0 0 -1176.6696169619972 1360.5125806347787 0 1360.5125806347787 -914.5323436951694 0 0 0 0 -1470.4865272425668 194.43070414683098 0 194.43070414683098 -495.98061697778411 0 0 0 0 24.085048943197762 9.0762972831071238 0 9.0762972831071238 -494.18494273291435 0 0 0 0 -506.7544159656245 928.68790145849925 0 928.68790145849925 -823.95820977233961 0 0 0 0 -687.02358967995679 300.1069924971016 0 300.1069924971016 -393.17052326055818 0 0 0 0 -67.34289212506701 158.22271105778418 0 158.22271105778418 50.543695658598153 0 0 0 0 -419.36311089916126 228.88543547607333 0 228.88543547607333 447.68268992657249 0 0 0 0 120.84801197513298 583.02914565912579 0 583.02914565912579 23.163277145677966 0 0 0 0 176.19822296815983 1643.0499714653852 0 1643.0499714653852 -1854.2151610280926 0 0 0 0 -866.99757038646203 671.10167193837697 0 671.10167193837697 15.674479226077892 0 0 0 0 101.10997816076451 568.09053760597362 0 568.09053760597362 -2264.2573462879227 0 0 0 0 -999.59704663784942 -66.434917209757259 0 -66.434917209757259 -1129.577928964587 0 0 0 0 -94.971872727153823 200.06070911983261 0 200.06070911983261 -1065.1025417468845 0 0 0 0 -1120.4507965056664 1206.7644137345853 0 1206.7644137345853 -1303.6422097613467 0 0 0 0 862.76271560820169 208.84544902313792 0 208.84544902313792 -1754.0620864351058 0 0 0 0 577.5312190432378 1083.0815737132962 0 1083.0815737132962 -3477.5101050925114 0 0 0 0 -19.687659791969196 10.501988564740046 0 10.501988564740046 -2.3051721605898159 0 0 0 0 358.32206584601226 308.34852638760458 0 308.34852638760458 -1695.5760987907997 0 0 0 0 -108.69485297639949 597.14957021427654 0 597.14957021427654 483.87659336037177 0 0 0 0 -64.116138945202692 48.131535448643262 0 48.131535448643262 -189.20075223407184 0 0 0 0 -433.03721797683102 -148.47761392862594 0 -148.47761392862594 694.90019789250073 0 0 0 0 100.00614580611 550.63832980211737 0 550.63832980211737 -1397.648457916217 0 0 0 0 -721.25465527204506 100.43849594268977 0 100.43849594268977 -125.24086837163486 0 0 0 0 132.56997706890979 -121.3916097859983 0 -121.3916097859983 -238.2959240643977 0 0 0 0 45.478845925630594 102.85542827170229 0 102.85542827170229 -10.415295164749523 0 0 0 0 7.2205750366743473 40.056996453417852 0 40.056996453417852 -9.8149197526543404 0 0 0 0 2.8427128958940386 37.427629152705926 0 37.427629152705926 -0.92883198693951741 0 0 0 0 3.8776162723615073 3.3617756377992691 0 3.3617756377992691 -20.027246399896683 0 0 0 0 26.883580189153122 72.037281661137357 0 72.037281661137357 -4.6713237214797125 0 0 0 0 -33.297665420483099 149.42963601394604 0 149.42963601394604 306.5067038797315 0 0 0 0 -15.410165812689229 4.1206592351409199 0 4.1206592351409199 -256.10361478738378 0 0 0 0 35.739772956072557 157.20784462350207 0 157.20784462350207 69.621868878206442 0 0 0 0 9.9894509229707182 100.69284811962007 0 100.69284811962007 58.307698018747033 0 0 0 0 -44.77447025195579 124.58955486958621 0 124.58955486958621 70.894032648284337 0 0 0 0 -11.063645063994045 68.871209351509606 0 68.871209351509606 4.258108962305414 0 0 0 0 87.787929371770588 112.70578334913989 0 112.70578334913989 43.557785220256847 0 0 0 0 30.479939812434168 107.32459172261315 0 107.32459172261315 116.66075472713055 0 0 0 0 10.955063182133017 -18.374988126055541 0 -18.374988126055541 -145.21762951033179 0 0 0 0 31.145498186444456 53.772454938132796 0 53.772454938132796 -116.11103256826755 0 0 0 0 16.817644057923303 49.251337560965538 0 49.251337560965538 -67.42864787682629 0 0 0 0 11.019601044907176 7.3606850712130836 0 7.3606850712130836 -31.722602036212265 0 0 0 0 8.7934825565334904 2.2966593613623161 0 2.2966593613623161 -9.1689523601879301 0 0 0 0 29.233974196395625 4.4940471149127017 0 4.4940471149127017 -45.653239016075531 0 0 0 0 103.47790461084401 339.27974368257435 0 339.27974368257435 343.35627971421673 0 0 0 0 2.6479633474625928 1.2823580004111861 0 1.2823580004111861 -1.7500001510118892 0 0 0 0 9.7345963157567894 163.96287809272326 0 163.96287809272326 127.45121906341956 0 0 0 0 56.443030289461603 58.804781319868198 0 58.804781319868198 221.72855017235997 0 0 0 0 83.79513653874892 110.13789552233538 0 110.13789552233538 -42.702004846687487 0 0 0 0 17.512121906685934 14.599930831731399 0 14.599930831731399 28.130132229758601 0 0 0 0 116.08123350636743 268.64245779548219 0 268.64245779548219 407.84785150717653 0 0 0 0 184.36473240338819 306.46535465782654 0 306.46535465782654 236.91108435516071 0 0 0 0 240.07013314082724 159.76505437601372 0 159.76505437601372 100.55579651636072 0 0 0 0 45.18193615580094 78.48898303189344 0 78.48898303189344 108.741066974153 0 0 0 0 140.62775961215084 152.16161953889605 0 152.16161953889605 27.600249509247078 0 0 0 0 34.127454691770254 119.15422114214743 0 119.15422114214743 242.44934786964586 0 0 0 0 141.49806552802329 147.38942072125792 0 147.38942072125792 68.299150922669014 0 0 0 0 9.0667581781513888 12.465622641375237 0 12.465622641375237 23.478069292010343 0 0 0 0 90.693576050427509 16.148681480357482 0 16.148681480357482 -230.63992612581933 0 0 0 0 62.316579348815139 25.763224617248852 0 25.763224617248852 -88.150281074740633 0 0 0 0 -37.631150977365905 140.14069615942572 0 140.14069615942572 68.081552530096246 0 0 0 0 78.138254537436296 87.259105862387514 0 87.259105862387514 -76.812507892129361 0 0 0 0 49.570300813385984 43.977075264738232 0 43.977075264738232 -8.0668180328921153 0 0 0 0 95.580477145893383 66.844381433686067 0 66.844381433686067 -142.6405719906179 0 0 0 0 2.0566452598577598 11.688381657768332 0 11.688381657768332 -158.6015462316318 0 0 0 0 -54.845360207458725 -35.572724084839138 0 -35.572724084839138 -165.32054976819927 0 0 0 0 51.781495975243161 80.234578684572625 0 80.234578684572625 -128.93966858677413 0 0 0 0 62.520079380017705 11.646166020495002 0 11.646166020495002 -191.75655303275562 0 0 0 0 82.772469127610748 30.513905170121461 0 30.513905170121461 -179.05245348802418 0 0 0 0 -15.041634211287601 37.820843111243448 0 37.820843111243448 -60.561251531515154 0 0 0 0 20.017669344611932 70.791727800562512 0 70.791727800562512 -203.13120136467842 0 0 0 0 -153.49621072760783 -51.890189348865533 0 -51.890189348865533 -188.45619195351628 0 0 0 0 74.194407685972692 -110.49943812907441 0 -110.49943812907441 -432.22028332526315 0 0 0 0 2.649888010380522 2.213993391458736 0 2.213993391458736 -2.6441121775942804 0 0 0 0 -120.70758586103329 346.06679410363722 0 346.06679410363722 395.67842386027041 0 0 0 0 -6.8552264522295445 167.93044123506115 0 167.93044123506115 387.1282150070183 0 0 0 0 74.404548791528214 91.433863885620667 0 91.433863885620667 -261.65364008568986 0 0 0 0 131.20012640560162 13.645358824058349 0 13.645358824058349 -414.35125151386455 0 0 0 0 71.919439966004575 167.29915002502821 0 167.29915002502821 -268.13409241967884 0 0 0 0 75.837083565536886 69.149148904070898 0 69.149148904070898 -160.22002937358229 0 0 0 0 51.536858327701339 175.30472235619891 0 175.30472235619891 -143.47197982724174 0 0 0 0 291.3409976520561 27.97946854181464 0 27.97946854181464 -39.432834814717353 0 0 0 0 -159.37146209791536 448.82166300804965 0 448.82166300804965 207.79201989277499 0 0 0 0 7.119521996073841 30.046955005676381 0 30.046955005676381 -3.0721943368705666 0 0 0 0 50.894940766243963 91.725000892813114 0 91.725000892813114 -21.555064334122108 0 0 0 0 -16.954647527627571 15.27147785412923 0 15.27147785412923 8.0898086024674569 0 0 0 0 -76.49776635300077 11.318862582791553 0 11.318862582791553 -38.647864347309223 0 0 0 0 -373.43536345378379 120.404820552405 0 120.404820552405 153.31938816851471 0 0 0 0 -25.559976651944453 135.04347176673036 0 135.04347176673036 -138.83542930140538 0 0 0 0 -58.998511203899398 117.32051300830426 0 117.32051300830426 -54.359748860209947 0 0 0 0 -146.31026447279146 175.79960073007533 0 175.79960073007533 -90.043821175888297 0 0 0 0 17.161373892886331 144.50600312374445 0 144.50600312374445 7.8748193632764014 0 0 0 0 3.075420487250085 96.558136637058851 0 96.558136637058851 -97.928929945017444 0 0 0 0 -24.264635984727647 138.88245757426921 0 138.88245757426921 -97.140600142066546 0 0 0 0 -124.95925179590995 53.198462151255626 0 53.198462151255626 13.606468746304017 0 0 0 0 -25.457043230821 110.23193438637918 0 110.23193438637918 -58.183788856564206 0 0 0 0 40.53450020137825 90.334907287720853 0 90.334907287720853 -65.645080052658159 0 0 0 0 -27.862619245061069 115.565787961561 0 115.565787961561 -54.494668688969341 0 0 0 0 16.948038382441155 38.072091179808922 0 38.072091179808922 19.072118334393963 0 0 0 0 93.932352138850547 113.45800235055867 0 113.45800235055867 -53.801303362066392 0 0 0 0 10.842100001656945 -0.32431234388968733 0 -0.32431234388968733 -94.091770128179633 0 0 0 0 31.935886589330039 -39.194062569044036 0 -39.194062569044036 4.2455458035465199 0 0 0 0 -15.10255996176874 54.492593424221582 0 54.492593424221582 -10.140359093989844 0 0 0 0 -97.096522704050585 63.734465695819381 0 63.734465695819381 -54.935634944013145 0 0 0 0 -3.483114111307259 18.304192112879377 0 18.304192112879377 -25.940134645374201 0 0 0 0 138.74089825957344 10.720565816404701 0 10.720565816404701 -29.113356743471741 0 0 0 0 -203.00813199042386 -44.38867937599116 0 -44.38867937599116 -140.33194482426916 0 0 0 0 -147.59445615348523 46.580484638354392 0 46.580484638354392 -7.3499184446457093 0 0 0 0 -241.19803502518334 256.31398331955279 0 256.31398331955279 248.77870465064188 0 0 0 0 2.007940657589387 31.712957115042769 0 31.712957115042769 -6.1019627605590152 0 0 0 0 -8.744700401401488 49.51752540603762 0 49.51752540603762 -29.142727564917799 0 0 0 0 -33.991381194500718 149.34243341853289 0 149.34243341853289 -104.92584279018047 0 0 0 0 40.203661193023436 76.417130291101785 0 76.417130291101785 -66.497347621168842 0 0 0 0 32.657717935938365 10.395903508115211 0 10.395903508115211 -7.1155775637402652 0 0 0 0 49.738519006612478 24.701592542296567 0 24.701592542296567 -61.189481238318649 0 0 0 0 -27.492731704756807 -63.445089279212425 0 -63.445089279212425 11.911508084243906 0 0 0 0 16.291669361507104 0.93357349415352786 0 0.93357349415352786 0.32345765940708349 0 0 0 0 -0.087446388468379155 0.43356759627204156 0 0.43356759627204156 16.923570282180322 0 0 0 0 -26.081008587065298 -20.368133039619352 0 -20.368133039619352 16.662706552548116 0 0 0 0 0.96271623642678605 12.171648200202071 0 12.171648200202071 3.224185235272671 0 0 0 0 12.517329627051367 7.0013920756564403 0 7.0013920756564403 -13.619311238235241 0 0 0 0 -10.728353744547348 -3.204607308807681 0 -3.204607308807681 -11.538597803832545 0 0 0 0 3.4375838302546526 0.84845565309652216 0 0.84845565309652216 -2.9388714816546866 0 0 0 0 -1.2556133935722755 -33.324383719827892 0 -33.324383719827892 -51.150618743940868 0 0 0 0 27.333993334820661 8.9526090042035094 0 8.9526090042035094 -23.952579307479027 0 0 0 0 24.042027320043417 85.137342280855592 0 85.137342280855592 -214.75743003447496 0 0 0 0 -126.4542991100534 187.02877116302625 0 187.02877116302625 -412.87432866632662 0 0 0 0 -609.0375067540881 161.97234436746476 0 161.97234436746476 -411.78092780998122 0 0 0 0 -124.76576256735211 401.9742393665677 0 401.9742393665677 -1019.8717119742978 0 0 0 0 -257.99817097921914 1041.5358413543236 0 1041.5358413543236 -817.75520417344524 0 0 0 0 -203.26450876647141 415.88068817012027 0 415.88068817012027 -405.78949959285092 0 0 0 0 -116.4944009983883 182.25878416989048 0 182.25878416989048 -113.82006055802776 0 0 0 0 -137.93829916286631 106.6827229169121 0 106.6827229169121 106.48213817844953 0 0 0 0 329.5668948693783 10.955247168989445 0 10.955247168989445 -101.66391754228243 0 0 0 0 20.389751217706362 56.75155411920241 0 56.75155411920241 29.427847494456273 0 0 0 0 -82.43155946603656 34.684519831907892 0 34.684519831907892 25.737413930637558 0 0 0 0 -13.436164201612719 49.747551655076407 0 49.747551655076407 16.332751384634932 0 0 0 0 65.470808835583739 81.789927104036906 0 81.789927104036906 -96.447429256008036 0 0 0 0 22.83937893237453 264.32645902360855 0 264.32645902360855 149.49010536904188 0 0 0 0 82.182048404385569 248.55289275722862 0 248.55289275722862 -3.5591359569862107 0 0 0 0 269.45902011313592 -3.3786753968488483 0 -3.3786753968488483 -384.80754943930333 0 0 0 0 -11.152136303790805 56.144202857532875 0 56.144202857532875 47.027601108391082 0 0 0 0 -24.108568776337052 -11.076858526841079 0 -11.076858526841079 401.46695916333556 0 0 0 0 57.937110973921051 74.931352660507486 0 74.931352660507486 -23.252030433565263 0 0 0 0 263.140542868583 189.5854748971451 0 189.5854748971451 -151.13372348987468 0 0 0 0 -561.32435708768026 210.40768017270602 0 210.40768017270602 409.91954510385767 0 0 0 0 9.9174224934185489 15.809732390260976 0 15.809732390260976 -30.010500676656306 0 0 0 0 -5.1154806090123657 12.891126985770754 0 12.891126985770754 2.2369611012212189 0 0 0 0 -604.63509987737052 1309.2105101885718 0 1309.2105101885718 -1560.932023905887 0 0 0 0 -1954.0983259548666 2085.3084641529581 0 2085.3084641529581 -1802.4939880885868 0 0 0 0 -113.74196081895207 -558.54482806852684 0 -558.54482806852684 -1488.1699199257564 0 0 0 0 36.499987430957844 214.29764790948138 0 214.29764790948138 251.27944952977123 0 0 0 0 -49.903838176172229 14.363192697670996 0 14.363192697670996 -1.0521574294442901 0 0 0 0 831.35129321735258 31.182429979448443 0 31.182429979448443 -2699.1031793326692 0 0 0 0 -3770.1763008570997 1567.2264143579268 0 1567.2264143579268 201.3020258649849 0 0 0 0 1733.0938388953364 819.07290457685303 0 819.07290457685303 -3411.5447949458903 0 0 0 0 -29.025049809442862 258.57142934260355 0 258.57142934260355 -536.43089811161917 0 0 0 0 27.568598280384322 356.83174746042278 0 356.83174746042278 -372.57822095472852 0 0 0 0 -8.8070602204898023 423.20488970355473 0 423.20488970355473 -489.82029918670742 0 0 0 0 -85.249512681984925 89.687667775264345 0 89.687667775264345 -621.49300811339344 0 0 0 0 125.24713348825753 -68.929652750393871 0 -68.929652750393871 -1291.9697526537534 0 0 0 0 104.60669559981761 67.93116060151624 0 67.93116060151624 -1039.7451372238975 0 0 0 0 126.39328032082994 305.90574641599596 0 305.90574641599596 -737.88528300878534 0 0 0 0 220.46255854330957 -669.12468133310722 0 -669.12468133310722 319.45297289166047 0 0 0 0 -24.539326171463472 341.71221378670452 0 341.71221378670452 -1062.321296943519 0 0 0 0 -49.003687051331497 7.2769817968437422 0 7.2769817968437422 -0.94512056615043605 0 0 0 0 181.3467816212069 -73.052669477359814 0 -73.052669477359814 -718.94344529752561 0 0 0 0 -247.51614008448087 579.87314875595985 0 579.87314875595985 -498.61423109129919 0 0 0 0 -860.64431117715139 577.37859455213402 0 577.37859455213402 -842.41391317300804 0 0 0 0 -244.06298893515486 579.42666302443831 0 579.42666302443831 -1247.6207260412193 0 0 0 0 -431.03471163570066 643.93832601315444 0 643.93832601315444 -204.0423605338583 0 0 0 0 -944.82347207997009 1177.7717269789755 0 1177.7717269789755 -660.99732866401609 0 0 0 0 -306.96505739563145 730.36823945019933 0 730.36823945019933 -693.84613858249213 0 0 0 0 -418.08532430326704 910.27026116137108 0 910.27026116137108 -539.05403296402801 0 0 0 0 -251.57383700716855 281.92997298759349 0 281.92997298759349 195.151122714964 0 0 0 0 -651.78732526212116 987.63521872909041 0 987.63521872909041 -91.938539703888637 0 0 0 0 -5.4778955007158743 6.2692529687416112 0 6.2692529687416112 -5.6316449684171062 0 0 0 0 -8.8701706442330988 13.330427040862546 0 13.330427040862546 -16.512310960835094 0 0 0 0 425.12980162662097 533.48378321985683 0 533.48378321985683 177.98558542387036 0 0 0 0 331.73637919044995 111.43590343262258 0 111.43590343262258 -198.47544256110632 0 0 0 0 -46.740768779356586 -143.14734123055769 0 -143.14734123055769 -172.16023521558964 0 0 0 0 -66.142382787817041 -186.4366201969824 0 -186.4366201969824 30.281897266704618 0 0 0 0 -26.410473602440419 2.7428065031933357 0 2.7428065031933357 -1.5524611807915005 0 0 0 0 423.51039122500515 -298.60473286508204 0 -298.60473286508204 198.09376315984991 0 0 0 0 274.24801362050493 119.73066845245467 0 119.73066845245467 -440.38093316922823 0 0 0 0 -7.5913493132647716 0.21501900099447369 0 0.21501900099447369 -1.3013223094514235 0 0 0 0 59.36533216535463 -7.6535592204309069 0 -7.6535592204309069 -1265.25772181394 0 0 0 0 -44.368095610840101 -70.018431850445722 0 -70.018431850445722 -957.08013721100724 0 0 0 0 33.603331413978594 173.25333060415687 0 173.25333060415687 -782.19296314463281 0 0 0 0 165.13245125578396 -996.094116027989 0 -996.094116027989 -1799.3477039967001 0 0 0 0 0.18757219858525787 89.255500610661329 0 89.255500610661329 110.43573044068944 0 0 0 0 -2.9903851533316015 4.6807653983371154 0 4.6807653983371154 -10.340305343031815 0 0 0 0 -252.12524573651172 -170.00425350099067 0 -170.00425350099067 -1116.520906246813 0 0 0 0 -236.87019706593128 -346.51951226166784 0 -346.51951226166784 212.44753019683412 0 0 0 0 95.930377355747623 1072.8646456616189 0 1072.8646456616189 -550.45456063962411 0 0 0 0 123.46294320856396 241.08037255431373 0 241.08037255431373 128.24017970569548 0 0 0 0 -7.4121879520863558 12.954359739249377 0 12.954359739249377 -18.939164212796413 0 0 0 0 105.53303366272303 116.96082522923825 0 116.96082522923825 110.39393808604837 0 0 0 0 0.012933455625898205 170.80985049481387 0 170.80985049481387 110.61167302260583 0 0 0 0 101.34622838407813 129.51942586185942 0 129.51942586185942 -111.94637800256533 0 0 0 0 91.57449493126478 93.305238612218091 0 93.305238612218091 116.98209869566767 0 0 0 0 245.7080145128275 262.19527324185219 0 262.19527324185219 -111.25036649661342 0 0 0 0 89.370995762219536 198.88915989032648 0 198.88915989032648 -113.76952041215321 0 0 0 0 0.030123304604785517 240.70850679497926 0 240.70850679497926 -162.20152632306872 0 0 0 0 41.160994105441205 271.80298102703273 0 271.80298102703273 -565.00053332285461 0 0 0 0 143.59519420692232 114.65344978243047 0 114.65344978243047 -584.79335319516758 0 0 0 0 0.19669248181889998 331.60097476693227 0 331.60097476693227 -639.17294135171323 0 0 0 0 62.114272330203676 338.89586309656261 0 338.89586309656261 -693.94909372714392 0 0 0 0 193.75565844081575 308.54436262648414 0 308.54436262648414 -712.91336833337391 0 0 0 0 17.978140432576765 416.7914263975581 0 416.7914263975581 -757.6443463825417 0 0 0 0 114.72973677358095 515.63128063554814 0 515.63128063554814 -1056.4420977304362 0 0 0 0 253.30596672931216 319.64730482562231 0 319.64730482562231 -1639.1937946031758 0 0 0 0 254.40998304798268 48.839596669742605 0 48.839596669742605 -709.41498651553775 0 0 0 0 -681.41362074304925 866.27032721873002 0 866.27032721873002 -733.50851325687472 0 0 0 0 -204.18238379689865 601.47753811723851 0 601.47753811723851 -682.27480890332299 0 0 0 0 -201.66207468489301 506.91389075115148 0 506.91389075115148 -471.3344291597823 0 0 0 0 -72.128654011568869 435.82798153567637 0 435.82798153567637 -534.94133271869032 0 0 0 0 -168.36758248309798 344.97728467783458 0 344.97728467783458 -324.59608232819301 0 0 0 0 -166.1423536957841 402.89080991791235 0 402.89080991791235 -526.79684297997301 0 0 0 0 -431.72344704980787 300.39456169287587 0 300.39456169287587 -157.20377229249425 0 0 0 0 -252.94813943444751 480.20509433030747 0 480.20509433030747 -484.23334621507092 0 0 0 0 -111.42276231966389 269.15297062763602 0 269.15297062763602 -429.30172719962684 0 0 0 0 -97.96032416333037 45.039635239696509 0 45.039635239696509 -168.41430457418153 0 0 0 0 1.8511038470260814 3.9004918951740919 0 3.9004918951740919 1.6248563332266759 0 0 0 0 12.46488627846702 5.2974105514276744 0 5.2974105514276744 -11.40697885237023 0 0 0 0 4.747789460453248 3.1072524474887047 0 3.1072524474887047 -2.9536106580577979 0 0 0 0 2.5795460197297757 7.0911708374703721 0 7.0911708374703721 -1.4149392840851931 0 0 0 0 -0.58582515288060222 -0.85271984788499111 0 -0.85271984788499111 1.2593044299475342 0 0 0 0 -5.2958589563919531 1.5008169792132193 0 1.5008169792132193 4.2055769580343645 0 0 0 0 -126.05387460143538 278.25684086123147 0 278.25684086123147 -433.57851760626727 0 0 0 0 -144.54088249908818 187.45184740568948 0 187.45184740568948 -148.81722552810425 0 0 0 0 -9.422070237043954 0.5014492791306111 0 0.5014492791306111 13.669849834848719 0 0 0 0 -72.106268860734417 283.6441102042354 0 283.6441102042354 -459.50686194667651 0 0 0 0 -72.874205715139396 306.08607612640481 0 306.08607612640481 -631.78875151754619 0 0 0 0 48.435978271998465 119.81550025980869 0 119.81550025980869 -488.32894383005987 0 0 0 0 -0.16112260851514293 347.71717990025536 0 347.71717990025536 -731.49171989087699 0 0 0 0 -1.8527268363348526 -1.373378436126135 0 -1.373378436126135 -1.1198435757107785 0 0 0 0 32.519513321309205 232.80778756902919 0 232.80778756902919 -933.9343933728469 0 0 0 0 -35.200793250915012 337.67392473614927 0 337.67392473614927 -693.81488313110822 0 0 0 0 -70.59591320277832 430.79551676556002 0 430.79551676556002 -660.49537713683821 0 0 0 0 -32.211580478769974 360.1610085608479 0 360.1610085608479 -587.07180330825213 0 0 0 0 -477.04987641143089 333.35114445056024 0 333.35114445056024 -145.86169210088337 0 0 0 0 -558.5721298926801 399.52068418382623 0 399.52068418382623 -35.39323081697512 0 0 0 0 -654.53520516965364 312.09559450202869 0 312.09559450202869 -76.802301585579698 0 0 0 0 -617.15903555267141 252.50099500759097 0 252.50099500759097 -253.64861592756642 0 0 0 0 -703.3553216364453 310.4093135982821 0 310.4093135982821 -62.187330515520443 0 0 0 0 -89.169517671711219 -20.354805506951379 0 -20.354805506951379 -26.799845166045998 0 0 0 0 1.2511890228342963 -61.03574168608975 0 -61.03574168608975 -44.277412087605626 0 0 0 0 -0.49499983025452821 46.526787296228576 0 46.526787296228576 -9.386497023224365 0 0 0 0 0.31645307649813148 9.5030576432108234 0 9.5030576432108234 26.930348003937326 0 0 0 0 -431.71125380053127 142.44632800871113 0 142.44632800871113 30.187118818168528 0 0 0 0 -643.24077367378777 235.91396334726596 0 235.91396334726596 -10.922699567832751 0 0 0 0 -385.0625143248908 328.38439684701734 0 328.38439684701734 -101.92156347418495 0 0 0 0 -309.25036219866888 376.17235914263074 0 376.17235914263074 -170.53591610906096 0 0 0 0 -343.74490583789884 338.71268203130603 0 338.71268203130603 -116.0198809982594 0 0 0 0 -348.60956185784016 360.64746224679402 0 360.64746224679402 -115.7361762287037 0 0 0 0 -379.19791902389261 425.77122180571314 0 425.77122180571314 -184.81481458810413 0 0 0 0 -487.03683637933864 358.92452311760826 0 358.92452311760826 -117.77891927737801 0 0 0 0 -316.70238266421075 409.22528065969163 0 409.22528065969163 -238.37818650649569 0 0 0 0 -273.52289404260227 392.21092837370816 0 392.21092837370816 -273.29709878607991 0 0 0 0 -317.42527400418476 460.59227143094085 0 460.59227143094085 -282.5674691190361 0 0 0 0 -308.55231862439541 430.17025726091379 0 430.17025726091379 -200.21553622726788 0 0 0 0 -348.51193555247301 528.30501778449252 0 528.30501778449252 -198.68496968816908 0 0 0 0 -368.69142506073695 508.81541105884753 0 508.81541105884753 -174.06024547861671 0 0 0 0 -340.89291728880198 453.77386042743819 0 453.77386042743819 -216.08028146235665 0 0 0 0 -391.12037753578625 425.93149802482367 0 425.93149802482367 -124.92313457124692 0 0 0 0 -421.36273255864216 506.46384586647218 0 506.46384586647218 -26.500698171286786 0 0 0 0 -508.57999604206998 404.27000133696856 0 404.27000133696856 -128.87380568181834 0 0 0 0 -580.72137708870287 504.16498640850477 0 504.16498640850477 -26.451145016537282 0 0 0 0 -604.97793642595934 490.80433868294494 0 490.80433868294494 262.02514429255098 0 0 0 0 -479.2457504341437 645.44229721260126 0 645.44229721260126 170.21268574466376 0 0 0 0 -362.77667497168295 638.6016670965455 0 638.6016670965455 -107.29006847850542 0 0 0 0 -659.70127144217258 685.80672793666599 0 685.80672793666599 169.38271196970163 0 0 0 0 -513.04154097540595 754.71950430545257 0 754.71950430545257 171.17479922242637 0 0 0 0 -800.71878803665459 444.25411864135822 0 444.25411864135822 311.66096757721971 0 0 0 0 -748.96843227310455 719.48362856854874 0 719.48362856854874 601.94176187740959 0 0 0 0 -729.1544783917052 719.65700030700646 0 719.65700030700646 224.60284112388035 0 0 0 0 -1126.6591403028397 681.35853896178014 0 681.35853896178014 1221.1532431368687 0 0 0 0 -806.73494231884979 441.21895851654153 0 441.21895851654153 358.99446089715639 0 0 0 0 -802.91927369704354 307.64993896577653 0 307.64993896577653 361.34887716490107 0 0 0 0 -958.703409624708 21.269266684630566 0 21.269266684630566 -84.561571592988912 0 0 0 0 -716.80179310913081 306.80884276278812 0 306.80884276278812 -24.014488697372144 0 0 0 0 -0.083249606771072848 4.7072624582327762 0 4.7072624582327762 10.482912215845687 0 0 0 0 -1454.2050371890873 232.03369727605423 0 232.03369727605423 620.38150601658708 0 0 0 0 863.62608285760507 832.00044638472536 0 832.00044638472536 772.76186145698011 0 0 0 0 0.12103834460140206 1184.5586242829067 0 1184.5586242829067 1661.3758286689117 0 0 0 0 -150.15531413395365 1515.8267512224993 0 1515.8267512224993 1014.4607763234771 0 0 0 0 325.14895290385175 989.78151269938098 0 989.78151269938098 449.48690142393752 0 0 0 0 -152.06523183536774 1145.1420286461471 0 1145.1420286461471 448.5384041270965 0 0 0 0 -586.81399415948545 1119.7444993997015 0 1119.7444993997015 655.30870976072765 0 0 0 0 -600.46374939086263 931.72601606334024 0 931.72601606334024 217.0844225952751 0 0 0 0 -105.53509003481304 1384.5512238229894 0 1384.5512238229894 32.759934187997715 0 0 0 0 -272.56837810065917 1069.6959629368539 0 1069.6959629368539 -289.7998503205672 0 0 0 0 -136.4102381098055 1218.3580879615583 0 1218.3580879615583 -496.44309775071451 0 0 0 0 -44.360074860291206 960.43581057813572 0 960.43581057813572 -824.30933567955435 0 0 0 0 0.48387401906802552 1321.5165713602619 0 1321.5165713602619 -234.76840870730666 0 0 0 0 -1.6455489183208556 1287.5169008079574 0 1287.5169008079574 -1141.9150290568141 0 0 0 0 -35.86103942990303 752.98077385727811 0 752.98077385727811 -866.46566180104492 0 0 0 0 389.4914665644601 -57.669063765942155 0 -57.669063765942155 -2581.2903124480799 0 0 0 0 360.42147976169326 -37.960837441466538 0 -37.960837441466538 -1088.9340568762491 0 0 0 0 234.24696769055299 1067.7944940412217 0 1067.7944940412217 -2055.622354432373 0 0 0 0 58.737511777217151 257.55284911441049 0 257.55284911441049 -559.72341791673534 0 0 0 0 21.351333008584334 117.82455440243939 0 117.82455440243939 -1052.4707501344092 0 0 0 0 -96.341712782992545 695.0834736953293 0 695.0834736953293 -692.19480926250253 0 0 0 0 -159.3346401392846 533.75814678368261 0 533.75814678368261 -27.323644152362249 0 0 0 0 -20.956137472800037 399.15578398483285 0 399.15578398483285 -78.394663401566504 0 0 0 0 3.7498912405280862 258.37338382775852 0 258.37338382775852 -554.61029994517594 0 0 0 0 -370.05009115763824 721.67707450710259 0 721.67707450710259 1169.7332710600531 0 0 0 0 -1.9540743767029483 4.157992190982462 0 4.157992190982462 -1.831103002539102 0 0 0 0 -134.38101119863859 481.1176223392813 0 481.1176223392813 -1001.9693763859832 0 0 0 0 -276.79944664434879 1040.2321037352885 0 1040.2321037352885 -123.09397602976242 0 0 0 0 -388.24290985420521 965.8312727380362 0 965.8312727380362 -172.00771434213311 0 0 0 0 -605.51570973734488 768.71162593688859 0 768.71162593688859 12.848467497646197 0 0 0 0 -747.83743371573291 757.5228516233808 0 757.5228516233808 282.42891920862894 0 0 0 0 -738.0078332097055 858.06031614615335 0 858.06031614615335 140.09617866779445 0 0 0 0 17.327089807724406 46.633674864406203 0 46.633674864406203 208.86402556837584 0 0 0 0 446.11089418883057 511.35954234075325 0 511.35954234075325 185.4417268159159 0 0 0 0 71.992258825790486 477.97875830700468 0 477.97875830700468 628.22606597430058 0 0 0 0 213.02859588772117 214.79062195670849 0 214.79062195670849 -34.486197308495321 0 0 0 0 -4.2225457499955894 9.3082958797778872 0 9.3082958797778872 -4.6305022345139548 0 0 0 0 168.93929653076157 568.67202545519172 0 568.67202545519172 510.89385435503937 0 0 0 0 240.60128858161625 26.598648535567918 0 26.598648535567918 218.60851433159405 0 0 0 0 73.696415101127059 110.07288716758922 0 110.07288716758922 73.741141926308046 0 0 0 0 237.99310061118013 275.95837080319143 0 275.95837080319143 -291.65266540802986 0 0 0 0 -13.156334845960373 149.23604280311702 0 149.23604280311702 -348.56678727319377 0 0 0 0 203.50317948487645 344.89513889273803 0 344.89513889273803 -467.7883700574821 0 0 0 0 57.419602535883314 -41.122175434284145 0 -41.122175434284145 -418.47760860543713 0 0 0 0 89.488536927456153 223.85282245869894 0 223.85282245869894 -592.68415459380412 0 0 0 0 128.57149788471725 390.20720338237697 0 390.20720338237697 -1244.6970090212926 0 0 0 0 134.49672599758196 323.16067157331418 0 323.16067157331418 -516.47680297491388 0 0 0 0 79.769296557926282 218.95413519283284 0 218.95413519283284 -231.83391064305761 0 0 0 0 -3.7840848762376993 9.8605302110717261 0 9.8605302110717261 -5.0205715199216812 0 0 0 0 62.061710827063507 388.68107931493068 0 388.68107931493068 12.139922645590559 0 0 0 0 94.097917734761722 339.24818191643499 0 339.24818191643499 343.89844374990207 0 0 0 0 246.22910649949335 336.95722945077614 0 336.95722945077614 300.48635575614753 0 0 0 0 227.62979691576174 415.55211479009608 0 415.55211479009608 377.44622218782752 0 0 0 0 164.98329522207496 487.34091444889782 0 487.34091444889782 552.76293014690418 0 0 0 0 22.882724135553872 357.0750042063446 0 357.0750042063446 400.53631765828595 0 0 0 0 44.056567028179416 180.84785588571685 0 180.84785588571685 198.00760782254656 0 0 0 0 88.97640488709294 196.10087763482443 0 196.10087763482443 164.66056266322266 0 0 0 0 30.242903919111995 8.4412203785750535 0 8.4412203785750535 97.666443176691246 0 0 0 0 2.8645822755661356 34.434616871334583 0 34.434616871334583 -21.984334832202876 0 0 0 0 58.330107274028705 43.322523187158367 0 43.322523187158367 -20.640615323879501 0 0 0 0 -10.123818821302848 92.429265672775728 0 92.429265672775728 -24.808861985685326 0 0 0 0 53.268735758938419 33.704473455807602 0 33.704473455807602 -50.387379496753056 0 0 0 0 33.080370564530313 547.51170845542583 0 547.51170845542583 -326.14500739724463 0 0 0 0 0.60752678563581242 3.7697692416674045 0 3.7697692416674045 9.4988511669408808 0 0 0 0 -105.32471096155859 28.469747085593553 0 28.469747085593553 491.92935734398998 0 0 0 0 -86.593614378733037 933.15285716882136 0 933.15285716882136 40.529993547494087 0 0 0 0 -525.25512281876217 869.58371097589816 0 869.58371097589816 496.4616661151158 0 0 0 0 -364.61936818178219 619.36766585733858 0 619.36766585733858 -260.3997504835279 0 0 0 0 -756.63617697496375 452.31499414764767 0 452.31499414764767 -237.76757247263595 0 0 0 0 -633.31988736431231 515.39923447445108 0 515.39923447445108 -296.39673244681399 0 0 0 0 -368.19689445974382 476.32330186148602 0 476.32330186148602 -349.76004023509449 0 0 0 0 -339.00017306911468 540.56076322038643 0 540.56076322038643 -300.10395336367878 0 0 0 0 -347.38619613934861 583.13984605663427 0 583.13984605663427 -215.0223762507012 0 0 0 0 -323.60937479573477 448.26690793503803 0 448.26690793503803 -305.09934827919187 0 0 0 0 -380.68927292620356 475.32142960860438 0 475.32142960860438 -298.11631099204533 0 0 0 0 -468.3592317241928 453.03557721880861 0 453.03557721880861 -347.70591704846447 0 0 0 0 -381.97209479891853 511.32982316863138 0 511.32982316863138 -361.70297574678261 0 0 0 0 -664.21103017465794 568.78356945925407 0 568.78356945925407 -251.43778675672365 0 0 0 0 -671.03703266380762 549.01167496525159 0 549.01167496525159 -301.14375725592981 0 0 0 0 -818.50949424615828 500.45713535876712 0 500.45713535876712 -271.26150292654347 0 0 0 0 -735.73240495065693 536.0193847939081 0 536.0193847939081 -317.93527682431159 0 0 0 0 -827.43274038357777 500.85000990604749 0 500.85000990604749 -271.19371325300199 0 0 0 0 -947.90026077846414 513.57710984627192 0 513.57710984627192 -179.27068688224244 0 0 0 0 -959.56598260856117 415.33934229968872 0 415.33934229968872 -308.78853496501688 0 0 0 0 -922.86211937817279 460.22569196112454 0 460.22569196112454 -254.50782802390677 0 0 0 0 -880.57864286070981 413.44501103902439 0 413.44501103902439 -354.6583366576524 0 0 0 0 -816.30780490653706 472.17234870838001 0 472.17234870838001 -301.12328874482773 0 0 0 0 -823.49172365095001 519.64185899611039 0 519.64185899611039 -234.72712079616031 0 0 0 0 -886.76130929874489 478.52406241347489 0 478.52406241347489 -259.31502636807272 0 0 0 0 -885.68142051238101 482.2520673484978 0 482.2520673484978 -258.02861559853409 0 0 0 0 -906.44313570026134 558.20471916226234 0 558.20471916226234 -132.73224716969708 0 0 0 0 -878.21997034321248 603.54470369028422 0 603.54470369028422 -215.95127063364635 0 0 0 0 -920.24180210509803 602.69165725442872 0 602.69165725442872 -121.00253348049955 0 0 0 0 0.62620151826513393 2.791926965883988 0 2.791926965883988 -4.581847610491252 0 0 0 0 -930.28604196094966 570.9265876070549 0 570.9265876070549 -70.342599697964033 0 0 0 0 127.05359860915632 -16.713750340466504 0 -16.713750340466504 -57.330885998821032 0 0 0 0 -954.17843364887631 527.06296158513521 0 527.06296158513521 -142.64962743770593 0 0 0 0 42.90063795192691 25.083087941988197 0 25.083087941988197 -3.912245597328365 0 0 0 0 10.86577536234546 12.312866337781625 0 12.312866337781625 -27.770944263031865 0 0 0 0 3.4077398273659014 12.119736908716732 0 12.119736908716732 21.404328152144231 0 0 0 0 -743.9243274719006 633.52444132856817 0 633.52444132856817 -310.38837456634064 0 0 0 0 -631.91676738505384 545.76898678562634 0 545.76898678562634 -440.72326612641336 0 0 0 0 -811.46638886535948 420.82947017164042 0 420.82947017164042 -466.69211240837467 0 0 0 0 -692.43278337654192 492.96478005744575 0 492.96478005744575 -482.70218523296353 0 0 0 0 -924.7590131930192 389.87754198079347 0 389.87754198079347 -343.72214354635071 0 0 0 0 -46.290197188357979 385.11883589322383 0 385.11883589322383 -552.53871639195131 0 0 0 0 -2073.8259925980929 316.25785743631968 0 316.25785743631968 107.38689937142408 0 0 0 0 -1.7683423498410935 32.765927434674225 0 32.765927434674225 -21.96632558791606 0 0 0 0 497.53035991371871 27.131541246106281 0 27.131541246106281 -395.63161314504396 0 0 0 0 216.1308888354979 -195.31782578076673 0 -195.31782578076673 -2.0886072090529524 0 0 0 0 -57.81542900466593 87.141301496678352 0 87.141301496678352 25.935419364992413 0 0 0 0 22.538776972323831 -34.64734950428101 0 -34.64734950428101 -183.67443056507909 0 0 0 0 8.3055680611360003 58.411170695901092 0 58.411170695901092 91.258895767008653 0 0 0 0 301.69810617152689 692.67235253332547 0 692.67235253332547 -157.61108390564186 0 0 0 0 -238.03145532565031 291.83555953259747 0 291.83555953259747 191.16534580483858 0 0 0 0 786.63182174654867 318.25068368678694 0 318.25068368678694 -317.8777042793954 0 0 0 0 860.22714354831623 582.09019653949827 0 582.09019653949827 -285.62182492810825 0 0 0 0 -2.6488319252416943 6.9459303934949048 0 6.9459303934949048 -5.6958619653815674 0 0 0 0 1330.9815366585026 485.84112262034614 0 485.84112262034614 -301.59260604014707 0 0 0 0 652.80518574269081 482.66159936039912 0 482.66159936039912 98.998037637133166 0 0 0 0 864.30548448031914 538.98790020509841 0 538.98790020509841 83.428581485284667 0 0 0 0 511.35970214811823 609.33509681250871 0 609.33509681250871 480.04137416146477 0 0 0 0 914.49038023025059 675.8246929564084 0 675.8246929564084 238.16528565452609 0 0 0 0 379.76172240499 465.83393581140626 0 465.83393581140626 368.84745421830303 0 0 0 0 -1217.8025468200431 65.625214778032387 0 65.625214778032387 231.51537859217206 0 0 0 0 -5.9622898914569085 15.902806830043296 0 15.902806830043296 -21.114913468266309 0 0 0 0 -1520.7325340546668 -466.93704940450334 0 -466.93704940450334 12.078578326511888 0 0 0 0 -46.704164117880282 -178.07542828562873 0 -178.07542828562873 51.803742936540402 0 0 0 0 -941.17925913308864 327.62571179907718 0 327.62571179907718 -118.94027268678474 0 0 0 0 -546.17084185846761 -129.88575070115985 0 -129.88575070115985 -92.525222631018551 0 0 0 0 -252.68945989533859 485.60778138973637 0 485.60778138973637 114.94417650564719 0 0 0 0 -23.114103682681858 28.849795380878522 0 28.849795380878522 -23.721008695978881 0 0 0 0 -487.60828261509596 170.88051985819448 0 170.88051985819448 243.56895856200572 0 0 0 0 -4.5964069150949243 6.4394775820380943 0 6.4394775820380943 -1.0775571580227847 0 0 0 0 -33.878498138765281 71.194985314767109 0 71.194985314767109 79.542679121404944 0 0 0 0 2.886733336825273 17.134649078769144 0 17.134649078769144 77.789315401811109 0 0 0 0 -3.9537166190930293 44.66141047158635 0 44.66141047158635 27.115155781895737 0 0 0 0 10.043207250259002 176.24513870054216 0 176.24513870054216 137.93558482558728 0 0 0 0 -13.149403830695064 8.7533311859891114 0 8.7533311859891114 -7.0505627037945544 0 0 0 0 4.7483663100047124 139.05719377920104 0 139.05719377920104 -420.93761386638653 0 0 0 0 40.426462092655129 -6.7317058300141071 0 -6.7317058300141071 -37.275298497035692 0 0 0 0 -2.3173254113644361 248.27294626625007 0 248.27294626625007 -245.57881372987686 0 0 0 0 -64.109631278828601 302.25112300481487 0 302.25112300481487 -36.016385406874178 0 0 0 0 -325.8797280650324 695.92326793594839 0 695.92326793594839 -620.58415263532515 0 0 0 0 -497.06199115521486 725.94520615279453 0 725.94520615279453 -97.793562981714786 0 0 0 0 -219.81779718685721 455.6890956683601 0 455.6890956683601 164.01812052629248 0 0 0 0 130.85324838724046 224.4013037262921 0 224.4013037262921 60.832472275429609 0 0 0 0 -216.63214929722017 418.22052482398431 0 418.22052482398431 481.47605121746892 0 0 0 0 -96.771319115810911 716.91898632273296 0 716.91898632273296 255.49579602592712 0 0 0 0 -114.40910323696517 491.70416815286626 0 491.70416815286626 1177.1434562365575 0 0 0 0 -1.1843147438833626 5.1197594349900086 0 5.1197594349900086 -2.7756538080789355 0 0 0 0 -214.66023419325938 570.26727213762933 0 570.26727213762933 210.50488460373708 0 0 0 0 -390.69056442112196 313.33095236998088 0 313.33095236998088 -17.724755537936289 0 0 0 0 -108.15290474316134 639.08890858943778 0 639.08890858943778 -166.85525290884107 0 0 0 0 411.83525933817509 136.24933831292765 0 136.24933831292765 -196.54809271830163 0 0 0 0 36.980189488197993 474.07223081478469 0 474.07223081478469 -349.42248586585629 0 0 0 0 16.329118133542579 235.00545512393296 0 235.00545512393296 -15.564700525967055 0 0 0 0 -270.93875032788492 324.41797096569644 0 324.41797096569644 -42.002159781164664 0 0 0 0 -269.26540754066082 585.8807884556627 0 585.8807884556627 -532.50189643072736 0 0 0 0 -2520.4886198055137 1116.2650550385888 0 1116.2650550385888 -580.79521403001127 0 0 0 0 0.11955404427862959 -67.918734200116887 0 -67.918734200116887 -1760.2025741798643 0 0 0 0 348.6183061013071 147.86100123440701 0 147.86100123440701 -1374.3651710616068 0 0 0 0 -1.1399009555321022 1.6196794002055839 0 1.6196794002055839 -13.229854982612636 0 0 0 0 0.27894178782051426 1.7903133155563324 0 1.7903133155563324 8.2111865043273156 0 0 0 0 -192.38143414830847 1071.4549380545723 0 1071.4549380545723 -1798.6995507192696 0 0 0 0 -447.93712702214543 567.94569867859173 0 567.94569867859173 -984.22451671659655 0 0 0 0 -211.57077233793825 41.769884374214598 0 41.769884374214598 94.426004469307372 0 0 0 0 -243.80755108911035 76.998783135624763 0 76.998783135624763 339.31101059660432 0 0 0 0 -0.78560660751463729 15.899409588797155 0 15.899409588797155 15.965560885465635 0 0 0 0 -31.951343880937202 106.70456437094981 0 106.70456437094981 117.85528821612206 0 0 0 0 -639.04688961796637 307.40030749857397 0 307.40030749857397 -356.29651230398667 0 0 0 0 0.58421844815629242 13.967098086436799 0 13.967098086436799 -34.775235359365652 0 0 0 0 -1219.9442153886484 381.55970255448847 0 381.55970255448847 57.651055304853799 0 0 0 0 -388.62810934161098 460.25854392516521 0 460.25854392516521 -38.532030128779297 0 0 0 0 -596.87922923685983 275.99650438324898 0 275.99650438324898 -84.842871372326044 0 0 0 0 -2.6432078820460987 14.81497764919132 0 14.81497764919132 5.5554209355677528 0 0 0 0 -37.314649111081962 303.39686153291404 0 303.39686153291404 -199.7859483856746 0 0 0 0 -1404.5173694630648 626.88764529604668 0 626.88764529604668 222.50269692805159 0 0 0 0 -678.26708712141954 254.01864457065449 0 254.01864457065449 410.72092922353477 0 0 0 0 -2.7234291096750169 21.710510944746517 0 21.710510944746517 -32.005235589838605 0 0 0 0 -1713.5091614406701 -226.71101779493983 0 -226.71101779493983 1390.8879158181298 0 0 0 0 20.086279369326803 242.03748650148191 0 242.03748650148191 -2051.2695791620208 0 0 0 0 59.352409566779897 113.61560183424717 0 113.61560183424717 -40.601794305504882 0 0 0 0 1155.1836447385904 508.34050841199496 0 508.34050841199496 -229.32001139190106 0 0 0 0 -132.38981903676176 38.836830390049727 0 38.836830390049727 194.83519700505713 0 0 0 0 1.7866927991408659 2.9767738827791277 0 2.9767738827791277 4.3356240974119373 0 0 0 0 708.02827613997943 1200.4904440696628 0 1200.4904440696628 106.77196572927642 0 0 0 0 407.28890017414233 989.23272243111933 0 989.23272243111933 -41.605180347669375 0 0 0 0 431.5503152776073 903.07135170072434 0 903.07135170072434 257.04081233867328 0 0 0 0 -460.55350561839441 1029.2150589742669 0 1029.2150589742669 239.27923490312423 0 0 0 0 1215.5291063075056 685.53353550864995 0 685.53353550864995 -122.1574148997388 0 0 0 0 215.18515194107749 612.78922216111823 0 612.78922216111823 -127.43573785446642 0 0 0 0 202.02985762826575 995.47169614418817 0 995.47169614418817 41.688690860370116 0 0 0 0 -15.550464213964005 722.69745380557288 0 722.69745380557288 -39.100165570667741 0 0 0 0 -755.91082690081384 410.52049245009039 0 410.52049245009039 50.166302340554466 0 0 0 0 -183.35733685608648 843.3636265260775 0 843.3636265260775 -54.177745788481843 0 0 0 0 168.26641882905096 629.80909288310795 0 629.80909288310795 102.11414348108792 0 0 0 0 339.08117822600616 1176.5583878636844 0 1176.5583878636844 173.97939210928598 0 0 0 0 985.31864955539277 1681.7158650418187 0 1681.7158650418187 1226.1989669470131 0 0 0 0 165.38379248887941 -601.8885272602638 0 -601.8885272602638 1098.918378711649 0 0 0 0 301.7021782678421 -59.176998445240315 0 -59.176998445240315 -685.64333449655157 0 0 0 0 219.15079690114544 -310.44779610466958 0 -310.44779610466958 -711.37413954666408 0 0 0 0 -289.43426316283512 977.28308992888742 0 977.28308992888742 20.751477775542298 0 0 0 0 40.565618457745586 -241.71060101372495 0 -241.71060101372495 -729.3579526896574 0 0 0 0 -1391.9864583457638 714.32346881162812 0 714.32346881162812 980.74526440615591 0 0 0 0 2217.3999409653698 1587.4053253607344 0 1587.4053253607344 -1359.5598639960072 0 0 0 0 12.124648114866361 13.564769824499081 0 13.564769824499081 14.299987472922979 0 0 0 0 2711.2345364608882 246.62309717587232 0 246.62309717587232 -196.08076865400653 0 0 0 0 -1345.269115783401 556.08600478602807 0 556.08600478602807 1023.3492507830415 0 0 0 0 318.0649194594298 288.8757372173859 0 288.8757372173859 -20.96453099057544 0 0 0 0 39.013536102365507 36.510370518658974 0 36.510370518658974 31.392778952846243 0 0 0 0 526.67609280598117 176.75086971010751 0 176.75086971010751 -198.29743287258771 0 0 0 0 375.23421533711371 333.29864401953637 0 333.29864401953637 314.04082844515506 0 0 0 0 204.61033188196961 78.287087500437337 0 78.287087500437337 -7.8446765269036405 0 0 0 0 -250.15184096553821 249.39418889629906 0 249.39418889629906 500.09445647422399 0 0 0 0 -61.262006706334432 565.37674723061718 0 565.37674723061718 119.78854901490558 0 0 0 0 26.02054085971038 26.57921417275152 0 26.57921417275152 11.665453707187908 0 0 0 0 282.11075548662484 394.37441822901019 0 394.37441822901019 -218.22512698038918 0 0 0 0 -21.861733389147417 7.6221114491394246 0 7.6221114491394246 -4.2164914327723082 0 0 0 0 -108.1400467114654 549.56250091307447 0 549.56250091307447 601.5396326702139 0 0 0 0 357.46736917534872 1582.5089269655291 0 1582.5089269655291 -255.43332971989003 0 0 0 0 1581.5096842804487 775.21626260413905 0 775.21626260413905 -744.53927638553432 0 0 0 0 1101.7153848299713 156.7109375832224 0 156.7109375832224 513.07545402366668 0 0 0 0 964.28155602327388 346.2003597530329 0 346.2003597530329 267.01958870863018 0 0 0 0 695.68368648586329 868.75695678935153 0 868.75695678935153 507.27801952704613 0 0 0 0 888.07315813576861 582.25606430419612 0 582.25606430419612 -452.00200150816818 0 0 0 0 475.32829513546312 804.86044186968502 0 804.86044186968502 361.17114329858305 0 0 0 0 319.39318846914466 1305.7044194781774 0 1305.7044194781774 -1189.3805114930146 0 0 0 0 -1731.853926116084 710.78567964865942 0 710.78567964865942 2983.5925169238908 0 0 0 0 638.11101061286172 1170.0280880765276 0 1170.0280880765276 -2361.7959395057696 0 0 0 0 8.6309660281109757 10.805207481471157 0 10.805207481471157 5.1336029792878364 0 0 0 0 425.3717107118573 394.2607821631027 0 394.2607821631027 -2032.5755476643244 0 0 0 0 280.61140133445861 760.1855838619822 0 760.1855838619822 -144.18890088045737 0 0 0 0 126.7045453261162 140.37130026861996 0 140.37130026861996 -235.26084704644381 0 0 0 0 296.96811464350321 297.80364371940959 0 297.80364371940959 -651.85521699406672 0 0 0 0 655.30606027422618 335.11971139394154 0 335.11971139394154 -256.07991043714719 0 0 0 0 649.28575431364879 401.59663756560985 0 401.59663756560985 -637.10387615899526 0 0 0 0 526.50704830716859 254.88694961228248 0 254.88694961228248 -93.268157966595027 0 0 0 0 462.95170100634277 273.38196204919586 0 273.38196204919586 144.90701350607924 0 0 0 0 630.92234994858882 430.74318982802652 0 430.74318982802652 -75.54835881186591 0 0 0 0 138.85669231967768 1232.0794639138549 0 1232.0794639138549 -196.78735805424367 0 0 0 0 689.01081688355771 620.28070317504898 0 620.28070317504898 -96.28670047327978 0 0 0 0 664.64777873062849 2044.06814176029 0 2044.06814176029 1055.8029135143452 0 0 0 0 -357.26055050715149 -138.27674737362668 0 -138.27674737362668 723.22999824051658 0 0 0 0 -363.11791667887155 116.51512908631412 0 116.51512908631412 -644.34605650793674 0 0 0 0 15.753960170644859 912.34975271628355 0 912.34975271628355 -1557.608011866716 0 0 0 0 2249.0955489850094 973.6163526266173 0 973.6163526266173 656.09958221130546 0 0 0 0 776.99030017234691 1478.298124068142 0 1478.298124068142 -3799.5275685167144 0 0 0 0 146.05952354070905 1294.4835398014984 0 1294.4835398014984 611.89224577299501 0 0 0 0 1201.1318093543559 647.40813956133934 0 647.40813956133934 45.754307932635129 0 0 0 0 794.64558460845728 431.24287039292904 0 431.24287039292904 445.98261896361691 0 0 0 0 490.56589671895199 509.61562491856239 0 509.61562491856239 426.88047199364155 0 0 0 0 723.27518696699553 435.98231190298611 0 435.98231190298611 -8.0230428359991492 0 0 0 0 476.44110850005654 572.30615535832658 0 572.30615535832658 1170.7449944043692 0 0 0 0 783.65965935755958 770.63699311243181 0 770.63699311243181 1182.08268828162 0 0 0 0 568.16967500287865 285.47463902751588 0 285.47463902751588 1386.9325061057898 0 0 0 0 535.6984492279953 670.60032806281379 0 670.60032806281379 1856.3174198100387 0 0 0 0 637.01764503414597 825.968697293476 0 825.968697293476 1041.9086741898464 0 0 0 0 1087.2064883881903 1568.1766238061828 0 1568.1766238061828 1597.9496260222659 0 0 0 0 857.06873817442465 1008.804672529368 0 1008.804672529368 1104.6450156199717 0 0 0 0 741.93061891479556 1717.4888458469341 0 1717.4888458469341 2266.250380862446 0 0 0 0 1847.2700216828998 962.43301348002751 0 962.43301348002751 522.94093905979389 0 0 0 0 18.40452168204024 10.0795667155435 0 10.0795667155435 7.8542739929870038 0 0 0 0 685.55219833271076 1644.2385786464984 0 1644.2385786464984 2241.6715625130309 0 0 0 0 32.034632658120245 92.798741467122454 0 92.798741467122454 -223.41572369672213 0 0 0 0 869.23469917581315 78.381805746852478 0 78.381805746852478 3185.9242364477177 0 0 0 0 74.177526132785715 -547.32033978684922 0 -547.32033978684922 3373.3892704257546 0 0 0 0 5.2815518864480993 8.010390645421495 0 8.010390645421495 18.654753463084518 0 0 0 0 -118.17884642270656 1472.4793050565386 0 1472.4793050565386 3042.2848309590845 0 0 0 0 29.406959265984796 47.057621217000701 0 47.057621217000701 80.236614323959159 0 0 0 0 -19.416998269498436 178.13738855821521 0 178.13738855821521 -22.349481470184401 0 0 0 0 -21.090782034407312 162.77049720616924 0 162.77049720616924 136.17990698193898 0 0 0 0 -4.9747233012203651 200.90033276380836 0 200.90033276380836 -7.6557384185434785 0 0 0 0 41.745095712198236 262.34452920256081 0 262.34452920256081 119.56143998651532 0 0 0 0 85.767683272104478 241.84448740853986 0 241.84448740853986 -114.60379552991071 0 0 0 0 -94.733127394792973 183.21793371307649 0 183.21793371307649 589.60949532358791 0 0 0 0 82.661795641724893 266.72203824526514 0 266.72203824526514 301.0938207575382 0 0 0 0 34.744071410347516 128.32870716051815 0 128.32870716051815 179.33408700571454 0 0 0 0 34.292043139632 232.28573552136248 0 232.28573552136248 185.49076954177872 0 0 0 0 -152.46393023237761 107.41317570897809 0 107.41317570897809 163.03339128654625 0 0 0 0 -27.444865008408669 35.126641966417083 0 35.126641966417083 335.31912277805532 0 0 0 0 -9.2727926060424579 131.92336312216048 0 131.92336312216048 155.86638623615727 0 0 0 0 -8.3757897003382027 8.42084029191696 0 8.42084029191696 -2.8679916279169326 0 0 0 0 -318.71181524301937 411.912541225116 0 411.912541225116 721.41712198558889 0 0 0 0 743.91736326582031 412.78968215257555 0 412.78968215257555 -2791.00109314367 0 0 0 0 127.56996876125777 171.1203306272655 0 171.1203306272655 -2279.4029950794065 0 0 0 0 -45.935923590995998 15.81891890679367 0 15.81891890679367 -4.2923445321946216 0 0 0 0 148.15765036643643 193.33945196204877 0 193.33945196204877 60.057904216693714 0 0 0 0 101.08049098982519 122.4330241458083 0 122.4330241458083 313.86541957821464 0 0 0 0 -100.41581949801184 386.95194733404787 0 386.95194733404787 0.28792072984651895 0 0 0 0 -516.76001232224371 762.60722861094109 0 762.60722861094109 116.5897623240744 0 0 0 0 -27.860349713439064 134.12561315686617 0 134.12561315686617 -158.43387793757574 0 0 0 0 -25.349664845601154 14.259007968764919 0 14.259007968764919 -1.8674525329195077 0 0 0 0 -13.30478140260675 81.598534559750988 0 81.598534559750988 -93.910657862114022 0 0 0 0 115.78688040205452 133.2263832691533 0 133.2263832691533 0.30303846843839022 0 0 0 0 39.178494755651627 173.87877294988721 0 173.87877294988721 192.76608743699762 0 0 0 0 -14.360306181297346 93.665628472183016 0 93.665628472183016 113.7364464561615 0 0 0 0 1117.6980870519546 548.21588947263808 0 548.21588947263808 -3008.9173640700465 0 0 0 0 -724.87447799546499 2.7680836588842794 0 2.7680836588842794 -1246.3115418660454 0 0 0 0 -13.743514591882899 6.9726480163184448 0 6.9726480163184448 -1.502909107806035 0 0 0 0 -23.151437473255953 15.646606269818321 0 15.646606269818321 -3.690329254327029 0 0 0 0 -1033.6639978669809 543.72234574030881 0 543.72234574030881 850.18309687262081 0 0 0 0 852.86584581934221 1129.3687971700037 0 1129.3687971700037 654.01034481132228 0 0 0 0 -123.92373618822603 940.4766046793593 0 940.4766046793593 619.6787223459396 0 0 0 0 37.874309654638637 54.092859179407242 0 54.092859179407242 641.27562881277117 0 0 0 0 100.45206159861118 519.39474278238777 0 519.39474278238777 1295.5855148339824 0 0 0 0 649.15982653173705 639.39621987894861 0 639.39621987894861 -3.9523612902376044 0 0 0 0 270.25954851021743 -100.2905089808055 0 -100.2905089808055 -777.06730988563504 0 0 0 0 6.3536391337425471 0.76761315069684599 0 0.76761315069684599 -1.10778822832944 0 0 0 0 474.90138552819553 1222.5739198619995 0 1222.5739198619995 751.26292624811276 0 0 0 0 277.96224184364473 1095.6600620086756 0 1095.6600620086756 1243.9879583401562 0 0 0 0 276.68623537364329 1323.0021621363776 0 1323.0021621363776 971.63218899396452 0 0 0 0 234.34422314397261 1234.5657094861276 0 1234.5657094861276 843.10413265458192 0 0 0 0 257.80235548096243 1048.293748725031 0 1048.293748725031 514.77724457616569 0 0 0 0 347.97187413959182 1204.8527228029852 0 1204.8527228029852 750.62389650786258 0 0 0 0 400.41216372538111 1386.596833499334 0 1386.596833499334 25.051283421358676 0 0 0 0 552.71413952605508 503.8184187298757 0 503.8184187298757 -275.14967943812735 0 0 0 0 553.9377481956908 437.20161759800976 0 437.20161759800976 830.14436604638104 0 0 0 0 -346.47866413555312 713.45003747241572 0 713.45003747241572 2123.3262646272633 0 0 0 0 -10.712719882766947 6.3173610124842412 0 6.3173610124842412 -0.58720990945630192 0 0 0 0 -433.02023918096165 937.42981740311552 0 937.42981740311552 -1822.1489335658116 0 0 0 0 -1632.4925315774017 1819.5318850787298 0 1819.5318850787298 -1.181919709476617 0 0 0 0 -115.61423833492154 184.05999677400541 0 184.05999677400541 -52.762163976673037 0 0 0 0 -102.31153088567953 128.80298223642603 0 128.80298223642603 -0.84527205544145545 0 0 0 0 100.27228758832644 1911.7685655232763 0 1911.7685655232763 0.63833215944032418 0 0 0 0 793.79637410308715 1835.49483997481 0 1835.49483997481 -162.56423731027462 0 0 0 0 -482.5074123235172 1207.3456328241045 0 1207.3456328241045 -145.0735275978077 0 0 0 0 -997.14514341338509 1506.7332590407241 0 1506.7332590407241 1171.2548048641329 0 0 0 0 -478.03927208093228 2140.5180928886766 0 2140.5180928886766 -7.497483076048411 0 0 0 0 -370.92056438013242 1806.063699713839 0 1806.063699713839 859.09751216345467 0 0 0 0 -365.39396338112056 1809.0531324271724 0 1809.0531324271724 855.41007224061104 0 0 0 0 235.8640440540039 1238.1637110290721 0 1238.1637110290721 837.89313008873432 0 0 0 0 -27.337260628683907 1994.9657611177763 0 1994.9657611177763 719.72744217488798 0 0 0 0 -4766.3540134008526 421.02343807422176 0 421.02343807422176 1418.9839132465495 0 0 0 0 2752.3181777288482 854.75932523909319 0 854.75932523909319 120.40674460382434 0 0 0 0 -0.34637946354373206 13.877224837694556 0 13.877224837694556 -11.745274873231665 0 0 0 0 728.75703503452678 332.07786806572403 0 332.07786806572403 -14.513912131387769 0 0 0 0 859.39999816244745 557.32913773840119 0 557.32913773840119 256.88491027633427 0 0 0 0 722.78079743226408 844.8126009824955 0 844.8126009824955 744.08658465816552 0 0 0 0 727.77227348916858 1011.0027150332171 0 1011.0027150332171 858.57524249353446 0 0 0 0 1261.4613802004751 1836.7827846828659 0 1836.7827846828659 739.12531284771376 0 0 0 0 562.25484414568564 1129.5683967934237 0 1129.5683967934237 1043.3730452616946 0 0 0 0 397.19877440701384 1050.7711472327574 0 1050.7711472327574 1011.7929788764231 0 0 0 0 401.05434569757927 1091.8694520069439 0 1091.8694520069439 1409.8017140726879 0 0 0 0 534.35223161203976 639.07113640068928 0 639.07113640068928 1230.5859470905853 0 0 0 0 422.70233377739351 807.96062748495387 0 807.96062748495387 1011.9249889999119 0 0 0 0 526.06761975958216 867.2635992050491 0 867.2635992050491 798.4187346072722 0 0 0 0 417.20176152217027 664.84272664594027 0 664.84272664594027 846.70993868426376 0 0 0 0 508.28881104194443 960.36595388877322 0 960.36595388877322 1077.5997508482033 0 0 0 0 487.23554718036576 726.96372383728203 0 726.96372383728203 682.25525130744791 0 0 0 0 435.83160011022119 498.45268261542424 0 498.45268261542424 415.08031288540224 0 0 0 0 364.3132941406584 403.65022031445915 0 403.65022031445915 439.13101774341703 0 0 0 0 512.90683515605451 439.98748418011382 0 439.98748418011382 708.92089809876052 0 0 0 0 626.97988064820674 350.20734528199137 0 350.20734528199137 202.43755312211579 0 0 0 0 474.09545842091757 632.18855838238233 0 632.18855838238233 414.60376687183452 0 0 0 0 384.85212481719645 473.39644146861247 0 473.39644146861247 232.05090502288658 0 0 0 0 152.50805259901608 207.38223199791173 0 207.38223199791173 271.91845285399177 0 0 0 0 378.98549660171557 81.127414962131297 0 81.127414962131297 86.976834648247859 0 0 0 0 359.57125195734625 -106.77806050964864 0 -106.77806050964864 2.0554980793094728 0 0 0 0 125.19928849892676 -31.300300694674661 0 -31.300300694674661 75.95583137779613 0 0 0 0 3.479005866448543 25.880647914564307 0 25.880647914564307 -37.238185042016738 0 0 0 0 295.41121501946327 -62.531619449211576 0 -62.531619449211576 0.10109626498888247 0 0 0 0 0.88714819723972127 26.426673465104798 0 26.426673465104798 -33.718562322690588 0 0 0 0 633.35119292437503 309.85981455636511 0 309.85981455636511 218.2537412460224 0 0 0 0 553.38430375132157 182.68554694502745 0 182.68554694502745 21.012182225676952 0 0 0 0 -2198.8741583233405 1265.2407043253415 0 1265.2407043253415 -3681.8744758319226 0 0 0 0 446.09962241195899 334.56429572938941 0 334.56429572938941 333.18041740118861 0 0 0 0 584.13255530298193 465.45863296381503 0 465.45863296381503 319.68559891475888 0 0 0 0 -546.96309455856681 1360.8991601426605 0 1360.8991601426605 -1323.5881428425346 0 0 0 0 -207.99485214310698 830.91106781870258 0 830.91106781870258 -496.3059538452294 0 0 0 0 -269.07594147506825 623.10386624300554 0 623.10386624300554 -489.99942988289695 0 0 0 0 425.24212394229835 491.02756007273274 0 491.02756007273274 -1014.579674295619 0 0 0 0 -59.727545257730526 1511.9609139079184 0 1511.9609139079184 -2368.9215466440764 0 0 0 0 -1827.549303854481 2732.2115868358014 0 2732.2115868358014 -1627.4592072187079 0 0 0 0 -3412.0166177466817 1424.4089430828535 0 1424.4089430828535 1521.9698967886216 0 0 0 0 -752.72334125781344 1355.0610399608504 0 1355.0610399608504 111.26742648292566 0 0 0 0 -1066.5545119619055 926.14140192005289 0 926.14140192005289 93.089652941426721 0 0 0 0 -1465.9247002558259 689.87737748435029 0 689.87737748435029 61.615645827376284 0 0 0 0 -629.76153686641192 -488.04193834452599 0 -488.04193834452599 1317.7435651720316 0 0 0 0 -1059.0413585204806 670.70225627483887 0 670.70225627483887 27.959809801213851 0 0 0 0 -935.88720184858539 602.48791703569441 0 602.48791703569441 -20.38778602288221 0 0 0 0 -908.64913198611612 769.9074205832876 0 769.9074205832876 -180.83009687413869 0 0 0 0 -742.98598105585552 667.90711709872267 0 667.90711709872267 -195.12924003538865 0 0 0 0 -891.21380316566501 865.85278236520389 0 865.85278236520389 -154.78215192892822 0 0 0 0 -672.07695956563111 923.61981223865587 0 923.61981223865587 -501.7019361720686 0 0 0 0 -429.23114873823943 666.27685164808281 0 666.27685164808281 -338.82326282282884 0 0 0 0 -402.1763448005222 639.18095329447169 0 639.18095329447169 -482.54454813488701 0 0 0 0 -652.25330240983749 698.11713292669083 0 698.11713292669083 -341.81625428500411 0 0 0 0 -511.2100217690604 532.32134195276012 0 532.32134195276012 -306.54682996298106 0 0 0 0 -467.90810656225221 552.97704806259208 0 552.97704806259208 -374.19154788755986 0 0 0 0 -374.78626129082113 444.95153732255858 0 444.95153732255858 -345.60067533268557 0 0 0 0 -332.02842707480886 468.83201309185824 0 468.83201309185824 -389.9769309527037 0 0 0 0 -306.17147293162998 495.87229910620226 0 495.87229910620226 -386.41501327820333 0 0 0 0 -305.09254050843447 417.86569915723339 0 417.86569915723339 -279.33232613492873 0 0 0 0 -289.93443121643213 423.15251684615941 0 423.15251684615941 -339.40526859652891 0 0 0 0 -351.85238418719382 463.97731337080404 0 463.97731337080404 -343.46430092363153 0 0 0 0 -246.37052730118739 395.19812905300932 0 395.19812905300932 -353.68300630759859 0 0 0 0 -282.54762721958105 379.29665549821948 0 379.29665549821948 -311.80110398974648 0 0 0 0 -240.61517275685037 342.43088470348448 0 342.43088470348448 -291.06737657717167 0 0 0 0 -243.3344609581909 252.32476680372201 0 252.32476680372201 -175.25827991586266 0 0 0 0 -204.03495987514907 282.10072206874611 0 282.10072206874611 -299.73502796291814 0 0 0 0 -215.86296159346239 290.3090492789197 0 290.3090492789197 -301.21205698813719 0 0 0 0 -117.0202499908919 197.42386160892784 0 197.42386160892784 -280.33652680969317 0 0 0 0 -200.26469493581317 168.01370723555374 0 168.01370723555374 -186.17958359525073 0 0 0 0 -166.06050283715012 384.87647723944247 0 384.87647723944247 -465.59718843816881 0 0 0 0 -67.995525471880683 297.06076276786916 0 297.06076276786916 -394.36062218571897 0 0 0 0 -161.54687505167385 270.74725196891814 0 270.74725196891814 -379.40423083451606 0 0 0 0 -117.46730757741898 504.62608975942203 0 504.62608975942203 -748.2009109655628 0 0 0 0 -94.030005614316906 173.70371553121004 0 173.70371553121004 -269.79014485570951 0 0 0 0 -47.229452705658332 137.05365096378046 0 137.05365096378046 -345.13807353803713 0 0 0 0 -165.20414186865673 104.20340448677052 0 104.20340448677052 -143.57377548256773 0 0 0 0 -152.14946173958015 113.70577704519383 0 113.70577704519383 -140.33012291339946 0 0 0 0 -207.81504132394912 188.99038820635542 0 188.99038820635542 -231.46899559029407 0 0 0 0 -225.63607957259956 61.577250039152204 0 61.577250039152204 -39.105818669049768 0 0 0 0 -280.89374628713995 219.08903740430105 0 219.08903740430105 -83.335065393250261 0 0 0 0 -92.783352024765918 227.21926128316409 0 227.21926128316409 52.034030197318771 0 0 0 0 -132.88290303611575 30.119909304416069 0 30.119909304416069 48.017933714028914 0 0 0 0 71.53286679735902 76.704783892637352 0 76.704783892637352 -244.82879013677302 0 0 0 0 -45.677338384182804 118.45435279593312 0 118.45435279593312 306.14243301129318 0 0 0 0 522.2907100607772 465.37425694253761 0 465.37425694253761 144.28017897543032 0 0 0 0 367.48515827517986 -259.27279682645167 0 -259.27279682645167 -317.42383794140187 0 0 0 0 68.510393567779829 409.26602632175491 0 409.26602632175491 -916.01059628976509 0 0 0 0 169.84621924917155 156.2064769422941 0 156.2064769422941 -560.8974497133313 0 0 0 0 -10.800423194644367 16.050706525114407 0 16.050706525114407 -22.46462635444891 0 0 0 0 -3721.8710403404802 632.57728560546639 0 632.57728560546639 969.0340454875768 0 0 0 0 835.45748552528676 407.22515555046994 0 407.22515555046994 -1561.2562365318008 0 0 0 0 -110.33681904689001 2120.1773979138452 0 2120.1773979138452 -114.12281684203481 0 0 0 0 -245.04990337671734 1328.0122115029499 0 1328.0122115029499 784.24199338770995 0 0 0 0 -17.970314843350536 36.012405373383743 0 36.012405373383743 -58.519821404574031 0 0 0 0 2083.2407539681735 1685.8725115014731 0 1685.8725115014731 101.2347843947573 0 0 0 0 -15.157402844283496 38.59728642939114 0 38.59728642939114 -78.672777416437668 0 0 0 0 1289.9212936908298 802.65970243278571 0 802.65970243278571 246.91141169946241 0 0 0 0 1716.6384790832235 1494.1410811271198 0 1494.1410811271198 222.79735079027159 0 0 0 0 2330.5601269345425 839.89184009991732 0 839.89184009991732 653.66595264169155 0 0 0 0 2625.4489028264798 1606.5714652463575 0 1606.5714652463575 0.0024642027638037689 0 0 0 0 1129.6746974828202 1365.8159321722815 0 1365.8159321722815 407.90145823645435 0 0 0 0 -360.4934052341996 712.2616079555446 0 712.2616079555446 22.657554180698753 0 0 0 0 -930.80581342981895 331.03383581736125 0 331.03383581736125 75.796353064433788 0 0 0 0 -11.600487056771598 29.46536674089711 0 29.46536674089711 73.56744461451558 0 0 0 0 2776.5454530390489 1449.7744781426336 0 1449.7744781426336 -168.12637424141576 0 0 0 0 -17.874469967806363 45.550372850673739 0 45.550372850673739 -0.037261789402691647 0 0 0 0 -10.061024576110924 20.046152912679418 0 20.046152912679418 18.744478869994055 0 0 0 0 3978.086805218918 787.60879502845637 0 787.60879502845637 192.09300340435584 0 0 0 0 -9.8483323733310613 22.398133685577648 0 22.398133685577648 -23.847658862933116 0 0 0 0 -91.471738317006384 126.76729025652094 0 126.76729025652094 9.7908403954315872 0 0 0 0 -11.067702525010461 40.50037057271701 0 40.50037057271701 -81.590756510229625 0 0 0 0 21.10133219243653 222.38593673565447 0 222.38593673565447 -52.245638985979895 0 0 0 0 -8.6039170907953348 25.233210737816705 0 25.233210737816705 83.788760502780207 0 0 0 0 -64.473552393261343 137.80923918364465 0 137.80923918364465 24.632600404293044 0 0 0 0 -219.34911649066635 238.37069294240609 0 238.37069294240609 43.460690696410893 0 0 0 0 -49.185329152809572 244.7304480639541 0 244.7304480639541 123.33274504113069 0 0 0 0 319.70874567809733 242.36191902330029 0 242.36191902330029 0.80314414357417263 0 0 0 0 65.610357534467767 113.28576506643731 0 113.28576506643731 96.496543129796919 0 0 0 0 -244.45790988348017 183.10557414189316 0 183.10557414189316 64.703651892426478 0 0 0 0 -174.01970371947755 96.003708341990205 0 96.003708341990205 54.526861635691603 0 0 0 0 -123.89926186697994 386.60134116847985 0 386.60134116847985 -20.605568404424957 0 0 0 0 32.607783028637641 232.12402512951667 0 232.12402512951667 -4.1972316674509784 0 0 0 0 -396.00084730439994 32.807171509452019 0 32.807171509452019 67.673799901790062 0 0 0 0 -199.06131973778247 54.163671705209708 0 54.163671705209708 69.326170038063538 0 0 0 0 -3.2394358044784894 8.0010802039801696 0 8.0010802039801696 15.482471817897363 0 0 0 0 7.4839221244614862 24.971878443164087 0 24.971878443164087 9.7597718881285687 0 0 0 0 -22.100547836904298 52.467385676056438 0 52.467385676056438 21.572346994180407 0 0 0 0 -16.496026346949463 43.351336088525926 0 43.351336088525926 -10.406377140165119 0 0 0 0 -13.569095653598197 38.574913628559443 0 38.574913628559443 -164.07860492385225 0 0 0 0 0.5714353930764986 13.222164433810235 0 13.222164433810235 4.6925712185993973 0 0 0 0 122.40159268022398 45.0615598912118 0 45.0615598912118 -108.55154274886445 0 0 0 0 -63.71496473235311 143.97745940429377 0 143.97745940429377 -38.533778645105485 0 0 0 0 -10.564062371291868 29.815003392260735 0 29.815003392260735 75.483759306943611 0 0 0 0 -190.15816111437744 203.25234730821103 0 203.25234730821103 -91.725160709145712 0 0 0 0 -69.329439691486186 177.23134059788572 0 177.23134059788572 -224.67297571591189 0 0 0 0 363.37526295810312 -153.15531468274639 0 -153.15531468274639 -214.39717245866632 0 0 0 0 -236.05396391289105 338.64398026324852 0 338.64398026324852 -89.664410873534507 0 0 0 0 1.2756660962390782 1.1765478457670326 0 1.1765478457670326 4.3175735579039838 0 0 0 0 34.789305275559308 2335.8630447189848 0 2335.8630447189848 -5484.3723670839245 0 0 0 0 -6.5554146055574734 6.4263947956177461 0 6.4263947956177461 -8.0450994196175429 0 0 0 0 0.047892421200231183 36.696706203110807 0 36.696706203110807 6.9333909082342871 0 0 0 0 8.4475747370452154 32.527385057866923 0 32.527385057866923 1.2590274014801253 0 0 0 0 9.5975187238291255 37.936141722813773 0 37.936141722813773 -10.255817680576001 0 0 0 0 -14.818341224322182 23.334401759324312 0 23.334401759324312 -20.179372695216671 0 0 0 0 -11.532921670031328 69.305871641573276 0 69.305871641573276 -204.54818042290572 0 0 0 0 55.744974538123643 24.159035690321616 0 24.159035690321616 -17.662704508184106 0 0 0 0 -4.3078302506473847 60.012037832755595 0 60.012037832755595 -2.1979086986339098 0 0 0 0 -32.307117850170471 30.281219584692735 0 30.281219584692735 -7.4247058684268268 0 0 0 0 -0.022663283263682388 42.414700943252683 0 42.414700943252683 -9.6469903132965555 0 0 0 0 2.3027727673289142 3.4474318624009186 0 3.4474318624009186 -0.269778949209865 0 0 0 0 -0.0072776550005073659 10.986541249636502 0 10.986541249636502 -4.6107257734547602 0 0 0 0 -0.49971404468340097 0.65135631975317665 0 0.65135631975317665 -0.18100730009967947 0 0 0 0 5.0043658636859618 27.067063437280012 0 27.067063437280012 18.36899747759162 0 0 0 0 -36.668218279373832 1.9178740027346066 0 1.9178740027346066 68.009567275061272 0 0 0 0 4.1150786912454365 15.202305399550355 0 15.202305399550355 15.089375149750282 0 0 0 0 -0.1828579078793382 10.893192273847944 0 10.893192273847944 32.413944334884704 0 0 0 0 -70.359620439288847 20.320014723805798 0 20.320014723805798 1.0874941079600831 0 0 0 0 -28.818641126672446 21.418357775713957 0 21.418357775713957 18.980743318082659 0 0 0 0 -25.14934895378974 46.097944164899673 0 46.097944164899673 20.245079669410188 0 0 0 0 10.782626843558688 13.826041935842028 0 13.826041935842028 17.057667525475438 0 0 0 0 4.2347351404221456 20.598510803070099 0 20.598510803070099 32.572772881906204 0 0 0 0 -14.290509125334211 27.220434012382611 0 27.220434012382611 5.7077227923164173 0 0 0 0 -28.360979540855624 90.661889175389661 0 90.661889175389661 -79.791004035105288 0 0 0 0 -230.62332420657913 155.34466677529417 0 155.34466677529417 -4.3726845174569462 0 0 0 0 -258.43100469317505 109.89176248616877 0 109.89176248616877 -77.710613102542993 0 0 0 0 -246.06703498886782 186.45484066259451 0 186.45484066259451 -51.028576086919202 0 0 0 0 -86.442792760382872 164.11263028747635 0 164.11263028747635 -75.481303096032207 0 0 0 0 -236.31144108063745 188.10091058132639 0 188.10091058132639 -17.720378568934393 0 0 0 0 -162.90893738857994 150.07326269192345 0 150.07326269192345 -68.991146203305107 0 0 0 0 -249.08182488734019 223.4606965007406 0 223.4606965007406 -98.23994601200684 0 0 0 0 -207.03563109805691 198.86739758849944 0 198.86739758849944 -135.04216125512175 0 0 0 0 -229.0001687664917 268.8487931003292 0 268.8487931003292 -223.60692923058377 0 0 0 0 -272.53049243215355 324.21727666744846 0 324.21727666744846 -197.46292915503363 0 0 0 0 -245.03387562913849 315.59764987217204 0 315.59764987217204 -213.80342959727568 0 0 0 0 -303.04891379192122 378.94188117844533 0 378.94188117844533 -196.22622598466842 0 0 0 0 -267.79432284540962 303.61604712014014 0 303.61604712014014 -162.9151690402141 0 0 0 0 -278.37825326136408 237.12867880329122 0 237.12867880329122 -55.06472734772251 0 0 0 0 -284.92112452471338 308.18811488621577 0 308.18811488621577 -135.44926885262976 0 0 0 0 -162.13101233118959 141.87947644470432 0 141.87947644470432 -36.433708092277811 0 0 0 0 -223.67267313804768 101.79981969284563 0 101.79981969284563 -31.822619138114533 0 0 0 0 -290.89953619232983 233.14745890759878 0 233.14745890759878 -46.182996555064165 0 0 0 0 -72.740659165465331 -14.801394645837718 0 -14.801394645837718 127.95786782069263 0 0 0 0 0.53317363117886174 12.968560787971214 0 12.968560787971214 38.669213831519215 0 0 0 0 -0.0084991160547360778 15.331722649963922 0 15.331722649963922 45.251255679348105 0 0 0 0 9.129324527879362 39.053260548522303 0 39.053260548522303 -7.4896329075563699 0 0 0 0 -1.4422446360772483 -0.57412873191807989 0 -0.57412873191807989 2.4715036354590723 0 0 0 0 -228.94966372122872 109.30902376425729 0 109.30902376425729 54.06228332714818 0 0 0 0 -672.93412140729015 464.64976781216683 0 464.64976781216683 25.720932781710871 0 0 0 0 -1591.1326304974318 782.21760191175781 0 782.21760191175781 83.337441432347987 0 0 0 0 -836.07629616544455 733.6162507032268 0 733.6162507032268 -200.65136742557661 0 0 0 0 5.6192457164039897 16.074054440947641 0 16.074054440947641 26.612841631448191 0 0 0 0 -960.23840375487271 236.67225403606062 0 236.67225403606062 -50.95697966482021 0 0 0 0 444.00344683044204 1297.6380544804742 0 1297.6380544804742 89.02484776041274 0 0 0 0 197.13075738185762 670.01580406357243 0 670.01580406357243 -305.79756780539537 0 0 0 0 1.5763422847045589 6.2622025539551629 0 6.2622025539551629 11.15850873432089 0 0 0 0 10.827335422693977 959.11683571920366 0 959.11683571920366 538.45225392606017 0 0 0 0 119.30905330437645 968.27739664983528 0 968.27739664983528 332.21490300482401 0 0 0 0 469.85549634901872 828.76834724059881 0 828.76834724059881 502.51445664338826 0 0 0 0 267.93668283615261 783.27027887588702 0 783.27027887588702 519.74066210351884 0 0 0 0 323.08449630268069 758.73572394526127 0 758.73572394526127 158.78024598975753 0 0 0 0 34.321316947236483 614.36046640426684 0 614.36046640426684 6.0728555995665374 0 0 0 0 315.50250215890037 757.14562454494444 0 757.14562454494444 296.96467203695647 0 0 0 0 25.803014129817711 549.01349008873513 0 549.01349008873513 292.59196856135713 0 0 0 0 100.07004499610184 435.18087460838069 0 435.18087460838069 -95.548035779836937 0 0 0 0 111.31307671022978 344.06633312575832 0 344.06633312575832 191.89648047552328 0 0 0 0 -230.55675306024114 231.92090052761341 0 231.92090052761341 -48.029849851048311 0 0 0 0 -608.45850501099267 254.37793267155575 0 254.37793267155575 -131.2192251604979 0 0 0 0 -329.68015661908612 382.07051116535149 0 382.07051116535149 -191.44124407644995 0 0 0 0 -583.71469940182669 513.49073481340383 0 513.49073481340383 -101.35046275340574 0 0 0 0 -231.0943541682409 304.79205636040933 0 304.79205636040933 -151.36198206648623 0 0 0 0 -652.26036434098751 399.48203080482381 0 399.48203080482381 -281.31771764811856 0 0 0 0 -628.00732162743952 493.35535272004927 0 493.35535272004927 -311.71240363655306 0 0 0 0 -382.24422635829069 311.26754731094297 0 311.26754731094297 -301.90701068724866 0 0 0 0 -1158.2885967490101 1307.5473409173992 0 1307.5473409173992 -211.94499548459862 0 0 0 0 -1070.9647843809398 570.30957302952447 0 570.30957302952447 -183.72465809901769 0 0 0 0 8.7297723123932123 19.75981827660177 0 19.75981827660177 28.84234076558073 0 0 0 0 934.55920521882945 350.61293003984429 0 350.61293003984429 -423.89886428593309 0 0 0 0 635.59826567720438 1209.5943079582144 0 1209.5943079582144 380.57128744384681 0 0 0 0 1121.6018537446998 88.877506825339879 0 88.877506825339879 -140.68709157208286 0 0 0 0 708.0948842163416 -40.59514284886427 0 -40.59514284886427 474.282420605472 0 0 0 0 981.01553498115186 419.67395313712541 0 419.67395313712541 75.914275323291804 0 0 0 0 -123.95793218281142 -358.28969816908648 0 -358.28969816908648 1074.2202001988808 0 0 0 0 966.36454939002761 282.59038017133207 0 282.59038017133207 -1197.9792709517678 0 0 0 0 9.798681577539547 9.647058903526986 0 9.647058903526986 9.1267709661539698 0 0 0 0 -1104.5451802573934 111.15048577490961 0 111.15048577490961 175.64577471582925 0 0 0 0 -302.45671156765411 461.02173230309381 0 461.02173230309381 -26.678148811202846 0 0 0 0 -999.24604957606243 180.33806868465945 0 180.33806868465945 350.22896264777773 0 0 0 0 15.300225273022356 24.556988054126528 0 24.556988054126528 25.965299163031347 0 0 0 0 1401.672556286263 2226.1424158010086 0 2226.1424158010086 -1128.2000957660821 0 0 0 0 -74.666106742423835 -621.88611986270917 0 -621.88611986270917 2200.8477945429986 0 0 0 0 512.91675858889721 1531.1878403591854 0 1531.1878403591854 2691.9061550989391 0 0 0 0 -1765.2155136465153 -419.06540390927694 0 -419.06540390927694 3466.6334935362902 0 0 0 0 329.23129901902121 124.55443685496539 0 124.55443685496539 154.67854798207554 0 0 0 0 261.11568686781175 -621.66074148818916 0 -621.66074148818916 34.36966785383629 0 0 0 0 198.62851774384399 812.29203765916827 0 812.29203765916827 1400.1486183416509 0 0 0 0 263.48469379212838 -96.943448261672529 0 -96.943448261672529 1776.8903464635878 0 0 0 0 290.20509420266171 431.28693437629772 0 431.28693437629772 1058.4298030703453 0 0 0 0 230.08918676473331 636.74525488106019 0 636.74525488106019 1024.5652838414244 0 0 0 0 187.23346986784327 728.47808711982361 0 728.47808711982361 1219.3780523477617 0 0 0 0 281.53719580359393 816.02678305609334 0 816.02678305609334 1108.9674829971082 0 0 0 0 281.99977198228839 832.06973685972844 0 832.06973685972844 1217.1049229294367 0 0 0 0 219.36040971938019 828.72247862409131 0 828.72247862409131 1219.9254585520466 0 0 0 0 98.833192606211014 112.21644927889247 0 112.21644927889247 235.89068993304318 0 0 0 0 646.11215195906334 862.76973522185472 0 862.76973522185472 684.35764818713142 0 0 0 0 364.34222480168455 545.58220947320717 0 545.58220947320717 1180.38205043774 0 0 0 0 375.78300915729642 648.95799154140389 0 648.95799154140389 803.77450414908526 0 0 0 0 3.1195407662443273 5.6333625650838854 0 5.6333625650838854 4.694799594456569 0 0 0 0 -1305.155680291251 -547.42485142194346 0 -547.42485142194346 212.74276420100068 0 0 0 0 270.61068230221645 -875.34881640809544 0 -875.34881640809544 2954.8713103278096 0 0 0 0 -2.7817276481168669 1.7546728070541988 0 1.7546728070541988 34.699118457927696 0 0 0 0 1981.2200648936378 1153.5175268546918 0 1153.5175268546918 705.45108893846555 0 0 0 0 -30.260877075786993 14.139102311767147 0 14.139102311767147 60.907694998255465 0 0 0 0 -11.3008775832743 2.1824569440598793 0 2.1824569440598793 42.419552114527789 0 0 0 0 396.88658872408996 131.31142970560904 0 131.31142970560904 166.20094878132295 0 0 0 0 -281.65359162186724 458.72244806580784 0 458.72244806580784 286.30888937625423 0 0 0 0 -3.0559153401992702 -1.6457686403426592 0 -1.6457686403426592 52.312331348490744 0 0 0 0 -633.26800989531785 196.64382774914338 0 196.64382774914338 122.45519629970659 0 0 0 0 -60.775069372297366 473.98763318623605 0 473.98763318623605 177.77520996371459 0 0 0 0 -174.9238517260892 302.76839162465694 0 302.76839162465694 -78.306926080887933 0 0 0 0 22.951543123440615 -124.63125057100478 0 -124.63125057100478 -915.81859988434007 0 0 0 0 225.56666998637229 449.74213146854891 0 449.74213146854891 -250.41556033817324 0 0 0 0 555.4126148966526 864.55988301969683 0 864.55988301969683 -557.63561374411074 0 0 0 0 -1018.3006110254041 378.93762411165335 0 378.93762411165335 3192.4622412302851 0 0 0 0 356.47543765414957 1475.7114727689295 0 1475.7114727689295 661.15856773385349 0 0 0 0 -1788.9422918698053 -42.017590632811903 0 -42.017590632811903 3094.0423803846788 0 0 0 0 -98.992524361825417 2275.5203657427028 0 2275.5203657427028 -73.674664219590341 0 0 0 0 4.0789684826607484 14.759674077987107 0 14.759674077987107 19.380155687080574 0 0 0 0 202.55126827140202 1362.8542904219421 0 1362.8542904219421 1151.8298560964249 0 0 0 0 -1027.3730376952335 215.32418934608722 0 215.32418934608722 204.67012440871622 0 0 0 0 18.252584753595784 805.01090781180574 0 805.01090781180574 617.04329925783532 0 0 0 0 411.94496113289824 612.85773557125503 0 612.85773557125503 710.82564013999217 0 0 0 0 -108.33682191548814 1245.140359464669 0 1245.140359464669 1093.5598834678894 0 0 0 0 -99.142593958653379 1015.6998689598586 0 1015.6998689598586 530.33803180595532 0 0 0 0 -319.35284687067633 686.66283519737772 0 686.66283519737772 1154.8715501006955 0 0 0 0 -531.70098289655834 860.61665512137915 0 860.61665512137915 1064.4986213137877 0 0 0 0 -392.92817314553417 428.25357375993781 0 428.25357375993781 669.78642228167155 0 0 0 0 -33.029677576696592 34.464293289816581 0 34.464293289816581 -27.932913504535975 0 0 0 0 1243.4768298816598 590.19977358381948 0 590.19977358381948 -245.41325817469624 0 0 0 0 1230.4689750928824 372.49033518037822 0 372.49033518037822 60.474843484262237 0 0 0 0 727.51738036136703 539.19656107916308 0 539.19656107916308 743.21170532737597 0 0 0 0 -1375.1893688626378 -782.93511013298485 0 -782.93511013298485 -26.279285261905898 0 0 0 0 -1474.7658194126439 263.39408344433468 0 263.39408344433468 1861.6012141576866 0 0 0 0 -8.6485070078854029 11.169591602729263 0 11.169591602729263 -13.80634091145194 0 0 0 0 1028.8684602543881 654.81223416307785 0 654.81223416307785 -37.90132686765719 0 0 0 0 -13.539760017636446 27.438298187273645 0 27.438298187273645 -47.048175164926846 0 0 0 0 1094.9708131671205 847.3123563162153 0 847.3123563162153 -315.71621370715729 0 0 0 0 399.92076886093491 201.21771235519191 0 201.21771235519191 -68.737995161369781 0 0 0 0 646.86074674262636 -298.21377493002205 0 -298.21377493002205 -310.91904490610614 0 0 0 0 -2.4244552424190715 8.1013993641313071 0 8.1013993641313071 -17.680663950912418 0 0 0 0 324.36274879453413 897.61196689484132 0 897.61196689484132 -849.0068434181303 0 0 0 0 -199.12774121121765 589.59040032027042 0 589.59040032027042 -32.177522455413964 0 0 0 0 451.13305504712025 281.79090130828899 0 281.79090130828899 45.921197679723264 0 0 0 0 182.93413692812101 603.12094623854682 0 603.12094623854682 179.25606614393746 0 0 0 0 212.26770603692057 439.67034741024509 0 439.67034741024509 -151.87027665403366 0 0 0 0 21.459537114078557 309.46606611670722 0 309.46606611670722 264.91747541338373 0 0 0 0 205.37847490880631 421.99265600678336 0 421.99265600678336 -59.214899531842093 0 0 0 0 40.538561716548429 222.71397538205929 0 222.71397538205929 -242.8662026452148 0 0 0 0 437.75684174491471 582.06761844730863 0 582.06761844730863 -368.1735307555864 0 0 0 0 542.74426284082301 120.91799450446388 0 120.91799450446388 -548.79229858770123 0 0 0 0 666.22430858990356 457.60657547988922 0 457.60657547988922 -634.02557141662692 0 0 0 0 496.72541799343708 986.70034738851064 0 986.70034738851064 843.13549471186707 0 0 0 0 642.5520819852718 884.41790079325438 0 884.41790079325438 -226.8591898685554 0 0 0 0 682.71711760172002 956.9293271266597 0 956.9293271266597 568.93328748688509 0 0 0 0 402.4942866514757 640.21200832682734 0 640.21200832682734 876.13997157102131 0 0 0 0 904.31385754303483 727.7589462663891 0 727.7589462663891 801.01668394076842 0 0 0 0 1007.7822752367829 2009.1528392514374 0 2009.1528392514374 1404.9879946153897 0 0 0 0 465.31907437382233 770.17844238669568 0 770.17844238669568 400.38720461464254 0 0 0 0 398.59872621217619 981.36429140924884 0 981.36429140924884 -120.30767795623979 0 0 0 0 -50.943127447365711 45.765513000352158 0 45.765513000352158 -30.621113976310383 0 0 0 0 2120.8429594290401 1096.7164737596681 0 1096.7164737596681 -1336.4239174537797 0 0 0 0 1902.4405641238627 1971.8416089429193 0 1971.8416089429193 373.27316207537297 0 0 0 0 -629.84317561684657 858.82484385176213 0 858.82484385176213 1730.7231076042717 0 0 0 0 391.83299329374859 263.64506933974917 0 263.64506933974917 275.71620937405532 0 0 0 0 404.28042203290715 64.989901781875233 0 64.989901781875233 -773.65459121580352 0 0 0 0 -646.6894393394432 2028.9441350662219 0 2028.9441350662219 -97.669054084248273 0 0 0 0 1064.9752966474243 -0.57163424840473454 0 -0.57163424840473454 -148.67896986312553 0 0 0 0 18.805446392895433 14.949708660077007 0 14.949708660077007 11.731516472212888 0 0 0 0 1500.8863013427435 660.88463626284283 0 660.88463626284283 -71.386121706173526 0 0 0 0 845.30797885463744 1197.457751629604 0 1197.457751629604 999.18146498525675 0 0 0 0 531.8621513173639 -485.65959239861331 0 -485.65959239861331 294.9076707366803 0 0 0 0 203.09761342352431 483.26584551445194 0 483.26584551445194 331.05540756824439 0 0 0 0 346.43330672878983 176.96317857518261 0 176.96317857518261 -117.5444830388733 0 0 0 0 18.408659473458101 266.77726307557532 0 266.77726307557532 395.29933489816676 0 0 0 0 151.17003162771107 500.17769967768118 0 500.17769967768118 -334.17015095090755 0 0 0 0 118.44149000085599 -591.81610027623719 0 -591.81610027623719 -1791.1326654242839 0 0 0 0 -4.1160895345917865 3.7025503190156641 0 3.7025503190156641 -4.483457146837253 0 0 0 0 545.07029616529962 918.15603058236775 0 918.15603058236775 933.81973227619164 0 0 0 0 713.07617490635675 879.51241326991294 0 879.51241326991294 856.97718738284311 0 0 0 0 274.26792863159244 46.530686169564433 0 46.530686169564433 195.97276075168338 0 0 0 0 294.07994780962008 345.13058472767193 0 345.13058472767193 -1000.7332058690736 0 0 0 0 657.26007147345081 -173.94207165775879 0 -173.94207165775879 -1767.9117819326366 0 0 0 0 -14.592290453356831 25.245781476395919 0 25.245781476395919 1.2747894043292547 0 0 0 0 79.287674333278119 189.89179605368918 0 189.89179605368918 157.08441584863431 0 0 0 0 5.25022993624912 33.27708525417134 0 33.27708525417134 24.19645625910853 0 0 0 0 -28.016275355497783 214.42146904248148 0 214.42146904248148 168.92818595577592 0 0 0 0 45.087685231945585 59.46344856120119 0 59.46344856120119 35.658689707878651 0 0 0 0 -59.899950560751165 30.303372249332533 0 30.303372249332533 4.4989920556680119 0 0 0 0 -240.45948254319046 967.4829325520368 0 967.4829325520368 -1403.6729220634224 0 0 0 0 1478.2431747965729 469.20871517662181 0 469.20871517662181 -1272.0826083138163 0 0 0 0 -327.69120061861759 861.44046317575339 0 861.44046317575339 -960.7027938486608 0 0 0 0 -298.94563533757173 255.45025283881114 0 255.45025283881114 525.34722091868935 0 0 0 0 12.665429717220832 -213.91969021387376 0 -213.91969021387376 697.06431925982179 0 0 0 0 -16.308926236677507 55.451389805290091 0 55.451389805290091 470.23966496254798 0 0 0 0 154.58681226322506 -731.37588031459291 0 -731.37588031459291 2500.6547924153638 0 0 0 0 358.01473722809169 -164.82235501364994 0 -164.82235501364994 -799.46387574521577 0 0 0 0 -826.2974799474905 561.16888043772633 0 561.16888043772633 1066.7705367153103 0 0 0 0 1819.7233099618829 -251.34064232757419 0 -251.34064232757419 1741.5357144053633 0 0 0 0 1897.2774997862689 1804.8939556881596 0 1804.8939556881596 1082.3119134830995 0 0 0 0 6.7205265332446373 8.1584556852245953 0 8.1584556852245953 11.361283849675772 0 0 0 0 1843.5110552411388 985.29596068952378 0 985.29596068952378 93.700285143248038 0 0 0 0 644.58402314208251 1398.234775781817 0 1398.234775781817 1828.0965294120906 0 0 0 0 553.18821926414785 1107.861129422181 0 1107.861129422181 928.98031805408391 0 0 0 0 562.31640232745485 931.3193125584221 0 931.3193125584221 870.01282435026224 0 0 0 0 315.20781340078611 998.51844825027001 0 998.51844825027001 1395.3248909032482 0 0 0 0 849.51501053120955 832.50008918383901 0 832.50008918383901 562.36611212350545 0 0 0 0 706.58665618851592 466.49628951418435 0 466.49628951418435 976.1016989214113 0 0 0 0 119.52241247061284 738.96049747097641 0 738.96049747097641 871.0957677984843 0 0 0 0 727.54888133208078 996.39669746066284 0 996.39669746066284 684.72253147972515 0 0 0 0 839.06622530355889 891.44685039510659 0 891.44685039510659 565.76861820316026 0 0 0 0 -373.49199803085139 603.58601753936091 0 603.58601753936091 1083.3583076709147 0 0 0 0 -74.489121100647026 9.2520453991164686 0 9.2520453991164686 184.74670869299734 0 0 0 0 30.104929741697561 3.9053910889779218 0 3.9053910889779218 28.776119986880076 0 0 0 0 1006.1054852369271 150.2748294422563 0 150.2748294422563 -93.628076794848312 0 0 0 0 0.83353099018000876 39.251155396192971 0 39.251155396192971 -19.86945198650724 0 0 0 0 -290.3476324190633 198.42797750809405 0 198.42797750809405 387.8981399157492 0 0 0 0 -1.471710681841877 8.7826910460406324 0 8.7826910460406324 0.21534589791684766 0 0 0 0 4.5533211023734275 1.3730876047557175 0 1.3730876047557175 -1.3883399803671921 0 0 0 0 247.79306543595612 570.96327757006475 0 570.96327757006475 108.33532734532491 0 0 0 0 -197.19030171872873 207.68816419890209 0 207.68816419890209 458.68384924627026 0 0 0 0 108.7590155932412 46.74607510122587 0 46.74607510122587 89.23567593396001 0 0 0 0 -66.015744388863823 -115.9662540795689 0 -115.9662540795689 -20.138669797364855 0 0 0 0 -373.58565466776054 -87.640580095801852 0 -87.640580095801852 153.66927800414123 0 0 0 0 -49.446419787305786 297.7904122987602 0 297.7904122987602 -377.62824053084478 0 0 0 0 -57.437369515978389 2970.2463529654842 0 2970.2463529654842 4211.0270117854379 0 0 0 0 1791.6816819567337 1937.5667466631519 0 1937.5667466631519 -2368.4123381114041 0 0 0 0 1329.542703616964 -1082.1101999957973 0 -1082.1101999957973 2067.9878171533783 0 0 0 0 1806.9487751949127 1572.7424855271638 0 1572.7424855271638 860.81972390130977 0 0 0 0 -588.15757648719591 1789.8186026740441 0 1789.8186026740441 4800.0458425178949 0 0 0 0 15.038899105238485 17.587109412685862 0 17.587109412685862 9.1856419592736387 0 0 0 0 8.0893355053853071 35.320714563952862 0 35.320714563952862 -11.17025979457431 0 0 0 0 177.06553152838023 1910.1567720699823 0 1910.1567720699823 2797.2086570079809 0 0 0 0 27.19436529007362 611.61959921691596 0 611.61959921691596 -1356.0783343138246 0 0 0 0 -231.58192651270656 1533.3249434608024 0 1533.3249434608024 3812.4748960435973 0 0 0 0 1.8439529216979338 16.783906467560584 0 16.783906467560584 -4.2584131005125698 0 0 0 0 468.1720913256504 -153.59542319290267 0 -153.59542319290267 1791.5509287014756 0 0 0 0 -954.37588483754735 1924.7431946441138 0 1924.7431946441138 5633.5210246284332 0 0 0 0 348.96015751310006 1670.9934254971768 0 1670.9934254971768 -272.68238176703017 0 0 0 0 33.294974709066494 32.174309331099465 0 32.174309331099465 14.289232864152652 0 0 0 0 983.83277898486995 682.12863272467075 0 682.12863272467075 547.30885730465525 0 0 0 0 765.84435576002579 861.7771114974239 0 861.7771114974239 472.82190290597646 0 0 0 0 763.29234038653794 842.31282516325336 0 842.31282516325336 812.90723695381894 0 0 0 0 865.24466305596388 832.89795368629711 0 832.89795368629711 410.35242125877267 0 0 0 0 587.7059140067704 821.90346210624557 0 821.90346210624557 377.34511067369203 0 0 0 0 323.00901767988819 743.34575133658291 0 743.34575133658291 475.71056708843389 0 0 0 0 606.3119269736344 755.12219331047527 0 755.12219331047527 593.35665878205327 0 0 0 0 634.67706815051201 923.66718270961883 0 923.66718270961883 635.34403418825241 0 0 0 0 614.2255057167572 805.12620143179447 0 805.12620143179447 504.46942953972029 0 0 0 0 483.16017729426858 926.0837099449418 0 926.0837099449418 454.49288469416024 0 0 0 0 474.46732910627543 910.08680928036483 0 910.08680928036483 481.37537218033685 0 0 0 0 914.59862204006367 960.93189673330926 0 960.93189673330926 407.31730692864221 0 0 0 0 702.42812026109368 789.85892628048168 0 789.85892628048168 364.65086291414627 0 0 0 0 151.71684583508795 269.51495534851347 0 269.51495534851347 32.520471462674323 0 0 0 0 478.97683667727324 -209.52186877065105 0 -209.52186877065105 636.47369038811303 0 0 0 0 -48.669118718848694 46.715760540016795 0 46.715760540016795 -24.205897889421038 0 0 0 0 873.30472229620307 1093.5250260924986 0 1093.5250260924986 671.3915115576674 0 0 0 0 2.2643708961239533 0.94432927087211738 0 0.94432927087211738 -2.9174656529297351 0 0 0 0 669.12411859119675 895.92816359015342 0 895.92816359015342 1137.864083164277 0 0 0 0 158.39291240927196 691.4358217498193 0 691.4358217498193 1387.268452291617 0 0 0 0 725.46391733037672 701.52592308687963 0 701.52592308687963 860.25878188338356 0 0 0 0 327.91111681863913 826.39533645622942 0 826.39533645622942 1342.3694068799668 0 0 0 0 1065.0958596561286 1234.2039180448301 0 1234.2039180448301 1066.4159968333843 0 0 0 0 -17.364467217137317 7.0368469350429983 0 7.0368469350429983 8.3078495996934123 0 0 0 0 530.38861650685794 867.51185300447833 0 867.51185300447833 811.30165814520478 0 0 0 0 327.51986449011383 767.5110466674887 0 767.5110466674887 1061.6137691481417 0 0 0 0 267.5667748190499 858.2117299372876 0 858.2117299372876 1128.8491699382575 0 0 0 0 441.36376651243336 896.88942171812232 0 896.88942171812232 856.54227094599628 0 0 0 0 133.2640992221568 551.88191846785048 0 551.88191846785048 840.39827977400319 0 0 0 0 1032.7071868204157 765.45565793878632 0 765.45565793878632 474.64494015109813 0 0 0 0 173.50020461487838 165.64472066162853 0 165.64472066162853 153.87363917331095 0 0 0 0 13.16690993035372 11.240642184063915 0 11.240642184063915 3.1058896103282621 0 0 0 0 488.89047379568956 660.39151161245945 0 660.39151161245945 499.59809529465565 0 0 0 0 63.985340860881479 102.22873546763367 0 102.22873546763367 25.919057022430934 0 0 0 0 -52.2014114298129 43.007105628720737 0 43.007105628720737 27.42495471359382 0 0 0 0 203.68172873858566 338.65811401285464 0 338.65811401285464 578.23038215746419 0 0 0 0 -12.130563091379429 25.84984158218376 0 25.84984158218376 -24.27623917395357 0 0 0 0 1278.7766268326363 640.61793184509588 0 640.61793184509588 441.70570150672575 0 0 0 0 -4.583109662674274 0.062926559577149987 0 0.062926559577149987 54.979799686746304 0 0 0 0 1541.8628291188693 882.93328681778257 0 882.93328681778257 364.32676743195043 0 0 0 0 1402.2450881447885 628.83483354411146 0 628.83483354411146 319.6426421028882 0 0 0 0 58.888170556998375 89.664584421247127 0 89.664584421247127 43.081286818400258 0 0 0 0 -61.510480717272003 -12.170065741549479 0 -12.170065741549479 -65.502379055134952 0 0 0 0 -333.30492252497879 61.364103471132694 0 61.364103471132694 342.7973097950744 0 0 0 0 -4.6059702516458501 29.933476885592185 0 29.933476885592185 -32.247968803391615 0 0 0 0 325.17564443100491 541.76175130382944 0 541.76175130382944 244.80622364371084 0 0 0 0 -21.006060420643912 30.680536545717736 0 30.680536545717736 -17.154133475179464 0 0 0 0 -429.66008639263202 -173.9774772607384 0 -173.9774772607384 515.86892110474582 0 0 0 0 56.384477114996116 91.55347215574875 0 91.55347215574875 44.954066156642511 0 0 0 0 9.6970275384731366 28.446845672717672 0 28.446845672717672 -38.655029098220027 0 0 0 0 2.909700305254141 5.6448403573084391 0 5.6448403573084391 -6.2140196407787585 0 0 0 0 -109.36419068795476 460.87582598003792 0 460.87582598003792 669.41821743388209 0 0 0 0 159.50515839278523 -15.095824189018458 0 -15.095824189018458 -328.41844843927538 0 0 0 0 403.52185427553923 309.25698282288795 0 309.25698282288795 -371.52118301200971 0 0 0 0 1253.0328076566639 744.09426730163068 0 744.09426730163068 353.60174034173542 0 0 0 0 1276.5697784558824 841.3380022710553 0 841.3380022710553 632.03890530071658 0 0 0 0 703.50985970232978 819.81355931913276 0 819.81355931913276 730.1163674989948 0 0 0 0 884.73750000827795 707.93157558429334 0 707.93157558429334 269.70171181102342 0 0 0 0 1234.9268625432717 897.46221693649022 0 897.46221693649022 425.55117296195385 0 0 0 0 882.62570162281418 698.9162449230389 0 698.9162449230389 502.19035004416946 0 0 0 0 517.35900300481444 614.66938469158049 0 614.66938469158049 351.86650379284401 0 0 0 0 612.80395430364661 781.90768924420627 0 781.90768924420627 461.83063721663348 0 0 0 0 520.13508096654868 442.95537597316797 0 442.95537597316797 192.33452016324009 0 0 0 0 381.25001300346958 694.36875024300025 0 694.36875024300025 477.25365695416622 0 0 0 0 -34.090348343718006 204.16320892377644 0 204.16320892377644 397.09511865075183 0 0 0 0 393.63245066773652 495.47509808091854 0 495.47509808091854 366.12787837707401 0 0 0 0 -457.84423602786501 3.0423839853756363 0 3.0423839853756363 240.38426712753608 0 0 0 0 550.16727732704931 365.8078646986778 0 365.8078646986778 365.03480938784196 0 0 0 0 1771.2931588597739 432.70685900299577 0 432.70685900299577 478.18586082772526 0 0 0 0 1092.3137115242637 1169.2326523263528 0 1169.2326523263528 884.8219949718914 0 0 0 0 2876.4446150861759 1653.6774882152604 0 1653.6774882152604 359.58059714058618 0 0 0 0 -770.03510639354317 -135.30909223572962 0 -135.30909223572962 428.79448519281868 0 0 0 0 3.6817339478011535 -4.0047097575241697 0 -4.0047097575241697 16.225685969935711 0 0 0 0 -293.61834950083357 -280.12157979428594 0 -280.12157979428594 60.718722319317749 0 0 0 0 623.9125732407158 198.16300891104765 0 198.16300891104765 302.61384703204203 0 0 0 0 948.80448734192942 1330.4280283684238 0 1330.4280283684238 1351.5660324470227 0 0 0 0 860.82225743853814 33.950789103459101 0 33.950789103459101 -134.49954225030706 0 0 0 0 1117.8720400297443 930.34729992868461 0 930.34729992868461 -171.22862525463279 0 0 0 0 588.41830291791666 335.10228490367081 0 335.10228490367081 -463.19943287796559 0 0 0 0 18.986705469304525 -787.2456943415018 0 -787.2456943415018 -1443.9857258432603 0 0 0 0 -0.54036601385782923 5.1313570711728858 0 5.1313570711728858 -11.273489958904804 0 0 0 0 -56.46885566351375 375.44591075096105 0 375.44591075096105 137.72473573006164 0 0 0 0 -59.514802502986271 432.46512727961669 0 432.46512727961669 -84.96195564129448 0 0 0 0 33.408931912662183 -324.18669416686316 0 -324.18669416686316 -739.5244621038546 0 0 0 0 250.9618836509519 691.7753633070497 0 691.7753633070497 -349.48677724436857 0 0 0 0 29.612801044370826 1377.3583539358751 0 1377.3583539358751 4.4988452420002432 0 0 0 0 -250.58686463576669 820.61329429470607 0 820.61329429470607 29.592826491498272 0 0 0 0 -403.46837944354411 1173.8453546617857 0 1173.8453546617857 -58.994907205276832 0 0 0 0 -93.878180713356414 1197.6110374890632 0 1197.6110374890632 -821.59627043751607 0 0 0 0 -755.70500160496704 796.28875195678847 0 796.28875195678847 612.88321302151599 0 0 0 0 -726.55505036374961 657.25262692000615 0 657.25262692000615 392.28640804524184 0 0 0 0 -644.47662175728328 755.66252185688791 0 755.66252185688791 -547.27759792274446 0 0 0 0 6.0982825423260536 1.3009935616493067 0 1.3009935616493067 -9.8873240542421854 0 0 0 0 -588.99083609574154 111.08368088361749 0 111.08368088361749 -73.226493605638098 0 0 0 0 -58.499693231271522 733.55252214772918 0 733.55252214772918 -188.06588664102674 0 0 0 0 400.45026610318382 427.90593515870569 0 427.90593515870569 -64.588330661004875 0 0 0 0 273.12243587504418 -71.280522580454999 0 -71.280522580454999 126.86583931260975 0 0 0 0 -148.87405757989472 189.00467574500362 0 189.00467574500362 172.07634844685526 0 0 0 0 227.42476445774446 -11.685818353373179 0 -11.685818353373179 278.03982217484736 0 0 0 0 -37.474559812559164 363.93813995376331 0 363.93813995376331 250.31680025061723 0 0 0 0 -500.79781928610191 337.50274648416962 0 337.50274648416962 782.9292231940708 0 0 0 0 25.205086162133739 1326.6577838592493 0 1326.6577838592493 971.0607544446566 0 0 0 0 -128.54272415445394 748.06879326528087 0 748.06879326528087 198.45589640702383 0 0 0 0 173.7305078452755 502.97547992305408 0 502.97547992305408 -297.32888549775635 0 0 0 0 110.05280991904328 568.08303855357735 0 568.08303855357735 180.63609912029642 0 0 0 0 -983.51102790880395 705.96677631860075 0 705.96677631860075 338.61560141927839 0 0 0 0 -549.06168808818347 -142.39587079558714 0 -142.39587079558714 81.923497400559427 0 0 0 0 -295.23643427565185 1351.960517827185 0 1351.960517827185 1180.9417267410317 0 0 0 0 -1.9818545700651669 4.3074286524607146 0 4.3074286524607146 -3.5071339714722711 0 0 0 0 -25.01264934703795 32.714965481205581 0 32.714965481205581 120.77338903752025 0 0 0 0 -5.0354568167930864 10.773000222777597 0 10.773000222777597 11.677092463597994 0 0 0 0 -18.250130222739244 74.072760699527862 0 74.072760699527862 103.51307539313711 0 0 0 0 -77.208292917723156 456.76984339977571 0 456.76984339977571 1755.6499330130755 0 0 0 0 -233.37286668212255 219.81723866702669 0 219.81723866702669 1542.1527939225634 0 0 0 0 27.593550930038639 77.618886244456561 0 77.618886244456561 97.314135900000537 0 0 0 0 -155.11351080545637 166.39707103276965 0 166.39707103276965 185.73459432854725 0 0 0 0 -121.57822661561659 159.39804147919494 0 159.39804147919494 167.21089256946289 0 0 0 0 18.942647076226422 79.71335655074472 0 79.71335655074472 90.126061516930292 0 0 0 0 14.571123736779555 62.73940780357043 0 62.73940780357043 92.537578477747957 0 0 0 0 -38.622509236007318 90.836347835433116 0 90.836347835433116 90.431667319640837 0 0 0 0 -119.46379634174082 49.103770014195106 0 49.103770014195106 124.07231851705365 0 0 0 0 -68.199804871577726 147.83753913296323 0 147.83753913296323 157.6563168191351 0 0 0 0 -45.721244506119547 126.06692505782667 0 126.06692505782667 175.81174590245246 0 0 0 0 49.598153130413266 128.89616541177929 0 128.89616541177929 116.6506662436841 0 0 0 0 52.015467739762244 156.72213594344976 0 156.72213594344976 13.402470501665903 0 0 0 0 -30.547217718663887 190.53954451646041 0 190.53954451646041 71.019701913530298 0 0 0 0 15.681116937332263 226.33161631377334 0 226.33161631377334 94.24963055981425 0 0 0 0 24.706772438756161 241.1490687269179 0 241.1490687269179 28.56482512083312 0 0 0 0 -311.66018705590523 328.17974469889941 0 328.17974469889941 63.693333826195158 0 0 0 0 204.19017270481163 324.71572229766389 0 324.71572229766389 -133.27337637481469 0 0 0 0 42.486846815810623 277.84570933886789 0 277.84570933886789 -130.56696043912234 0 0 0 0 104.76625894533572 177.05128216995217 0 177.05128216995217 -31.944700737185485 0 0 0 0 46.599612920677828 165.88755220772327 0 165.88755220772327 -0.074700644861877663 0 0 0 0 42.49851433044671 92.998490230382941 0 92.998490230382941 -14.215727267003501 0 0 0 0 45.17481955529729 90.65475855580371 0 90.65475855580371 161.90612444865837 0 0 0 0 10.539197955097862 22.070090302464763 0 22.070090302464763 20.954963011863128 0 0 0 0 72.500963182355918 45.906127029553318 0 45.906127029553318 0.068781898124143481 0 0 0 0 -283.97562569325919 291.28420650245789 0 291.28420650245789 63.775574811152183 0 0 0 0 -287.99931790236951 54.718784859214793 0 54.718784859214793 85.863848557593883 0 0 0 0 1.0814462032074346 -0.26502665464805375 0 -0.26502665464805375 -5.35017331584163 0 0 0 0 -82.435189421228642 200.34240380556184 0 200.34240380556184 90.320282954562572 0 0 0 0 24.171003528492292 48.914515193690022 0 48.914515193690022 83.657546796909628 0 0 0 0 17.444900808376218 96.009418767373603 0 96.009418767373603 8.5555220705184887 0 0 0 0 72.438863968120131 178.77407756959292 0 178.77407756959292 69.951063255997724 0 0 0 0 1.0023559489120828 22.407364219382487 0 22.407364219382487 -24.70339066403227 0 0 0 0 -52.334692177508259 201.1499489582784 0 201.1499489582784 88.56472692170064 0 0 0 0 -73.087991338885331 382.33067002263851 0 382.33067002263851 -75.272276408184553 0 0 0 0 -90.775944349225028 458.73776145119336 0 458.73776145119336 -0.21654965051857289 0 0 0 0 188.10019749558342 334.80221166484989 0 334.80221166484989 -66.852539839033852 0 0 0 0 -20.387627657721168 525.96688220201759 0 525.96688220201759 -96.943177986329829 0 0 0 0 -292.05314399517374 456.49514466784603 0 456.49514466784603 169.50167430372676 0 0 0 0 -227.33114214592933 564.29333478141052 0 564.29333478141052 -67.895839865290327 0 0 0 0 128.0601066765812 316.7102668137959 0 316.7102668137959 -692.56146374716263 0 0 0 0 -182.76944071341131 788.74959034155472 0 788.74959034155472 -467.31293732621998 0 0 0 0 -1119.3836711536496 196.61736024593483 0 196.61736024593483 -279.74026466813666 0 0 0 0 -74.54371766217929 29.287721139690021 0 29.287721139690021 17.140292817293723 0 0 0 0 211.87823788204696 74.471084892953513 0 74.471084892953513 -26.797803953650146 0 0 0 0 28.919993410159805 536.61072168338433 0 536.61072168338433 -215.79833568134927 0 0 0 0 121.33623331267597 71.150773545441552 0 71.150773545441552 -69.07683082224321 0 0 0 0 83.259339976223487 60.545417707611932 0 60.545417707611932 -3.0108872165330371 0 0 0 0 58.368117849891405 32.972061523199955 0 32.972061523199955 -75.045102201620466 0 0 0 0 55.171798166336657 198.18162642033349 0 198.18162642033349 -214.66259837319376 0 0 0 0 107.51602332674065 68.151203833800537 0 68.151203833800537 108.3506334966678 0 0 0 0 271.93614031397004 183.17344704480092 0 183.17344704480092 34.434002408623201 0 0 0 0 124.95351317677159 -185.28748497543711 0 -185.28748497543711 -701.71398751585639 0 0 0 0 -6.726733732483666 14.903200345064313 0 14.903200345064313 -31.037737843495577 0 0 0 0 329.05823795170363 200.29399485511931 0 200.29399485511931 -210.84863788229995 0 0 0 0 95.432498250378558 79.62952087353915 0 79.62952087353915 -242.98686115002829 0 0 0 0 162.39338746254998 129.55135823152887 0 129.55135823152887 14.863359573006164 0 0 0 0 86.68157545493726 64.159286168516033 0 64.159286168516033 -10.225272447237902 0 0 0 0 -3.6499154894202754 47.633079132093059 0 47.633079132093059 -16.292247672233643 0 0 0 0 56.638532296590256 71.147638682126853 0 71.147638682126853 47.779395470353393 0 0 0 0 84.159868944512709 64.944185542182822 0 64.944185542182822 1.6877583241875982 0 0 0 0 71.58194607653968 78.870516311937536 0 78.870516311937536 19.399284207029268 0 0 0 0 78.5661935173448 71.617080348936724 0 71.617080348936724 -6.2543762709760813 0 0 0 0 74.62424419324816 55.735080799655407 0 55.735080799655407 19.267737915011821 0 0 0 0 76.823671391948665 63.353856373334565 0 63.353856373334565 -0.0080439133307663724 0 0 0 0 80.058359673977975 65.862284486469434 0 65.862284486469434 1.6383598406318924 0 0 0 0 82.839767011499134 64.776081493000675 0 64.776081493000675 0.022012987574271392 0 0 0 0 81.778156409996882 63.828108932808391 0 63.828108932808391 2.1181137203029721 0 0 0 0 82.10122407592462 62.587372193193005 0 62.587372193193005 4.8034577775251819 0 0 0 0 83.112086043551244 67.10599172788352 0 67.10599172788352 4.6227283064945368 0 0 0 0 83.337079210039519 68.627503566167434 0 68.627503566167434 -0.067939444202273491 0 0 0 0 85.864304066642035 77.132739584470983 0 77.132739584470983 14.664005694517982 0 0 0 0 77.500373969560314 63.684088402202178 0 63.684088402202178 15.731557430624889 0 0 0 0 80.544042736413758 63.86108679276731 0 63.86108679276731 9.3237986168533098 0 0 0 0 85.263160946293283 138.05761916499978 0 138.05761916499978 133.0454827677604 0 0 0 0 107.15768258413391 107.40799698088449 0 107.40799698088449 35.002135860311682 0 0 0 0 87.35122393234451 80.187315339491761 0 80.187315339491761 0.30489170959160505 0 0 0 0 60.278621119015952 64.532745463839092 0 64.532745463839092 53.864238382844633 0 0 0 0 78.366696045117351 64.818755326694372 0 64.818755326694372 17.151575599033094 0 0 0 0 102.77401454744268 71.17410008184379 0 71.17410008184379 24.765631536240107 0 0 0 0 212.01840605077814 66.700255533800373 0 66.700255533800373 -344.86390116616531 0 0 0 0 74.275694065535063 60.495603720969967 0 60.495603720969967 -2.9843950925539353 0 0 0 0 77.002085013357288 60.788943378287328 0 60.788943378287328 -4.0363571498852266 0 0 0 0 71.3238059124958 98.930477482968172 0 98.930477482968172 -295.17407162004383 0 0 0 0 69.787637426156152 81.004012989687908 0 81.004012989687908 -216.35598554898752 0 0 0 0 164.1494567233276 35.630955071195785 0 35.630955071195785 -273.35771921050036 0 0 0 0 234.40047060497818 76.079951008683565 0 76.079951008683565 -287.46675016389963 0 0 0 0 6.7040759868500572 111.69077899640433 0 111.69077899640433 -91.237715846320953 0 0 0 0 79.738817008583126 61.293596146091915 0 61.293596146091915 -3.9353860256406374 0 0 0 0 63.118917510293613 133.33792730965433 0 133.33792730965433 -202.47448632088719 0 0 0 0 99.378238273210854 96.679516850667824 0 96.679516850667824 -311.91686167193984 0 0 0 0 120.14720076086905 173.6784567357281 0 173.6784567357281 -301.85882594376426 0 0 0 0 147.54285938944258 294.8134845237164 0 294.8134845237164 -777.47948734716556 0 0 0 0 47.404495898052119 -11.826503962114657 0 -11.826503962114657 -293.44345849090678 0 0 0 0 -84.431064363861879 193.72005732727484 0 193.72005732727484 -425.15856912159506 0 0 0 0 114.8084399455006 122.31056668409474 0 122.31056668409474 -484.67830987284833 0 0 0 0 9.454221959462302 115.53703442730693 0 115.53703442730693 -297.5774013450955 0 0 0 0 89.108770744340291 188.89746990225831 0 188.89746990225831 -582.22349101427244 0 0 0 0 330.95957260910654 124.45177571913518 0 124.45177571913518 -852.3301446662299 0 0 0 0 526.07551270917975 -112.41048050169047 0 -112.41048050169047 -617.53620180915459 0 0 0 0 -22.28120659783599 348.02367520698317 0 348.02367520698317 -1595.2634947084007 0 0 0 0 477.76861608679883 466.56613344722791 0 466.56613344722791 -993.69067260294105 0 0 0 0 -1.8445689091710626 -0.35419985896263029 0 -0.35419985896263029 -0.23112989925118654 0 0 0 0 -628.10198450725147 550.94993394406993 0 550.94993394406993 -420.2994242124114 0 0 0 0 -419.27974065888338 318.85935958613845 0 318.85935958613845 -422.7300942239599 0 0 0 0 4.4801371722996919 -159.09517635094562 0 -159.09517635094562 -369.6374920267408 0 0 0 0 138.00368050748511 36.159773091156239 0 36.159773091156239 -1061.8935226636822 0 0 0 0 12.544030560340616 462.27290314619677 0 462.27290314619677 -761.40504047560535 0 0 0 0 -262.30470254509964 422.31432350579053 0 422.31432350579053 -97.307692120979482 0 0 0 0 -160.13314576816606 188.22594132601262 0 188.22594132601262 -289.60307662986452 0 0 0 0 -333.42129560790818 297.86346743652575 0 297.86346743652575 -314.25982725385984 0 0 0 0 -542.52800673937418 480.85021458307892 0 480.85021458307892 -278.93866735322081 0 0 0 0 -304.06498019967239 225.33502302077795 0 225.33502302077795 -217.96072207397083 0 0 0 0 -202.01589868641804 260.94416139172245 0 260.94416139172245 -278.94464059542224 0 0 0 0 -1.4532145056711094 -0.20621433280967238 0 -0.20621433280967238 0.41610347643657519 0 0 0 0 -226.01233939783651 266.88898580804016 0 266.88898580804016 -100.2676886287959 0 0 0 0 150.26411052390131 -49.276280531297743 0 -49.276280531297743 -52.530957101225795 0 0 0 0 34.536561481889294 7.7431641063922143 0 7.7431641063922143 -71.145599238010618 0 0 0 0 -1.4060295228973878 -0.80038012725304952 0 -0.80038012725304952 -1.3505849077598242 0 0 0 0 1009.0456628864849 633.34310577692304 0 633.34310577692304 -540.50974431125996 0 0 0 0 586.13901494736274 606.90901607143405 0 606.90901607143405 -392.44689542858396 0 0 0 0 484.81308955413806 454.16971111536714 0 454.16971111536714 -544.21706144135533 0 0 0 0 8.5565911534418788 16.475972984372923 0 16.475972984372923 20.880288918866427 0 0 0 0 -404.39087623484556 1021.7010857272508 0 1021.7010857272508 -393.98549988482318 0 0 0 0 -745.57123439241877 364.34666255646516 0 364.34666255646516 -210.58679540219055 0 0 0 0 -925.41043496369639 597.24152205339487 0 597.24152205339487 -298.48037718172418 0 0 0 0 -853.43076286762516 451.86784446944512 0 451.86784446944512 -236.8212275259466 0 0 0 0 -678.57045184536764 455.22694804915955 0 455.22694804915955 -292.55245323233248 0 0 0 0 -1049.798533496999 572.01471747030882 0 572.01471747030882 -84.246774960578477 0 0 0 0 3.7696953793931129 6.7133340625250675 0 6.7133340625250675 7.3171919262033498 0 0 0 0 -223.93471766586299 1325.5539609097759 0 1325.5539609097759 -380.528052190577 0 0 0 0 -837.246910348656 791.09347728351281 0 791.09347728351281 50.603484967548866 0 0 0 0 -850.35980471134258 678.88898871619494 0 678.88898871619494 -528.02578258106951 0 0 0 0 -692.38895147319636 614.93467492738273 0 614.93467492738273 -630.53004328960378 0 0 0 0 -652.34234965929136 734.30564559454069 0 734.30564559454069 -1087.1999011776352 0 0 0 0 922.91058191276352 -469.66138635824154 0 -469.66138635824154 -271.51859689492994 0 0 0 0 1.369710266912989 -0.63183580029419062 0 -0.63183580029419062 -2.9929695793646829 0 0 0 0 -197.96944324745709 982.73452751843433 0 982.73452751843433 -1890.5924181823575 0 0 0 0 -749.30128074929235 1608.5295267188048 0 1608.5295267188048 -1622.6269731387929 0 0 0 0 391.27646637793259 -402.22633009266247 0 -402.22633009266247 7.1851819826333667 0 0 0 0 -868.36451251275867 1199.1436982476807 0 1199.1436982476807 -1014.9896550759331 0 0 0 0 -672.36462206096803 869.88201693449082 0 869.88201693449082 -842.91793801146559 0 0 0 0 -1131.5189347260748 1227.4075782731379 0 1227.4075782731379 -910.58234946911489 0 0 0 0 614.64921859265405 335.23457855424203 0 335.23457855424203 -668.63411699383869 0 0 0 0 697.43311190846725 863.82155425392921 0 863.82155425392921 -1124.9913049584575 0 0 0 0 -44.011991646311799 1145.912559420125 0 1145.912559420125 -994.15494444291835 0 0 0 0 149.43303981009376 857.48515163674892 0 857.48515163674892 -813.74802843971702 0 0 0 0 369.06077262037797 372.23806463658912 0 372.23806463658912 -190.08689048240194 0 0 0 0 514.04070107070493 830.56769225229436 0 830.56769225229436 -75.337954497186729 0 0 0 0 379.53979855534271 498.16848006346481 0 498.16848006346481 -448.3469709654164 0 0 0 0 518.12560870225298 689.89547829160801 0 689.89547829160801 -1159.8505152145808 0 0 0 0 525.08122218772712 802.51548315238733 0 802.51548315238733 -359.10025825835328 0 0 0 0 -518.64388850531577 43.940018166147638 0 43.940018166147638 -3264.6947669169458 0 0 0 0 593.52316435877583 1252.4098708478268 0 1252.4098708478268 -3154.0379098531994 0 0 0 0 -101.2939239121115 850.74293363316974 0 850.74293363316974 -917.09238716773689 0 0 0 0 -24.966762963514157 1021.5928860263266 0 1021.5928860263266 -1805.439540694475 0 0 0 0 168.81929558912452 740.71666475243183 0 740.71666475243183 -1182.0879069416696 0 0 0 0 3.0236975021216494 1274.8411606277659 0 1274.8411606277659 -1693.2856434834976 0 0 0 0 -270.5609627731792 623.7891754511802 0 623.7891754511802 -2357.0530120522744 0 0 0 0 23.462565734801501 -42.253078822621319 0 -42.253078822621319 -42.275058528346563 0 0 0 0 29.894559440759622 22.010828402242623 0 22.010828402242623 -19.121875214957981 0 0 0 0 43.166028825294617 30.128317502261496 0 30.128317502261496 2.3234306648877165 0 0 0 0 61.599338607675691 51.271519938534766 0 51.271519938534766 36.585136825225618 0 0 0 0 45.7989882862474 17.360275820676605 0 17.360275820676605 -32.634837096771435 0 0 0 0 54.103377915468457 60.142578251818492 0 60.142578251818492 0.7644500365879594 0 0 0 0 -9.5892998543968133 56.602829735558771 0 56.602829735558771 57.398280100314878 0 0 0 0 -648.96470241984571 292.69959405643749 0 292.69959405643749 -440.72685955245106 0 0 0 0 18.020737103387198 8.3551050537937357 0 8.3551050537937357 4.8987377426145144 0 0 0 0 40.154895547984907 31.14036719928994 0 31.14036719928994 17.840047328693004 0 0 0 0 55.369512851786567 784.48589491197708 0 784.48589491197708 -3167.535573444984 0 0 0 0 -484.22225702281867 1126.6129438211938 0 1126.6129438211938 -760.81543293836876 0 0 0 0 -138.93026710978302 511.35576826860779 0 511.35576826860779 -768.6553364196734 0 0 0 0 585.89840047765756 -330.98373686832201 0 -330.98373686832201 201.69102258050407 0 0 0 0 56.742764328198973 -151.42872000660282 0 -151.42872000660282 -3753.3704750266406 0 0 0 0 -210.74704332970578 647.26844231861469 0 647.26844231861469 -182.97092523341416 0 0 0 0 0.96881630897378557 7.6795117406006739 0 7.6795117406006739 -7.1774811639962621 0 0 0 0 28.445210830444921 101.77038882834677 0 101.77038882834677 -53.489759759517256 0 0 0 0 148.48615908639886 -138.02156514406306 0 -138.02156514406306 105.23313893372688 0 0 0 0 -276.38839339398146 708.03483805391807 0 708.03483805391807 -1805.2452005208252 0 0 0 0 8.3627035683771425 -6.1510646592703253 0 -6.1510646592703253 -24.044252469579476 0 0 0 0 68.892842874923048 57.535717494001844 0 57.535717494001844 -11.92535201761009 0 0 0 0 156.2388604246762 -48.377067902889394 0 -48.377067902889394 -209.39278227593968 0 0 0 0 67.16482206015371 48.00454807337519 0 48.00454807337519 88.814507109229453 0 0 0 0 52.818778893935814 58.456915686969296 0 58.456915686969296 40.236492363008438 0 0 0 0 9.5913553328311174 9.3942007455405445 0 9.3942007455405445 8.9388229270491593 0 0 0 0 85.176602808703137 99.072809121811588 0 99.072809121811588 93.08433840028647 0 0 0 0 36.057466254943392 30.220617452221632 0 30.220617452221632 27.679255785446003 0 0 0 0 56.035420468568191 38.285861181109794 0 38.285861181109794 -0.028964204764633905 0 0 0 0 38.494651884631821 23.844682514180022 0 23.844682514180022 0.07395417257794179 0 0 0 0 2.0418998581140997 -0.12094928919327685 0 -0.12094928919327685 -4.0483739836172674 0 0 0 0 54.902056778502811 40.738405448195408 0 40.738405448195408 22.77020635586814 0 0 0 0 40.691684611884739 28.922131217455899 0 28.922131217455899 16.785508298053173 0 0 0 0 55.932239989546815 37.073454267563648 0 37.073454267563648 14.701312413308187 0 0 0 0 62.622168561815215 51.45481807631586 0 51.45481807631586 19.421634341983008 0 0 0 0 56.413577126494602 40.026613488676958 0 40.026613488676958 21.593607484144741 0 0 0 0 54.173441087599713 48.260424867690745 0 48.260424867690745 0.11130976585263852 0 0 0 0 55.519902131842173 40.095038771534746 0 40.095038771534746 20.091218748082156 0 0 0 0 38.728262376797431 46.21301319075792 0 46.21301319075792 34.473778617466451 0 0 0 0 39.527644977534237 45.270627954290831 0 45.270627954290831 21.781681437018051 0 0 0 0 24.260536698516944 16.369960464959149 0 16.369960464959149 0.02324549576878308 0 0 0 0 6.1680504460935142 4.5069424352999334 0 4.5069424352999334 1.2694478211106173 0 0 0 0 27.777412075468167 29.437120356363408 0 29.437120356363408 22.553197113310972 0 0 0 0 28.419645141225601 37.593597806564503 0 37.593597806564503 34.809202869582805 0 0 0 0 33.052133441433398 93.695500276495295 0 93.695500276495295 -3.6374807883112226 0 0 0 0 66.572377279251668 -0.45306898876151536 0 -0.45306898876151536 28.400027369589225 0 0 0 0 47.46913319342309 -15.165856861935936 0 -15.165856861935936 -58.380628140395856 0 0 0 0 3.1894495228822706 14.474283245419187 0 14.474283245419187 -1.7152538482979764 0 0 0 0 1502.4180920486756 -546.6596530720235 0 -546.6596530720235 224.28822196899637 0 0 0 0 17.137230213512929 9.5007751941341496 0 9.5007751941341496 4.0877602777868276 0 0 0 0 24.25414824556043 16.333903577733508 0 16.333903577733508 -0.022628753060416784 0 0 0 0 -998.45443549560378 1178.6194925900684 0 1178.6194925900684 412.04658519482473 0 0 0 0 1.5391089569598244 6.6500324148691021 0 6.6500324148691021 -3.61764851866306 0 0 0 0 1550.5853260425874 2709.1757195624268 0 2709.1757195624268 -1.2015782446643726 0 0 0 0 1782.528153870775 1281.5852889389207 0 1281.5852889389207 388.48452121399623 0 0 0 0 2723.3268001318484 869.68697522157163 0 869.68697522157163 -453.98311503125296 0 0 0 0 1377.7296015498578 1230.4936250115643 0 1230.4936250115643 34.429659588087816 0 0 0 0 -1.0274034804119232 2.1179553942961178 0 2.1179553942961178 -2.4615277488013589 0 0 0 0 1623.8466860225994 1709.0666322982433 0 1709.0666322982433 -687.70864064049965 0 0 0 0 1.450492556591402 6.7152491163085308 0 6.7152491163085308 -3.6141083898805277 0 0 0 0 2890.7336903982559 1498.4783041865921 0 1498.4783041865921 -1025.3196962239745 0 0 0 0 1345.7282705461948 628.76548088243726 0 628.76548088243726 -1462.1051295671132 0 0 0 0 1658.5583536216309 1914.5911470783103 0 1914.5911470783103 -670.33599597064313 0 0 0 0 16.646575141794528 12.83235381277099 0 12.83235381277099 -3.1464141128949197 0 0 0 0 880.82001458206105 930.29326083880005 0 930.29326083880005 -1570.8201795062341 0 0 0 0 165.51669849913014 331.48003521976352 0 331.48003521976352 -1723.7816561565198 0 0 0 0 309.83480190205046 994.84133573219879 0 994.84133573219879 -1097.2691795543615 0 0 0 0 287.57009743548042 974.92268846503794 0 974.92268846503794 -1143.5723984913348 0 0 0 0 -43.068692661528075 121.54815888970916 0 121.54815888970916 -2243.8619026679517 0 0 0 0 18.825158012475356 10.012051445762623 0 10.012051445762623 -3.9999443293687245 0 0 0 0 340.67868208519394 259.57482418894142 0 259.57482418894142 -2918.1499561503733 0 0 0 0 -66.720009500877495 403.81234936445253 0 403.81234936445253 -2449.771118642384 0 0 0 0 274.76897500249106 49.601826222351519 0 49.601826222351519 -3623.7084644325882 0 0 0 0 199.24907682167759 568.96351480593876 0 568.96351480593876 150.28707662970191 0 0 0 0 8.2106897754592012 2.7302074217525956 0 2.7302074217525956 -2.7582585067994523 0 0 0 0 -259.093018411515 -97.745371461161994 0 -97.745371461161994 -2607.951483653218 0 0 0 0 4.0705477824263454 -0.84126447501900259 0 -0.84126447501900259 -1.1054035856366911 0 0 0 0 -27.374910953356448 94.837734602231649 0 94.837734602231649 268.48774294898612 0 0 0 0 -96.647946122850044 331.0694074549574 0 331.0694074549574 -1814.9342693762301 0 0 0 0 161.92961984348949 -158.31760282895993 0 -158.31760282895993 -1273.8174288587034 0 0 0 0 424.2179478758444 393.43132957017224 0 393.43132957017224 -2458.8530535666905 0 0 0 0 140.47845341295033 224.84380951141793 0 224.84380951141793 -17.591724125375549 0 0 0 0 -34.630959835543763 -359.44654984827503 0 -359.44654984827503 -1597.7272984335432 0 0 0 0 175.28632551684495 562.95906917355023 0 562.95906917355023 -1797.7978678803192 0 0 0 0 240.26510645985763 142.25204118084366 0 142.25204118084366 -2373.2115595189716 0 0 0 0 -3.7353750880001115 5.0104243527498085 0 5.0104243527498085 -2.5611899295981857 0 0 0 0 -859.89559434994226 1493.8858038834514 0 1493.8858038834514 -1548.4408334709551 0 0 0 0 40.196185279724887 36.253118273976725 0 36.253118273976725 -240.68317235492577 0 0 0 0 -1420.3369923257997 1333.0389633148079 0 1333.0389633148079 -1249.7558233504969 0 0 0 0 -1190.1994204313742 1161.9368932060243 0 1161.9368932060243 -1607.7259570813185 0 0 0 0 -1385.575667713063 1256.1535113884602 0 1256.1535113884602 -962.86049414670561 0 0 0 0 48.869656227461746 1133.8116525199548 0 1133.8116525199548 -2455.2169121535262 0 0 0 0 2.2828847208981458 0.56385613125542022 0 0.56385613125542022 -4.2985184339158877 0 0 0 0 -1292.1393062419374 1120.0275878143912 0 1120.0275878143912 -382.07430317417311 0 0 0 0 -880.2791244964319 739.75142627478635 0 739.75142627478635 -461.51406999799656 0 0 0 0 -1302.1068133619592 1197.3129928349954 0 1197.3129928349954 -648.97442860080628 0 0 0 0 -1468.1703207268611 918.30053928466077 0 918.30053928466077 -784.65642187849153 0 0 0 0 -1313.784137358959 1372.0497751759467 0 1372.0497751759467 -0.64143148781295167 0 0 0 0 -1343.7307038975291 1055.5070714194098 0 1055.5070714194098 -609.7118377580482 0 0 0 0 -631.31934706080756 2057.4914722661633 0 2057.4914722661633 -2469.8467987617914 0 0 0 0 -1159.8862096112098 1474.3583445007243 0 1474.3583445007243 -577.87814988494847 0 0 0 0 -1076.6232112687812 1831.8677028781967 0 1831.8677028781967 -1400.3970693371812 0 0 0 0 -860.46842690766789 1507.8392572508383 0 1507.8392572508383 -1693.3779169515838 0 0 0 0 -474.12409772698538 1199.7068930079804 0 1199.7068930079804 -1142.9898816556524 0 0 0 0 -1295.1496748147733 1506.7329697978294 0 1506.7329697978294 -316.75969181707478 0 0 0 0 -1417.3707859303922 2328.2449593080382 0 2328.2449593080382 -1130.3033203512168 0 0 0 0 -480.82741554609856 1171.6216139383905 0 1171.6216139383905 -477.04278416314992 0 0 0 0 2543.4517945007028 964.85969754139273 0 964.85969754139273 -618.24774083313241 0 0 0 0 -236.1697378126828 1666.4674044142303 0 1666.4674044142303 1.0653909622196807 0 0 0 0 -292.88901134316438 1641.4797505144306 0 1641.4797505144306 -127.31054452784883 0 0 0 0 -681.50308084942981 2085.107445922692 0 2085.107445922692 -596.36132049174921 0 0 0 0 169.67989405540357 2601.4416925372425 0 2601.4416925372425 -366.99750650284841 0 0 0 0 -869.53384582486251 1943.9308274739451 0 1943.9308274739451 2683.8446037238173 0 0 0 0 6.0280560707773745 5.2299346791756278 0 5.2299346791756278 -0.5709156737594534 0 0 0 0 271.46185109783801 798.66061668010843 0 798.66061668010843 362.79567497807147 0 0 0 0 77.311726089939839 961.77790203173208 0 961.77790203173208 327.63136779964407 0 0 0 0 934.4914575015564 1542.4280346983542 0 1542.4280346983542 704.60080932968413 0 0 0 0 -991.34603344037805 2123.8577435111802 0 2123.8577435111802 543.51201015259721 0 0 0 0 322.81251500934218 1908.4043913638548 0 1908.4043913638548 -1196.0527238323994 0 0 0 0 -13.721009463982959 8.6808268980326488 0 8.6808268980326488 -3.911972547888638 0 0 0 0 -314.35298026879218 1000.8731058912635 0 1000.8731058912635 1947.4163370940732 0 0 0 0 -160.25309415241645 623.1099378511135 0 623.1099378511135 -2807.683924308807 0 0 0 0 457.95600015081072 547.02056689339952 0 547.02056689339952 754.94392449497263 0 0 0 0 213.89333530205658 644.75571902318916 0 644.75571902318916 744.52891853214805 0 0 0 0 71.284769961630445 938.0036161340613 0 938.0036161340613 315.1832918818327 0 0 0 0 374.45457968778976 790.36067415358866 0 790.36067415358866 818.9919925902359 0 0 0 0 449.21989784087418 742.25667974614771 0 742.25667974614771 346.09353312200983 0 0 0 0 376.66805274639955 547.56240272720606 0 547.56240272720606 752.26888511583093 0 0 0 0 403.57420810643544 693.62111442390596 0 693.62111442390596 939.63791706584743 0 0 0 0 -35.918349670849366 22.914571649126913 0 22.914571649126913 -7.3428726954487189 0 0 0 0 -71.548013032836025 -23.046413047981332 0 -23.046413047981332 173.20757352280634 0 0 0 0 43.909045322405291 -168.91460250564342 0 -168.91460250564342 -169.69402679629275 0 0 0 0 -43.451148891357661 14.68373493229592 0 14.68373493229592 -50.216502175404457 0 0 0 0 -56.481746501955058 -137.87313816499227 0 -137.87313816499227 118.72054222227598 0 0 0 0 486.9869267782824 496.5033163135231 0 496.5033163135231 -76.419586381867703 0 0 0 0 557.87215417052266 477.52485235691347 0 477.52485235691347 -207.96999753008276 0 0 0 0 557.31936421755563 431.47477957615774 0 431.47477957615774 -55.587762636641855 0 0 0 0 542.66395469325914 545.04057641863255 0 545.04057641863255 -23.076537454457139 0 0 0 0 519.92071139199948 633.0048261333086 0 633.0048261333086 174.98968297004467 0 0 0 0 458.69188084806228 546.45898294500694 0 546.45898294500694 285.75562746256765 0 0 0 0 445.99678147761188 681.37257586206397 0 681.37257586206397 68.808678106684965 0 0 0 0 531.13556971563094 490.11007104910641 0 490.11007104910641 -83.231016522811842 0 0 0 0 370.88886587584966 686.85461895311528 0 686.85461895311528 -109.09143228479661 0 0 0 0 420.69438609974168 595.46075543941515 0 595.46075543941515 1.7121541342785349 0 0 0 0 497.94686844187345 464.0033476155877 0 464.0033476155877 -425.50963912306179 0 0 0 0 108.24434382861909 1361.6006141134385 0 1361.6006141134385 -414.36403479534783 0 0 0 0 356.56375912520639 573.50454707427571 0 573.50454707427571 -918.54648341784923 0 0 0 0 331.66219553500923 599.07103440686478 0 599.07103440686478 -2868.9556138915732 0 0 0 0 -132.99929507912202 647.94122708685541 0 647.94122708685541 -662.43485143049475 0 0 0 0 -175.36098346670406 254.27970507186183 0 254.27970507186183 -398.51935802781372 0 0 0 0 -142.28021649216407 368.54965736491067 0 368.54965736491067 -22.474630642755073 0 0 0 0 -18.890281528882042 420.75554619779359 0 420.75554619779359 -2.0485858563861257 0 0 0 0 36.029951052129036 334.71572066312001 0 334.71572066312001 -79.182025653070014 0 0 0 0 232.16721467395564 598.30954507858223 0 598.30954507858223 195.98749902154668 0 0 0 0 231.7489950914387 445.07234204524866 0 445.07234204524866 -313.0043006575288 0 0 0 0 -58.442371009666203 292.6128619298488 0 292.6128619298488 -96.182061133164098 0 0 0 0 458.68600199494358 411.74856171298597 0 411.74856171298597 -210.53712297783204 0 0 0 0 243.65567976088778 324.78263845535184 0 324.78263845535184 -202.09438513521309 0 0 0 0 545.10105850444415 375.3458345748877 0 375.3458345748877 -195.91433241498635 0 0 0 0 509.96393120931771 340.12606763476469 0 340.12606763476469 -191.06722909368546 0 0 0 0 66.692668390738618 595.15600529473522 0 595.15600529473522 -373.77901959021256 0 0 0 0 -60.119244608373265 174.52497185884204 0 174.52497185884204 -372.83469463166693 0 0 0 0 371.40370475783959 439.37317798671347 0 439.37317798671347 -545.14132930948108 0 0 0 0 161.77532620340207 255.74472096697355 0 255.74472096697355 -968.5777607738296 0 0 0 0 -105.79352128440951 45.334889075918909 0 45.334889075918909 -1060.1426590267874 0 0 0 0 -70.897657635934593 581.5949759732066 0 581.5949759732066 -803.15014715578036 0 0 0 0 -364.36644621615233 462.60197075068936 0 462.60197075068936 -1166.2143542986742 0 0 0 0 -99.398778942815625 209.04770930419909 0 209.04770930419909 -1045.7979326137993 0 0 0 0 100.70126621012605 362.690204709299 0 362.690204709299 -628.38811103157786 0 0 0 0 -108.45771713472512 599.60296830523657 0 599.60296830523657 -388.06014379955741 0 0 0 0 137.25890297634578 410.47974507871913 0 410.47974507871913 -257.82028155308217 0 0 0 0 -67.44014719607685 465.75506987317567 0 465.75506987317567 -214.54937338629679 0 0 0 0 -113.5829617969157 307.07375792456878 0 307.07375792456878 -325.07421115001125 0 0 0 0 -51.346200174450132 314.63141587881546 0 314.63141587881546 -48.414350981765892 0 0 0 0 -93.816031495645802 393.03605199432059 0 393.03605199432059 27.626015664412989 0 0 0 0 169.24198860784963 362.60211252293811 0 362.60211252293811 -46.208139826954721 0 0 0 0 -50.946825659343872 486.6887662017528 0 486.6887662017528 -112.65425102588779 0 0 0 0 449.61879887606847 409.65910956375956 0 409.65910956375956 -200.95529201466161 0 0 0 0 90.208047457589601 553.9779896476166 0 553.9779896476166 -258.46662029771687 0 0 0 0 375.07344752057543 593.29977807957766 0 593.29977807957766 -438.90104857212646 0 0 0 0 356.37728143641561 594.20816730987826 0 594.20816730987826 -334.84118698598468 0 0 0 0 477.35103887606238 641.7838699766362 0 641.7838699766362 -334.25255837630016 0 0 0 0 225.29144826216543 406.30321091922815 0 406.30321091922815 -20.397220412851311 0 0 0 0 146.50131626734219 407.71626510039277 0 407.71626510039277 -20.404635605766089 0 0 0 0 391.52000936040895 237.25157327665693 0 237.25157327665693 146.70988162009598 0 0 0 0 387.75766580782147 327.59259128360645 0 327.59259128360645 122.22260688999086 0 0 0 0 620.15859376359913 675.09369884698935 0 675.09369884698935 419.3822689548324 0 0 0 0 311.39327044834681 405.08026481836532 0 405.08026481836532 775.7497238313681 0 0 0 0 164.56307334345001 442.85886471471531 0 442.85886471471531 323.68262605024393 0 0 0 0 313.97376399925997 435.80798160182894 0 435.80798160182894 277.42193687021427 0 0 0 0 166.67299874813398 487.84402569074518 0 487.84402569074518 404.35392339637474 0 0 0 0 140.04194931671736 604.96036923252177 0 604.96036923252177 327.20072623818669 0 0 0 0 350.26587550524164 500.25201293203645 0 500.25201293203645 24.633240172712476 0 0 0 0 166.95925286823331 497.80633018227309 0 497.80633018227309 180.75685937322123 0 0 0 0 217.41779903646602 581.22175695584701 0 581.22175695584701 249.44313889027944 0 0 0 0 164.70222855563935 346.26211154042426 0 346.26211154042426 156.45202156220694 0 0 0 0 172.76443765710246 445.0564831524498 0 445.0564831524498 229.13212456775364 0 0 0 0 85.909776005191361 266.24592405884823 0 266.24592405884823 6.3462832079239888 0 0 0 0 60.669844274239949 278.61140572835575 0 278.61140572835575 126.34730652532016 0 0 0 0 27.854506179577584 337.84380879460878 0 337.84380879460878 190.46715381918693 0 0 0 0 -19.829271356949903 388.15770143061309 0 388.15770143061309 37.434183973698964 0 0 0 0 167.38156817296795 270.5530138758113 0 270.5530138758113 109.73055298694089 0 0 0 0 -6.6581649983367015 284.9143845169765 0 284.9143845169765 106.21837722744385 0 0 0 0 -76.648484734865633 299.46958409055151 0 299.46958409055151 133.85639860640731 0 0 0 0 -90.623813866195576 323.71025563270109 0 323.71025563270109 171.65473841680068 0 0 0 0 -103.76177611167441 304.33776284442865 0 304.33776284442865 163.14229616876946 0 0 0 0 -92.71298213479713 342.05498424025973 0 342.05498424025973 279.90283597114467 0 0 0 0 -180.78506254414515 435.19216339009836 0 435.19216339009836 229.33415200449963 0 0 0 0 -148.51824122901053 239.09212452701831 0 239.09212452701831 321.49305538188128 0 0 0 0 -149.90997388551659 203.53432267275639 0 203.53432267275639 188.17950071692758 0 0 0 0 -46.586177982500885 215.59591889654257 0 215.59591889654257 115.39839727205981 0 0 0 0 -90.593860553866307 266.84314573049141 0 266.84314573049141 222.58118249312975 0 0 0 0 835.59304588962914 258.7427292749926 0 258.7427292749926 -130.64408194251155 0 0 0 0 1497.4894953116418 192.85097002375551 0 192.85097002375551 122.40703287351062 0 0 0 0 -0.95825683127137395 3.0956093804186722 0 3.0956093804186722 0.77252042973768198 0 0 0 0 500.89493695224837 465.43142069420719 0 465.43142069420719 78.740537362882606 0 0 0 0 288.05449225151915 900.51110073568816 0 900.51110073568816 652.45847266746568 0 0 0 0 -627.13940181738963 348.05424453371052 0 348.05424453371052 592.9708520180975 0 0 0 0 1122.2597088803 1095.2509577707606 0 1095.2509577707606 712.49652335561404 0 0 0 0 1004.6443297585092 599.99434908131252 0 599.99434908131252 319.12616794146015 0 0 0 0 1446.0819229806848 703.74299679217347 0 703.74299679217347 -15.283834018897323 0 0 0 0 6.0799390847055665 8.3256291001933764 0 8.3256291001933764 6.5564542169282447 0 0 0 0 -527.21304231371778 598.96695651732171 0 598.96695651732171 -12.17184312187419 0 0 0 0 9.0191414832506638 15.777914777559273 0 15.777914777559273 18.107272082075824 0 0 0 0 940.71006641549502 131.77715522517792 0 131.77715522517792 -479.67599313920618 0 0 0 0 -45.603558480006541 239.91482291257853 0 239.91482291257853 119.59084688223857 0 0 0 0 -61.250234177530729 161.60301374625851 0 161.60301374625851 -121.26905474035084 0 0 0 0 -325.63386137862381 28.312153770912118 0 28.312153770912118 117.6390669418397 0 0 0 0 -484.13473080061067 382.25862449966371 0 382.25862449966371 -54.258881413924428 0 0 0 0 748.87419794427115 518.55677792982533 0 518.55677792982533 -234.28709286332833 0 0 0 0 2.6124690558849579 52.329142326258079 0 52.329142326258079 -151.7664076512774 0 0 0 0 942.94964140918637 981.28573481995045 0 981.28573481995045 345.82099994131204 0 0 0 0 4.7404343172008829 8.5971261037172688 0 8.5971261037172688 10.102598349578699 0 0 0 0 -1106.3822132410924 641.80657800034987 0 641.80657800034987 2006.3549849757801 0 0 0 0 -16.100915974708187 777.40024451163845 0 777.40024451163845 1661.091435326317 0 0 0 0 322.70395084415577 635.36241534922374 0 635.36241534922374 818.27702050966036 0 0 0 0 -58.299855841243698 2251.3902352216573 0 2251.3902352216573 3270.7885624804185 0 0 0 0 233.76157994785081 992.33325819648144 0 992.33325819648144 943.89718109602109 0 0 0 0 591.59576940807801 394.23442279042956 0 394.23442279042956 372.44295114939086 0 0 0 0 456.18160212855946 16.870831670634288 0 16.870831670634288 -622.90150363076646 0 0 0 0 -716.35207797959129 -342.01174126288333 0 -342.01174126288333 732.66045651802051 0 0 0 0 283.04522971922415 648.35907136635615 0 648.35907136635615 1227.099059628943 0 0 0 0 528.29306683787763 284.36261667161853 0 284.36261667161853 336.71813454348558 0 0 0 0 183.13078586865595 852.13306650626873 0 852.13306650626873 824.98167291616846 0 0 0 0 162.61969083051554 480.61015401779423 0 480.61015401779423 1025.8124610365412 0 0 0 0 416.85622925147982 683.59065287336125 0 683.59065287336125 587.29646818889341 0 0 0 0 115.77670698875772 655.99782510957812 0 655.99782510957812 743.73436590674646 0 0 0 0 478.89441782913491 792.43079459813134 0 792.43079459813134 709.97248333240714 0 0 0 0 -30.346067734153621 422.83328143726794 0 422.83328143726794 1020.1973740696776 0 0 0 0 6.0071404122090115 6.7342934986116845 0 6.7342934986116845 0.8786534563596593 0 0 0 0 -44.382315347034591 159.48775861911895 0 159.48775861911895 279.17044546439138 0 0 0 0 37.792605788585206 465.02179084750605 0 465.02179084750605 166.97534098762844 0 0 0 0 -50.674755678533984 208.56086043207324 0 208.56086043207324 651.94634119576767 0 0 0 0 44.500773797008151 540.15324096490076 0 540.15324096490076 610.21138619588191 0 0 0 0 304.61977416401351 391.01876521667145 0 391.01876521667145 -504.98840191902673 0 0 0 0 -584.05970385614273 1448.0977035584292 0 1448.0977035584292 2768.0018623313626 0 0 0 0 1151.2518161520129 598.73713027901249 0 598.73713027901249 3013.6947066208959 0 0 0 0 4.4129229664528751 3.1294812323166497 0 3.1294812323166497 1.1553465060248787 0 0 0 0 180.65608968284243 948.36945128388538 0 948.36945128388538 13.080707004573924 0 0 0 0 120.925402494624 692.04894455971225 0 692.04894455971225 577.54508580771653 0 0 0 0 -4.5622207283363423 729.5012219126429 0 729.5012219126429 452.99583095468552 0 0 0 0 -26.225746484269621 625.0044209382977 0 625.0044209382977 547.24604473938416 0 0 0 0 -10.040719179116422 677.53881569303303 0 677.53881569303303 623.99998088496795 0 0 0 0 24.062879374763725 738.50454153783176 0 738.50454153783176 709.98236128965436 0 0 0 0 96.709937096431531 482.54955362772671 0 482.54955362772671 671.20628981265691 0 0 0 0 87.759270140553781 743.0687940481148 0 743.0687940481148 839.21443762772515 0 0 0 0 101.96688114246354 724.01575181674798 0 724.01575181674798 615.09708790574587 0 0 0 0 152.04759545925299 419.11473095645397 0 419.11473095645397 986.04121076733645 0 0 0 0 86.661175784129227 533.23120842394928 0 533.23120842394928 807.11943297355538 0 0 0 0 80.788523795788024 526.21497033999549 0 526.21497033999549 1716.5292631987395 0 0 0 0 230.52744142750635 694.18110504954348 0 694.18110504954348 1103.3366387253354 0 0 0 0 209.4971203655914 550.39972654650046 0 550.39972654650046 938.3123927250972 0 0 0 0 285.89663982174898 784.620362197129 0 784.620362197129 1004.5413931861767 0 0 0 0 224.8472413067102 395.32291419629837 0 395.32291419629837 1024.4349074264974 0 0 0 0 168.56578803133743 876.30920492872792 0 876.30920492872792 2261.7080101877145 0 0 0 0 268.37190643088616 689.04408708750452 0 689.04408708750452 1095.9810769932701 0 0 0 0 237.26431954610962 443.03305260719026 0 443.03305260719026 1297.1454693132564 0 0 0 0 261.64933934905639 312.87099169758585 0 312.87099169758585 -584.77923664369337 0 0 0 0 0.24492064284814319 1.5028878855656274 0 1.5028878855656274 1.1334764028979372 0 0 0 0 332.06882813204174 381.3753028997362 0 381.3753028997362 195.9674011969546 0 0 0 0 239.43360826000344 649.30420466014994 0 649.30420466014994 128.95081584985019 0 0 0 0 180.46825371063096 605.75553166213103 0 605.75553166213103 245.50094926893507 0 0 0 0 197.55482511675655 507.67268193863129 0 507.67268193863129 194.07470496775932 0 0 0 0 377.28298133526187 730.53649167786352 0 730.53649167786352 277.57515040571343 0 0 0 0 184.1250694262244 368.90503204346533 0 368.90503204346533 819.38709164896136 0 0 0 0 139.55613733100472 508.43756491803106 0 508.43756491803106 387.07697460148211 0 0 0 0 2.2499905805913087 6.4791849477492249 0 6.4791849477492249 0.52556498094931214 0 0 0 0 59.159265513279934 414.16026219680043 0 414.16026219680043 276.66584019696165 0 0 0 0 81.777321095822117 118.17533282561726 0 118.17533282561726 162.25239356840029 0 0 0 0 1.9064061905416239 1.534717250990048 0 1.534717250990048 2.7289010126968307 0 0 0 0 55.974684549706581 164.2570510405385 0 164.2570510405385 -15.171537190533854 0 0 0 0 175.18428741999378 309.63120025620265 0 309.63120025620265 75.129503548689172 0 0 0 0 -670.0644408587068 338.23986560249068 0 338.23986560249068 340.1069837138748 0 0 0 0 975.72424690670323 62.643215113508177 0 62.643215113508177 -294.29626300370364 0 0 0 0 1.8202599294394943 5.5000740298907616 0 5.5000740298907616 4.1444888973195972 0 0 0 0 -380.41849669408111 586.98052273594476 0 586.98052273594476 403.82836428686278 0 0 0 0 -365.95625185126028 -88.890216196486563 0 -88.890216196486563 -99.168509531245945 0 0 0 0 -117.25203359816805 78.526169562783252 0 78.526169562783252 -226.7843915970152 0 0 0 0 -69.346755890430359 -40.726705724075146 0 -40.726705724075146 -26.116636458918947 0 0 0 0 -56.221804769753362 -15.570934266510449 0 -15.570934266510449 13.555567180010257 0 0 0 0 -17.455705254658824 71.789432277701053 0 71.789432277701053 -115.14243885231917 0 0 0 0 -117.21807243482908 82.386903716458619 0 82.386903716458619 -46.18891316801637 0 0 0 0 -21.080601939535427 46.267429112596119 0 46.267429112596119 -29.598739207511244 0 0 0 0 24.819344404988001 22.578571291597378 0 22.578571291597378 5.617738573347097 0 0 0 0 40.802885905590301 24.489713689672499 0 24.489713689672499 -22.550042179704178 0 0 0 0 44.650521220260998 66.871046288059006 0 66.871046288059006 -74.786578536255547 0 0 0 0 71.427851472639304 20.171905746967241 0 20.171905746967241 -46.628145925048557 0 0 0 0 45.222991001883202 29.824562837275863 0 29.824562837275863 -43.969062974407279 0 0 0 0 47.449109952409344 40.792284918594305 0 40.792284918594305 -57.71178527689699 0 0 0 0 88.424046583037125 57.68029937971005 0 57.68029937971005 -22.045742854057607 0 0 0 0 53.997404025329161 85.663933226198424 0 85.663933226198424 -12.280757887841901 0 0 0 0 2.7461142962565646 11.900243288109777 0 11.900243288109777 19.478472138143843 0 0 0 0 37.130497216166987 38.836218735584225 0 38.836218735584225 9.315527049897355 0 0 0 0 3.2652873443624113 3.353210907640694 0 3.353210907640694 -1.7549061870600724 0 0 0 0 198.9569193990028 -23.778653993023909 0 -23.778653993023909 22.384021554214996 0 0 0 0 44.067683366301935 50.557796449014859 0 50.557796449014859 -4.9862797960395255 0 0 0 0 2.1276923780155759 8.9312440451361823 0 8.9312440451361823 -20.275120919811432 0 0 0 0 73.063609601677854 80.577434498062303 0 80.577434498062303 -3.5307789967082499 0 0 0 0 43.542591870289471 37.595722292211576 0 37.595722292211576 -15.389475882107945 0 0 0 0 14.823881146072381 78.631236585993065 0 78.631236585993065 42.698528570577764 0 0 0 0 -15.320315478385965 4.169963208021727 0 4.169963208021727 24.230837257855455 0 0 0 0 7.9346803525832428 10.479821608799 0 10.479821608799 7.9174608850542967 0 0 0 0 -34.745672807282972 29.971114144086641 0 29.971114144086641 18.087319189186928 0 0 0 0 -97.873052157334769 -24.329777209149825 0 -24.329777209149825 33.184905934376729 0 0 0 0 -1.4262715047339896 1.9543352261814775 0 1.9543352261814775 -8.6547793732184886 0 0 0 0 229.68921647042953 91.641615664308574 0 91.641615664308574 -631.14926313833348 0 0 0 0 -113.79587798099965 72.32172532047116 0 72.32172532047116 42.393561102732917 0 0 0 0 -428.20963826414663 841.31999761221414 0 841.31999761221414 -790.29383839207117 0 0 0 0 -409.58665133304021 342.31012864077911 0 342.31012864077911 -171.14140781242349 0 0 0 0 -86.672807925155212 213.75376985464391 0 213.75376985464391 -434.37914854696282 0 0 0 0 511.76348579639307 332.31304416852072 0 332.31304416852072 -162.56267584554007 0 0 0 0 3.5087740605689142 7.2579515937586478 0 7.2579515937586478 0.76657572379439642 0 0 0 0 148.47371864415982 203.84738772347737 0 203.84738772347737 -25.801756830198428 0 0 0 0 346.83589436813418 133.96023343523666 0 133.96023343523666 -11.231035453287404 0 0 0 0 784.5091084209389 71.903102854855433 0 71.903102854855433 -186.04733792098523 0 0 0 0 281.38528262748878 328.95834642916452 0 328.95834642916452 -190.74482542749138 0 0 0 0 90.383519818718923 443.35387470756609 0 443.35387470756609 -45.636751356429158 0 0 0 0 145.24451138823861 221.32317774894364 0 221.32317774894364 -60.825138948833228 0 0 0 0 182.34957474430666 161.63498282589626 0 161.63498282589626 -232.91842226678273 0 0 0 0 -464.40081390369596 220.45251585197548 0 220.45251585197548 -91.47152856943103 0 0 0 0 196.57348498948704 184.70253838097688 0 184.70253838097688 108.80952263656945 0 0 0 0 -451.93822002489469 196.9101515843422 0 196.9101515843422 -12.702783226470274 0 0 0 0 208.28837711157666 169.27550137922799 0 169.27550137922799 -345.46892875120466 0 0 0 0 -516.47834188496927 -25.061002515718428 0 -25.061002515718428 -494.04104620586668 0 0 0 0 -502.02509772139456 485.04075802848547 0 485.04075802848547 -389.0968912917433 0 0 0 0 2315.9706198136155 -26.471630598111005 0 -26.471630598111005 266.13960938000673 0 0 0 0 2790.0499178681857 901.72779691644246 0 901.72779691644246 67.795175784454841 0 0 0 0 2271.1412714368903 387.34044138413083 0 387.34044138413083 70.849279593090614 0 0 0 0 0.73380328671479944 3.3554593194629376 0 3.3554593194629376 -1.2023298169936538 0 0 0 0 1226.7254768185976 357.25813736072814 0 357.25813736072814 69.271322700122255 0 0 0 0 196.88162710096731 -259.19428690015184 0 -259.19428690015184 -96.571290243260592 0 0 0 0 5.4497013995586716 27.629947385750473 0 27.629947385750473 38.461851845959508 0 0 0 0 -805.73679850188091 -100.53971856737553 0 -100.53971856737553 37.812047368161984 0 0 0 0 -1254.9589595499201 282.11047335196872 0 282.11047335196872 167.16805958626355 0 0 0 0 2208.740396045614 292.07217384282649 0 292.07217384282649 -66.328134610928828 0 0 0 0 1159.2382537501544 939.51124940866521 0 939.51124940866521 655.62225214474529 0 0 0 0 647.24548109218358 673.07289854250484 0 673.07289854250484 549.20486275815347 0 0 0 0 1276.2207179817542 786.16498952052279 0 786.16498952052279 523.63781950639168 0 0 0 0 1471.4869435682758 879.81703120381826 0 879.81703120381826 422.1431357664278 0 0 0 0 1638.5111059594492 429.46160338306618 0 429.46160338306618 -123.08836852476088 0 0 0 0 1043.7196047370471 583.16374085683128 0 583.16374085683128 217.46428605412802 0 0 0 0 1300.7623335110929 481.07788284860362 0 481.07788284860362 141.72073908957827 0 0 0 0 651.36871920938165 468.65616452724498 0 468.65616452724498 405.70577898048941 0 0 0 0 1042.3932990978974 670.9739742554375 0 670.9739742554375 508.50725483212227 0 0 0 0 1275.7356976160695 346.70333953877343 0 346.70333953877343 120.57383465785642 0 0 0 0 1368.0562804642641 528.34273229606879 0 528.34273229606879 159.68005310868102 0 0 0 0 1427.1908308777306 329.95843838787277 0 329.95843838787277 90.312149152257916 0 0 0 0 0.85540274373288128 4.8969972078347936 0 4.8969972078347936 -6.8637865005086667 0 0 0 0 823.80197671705105 150.00093105543647 0 150.00093105543647 99.147802676510764 0 0 0 0 128.09182744874124 896.30625203473846 0 896.30625203473846 34.796162266467945 0 0 0 0 1179.038943184567 216.53227906841857 0 216.53227906841857 118.51088842163654 0 0 0 0 1083.2841198709202 367.22777655788741 0 367.22777655788741 152.61455866914912 0 0 0 0 1199.7192302372828 117.93293178039676 0 117.93293178039676 -8.2098193500423804 0 0 0 0 -12.981354784245923 -370.98071419635562 0 -370.98071419635562 66.135676578847779 0 0 0 0 1221.4309754533456 184.73618545559657 0 184.73618545559657 113.25733693908842 0 0 0 0 -801.14758632949997 351.53031770377493 0 351.53031770377493 440.44846544359825 0 0 0 0 6.370232968625535 37.543455460012915 0 37.543455460012915 49.617037655480928 0 0 0 0 -308.03329814214567 195.24284463425943 0 195.24284463425943 140.69385389377567 0 0 0 0 675.11066378504972 108.70039497555081 0 108.70039497555081 95.362443042020459 0 0 0 0 7.0498890411939934 42.242201832253912 0 42.242201832253912 45.508606220666664 0 0 0 0 887.8597590827253 283.96226104906236 0 283.96226104906236 138.22555317769002 0 0 0 0 977.8785865615323 45.7309972896619 0 45.7309972896619 1.4558814634638111 0 0 0 0 832.42340045434753 104.93361073610504 0 104.93361073610504 6.7989349369709089 0 0 0 0 -0.53818282738439649 6.4384593993757697 0 6.4384593993757697 -8.0570288437575073 0 0 0 0 1491.3726737745956 682.42304313639943 0 682.42304313639943 -69.575147490892505 0 0 0 0 1055.7106319919221 323.71165966557783 0 323.71165966557783 78.783886228793563 0 0 0 0 819.71281851171102 223.37842098315014 0 223.37842098315014 79.461634389932442 0 0 0 0 764.32452480570191 293.66603171252063 0 293.66603171252063 142.55783824294485 0 0 0 0 961.26953903436151 362.42426248144147 0 362.42426248144147 74.77331636454619 0 0 0 0 980.06666103177758 808.88016917741334 0 808.88016917741334 225.26573669548907 0 0 0 0 729.90658145262023 306.7190945179027 0 306.7190945179027 161.71032777630535 0 0 0 0 -1.3417327025220587 5.9864111325643492 0 5.9864111325643492 -3.263920595551383 0 0 0 0 682.4394052936409 240.91176484577591 0 240.91176484577591 100.15352133002307 0 0 0 0 744.53604204812166 173.25825672176643 0 173.25825672176643 22.916011370616616 0 0 0 0 597.09527821811116 149.94264308994025 0 149.94264308994025 -10.02465189047507 0 0 0 0 613.37489465990438 205.8878944407661 0 205.8878944407661 26.732061302947841 0 0 0 0 727.29841974589726 168.13086963017122 0 168.13086963017122 49.99499920364542 0 0 0 0 -99.207546050098699 82.205107232535283 0 82.205107232535283 55.309133099101018 0 0 0 0 422.36090358573847 94.897681242933686 0 94.897681242933686 70.889364709968504 0 0 0 0 8.1043679776557926 43.101390976259935 0 43.101390976259935 32.957932605184823 0 0 0 0 493.05517475416747 47.351739558551344 0 47.351739558551344 47.482491178632699 0 0 0 0 693.97372804882946 114.91510188402458 0 114.91510188402458 21.081249674403807 0 0 0 0 466.08184446022841 128.51456764484101 0 128.51456764484101 0.095781672556768171 0 0 0 0 477.34509312122179 105.63199594261823 0 105.63199594261823 45.050858145692473 0 0 0 0 638.59067937708926 129.08893021403128 0 129.08893021403128 -24.532309321351931 0 0 0 0 491.66161022447142 88.470208844215449 0 88.470208844215449 -12.040125555329723 0 0 0 0 320.79908023542066 7.4881263753413805 0 7.4881263753413805 -14.890111643231194 0 0 0 0 1.0524601097586128 60.548707419595303 0 60.548707419595303 -2.8686788154254828 0 0 0 0 54.015984615729394 80.174298198384349 0 80.174298198384349 -20.360231074200783 0 0 0 0 23.647521926286572 72.122385023656534 0 72.122385023656534 -2.8009513934230199 0 0 0 0 19.706118843056174 72.167038793450047 0 72.167038793450047 -0.66004235306172632 0 0 0 0 46.266009646875318 103.00106247587246 0 103.00106247587246 33.879558645639918 0 0 0 0 49.700763141474454 50.739354114564776 0 50.739354114564776 -35.720848557422869 0 0 0 0 -16.166917402701074 43.650591825684387 0 43.650591825684387 -25.777148080765983 0 0 0 0 13.569665166538471 94.250273456278592 0 94.250273456278592 27.233727082522819 0 0 0 0 -0.70715334047417855 102.89055365495733 0 102.89055365495733 -4.2834757476011873 0 0 0 0 -11.419094348033603 38.452258231812905 0 38.452258231812905 -1.2482052305850715 0 0 0 0 -7.8799468864162918 63.41374818613258 0 63.41374818613258 7.2735277936881175 0 0 0 0 -16.84904314004234 37.455429668090801 0 37.455429668090801 9.8892274969111895 0 0 0 0 -28.355283600405301 33.200602549760973 0 33.200602549760973 9.69513196532872 0 0 0 0 -19.384451873952358 46.942315256178134 0 46.942315256178134 -11.082844005579446 0 0 0 0 -110.92565509627639 76.914578274268024 0 76.914578274268024 42.047009374071422 0 0 0 0 -43.185141745608007 102.71239032904293 0 102.71239032904293 35.645749396251631 0 0 0 0 -34.646330008858058 37.922607961296308 0 37.922607961296308 6.4608623650092341 0 0 0 0 115.25999901245814 44.124361350142863 0 44.124361350142863 -12.578654688382812 0 0 0 0 -0.46434902165616787 19.032537840063526 0 19.032537840063526 30.645862795025337 0 0 0 0 -54.851205298988134 115.44870919161986 0 115.44870919161986 24.306421691901051 0 0 0 0 40.247514514172508 55.170366714242846 0 55.170366714242846 21.416827955894405 0 0 0 0 29.456781538377982 84.993266000717995 0 84.993266000717995 10.260338397885789 0 0 0 0 39.477485091469134 63.758586849937274 0 63.758586849937274 96.048295019463694 0 0 0 0 24.718210498584085 75.776692935454776 0 75.776692935454776 69.906643063128286 0 0 0 0 -7.5028698155169522 8.9152160705971681 0 8.9152160705971681 8.3267070804391849 0 0 0 0 39.83736788189708 45.288162016651768 0 45.288162016651768 42.855141593361623 0 0 0 0 65.062045643153397 127.64455198988799 0 127.64455198988799 -27.657296206863975 0 0 0 0 -38.290215969256678 -59.32203824660246 0 -59.32203824660246 79.997602073998678 0 0 0 0 -70.346477782897637 74.361107844939397 0 74.361107844939397 -5.6472193807458098 0 0 0 0 -159.28960891175666 40.737393009854713 0 40.737393009854713 2.4233424996382382 0 0 0 0 -63.971682245261036 124.29012411853273 0 124.29012411853273 -73.137561003182782 0 0 0 0 -31.960987735274102 55.650662257557997 0 55.650662257557997 -84.134840591712418 0 0 0 0 -260.74070370075333 145.14870686258382 0 145.14870686258382 -41.847141975438717 0 0 0 0 4.1673178303315854 11.28692610623628 0 11.28692610623628 16.12696721586947 0 0 0 0 422.03119811063516 43.284372664273633 0 43.284372664273633 -139.97645700576686 0 0 0 0 124.1803726823091 344.12504731083209 0 344.12504731083209 -113.26022034319931 0 0 0 0 -63.056875436115661 34.194010602735943 0 34.194010602735943 10.51530741427996 0 0 0 0 -19.479387105871865 24.165248229895951 0 24.165248229895951 9.6089405736690878 0 0 0 0 6.8763312566375419 0.45381778776093995 0 0.45381778776093995 -4.1280663067137056 0 0 0 0 78.390172956787865 21.37301883098462 0 21.37301883098462 -123.65319100233319 0 0 0 0 -8.5873975485833469 35.090885684089187 0 35.090885684089187 -18.712460086153229 0 0 0 0 50.557017936910142 47.621903097376389 0 47.621903097376389 -23.856187809669791 0 0 0 0 -8.8404275893553859 88.263680047264643 0 88.263680047264643 -62.29043478474523 0 0 0 0 19.01936538816517 45.986713295922527 0 45.986713295922527 -44.187409960955847 0 0 0 0 26.03303751104977 85.349516279833551 0 85.349516279833551 -60.86429247817523 0 0 0 0 -33.432782622983723 70.315166817330464 0 70.315166817330464 -17.463547054892842 0 0 0 0 32.227169185091043 63.982822134903472 0 63.982822134903472 4.8453076945988869 0 0 0 0 44.725697593736186 107.69432604870781 0 107.69432604870781 -15.407078739599456 0 0 0 0 41.877401228832241 66.309889331456361 0 66.309889331456361 -27.273110223242838 0 0 0 0 -69.554390919061007 67.050863938496832 0 67.050863938496832 59.855378269632638 0 0 0 0 -27.418468383279105 65.091209334666928 0 65.091209334666928 10.543215771176619 0 0 0 0 -19.685477998602437 60.287264354479703 0 60.287264354479703 13.333919348649943 0 0 0 0 -28.311430200118643 28.410314835728286 0 28.410314835728286 -17.323304380006327 0 0 0 0 -8.4992272502181052 5.1903326926476865 0 5.1903326926476865 1.7073273158388531 0 0 0 0 22.465676002821056 53.336866071214445 0 53.336866071214445 9.8043653097629431 0 0 0 0 -35.876695486171229 61.195552884590143 0 61.195552884590143 8.8665226421508123 0 0 0 0 -23.486074100765109 69.857414962989424 0 69.857414962989424 13.521696807125409 0 0 0 0 -41.268796429540089 68.977068775528096 0 68.977068775528096 19.053721302218037 0 0 0 0 -37.109712181460054 65.911473022450082 0 65.911473022450082 15.913485701050377 0 0 0 0 -39.513567120542575 94.691092195251258 0 94.691092195251258 -4.1741654855904926 0 0 0 0 -9.3979458069225075 80.607681421439338 0 80.607681421439338 1.5638619204837596 0 0 0 0 -44.906963287666258 75.768893156009199 0 75.768893156009199 20.603498945318279 0 0 0 0 10.509405486904143 51.616438596243825 0 51.616438596243825 1.285164435437764 0 0 0 0 -38.817607001471629 30.614627800206328 0 30.614627800206328 -7.5302579658857809 0 0 0 0 13.040865850744012 55.147058020556869 0 55.147058020556869 4.9125436983504187 0 0 0 0 33.648080833561835 33.947557308536489 0 33.947557308536489 8.2257552052860774 0 0 0 0 -302.1672151011735 93.758317208004883 0 93.758317208004883 24.822858217929024 0 0 0 0 -85.128954558726036 34.94970386219029 0 34.94970386219029 34.425193067821965 0 0 0 0 -13.428796013671672 29.991764349366228 0 29.991764349366228 12.379903272172875 0 0 0 0 -168.03770784179505 104.63355377465996 0 104.63355377465996 37.864377398007491 0 0 0 0 78.508911186203477 91.547583874718839 0 91.547583874718839 -40.91703503347162 0 0 0 0 -30.424129153841932 180.46028259595732 0 180.46028259595732 -35.5006107848385 0 0 0 0 38.604557329207637 -4.1584727277058846 0 -4.1584727277058846 28.692009915575909 0 0 0 0 104.48603047413962 72.476735917058249 0 72.476735917058249 -148.44930079298501 0 0 0 0 16.174585119602853 74.568999845354483 0 74.568999845354483 22.261420710652601 0 0 0 0 -96.10781172017596 169.60803931389819 0 169.60803931389819 -57.255909590705414 0 0 0 0 -69.263792776226182 143.11293972384738 0 143.11293972384738 42.204251881383243 0 0 0 0 -75.407378931020503 153.29958821514083 0 153.29958821514083 29.050857554248068 0 0 0 0 -78.088031785948999 39.582114379287873 0 39.582114379287873 -11.79504513120628 0 0 0 0 -120.26716393548486 29.984088859871918 0 29.984088859871918 16.476380188018084 0 0 0 0 -72.632911563079688 59.682545677300368 0 59.682545677300368 10.999921383423498 0 0 0 0 -50.550588058402354 74.70802593256667 0 74.70802593256667 21.157485828873178 0 0 0 0 -163.87977507631149 92.548403171978862 0 92.548403171978862 39.978337865461071 0 0 0 0 33.705981023078493 40.944381142147904 0 40.944381142147904 -94.913987761568933 0 0 0 0 3.0942507021020305 5.1801775117020838 0 5.1801775117020838 2.1482000992822634 0 0 0 0 -0.51134731251646137 26.261162814264427 0 26.261162814264427 -8.7611815949712195 0 0 0 0 35.677851760887279 32.125140059257319 0 32.125140059257319 -56.915361841975027 0 0 0 0 -16.874241583122057 31.87988070820029 0 31.87988070820029 -6.8347792615204526 0 0 0 0 42.819364514263725 11.551730148945353 0 11.551730148945353 -16.924481819747598 0 0 0 0 0.022695583804306807 83.466568308056594 0 83.466568308056594 73.50621525097813 0 0 0 0 -0.35335268468969616 4.2841996519021777 0 4.2841996519021777 -7.7492765160833699 0 0 0 0 -17.343147930457803 26.719179632440955 0 26.719179632440955 -7.9656042923973018 0 0 0 0 6.0686321109231756 21.4408050073081 0 21.4408050073081 -9.7814132285253663 0 0 0 0 2.4190106254981174 18.642381239609136 0 18.642381239609136 -0.21669943166939731 0 0 0 0 -9.8561727116425573 31.012964134265076 0 31.012964134265076 -11.216221858907375 0 0 0 0 -8.7194542207505492 39.343840214314696 0 39.343840214314696 -7.8866339796368266 0 0 0 0 9.7690267666876025 41.204922971272026 0 41.204922971272026 -8.5007074992354319 0 0 0 0 -22.252246397012641 33.884626370832848 0 33.884626370832848 -0.43180091503018048 0 0 0 0 -23.299055612791562 26.894702249148395 0 26.894702249148395 -10.685899666801561 0 0 0 0 13.866964023010951 24.158129838007881 0 24.158129838007881 -8.0499408122632303 0 0 0 0 85.396405023668194 15.791953096282668 0 15.791953096282668 16.700467662929441 0 0 0 0 -10.752827842410682 31.014096130326742 0 31.014096130326742 -11.989932381692739 0 0 0 0 7.0434701250547604 23.784760370810297 0 23.784760370810297 3.7694636908732093 0 0 0 0 4.8314034478680696 16.359496469071019 0 16.359496469071019 -6.6524164626607671 0 0 0 0 19.629736018375709 37.687723203126325 0 37.687723203126325 0.61037271736279308 0 0 0 0 -5.2296237380578532 12.510283436211466 0 12.510283436211466 -25.045253932126798 0 0 0 0 3.689853956232124 12.169349395356164 0 12.169349395356164 -17.174746110594072 0 0 0 0 -4.2718129735640105 27.742932664634282 0 27.742932664634282 -1.321707234117639 0 0 0 0 -9.4120789496892812 19.069908923777376 0 19.069908923777376 -9.4125274094272697 0 0 0 0 -4.6609155255027872 22.614220483090321 0 22.614220483090321 4.1477012384493719 0 0 0 0 -8.7259161805984107 16.069334232598806 0 16.069334232598806 -9.4023627386922044 0 0 0 0 -5.7638295943398177 20.551081460837878 0 20.551081460837878 5.390731757778866 0 0 0 0 0.6099140057740442 32.778429194593627 0 32.778429194593627 8.4055790295296902 0 0 0 0 2.7831405184224423 27.843242594524781 0 27.843242594524781 -6.6925734572650981 0 0 0 0 -4.3784533492150786 23.578071512281213 0 23.578071512281213 -7.4233202635805355 0 0 0 0 -19.487041008371087 21.553713377664028 0 21.553713377664028 7.2084258800966836 0 0 0 0 -15.864381626682459 13.786748195237877 0 13.786748195237877 -5.0446617264290552 0 0 0 0 -13.882765948452288 31.087027858331567 0 31.087027858331567 37.27987922848115 0 0 0 0 1.8496427138243519 2.4873207629912315 0 2.4873207629912315 -2.7066377298606739 0 0 0 0 -35.890223672984575 -0.70494141099334229 0 -0.70494141099334229 128.00274678057758 0 0 0 0 -2.2079143819568259 4.1153060903382581 0 4.1153060903382581 -0.69120433846396168 0 0 0 0 115.89504002979083 90.951311324693961 0 90.951311324693961 148.96530915817129 0 0 0 0 36.948447568523989 -13.915538190878578 0 -13.915538190878578 39.059492271917406 0 0 0 0 295.14722955562684 120.22276339321616 0 120.22276339321616 7.6081713897292502 0 0 0 0 93.936732901103824 9.6016463915184431 0 9.6016463915184431 -8.0824756357324077 0 0 0 0 188.10467978974339 99.545495030033635 0 99.545495030033635 29.427098130341619 0 0 0 0 -76.484048771329981 123.09012559831899 0 123.09012559831899 -41.270039709661432 0 0 0 0 -70.301050741560175 86.350829248942318 0 86.350829248942318 53.093590235759621 0 0 0 0 -68.004260376343154 17.549422628420871 0 17.549422628420871 -8.1638694218854653 0 0 0 0 -52.996206574418466 41.51176614536962 0 41.51176614536962 19.909195440501207 0 0 0 0 -309.16303105905899 -12.553694809849731 0 -12.553694809849731 192.75496234939783 0 0 0 0 3.5824615572623344 21.321192112751909 0 21.321192112751909 11.855178830874621 0 0 0 0 -21.092153200152097 -513.1164616131864 0 -513.1164616131864 -874.21358005236834 0 0 0 0 -123.69104324674845 91.988863207181566 0 91.988863207181566 -33.465942269307561 0 0 0 0 -1.7352711552521214 238.36434338732943 0 238.36434338732943 -72.165685486739676 0 0 0 0 -270.78033311501713 61.723787729659307 0 61.723787729659307 -19.087815366845462 0 0 0 0 -260.12574129081077 -54.157030081514222 0 -54.157030081514222 13.279025615789578 0 0 0 0 -291.24077808058701 234.88061076340455 0 234.88061076340455 -4.1518321896874113 0 0 0 0 -53.458669604427996 135.20181345022138 0 135.20181345022138 19.809349637540436 0 0 0 0 76.653960455085326 189.74883164015046 0 189.74883164015046 -101.70771826001874 0 0 0 0 6.6341757398296295 17.376111159497952 0 17.376111159497952 21.581571058741986 0 0 0 0 44.99339215985492 89.833094440677087 0 89.833094440677087 -77.172923198799253 0 0 0 0 86.596390801780217 15.857616097688151 0 15.857616097688151 2.7592481610490722 0 0 0 0 625.00668723955573 348.24771814170163 0 348.24771814170163 -128.25846662947879 0 0 0 0 562.67341287852878 403.6918156282245 0 403.6918156282245 -156.28966413548187 0 0 0 0 718.23474036965945 364.30744770915771 0 364.30744770915771 -202.77370088148018 0 0 0 0 682.17036213738697 216.41080851718107 0 216.41080851718107 -91.756904553090862 0 0 0 0 712.66706582986444 242.71039028857376 0 242.71039028857376 -76.415695640920603 0 0 0 0 577.93015628861303 263.42155680269934 0 263.42155680269934 -112.65839264164242 0 0 0 0 571.7484937851591 295.42558612958601 0 295.42558612958601 -86.705306112256949 0 0 0 0 566.55254656279158 265.34972332943289 0 265.34972332943289 -68.885162400329136 0 0 0 0 561.27799347180962 298.12947899434221 0 298.12947899434221 -41.556407829037198 0 0 0 0 390.9445206186698 222.10949209428509 0 222.10949209428509 19.265983753802175 0 0 0 0 265.65544477048206 193.08338154097873 0 193.08338154097873 30.758396316630751 0 0 0 0 468.78723274148217 106.43012339903953 0 106.43012339903953 -24.068650436005555 0 0 0 0 479.70139175343058 154.23626108680946 0 154.23626108680946 -42.932219146474381 0 0 0 0 583.59489947605346 176.40983797816079 0 176.40983797816079 -43.115005425759591 0 0 0 0 181.89745551199849 80.578085476199703 0 80.578085476199703 70.134991399325372 0 0 0 0 32.492998117792013 64.51470996187345 0 64.51470996187345 52.128567553081666 0 0 0 0 257.65827870628345 131.27443724965633 0 131.27443724965633 23.670895239003585 0 0 0 0 1.8777217312304031 44.1848997038745 0 44.1848997038745 16.578514137826147 0 0 0 0 267.77114047376813 111.66883780165517 0 111.66883780165517 14.694944254180882 0 0 0 0 -22.355350724340525 27.181211403691599 0 27.181211403691599 -4.8086352903941929 0 0 0 0 353.48750284710002 137.82570475864668 0 137.82570475864668 -1.6394435526162852 0 0 0 0 -7.0261609529508986 22.909665726313929 0 22.909665726313929 5.8337147392956297 0 0 0 0 -40.321141048055892 36.585222503303157 0 36.585222503303157 19.747907638542529 0 0 0 0 1.6761013612436955 50.835723778922329 0 50.835723778922329 8.6908579714654479 0 0 0 0 -5.0628171880725859 25.303242715162924 0 25.303242715162924 -4.7218864390961244 0 0 0 0 -32.537799999416166 26.163174741101102 0 26.163174741101102 -1.7334939748980105 0 0 0 0 -21.463922639531297 24.034360662971267 0 24.034360662971267 -3.4331478127002129 0 0 0 0 -1.4629680389698478 30.769793654702426 0 30.769793654702426 14.327284913466428 0 0 0 0 -13.085871015045996 41.299531698503415 0 41.299531698503415 -46.163339242048096 0 0 0 0 -30.297505371390326 19.350914487207959 0 19.350914487207959 -0.12162732454038405 0 0 0 0 283.46462000308009 280.96665686176857 0 280.96665686176857 146.14161935952143 0 0 0 0 -13.024132076112437 43.885182677164266 0 43.885182677164266 0.26318302160143503 0 0 0 0 2.9984134904357234 53.151156166818964 0 53.151156166818964 -4.0684344471446821 0 0 0 0 409.40611856218766 317.18693060901569 0 317.18693060901569 117.82915460391814 0 0 0 0 435.88460483779295 298.28548885825876 0 298.28548885825876 -19.074156126178423 0 0 0 0 509.90629154524777 386.87579596562136 0 386.87579596562136 86.952048837367329 0 0 0 0 337.49397062290097 484.37468214468754 0 484.37468214468754 470.77651468318072 0 0 0 0 -5.99403556315246 10.41472306278537 0 10.41472306278537 2.1464702934143958 0 0 0 0 398.64583298248272 389.33192280075309 0 389.33192280075309 336.47510175842035 0 0 0 0 464.47218890851673 411.76569800852303 0 411.76569800852303 81.85445300162246 0 0 0 0 467.06178482988707 340.27292237646543 0 340.27292237646543 195.48537774736178 0 0 0 0 486.61705395118713 495.25088129970572 0 495.25088129970572 92.388926526589785 0 0 0 0 463.97251039143157 437.35354669657681 0 437.35354669657681 255.57351813064452 0 0 0 0 324.28558871237874 458.12354207615135 0 458.12354207615135 315.7851498677046 0 0 0 0 304.8418877310678 490.20750153709378 0 490.20750153709378 297.8226041432863 0 0 0 0 348.13178928752995 458.6492234226971 0 458.6492234226971 252.65465090169164 0 0 0 0 488.42058029924465 502.21353886076395 0 502.21353886076395 113.69557870245626 0 0 0 0 559.51865960514988 430.02125000461092 0 430.02125000461092 -93.509910182612657 0 0 0 0 511.72653724556858 383.47416249802336 0 383.47416249802336 21.672227605042281 0 0 0 0 -8.3790539256907621 10.727730313918201 0 10.727730313918201 -8.9683736189483341 0 0 0 0 -30.104032990335327 -25.979661775731074 0 -25.979661775731074 48.224476562609198 0 0 0 0 -12.167816229650271 55.680716735758324 0 55.680716735758324 -34.139135075471131 0 0 0 0 -34.08336252503085 34.420549886916049 0 34.420549886916049 -14.77589875336048 0 0 0 0 7.064367721985036 28.041640096955234 0 28.041640096955234 -23.019709093292477 0 0 0 0 -8.4869737952658397 461.99641904301097 0 461.99641904301097 986.12012316490291 0 0 0 0 -8.0460941302380959 9.5534282174387499 0 9.5534282174387499 -6.5363516050270221 0 0 0 0 349.76286637613612 580.47131740134864 0 580.47131740134864 421.33060471624049 0 0 0 0 559.82477659384813 655.01521122227132 0 655.01521122227132 447.40360634101671 0 0 0 0 -22.292352168751677 19.473945574412937 0 19.473945574412937 26.015423454795382 0 0 0 0 -33.114867789656323 15.678778245437144 0 15.678778245437144 3.8589278067102626 0 0 0 0 77.494644395407022 205.69353105948176 0 205.69353105948176 105.61446703979163 0 0 0 0 -34.363062670897435 11.679963894072671 0 11.679963894072671 18.272367964925195 0 0 0 0 -21.033624286172198 16.374357148852141 0 16.374357148852141 17.810824958942248 0 0 0 0 372.33171836568022 174.07323171092503 0 174.07323171092503 40.879476220176002 0 0 0 0 170.11722945973816 424.66589321060019 0 424.66589321060019 484.85398768878076 0 0 0 0 -15.930927690052712 16.676575864540609 0 16.676575864540609 -8.1254162404423766 0 0 0 0 -21.442075858089083 36.040938885089417 0 36.040938885089417 15.991120234320988 0 0 0 0 -24.699181589127512 18.990721456152016 0 18.990721456152016 -2.9441674663505353 0 0 0 0 -19.930742281827406 33.727430491111591 0 33.727430491111591 4.0073992836587422 0 0 0 0 -58.845503983422532 13.533484633728222 0 13.533484633728222 23.030904708393791 0 0 0 0 -19.061931752993786 13.522841177715918 0 13.522841177715918 12.903398398277702 0 0 0 0 -27.760775737835502 21.899331783723028 0 21.899331783723028 6.1966850894823438 0 0 0 0 -4.7493687779788161 24.594150880460802 0 24.594150880460802 1.5116343291210796 0 0 0 0 -7.8788225618336583 19.146862526969926 0 19.146862526969926 -4.5911617637029849 0 0 0 0 -16.986738826219138 14.805328696911914 0 14.805328696911914 -4.4285385766828256 0 0 0 0 -27.191331017112134 21.03247372000078 0 21.03247372000078 4.4590058725734707 0 0 0 0 -11.046960075485003 28.676906872506152 0 28.676906872506152 -2.9692833862791304 0 0 0 0 -14.65925444786626 32.839646014246682 0 32.839646014246682 37.80706603876024 0 0 0 0 0.89599319268018007 25.576002395988326 0 25.576002395988326 3.9830079450739504 0 0 0 0 -12.273148669875368 12.331659654092192 0 12.331659654092192 -1.8697879001045266 0 0 0 0 -3.5603036379598052 17.410897344573897 0 17.410897344573897 -3.2519026097289441 0 0 0 0 -0.34979019891761709 24.123120025760727 0 24.123120025760727 33.013868147041649 0 0 0 0 -17.306628103991926 16.185265471281383 0 16.185265471281383 -1.8895401184298919 0 0 0 0 -16.683975667332561 28.714515379931981 0 28.714515379931981 2.1580759876596858 0 0 0 0 -15.761270445716036 29.52769761831405 0 29.52769761831405 -10.615967918784008 0 0 0 0 -2.6882833191539461 36.992191590453302 0 36.992191590453302 -23.7657737284635 0 0 0 0 -3.0005935627304297 18.104109028588965 0 18.104109028588965 -1.0886848596241947 0 0 0 0 -4.7965425855509238 30.509350736356282 0 30.509350736356282 -13.3020805995111 0 0 0 0 -5.2475256000753348 21.128626866898315 0 21.128626866898315 -4.8890171177426822 0 0 0 0 -12.900898333478835 17.338982146902708 0 17.338982146902708 -18.219850284935092 0 0 0 0 -13.751448557151889 16.174461758724647 0 16.174461758724647 0.36860414659895469 0 0 0 0 -26.48309654107652 11.468322573153273 0 11.468322573153273 -8.0377663866202056 0 0 0 0 -13.033542046973054 1.5812569466222612 0 1.5812569466222612 5.8701224475688036 0 0 0 0 -48.054359332079912 60.532642540947563 0 60.532642540947563 -0.10494284870219417 0 0 0 0 -27.557826055335681 63.246617445409356 0 63.246617445409356 -28.337978416850092 0 0 0 0 5.4975937382769189 57.612348959410156 0 57.612348959410156 -39.134797311482544 0 0 0 0 -27.074429508036701 25.180919990238181 0 25.180919990238181 -5.4413064643595135 0 0 0 0 -43.700283307184691 33.91377956497854 0 33.91377956497854 -50.088231541885762 0 0 0 0 -5.9837172483566974 44.293830251066538 0 44.293830251066538 -64.88425099048618 0 0 0 0 -5.1728280354759164 8.2909556084918989 0 8.2909556084918989 7.3547850839221098 0 0 0 0 -11.169478824573162 19.655621446981968 0 19.655621446981968 2.4422454973446293 0 0 0 0 -46.314079916934134 81.55585203114606 0 81.55585203114606 -36.75153106792277 0 0 0 0 -12.137779689621311 27.102917042127956 0 27.102917042127956 -112.51605735087651 0 0 0 0 -3.6423055985062192 2.1233719027928402 0 2.1233719027928402 5.280885946583993 0 0 0 0 -1.5273197245706882 1.4082496498563302 0 1.4082496498563302 1.6086009463152777 0 0 0 0 -224.72929269900487 223.84128472190059 0 223.84128472190059 -0.74261624618660738 0 0 0 0 -921.36256823338044 704.74557072964672 0 704.74557072964672 -0.50503183758253156 0 0 0 0 -395.15687833798074 531.4007383414355 0 531.4007383414355 -677.30707494128728 0 0 0 0 -387.08604108604595 586.08296739866455 0 586.08296739866455 -691.2009851301118 0 0 0 0 -188.68770102589588 534.30864634805039 0 534.30864634805039 -1296.0735382092826 0 0 0 0 -11.384965453613404 -35.013013220850553 0 -35.013013220850553 -28.487062689098821 0 0 0 0 0.45841372332733954 2.0239014425748536 0 2.0239014425748536 -0.44222427333045289 0 0 0 0 -15.934225528042589 50.304772538511315 0 50.304772538511315 -42.83570244017028 0 0 0 0 -5.1291188766379747 8.4043974621335877 0 8.4043974621335877 0.46695137035480627 0 0 0 0 -6.0417862727899774 12.998696410444609 0 12.998696410444609 -6.3934214802284259 0 0 0 0 -2.6986493567487795 10.572429772547025 0 10.572429772547025 -18.248193200020467 0 0 0 0 37.950807343091583 45.603071795412689 0 45.603071795412689 -49.177298029244412 0 0 0 0 -19.979834936726547 28.424935275994358 0 28.424935275994358 -31.421685382942087 0 0 0 0 -87.487614250746446 90.017246268812414 0 90.017246268812414 -56.776524681583396 0 0 0 0 -19.492660183934845 33.079347626203997 0 33.079347626203997 -13.040240394199856 0 0 0 0 -3.7286164764740377 9.9184164196393141 0 9.9184164196393141 -2.6129677121102759 0 0 0 0 -125.89282504525909 43.931748384129605 0 43.931748384129605 4.5010951782751363 0 0 0 0 -53.387146024884714 40.684396468583145 0 40.684396468583145 -52.402156966345501 0 0 0 0 -6.3200095368739824 14.373386852436937 0 14.373386852436937 -7.9664059051882816 0 0 0 0 31.854205123498105 -12.897051685198676 0 -12.897051685198676 -68.714143614575732 0 0 0 0 33.722204137869994 -44.590522008642438 0 -44.590522008642438 -60.051945026039903 0 0 0 0 -5.2636753143742681 7.5035127947339788 0 7.5035127947339788 -1.70594549307134 0 0 0 0 29.236909493585699 -33.486806674511172 0 -33.486806674511172 12.737097413682932 0 0 0 0 97.575453538353031 -2.1368032096725074 0 -2.1368032096725074 -26.022919813694898 0 0 0 0 72.601849830884021 -62.253525010775775 0 -62.253525010775775 -21.861166755319573 0 0 0 0 64.311043664485624 -4.6303608806774719 0 -4.6303608806774719 -10.860097758675693 0 0 0 0 88.023730233908282 -59.20563695920282 0 -59.20563695920282 65.771112848735356 0 0 0 0 -10.019264385322458 93.898943925858475 0 93.898943925858475 -30.466123671521927 0 0 0 0 160.37715551235669 22.059129881956324 0 22.059129881956324 -1.8900919790321495 0 0 0 0 27.712331169852405 107.97288301349909 0 107.97288301349909 88.491405346416286 0 0 0 0 30.190745349129429 24.288200875249458 0 24.288200875249458 5.5683733470796142 0 0 0 0 -27.952308324776823 19.433996576204663 0 19.433996576204663 7.9317357197869569 0 0 0 0 -1.7346216408259352 60.550297321955441 0 60.550297321955441 15.252092132155667 0 0 0 0 -20.955117944962694 87.170109103564755 0 87.170109103564755 22.116802457603626 0 0 0 0 -64.703725647123065 80.701103613508167 0 80.701103613508167 -5.4183414497238118 0 0 0 0 -101.19663964578649 38.296053439233219 0 38.296053439233219 -4.7331228358380031 0 0 0 0 -58.044787561724661 -19.608054870797787 0 -19.608054870797787 -15.580786308069946 0 0 0 0 44.020455382211367 -10.144992799439933 0 -10.144992799439933 -22.929096001083963 0 0 0 0 -8.7647376688546501 40.712983325531241 0 40.712983325531241 -5.7446789874811657 0 0 0 0 -33.497233807865996 -22.523107553191949 0 -22.523107553191949 -18.430684443024802 0 0 0 0 -11.049701078547514 94.859281923228991 0 94.859281923228991 -1.9595694853342138 0 0 0 0 0.8226344451213663 36.398782606062014 0 36.398782606062014 -4.2964653257513419 0 0 0 0 3.5916509174006563 25.276264027887279 0 25.276264027887279 11.643623650883939 0 0 0 0 5.4785192341878428 71.862161991644825 0 71.862161991644825 -35.126460512517951 0 0 0 0 -27.42775367097056 60.208210368698929 0 60.208210368698929 40.373639125440604 0 0 0 0 -2.8829572090730622 24.058589347324045 0 24.058589347324045 1.4740351835454533 0 0 0 0 -15.207020312467648 21.254854932318267 0 21.254854932318267 0.31730362609232543 0 0 0 0 5.1206750941949561 11.538399846694031 0 11.538399846694031 -22.46334467189439 0 0 0 0 -13.839018742255575 25.646235790773062 0 25.646235790773062 -4.3145576006791089 0 0 0 0 23.281601619697994 38.40706341540772 0 38.40706341540772 -58.80475114582805 0 0 0 0 -4.4899355665547773 47.300079667184036 0 47.300079667184036 -58.76874273881549 0 0 0 0 -8.3319631913964258 61.476845589600998 0 61.476845589600998 -33.171494517708197 0 0 0 0 14.451461404791189 15.747976067199488 0 15.747976067199488 -29.228622013884888 0 0 0 0 1.8627735504304042 12.073912871551954 0 12.073912871551954 -12.566505717524976 0 0 0 0 23.085370360655361 30.137358480147668 0 30.137358480147668 -14.972324459231459 0 0 0 0 38.718652822752119 57.800522778918094 0 57.800522778918094 -22.988633530083462 0 0 0 0 -0.35886457311798559 7.5247837976446021 0 7.5247837976446021 -11.026744015937481 0 0 0 0 71.295453716331394 17.527237643575063 0 17.527237643575063 -38.558917467096762 0 0 0 0 40.846686236000096 3.8412456903897692 0 3.8412456903897692 -15.505748274052166 0 0 0 0 -72.699110848327109 30.839237612963188 0 30.839237612963188 -26.619239790343272 0 0 0 0 109.07411661709193 -39.776592258393066 0 -39.776592258393066 12.37299056356278 0 0 0 0 -6.3238882781843131 17.909199474293018 0 17.909199474293018 22.425603297335329 0 0 0 0 -3.8696366923928451 3.4656823372626206 0 3.4656823372626206 0.75821946138836438 0 0 0 0 -5.9863800994056344 -0.61839518869608412 0 -0.61839518869608412 0.052046488955113546 0 0 0 0 27.53252036343838 69.779042467322142 0 69.779042467322142 27.603496573326993 0 0 0 0 141.39039159122331 22.489023163157981 0 22.489023163157981 0.024194149955292232 0 0 0 0 134.3456286695 50.539295146620134 0 50.539295146620134 -18.297161288821371 0 0 0 0 -21.008699568028533 59.743881328791758 0 59.743881328791758 -21.708413461208693 0 0 0 0 -7.5618205940700136 33.949173220575176 0 33.949173220575176 9.3516838283248944 0 0 0 0 -90.61472703905747 65.831687285026419 0 65.831687285026419 0.0055452221375888108 0 0 0 0 -34.456353397676139 38.072038187616272 0 38.072038187616272 -33.49926789154415 0 0 0 0 -27.169957894315303 53.211232139175991 0 53.211232139175991 -14.706523450950044 0 0 0 0 -64.177946632524254 47.644738099497772 0 47.644738099497772 -9.4012717441219138 0 0 0 0 -3.3025751544277941 -0.77441108762175048 0 -0.77441108762175048 0.43053262520635371 0 0 0 0 -96.212010024275514 29.66461174354481 0 29.66461174354481 -6.1798746775002655 0 0 0 0 -163.73729015232311 50.825522964111769 0 50.825522964111769 18.004704028950073 0 0 0 0 -0.45504980151098451 -2.0339704800397271 0 -2.0339704800397271 0.56634569042483918 0 0 0 0 3.847947007525363 63.495097151993832 0 63.495097151993832 0.07152116632656734 0 0 0 0 135.11055012537327 1.553658322956835 0 1.553658322956835 -25.010383798318799 0 0 0 0 -1.5660250395339972 43.542977024317224 0 43.542977024317224 -26.199418366966711 0 0 0 0 -38.354924768820638 48.531235988903063 0 48.531235988903063 -0.0048957595499814488 0 0 0 0 -26.715256967698224 31.617097376620222 0 31.617097376620222 -29.627212852072262 0 0 0 0 -53.443463258392512 90.292522261443082 0 90.292522261443082 -28.377412760281004 0 0 0 0 4.9917903225174314 4.4569132537687253 0 4.4569132537687253 7.1188239925617154 0 0 0 0 69.464230411586868 47.554489240415478 0 47.554489240415478 -31.450242214108584 0 0 0 0 -11.732562800370943 16.824516808654153 0 16.824516808654153 -31.160963294751127 0 0 0 0 -3.6529535711015342 74.725162012440705 0 74.725162012440705 -41.365096996996726 0 0 0 0 -7.83247971775927 70.876090776397177 0 70.876090776397177 -19.675171497023257 0 0 0 0 -7.4229114106856287 61.088418818435457 0 61.088418818435457 -38.48594017772848 0 0 0 0 -33.204242462517868 81.605290319457708 0 81.605290319457708 -32.500179804053914 0 0 0 0 4.7921438188798788 15.895357491383791 0 15.895357491383791 0.97829609864103872 0 0 0 0 -1.8296053616722929 -1.9964033827054664 0 -1.9964033827054664 50.111094806125038 0 0 0 0 -23.602958922056132 52.885718436671596 0 52.885718436671596 22.544173978609251 0 0 0 0 -64.324297969076724 104.32079167595657 0 104.32079167595657 24.287078806416503 0 0 0 0 22.09612753179681 -33.340411949651752 0 -33.340411949651752 -66.185326642130349 0 0 0 0 -17.628144453861751 106.1272505702218 0 106.1272505702218 -89.80249244501465 0 0 0 0 -1.5893548949917999 1.2845123035121873 0 1.2845123035121873 0.040309680086039634 0 0 0 0 75.33729890306131 147.85237357658843 0 147.85237357658843 -441.44133447402419 0 0 0 0 -57.64414287391628 51.893453070066244 0 51.893453070066244 210.60838518443052 0 0 0 0 7.0993629746517399 34.823981439090858 0 34.823981439090858 -222.74821167076152 0 0 0 0 -77.331069993924757 114.11189350768109 0 114.11189350768109 -13.074871133379929 0 0 0 0 -2.9560218017286388 211.22019045500201 0 211.22019045500201 -220.25021499011928 0 0 0 0 -66.978305650982293 44.854593276362039 0 44.854593276362039 -0.072273063400643878 0 0 0 0 -65.430004476031172 32.750806415599072 0 32.750806415599072 -6.3054585116187809 0 0 0 0 276.32506776513765 -97.580088005746802 0 -97.580088005746802 -26.440415756063885 0 0 0 0 0.13770595931376306 1.6071918439673212 0 1.6071918439673212 2.9371214155518715 0 0 0 0 -504.26221588114549 145.46820623167332 0 145.46820623167332 26.092430242904811 0 0 0 0 35.008843330448144 433.36089597355749 0 433.36089597355749 -0.041044426384875189 0 0 0 0 0.24999759667386101 -1.1428216023839894 0 -1.1428216023839894 -1.1706382937242381 0 0 0 0 333.55115934084461 340.65576054435223 0 340.65576054435223 4.7953743020402833 0 0 0 0 338.48559626392307 262.52801894618551 0 262.52801894618551 139.34878934027802 0 0 0 0 -199.302694676393 99.673234711062833 0 99.673234711062833 -42.687423102441244 0 0 0 0 13.289088713958336 40.348393367472454 0 40.348393367472454 43.626898310831166 0 0 0 0 -0.80094799012943696 2.2823630601081248 0 2.2823630601081248 -2.5575743217408444 0 0 0 0 161.1922513901809 97.979353457281832 0 97.979353457281832 33.242836683602945 0 0 0 0 15.182227620156482 2.2230324758784263 0 2.2230324758784263 143.50746554878424 0 0 0 0 -123.07315136842954 173.51598918340824 0 173.51598918340824 28.082402082334738 0 0 0 0 15.718175825699291 190.11650310894765 0 190.11650310894765 -103.10032061074162 0 0 0 0 172.25435865407053 682.04062842922576 0 682.04062842922576 786.95856386437663 0 0 0 0 -37.907707043777918 564.71285801402701 0 564.71285801402701 961.08151011415612 0 0 0 0 3.602307995223498 4.2358887156509581 0 4.2358887156509581 -0.19483944102122308 0 0 0 0 46.425107760500396 -69.606243600224843 0 -69.606243600224843 -0.59560662482982918 0 0 0 0 17.433516546618193 495.33471781072149 0 495.33471781072149 648.60195033886703 0 0 0 0 485.88897480218293 634.38755284132822 0 634.38755284132822 378.6584021490853 0 0 0 0 54.072185485696536 337.53019690048677 0 337.53019690048677 489.81085337317199 0 0 0 0 219.46655801443012 334.2603276130103 0 334.2603276130103 303.89535059797345 0 0 0 0 93.941623660837649 72.370294757562078 0 72.370294757562078 0.45108082913793623 0 0 0 0 -10.491709515510593 58.086212068636087 0 58.086212068636087 215.9664385992437 0 0 0 0 85.166884327860316 295.89718168600666 0 295.89718168600666 452.03159791007783 0 0 0 0 245.90226337778586 320.65507921809331 0 320.65507921809331 387.66185420389957 0 0 0 0 156.87620438822341 254.54527675460122 0 254.54527675460122 723.32009876344819 0 0 0 0 -1.5435565502929478 15.991980387876112 0 15.991980387876112 4.4876182817560313 0 0 0 0 -1425.2022484182526 374.10574625411391 0 374.10574625411391 377.56724004714488 0 0 0 0 -19.856105278726318 548.14900607665186 0 548.14900607665186 -604.83261606607994 0 0 0 0 -0.049563411856070161 21.885388658702141 0 21.885388658702141 448.99571236499969 0 0 0 0 96.034140039977501 362.04180761375756 0 362.04180761375756 -55.13472814123088 0 0 0 0 -54.401045728416648 65.611655795830302 0 65.611655795830302 11.562349795160117 0 0 0 0 1.1112473485887335 1.1955227354728137 0 1.1955227354728137 -6.6928187826446219 0 0 0 0 427.33172107471 -839.560566750215 0 -839.560566750215 506.90551144546771 0 0 0 0 568.90907972332934 -40.870327601223835 0 -40.870327601223835 -1787.5610767906037 0 0 0 0 -2115.4760202299367 -188.82005637856491 0 -188.82005637856491 -165.29026998861809 0 0 0 0 163.44076960264647 606.45620418474573 0 606.45620418474573 -1590.5798959041967 0 0 0 0 -1366.3319554824575 1457.3484709864506 0 1457.3484709864506 -1101.8105864863319 0 0 0 0 -48.977241770393448 131.33489725991967 0 131.33489725991967 -155.96271912597877 0 0 0 0 -4.1746102212855476 58.466105887324375 0 58.466105887324375 59.323730954411076 0 0 0 0 -5.1680060333773667 3.5755556624844473 0 3.5755556624844473 2.1439059773242093 0 0 0 0 -16.450361429713666 5.0712313346157316 0 5.0712313346157316 73.037142882127227 0 0 0 0 -5.0469624965650723 12.463898444863332 0 12.463898444863332 6.6701805288059575 0 0 0 0 3.8947103167078865 14.239169295888331 0 14.239169295888331 -8.4845932582159094 0 0 0 0 -6.7463330914324615 23.118392795542604 0 23.118392795542604 -10.731573300803575 0 0 0 0 79.409494763654948 25.918539554309973 0 25.918539554309973 -74.480383457237622 0 0 0 0 -1.8196708024779902 24.28192482949278 0 24.28192482949278 16.148592770801116 0 0 0 0 41.472429243374791 149.12384783976086 0 149.12384783976086 143.01672543670065 0 0 0 0 2.5294722847892821 15.280297867036339 0 15.280297867036339 -44.902851417203067 0 0 0 0 726.13227306096087 383.59700564908781 0 383.59700564908781 -801.29769238275549 0 0 0 0 2.7025357248019191 32.59395286136143 0 32.59395286136143 41.261923245049246 0 0 0 0 -383.37252274115599 107.26880501151572 0 107.26880501151572 171.66703389464965 0 0 0 0 -12.78730537476622 -347.21448862573925 0 -347.21448862573925 -41.278639659692999 0 0 0 0 -151.78271460891301 86.642404118782906 0 86.642404118782906 -186.47508273876156 0 0 0 0 -130.30192537011317 -53.653203819594637 0 -53.653203819594637 -140.59955437433382 0 0 0 0 -1150.3655331388873 666.47440637789259 0 666.47440637789259 -322.27001729635595 0 0 0 0 -1.5112345402197533 4.2861922727934996 0 4.2861922727934996 -19.309040507302115 0 0 0 0 620.02853987570415 -39.661731945463544 0 -39.661731945463544 -1156.8252013360616 0 0 0 0 496.49447082056577 1360.0147962854971 0 1360.0147962854971 -2246.5489896242616 0 0 0 0 38.113422510316013 1192.0892521731585 0 1192.0892521731585 -2308.0505759391308 0 0 0 0 -1522.6556192151183 2319.6248432807552 0 2319.6248432807552 -2088.7467167345676 0 0 0 0 -2996.7964763377677 2661.4154722896928 0 2661.4154722896928 2224.5699009874079 0 0 0 0 111.27059628604911 1703.9921614033738 0 1703.9921614033738 -2306.2776951452488 0 0 0 0 -3725.8275380453779 420.82065917865839 0 420.82065917865839 1239.8028191870253 0 0 0 0 -1595.3597465014318 -1815.6616333885249 0 -1815.6616333885249 994.20820788358105 0 0 0 0 -683.0794495204027 -243.01442084236623 0 -243.01442084236623 263.24136769148754 0 0 0 0 -496.11087740355288 -188.5593653855467 0 -188.5593653855467 145.42385067444411 0 0 0 0 107.71767031911077 843.68026885501422 0 843.68026885501422 -855.07612995286763 0 0 0 0 -3.6507581318022488 8.0310839989127487 0 8.0310839989127487 -20.791070874664712 0 0 0 0 368.25624788484311 -164.05761072457426 0 -164.05761072457426 -750.60993966217211 0 0 0 0 -2247.9057227775265 1230.6561696539557 0 1230.6561696539557 -514.18296733069292 0 0 0 0 -1976.0605628291742 1595.8415700796031 0 1595.8415700796031 -174.6703192919922 0 0 0 0 -1844.2989465845203 1568.9682717028327 0 1568.9682717028327 -214.38820916923578 0 0 0 0 -1367.8032806720585 -540.04960885989203 0 -540.04960885989203 239.67100379481417 0 0 0 0 -535.05862312589306 -61.118675338464527 0 -61.118675338464527 194.92170121224626 0 0 0 0 -912.20044953238539 1326.1173922688467 0 1326.1173922688467 -2542.2601176473108 0 0 0 0 180.8934581788908 232.54467997856409 0 232.54467997856409 6.6550658725755056 0 0 0 0 -5.2846495177273027 18.446317733122541 0 18.446317733122541 -55.046068389692124 0 0 0 0 228.81363395720473 215.90513940779783 0 215.90513940779783 -564.83709047616139 0 0 0 0 -121.92217367449121 -223.71272603153284 0 -223.71272603153284 254.76665840749774 0 0 0 0 -210.86874764486129 -420.12908425130809 0 -420.12908425130809 -3.7040278934473463 0 0 0 0 -13.274554620106969 41.629667415883432 0 41.629667415883432 -62.275937708685518 0 0 0 0 411.40598694822984 1301.7995364627604 0 1301.7995364627604 1466.4629865470815 0 0 0 0 -407.20133716772671 439.3263799710885 0 439.3263799710885 927.36171818574076 0 0 0 0 -64.35014593459077 37.686271005711092 0 37.686271005711092 -18.147456074665868 0 0 0 0 446.29207786272309 729.0291440901965 0 729.0291440901965 399.08373551000841 0 0 0 0 50.501745413290337 654.7944363947463 0 654.7944363947463 1120.6699224173299 0 0 0 0 -73.839881425003867 46.715406705188371 0 46.715406705188371 -19.067844034031566 0 0 0 0 -181.72854816028848 124.88132118208887 0 124.88132118208887 310.42442241517801 0 0 0 0 423.39484058147718 790.47275413433272 0 790.47275413433272 635.50315641475754 0 0 0 0 -2288.3448168886462 623.88450292368907 0 623.88450292368907 1904.6209321563219 0 0 0 0 -1731.9104617705925 1437.8285058055226 0 1437.8285058055226 -936.64773193929432 0 0 0 0 -29.549320734102949 15.738939911938729 0 15.738939911938729 -5.8190652365524471 0 0 0 0 -1757.5260995940644 1384.6173717833071 0 1384.6173717833071 -1109.2016524256323 0 0 0 0 1.0697168131341357 0.54864858108662418 0 0.54864858108662418 -1.1519483532537791 0 0 0 0 -709.69720927174785 2945.5207457658253 0 2945.5207457658253 992.05883256456582 0 0 0 0 -1465.7795658885152 1493.6985485521218 0 1493.6985485521218 -1546.9851270222862 0 0 0 0 -1286.0530516159124 374.73889028366648 0 374.73889028366648 3164.8592365560908 0 0 0 0 1173.8917072562435 221.6271181145712 0 221.6271181145712 662.13359187874448 0 0 0 0 -640.10917723861348 398.95113736216808 0 398.95113736216808 919.45880169895827 0 0 0 0 257.47207361792243 412.33645992275706 0 412.33645992275706 363.93423534618341 0 0 0 0 -594.28239681934338 221.30631471195011 0 221.30631471195011 316.6004523598458 0 0 0 0 5.8277466107578846 29.288885700320328 0 29.288885700320328 -12.56557742416814 0 0 0 0 -1473.9822894687641 488.53741114672994 0 488.53741114672994 483.58440118527506 0 0 0 0 -75.693111431333818 15.32932369314949 0 15.32932369314949 23.097246296340018 0 0 0 0 -19.242317987183924 38.36855086648211 0 38.36855086648211 -1.2119942450008239 0 0 0 0 -10.095111261817408 3.4511164998339794 0 3.4511164998339794 -6.5144378006897767 0 0 0 0 -17.711790566361742 35.097781169486552 0 35.097781169486552 -5.763749341465882 0 0 0 0 -5.0085705717494555 30.968593458492627 0 30.968593458492627 -8.0128735056286189 0 0 0 0 -16.31800602581643 39.988777888498589 0 39.988777888498589 -8.4777183202240849 0 0 0 0 -19.917422238903754 18.233046564605942 0 18.233046564605942 11.860266275374741 0 0 0 0 -21.412144629975955 29.457532089332744 0 29.457532089332744 2.6261878048280778 0 0 0 0 -14.841955578420311 38.474444120769476 0 38.474444120769476 -13.868243299810274 0 0 0 0 -21.840619209211582 28.092644854226364 0 28.092644854226364 -5.9786039479731699 0 0 0 0 -48.939270859089447 47.068893242791091 0 47.068893242791091 -11.23017580837768 0 0 0 0 -4.6958949579414053 24.759673141028209 0 24.759673141028209 11.419882589263715 0 0 0 0 -18.252103400576743 42.556050974140817 0 42.556050974140817 14.579982873125118 0 0 0 0 -8.258468485189951 39.246649638625968 0 39.246649638625968 -30.538485893594043 0 0 0 0 -13.887812539921953 26.499825247911495 0 26.499825247911495 18.660625933459364 0 0 0 0 7.0471750986826009 58.122575610057538 0 58.122575610057538 18.896315531172149 0 0 0 0 -14.456316549189069 21.430208144847711 0 21.430208144847711 68.239859482477186 0 0 0 0 -8.4363890405116138 17.307664561220946 0 17.307664561220946 9.1732163453293083 0 0 0 0 -2.4168751271228501 2.4815149447517868 0 2.4815149447517868 -1.0631861635930164 0 0 0 0 -19.214898920563428 36.253641777817393 0 36.253641777817393 0.011927850617212243 0 0 0 0 -7.9302546128092217 18.460937267762347 0 18.460937267762347 7.917037749026349 0 0 0 0 -16.141632023005357 25.075130808544117 0 25.075130808544117 -2.3163989372982705 0 0 0 0 -12.911424755446205 40.020124145950376 0 40.020124145950376 13.54934593255166 0 0 0 0 0.18708882003349459 15.641751779293589 0 15.641751779293589 8.6372809497201217 0 0 0 0 -1.5170123653806513 13.850406918787485 0 13.850406918787485 -3.4056603104327223 0 0 0 0 4.9184611507599243 12.547934941430753 0 12.547934941430753 -2.012046015990034 0 0 0 0 8.206913137822994 28.232915365762892 0 28.232915365762892 -79.822197334522571 0 0 0 0 -36.73302421970584 18.533115836595243 0 18.533115836595243 -2.1813648239549366 0 0 0 0 -0.93187180918040724 10.177421815565125 0 10.177421815565125 -1.7187797237831433 0 0 0 0 -0.75803075335929293 1.2104626555477296 0 1.2104626555477296 -1.927222373194418 0 0 0 0 -0.21336383594067598 3.3661462876560222 0 3.3661462876560222 -6.3432813541020892 0 0 0 0 96.83548766576132 341.20534145808051 0 341.20534145808051 235.12629279626708 0 0 0 0 -31.492484782462242 41.965155130814608 0 41.965155130814608 -19.195200331299716 0 0 0 0 -76.12685593380229 -118.58505735437939 0 -118.58505735437939 -18.029918503889348 0 0 0 0 790.20529550369793 388.8643638020003 0 388.8643638020003 -1671.185350738524 0 0 0 0 24.141657812487665 77.213551778886313 0 77.213551778886313 -26.81632032172638 0 0 0 0 34.438655311121693 7.7249559451847745 0 7.7249559451847745 -66.799668638013827 0 0 0 0 -27.54893863161773 41.800791365774188 0 41.800791365774188 -16.041982150506385 0 0 0 0 -37.362321967721073 71.49520720093642 0 71.49520720093642 11.680559486128914 0 0 0 0 181.99427979707252 -101.60466826107586 0 -101.60466826107586 55.974074474259396 0 0 0 0 473.30960599337413 137.3927766494744 0 137.3927766494744 108.69604388676089 0 0 0 0 -9.9809474822250195 73.434296684023138 0 73.434296684023138 18.408409497837056 0 0 0 0 -1.1675720460407177 32.242402810239625 0 32.242402810239625 35.429980793655844 0 0 0 0 1.7386500489124614 5.7085471825986644 0 5.7085471825986644 6.7774422288612328 0 0 0 0 504.24498076352756 -469.24269402390928 0 -469.24269402390928 -49.113831768976524 0 0 0 0 33.272134331957204 12.444379041880893 0 12.444379041880893 -5.8346360626019305 0 0 0 0 -19.379673010327309 24.939998112581122 0 24.939998112581122 -4.9304233637120696 0 0 0 0 256.60795852913725 -20.188719373283675 0 -20.188719373283675 -243.36220395182318 0 0 0 0 -520.15784761285613 -357.55116980313869 0 -357.55116980313869 182.8708688703482 0 0 0 0 1485.6165138149227 615.29939107087557 0 615.29939107087557 84.687042590609053 0 0 0 0 541.73546842925134 -1202.9073820124904 0 -1202.9073820124904 847.66261328588007 0 0 0 0 4697.6269277292304 -783.56857473883429 0 -783.56857473883429 -800.50080007640645 0 0 0 0 -95.417511709325481 81.81463581702701 0 81.81463581702701 67.677654906355428 0 0 0 0 1978.609451425029 -1751.0535926965531 0 -1751.0535926965531 87.49797700210911 0 0 0 0 -1.9937638172567169 11.793957125686468 0 11.793957125686468 1.953290072697655 0 0 0 0 1700.1182593743433 371.16920888933237 0 371.16920888933237 665.09602987809012 0 0 0 0 17.073744270372572 14.258559838569397 0 14.258559838569397 -7.8880459664722196 0 0 0 0 -56.881344247085508 28.142228730172064 0 28.142228730172064 35.243873570281721 0 0 0 0 -45.982579491334036 63.775621240572946 0 63.775621240572946 -29.100261071718705 0 0 0 0 -0.29719504280365072 600.23306977914763 0 600.23306977914763 -432.16597011393969 0 0 0 0 -1138.02399446048 231.85298918617264 0 231.85298918617264 2138.1477423806937 0 0 0 0 518.579054432048 1346.5413784620177 0 1346.5413784620177 2274.0083530754528 0 0 0 0 805.92966046782385 1072.1249220463578 0 1072.1249220463578 830.30293732844439 0 0 0 0 2.0862385311124996 5.8286532420594455 0 5.8286532420594455 7.2497232044849227 0 0 0 0 -1468.4059763520709 908.24402926493349 0 908.24402926493349 2758.6932806147524 0 0 0 0 721.61005593859591 298.09539472538927 0 298.09539472538927 1464.8379421551217 0 0 0 0 969.84485937340651 81.938228020495444 0 81.938228020495444 -493.19010760262609 0 0 0 0 -61.362318599538412 -220.8767408175263 0 -220.8767408175263 -299.94402581786926 0 0 0 0 721.86553848919721 167.69104019133374 0 167.69104019133374 -717.08665830999962 0 0 0 0 3.7427435344382189 9.8238096269482043 0 9.8238096269482043 11.698658442298751 0 0 0 0 -522.27358836425992 489.69834126786009 0 489.69834126786009 -310.81465157887578 0 0 0 0 -625.80221864726991 479.64785340221351 0 479.64785340221351 -351.66654932810343 0 0 0 0 -1268.6998892761549 803.88640203626892 0 803.88640203626892 -21.247725766879739 0 0 0 0 1.0678475077827017 4.8024399263272528 0 4.8024399263272528 3.9424001649107367 0 0 0 0 -0.47884334735863376 93.97881571414473 0 93.97881571414473 -118.9056941877061 0 0 0 0 -5.2037365248783356 2487.6643652609387 0 2487.6643652609387 -0.55506090477138059 0 0 0 0 292.06424234135193 1710.909525593197 0 1710.909525593197 488.03033522653277 0 0 0 0 853.424750035123 753.17810161198759 0 753.17810161198759 -1035.8052413082187 0 0 0 0 289.91256126358348 494.64246279062354 0 494.64246279062354 -505.32469265670807 0 0 0 0 280.9382767090367 222.20288250031524 0 222.20288250031524 -703.58892690030916 0 0 0 0 509.22172717817011 204.9264871109408 0 204.9264871109408 -988.80626595894864 0 0 0 0 430.00472839740542 410.60151990221766 0 410.60151990221766 -817.10090347471123 0 0 0 0 -145.65523199652671 10.505349308601581 0 10.505349308601581 -1090.1538830883219 0 0 0 0 708.2014691830409 497.25469824413449 0 497.25469824413449 -1485.7202246584202 0 0 0 0 5.7852143077111293 6.3653017073009934 0 6.3653017073009934 2.8751906518982082 0 0 0 0 -284.54073750841781 175.41958316910313 0 175.41958316910313 -0.62195428800867281 0 0 0 0 -306.26173146882411 338.99905431695015 0 338.99905431695015 -515.19742927745392 0 0 0 0 -397.30481929956932 1199.3092361891436 0 1199.3092361891436 -1034.2348707417041 0 0 0 0 -503.60442038194742 847.15036660037731 0 847.15036660037731 -672.8535173542914 0 0 0 0 12.056637134982964 13.99054803498894 0 13.99054803498894 7.520392837708755 0 0 0 0 196.50917255276363 711.89253328146515 0 711.89253328146515 -956.65567295879737 0 0 0 0 -105.04599883975607 710.4562574552474 0 710.4562574552474 85.063949873132515 0 0 0 0 633.21630176482722 271.90240347420331 0 271.90240347420331 -778.76795996451619 0 0 0 0 566.53645677522582 463.00642303948553 0 463.00642303948553 -166.74870882055257 0 0 0 0 1253.3310564128769 214.52460544602945 0 214.52460544602945 -76.918757417432062 0 0 0 0 1085.6517098005934 1066.2898579591674 0 1066.2898579591674 101.6192866986803 0 0 0 0 -285.27667180671415 406.76091322413413 0 406.76091322413413 693.36662786915986 0 0 0 0 -116.80284969950662 938.7728991384447 0 938.7728991384447 389.59377444608253 0 0 0 0 -96.986196213765652 1143.0264169421862 0 1143.0264169421862 1512.3182503585122 0 0 0 0 -273.4383177083364 207.52041612177709 0 207.52041612177709 1915.2726182478691 0 0 0 0 -322.39142740244279 608.95244573414675 0 608.95244573414675 873.24983508190053 0 0 0 0 -354.58062732343387 806.1501316048525 0 806.1501316048525 246.28951773568042 0 0 0 0 -511.64636934501414 973.85688830365211 0 973.85688830365211 612.74278053917078 0 0 0 0 5.5734551126143401 8.3449798263582338 0 8.3449798263582338 4.4642048204252944 0 0 0 0 181.96918139032641 1120.9238774440491 0 1120.9238774440491 430.83008634163707 0 0 0 0 -578.93432263363502 390.09755667372156 0 390.09755667372156 138.25824082719555 0 0 0 0 -975.67725830099516 465.3934884535629 0 465.3934884535629 -386.06102235197613 0 0 0 0 -734.84589826339652 576.46145089605125 0 576.46145089605125 -0.062184836031519808 0 0 0 0 -391.87799118997646 585.42995084442373 0 585.42995084442373 -384.80275519098359 0 0 0 0 -415.44352079609234 698.85243565571727 0 698.85243565571727 114.31621151044237 0 0 0 0 410.16103391948855 777.49052583608136 0 777.49052583608136 -0.40002027549053309 0 0 0 0 220.21418097358401 426.18979385009152 0 426.18979385009152 -720.60687932350265 0 0 0 0 324.14467950732069 1126.9031936238898 0 1126.9031936238898 -1713.9867583842097 0 0 0 0 64.49653792596655 1264.2288144691556 0 1264.2288144691556 -562.25506585839321 0 0 0 0 569.63649304694263 1231.8038280314213 0 1231.8038280314213 -851.24799211058416 0 0 0 0 319.5104415090027 1566.381907620198 0 1566.381907620198 1042.2003163492482 0 0 0 0 325.40227992838481 661.73681094518543 0 661.73681094518543 878.9249085195479 0 0 0 0 629.19328583675087 691.64291180229338 0 691.64291180229338 -382.27227719009534 0 0 0 0 647.56436565243348 1522.3040560029985 0 1522.3040560029985 162.04452755991952 0 0 0 0 698.5594581321493 234.05542703101673 0 234.05542703101673 -759.78881882093992 0 0 0 0 449.56000339189632 723.53004909977244 0 723.53004909977244 -380.31390383277903 0 0 0 0 3.3257400939205297 3.1422649004187804 0 3.1422649004187804 -0.95794711638629337 0 0 0 0 343.46383338149462 656.44859147031457 0 656.44859147031457 264.73138143823599 0 0 0 0 45.081662693672115 -70.072614706587046 0 -70.072614706587046 1.2696741854334297 0 0 0 0 -80.887219200347317 -187.36185134010157 0 -187.36185134010157 193.47891119378619 0 0 0 0 -340.51031435946061 303.13904459395417 0 303.13904459395417 738.71598982425348 0 0 0 0 157.92842396331253 369.954798678722 0 369.954798678722 683.51188627816737 0 0 0 0 -188.0003837593249 438.47499015342328 0 438.47499015342328 1041.9932155040442 0 0 0 0 -388.11048298893729 577.01085313162184 0 577.01085313162184 2384.5413379006313 0 0 0 0 62.475928158433817 21.382227104870253 0 21.382227104870253 1205.0645219548605 0 0 0 0 -2.4928090201289876 8.5884406192095781 0 8.5884406192095781 2.013432571255013 0 0 0 0 409.13793695589993 443.85905824859219 0 443.85905824859219 194.0309412756888 0 0 0 0 339.44723653591063 1605.0590501039042 0 1605.0590501039042 -2221.5278586368113 0 0 0 0 -134.49713835083821 941.74134195622901 0 941.74134195622901 -639.82447521039285 0 0 0 0 -33.845951312352554 692.93110175878246 0 692.93110175878246 -1266.2540069227834 0 0 0 0 -251.38182292525016 2119.2624238927565 0 2119.2624238927565 -125.48501749779098 0 0 0 0 287.8515394145652 546.61040906587004 0 546.61040906587004 -518.63004701383034 0 0 0 0 103.53346898161544 393.45885622962669 0 393.45885622962669 -624.49506027213079 0 0 0 0 109.53345054811507 453.17795694210508 0 453.17795694210508 -33.262927817479067 0 0 0 0 544.76956421256182 869.27999267131599 0 869.27999267131599 -429.97462727007223 0 0 0 0 26.601870214504743 278.50846462857498 0 278.50846462857498 -285.71984378629713 0 0 0 0 -146.21489943104825 176.9092588699059 0 176.9092588699059 84.019967718850239 0 0 0 0 -33.216380475663755 66.146935203825706 0 66.146935203825706 -292.74483243689588 0 0 0 0 -55.324623541855544 165.52849226630497 0 165.52849226630497 28.190776734874817 0 0 0 0 -53.967686099447747 143.46745612141058 0 143.46745612141058 126.00207336431777 0 0 0 0 -45.656950487180438 94.20647887011728 0 94.20647887011728 30.434088240670917 0 0 0 0 -43.038831721612951 101.92201655927784 0 101.92201655927784 12.018551402637968 0 0 0 0 -367.30022842382459 -10.755950800716164 0 -10.755950800716164 171.63961303195356 0 0 0 0 -51.195730013004095 74.210776631227759 0 74.210776631227759 50.741944130189275 0 0 0 0 -26.735518940975453 127.08471983696381 0 127.08471983696381 8.1471842436367297 0 0 0 0 84.311466562254282 61.990228643329829 0 61.990228643329829 80.513814723068208 0 0 0 0 -329.36690364355309 11.246695947938861 0 11.246695947938861 95.08573369971964 0 0 0 0 -31.674546644488238 -9.825054350701393 0 -9.825054350701393 74.80405242075048 0 0 0 0 -568.51207901855378 376.93374071194194 0 376.93374071194194 -93.281515572518401 0 0 0 0 -13.881317553110421 208.54769503548232 0 208.54769503548232 -74.149072784923192 0 0 0 0 -19.719182954471137 87.977612883251695 0 87.977612883251695 55.384419303563099 0 0 0 0 -175.92864665072557 488.13329408847676 0 488.13329408847676 -252.82624666128868 0 0 0 0 -587.50754452589899 231.54356494494277 0 231.54356494494277 13.674768863533245 0 0 0 0 -430.83432465333681 878.42798144244762 0 878.42798144244762 -44.28413966941298 0 0 0 0 2658.3947619314567 410.06634512216624 0 410.06634512216624 -837.35747053338855 0 0 0 0 638.92883181447178 -393.51231770913 0 -393.51231770913 -135.58695293009805 0 0 0 0 320.09121326686727 803.47859770096511 0 803.47859770096511 -215.12430377596138 0 0 0 0 -30.303201274502499 39.709209757842473 0 39.709209757842473 372.47710366937099 0 0 0 0 -40.260753180964457 117.04372880971778 0 117.04372880971778 72.881683291219815 0 0 0 0 -17.353539432791877 127.17004565893149 0 127.17004565893149 62.387144625914516 0 0 0 0 48.671602135320427 413.16736199727166 0 413.16736199727166 -58.234244518564083 0 0 0 0 -45.608461523777805 496.92734507971181 0 496.92734507971181 422.25930204319957 0 0 0 0 -244.91173203926883 334.04831139147427 0 334.04831139147427 294.04930590836739 0 0 0 0 -234.50834057755492 244.8513426573063 0 244.8513426573063 823.72953923745081 0 0 0 0 158.80612293918966 -211.30747691770375 0 -211.30747691770375 363.16019553868682 0 0 0 0 853.09495709585826 613.99896421251742 0 613.99896421251742 373.27515980562748 0 0 0 0 4.3305975717797196 17.360935814396541 0 17.360935814396541 12.761947277782809 0 0 0 0 133.90118579170667 -425.08269308298259 0 -425.08269308298259 1091.7240189010772 0 0 0 0 15.827602928666067 12.766288440821349 0 12.766288440821349 -6.7562949013261999 0 0 0 0 -83.337269002018729 131.22163686108252 0 131.22163686108252 -157.73268795089461 0 0 0 0 -102.99356484520831 113.06720098924416 0 113.06720098924416 -138.58784534939332 0 0 0 0 13.094423024276409 94.560956073659042 0 94.560956073659042 46.923734240900266 0 0 0 0 1.7970583863743741 131.83193101696452 0 131.83193101696452 108.77225564736727 0 0 0 0 9.4765033788288378 -1.9276963040995554 0 -1.9276963040995554 -106.05621148479767 0 0 0 0 140.90747708413983 72.485680287043579 0 72.485680287043579 -453.79067073468832 0 0 0 0 471.46193841841887 -267.66924583006767 0 -267.66924583006767 -162.2632673239641 0 0 0 0 163.75082030300109 -341.95203777573261 0 -341.95203777573261 416.11462840999593 0 0 0 0 -2.714583294634906 -3.2185146625818817 0 -3.2185146625818817 -53.535347921849819 0 0 0 0 -308.49977400587522 120.85700844616076 0 120.85700844616076 -138.98408987832954 0 0 0 0 -233.42468966409069 87.011847967558424 0 87.011847967558424 -84.849492565517721 0 0 0 0 -313.43457233655499 133.55663740995806 0 133.55663740995806 -32.891374448256101 0 0 0 0 -0.58822643348159431 -13.39352214815716 0 -13.39352214815716 1.5097636681538802 0 0 0 0 -254.69374994142981 88.750310715977093 0 88.750310715977093 -69.225923993988545 0 0 0 0 -779.00703220546711 183.3385382310662 0 183.3385382310662 219.07220136184333 0 0 0 0 1185.1477936796728 881.71452262890671 0 881.71452262890671 177.54226041329275 0 0 0 0 -258.52627000625944 148.27908660021058 0 148.27908660021058 -110.128645671306 0 0 0 0 -228.15480199114245 83.955854613825068 0 83.955854613825068 -99.240883020145702 0 0 0 0 -172.88836159627681 128.12518741773783 0 128.12518741773783 -114.38797690595675 0 0 0 0 -172.76279692412936 125.86264789695269 0 125.86264789695269 -104.4467250947273 0 0 0 0 -73.436658492166316 82.28776894722796 0 82.28776894722796 -125.55347381888714 0 0 0 0 -133.14728353497958 136.64402056398831 0 136.64402056398831 -112.90801165925222 0 0 0 0 -151.48990172320919 77.277078531275038 0 77.277078531275038 -104.47474545600198 0 0 0 0 -107.33089562294481 129.69108707423584 0 129.69108707423584 -119.74974726632354 0 0 0 0 -108.58069677940512 143.94949334219928 0 143.94949334219928 -109.26163289054239 0 0 0 0 -49.206342504825443 150.66822951987706 0 150.66822951987706 -140.4947354997912 0 0 0 0 -113.14789138579363 169.8001730629021 0 169.8001730629021 -139.26385823531018 0 0 0 0 -100.08435372031818 155.86387047811877 0 155.86387047811877 -140.90256204610341 0 0 0 0 -51.624065625677758 213.20374561277276 0 213.20374561277276 -213.72788262066751 0 0 0 0 0.095692626920936164 161.45603178174133 0 161.45603178174133 -163.12525557836489 0 0 0 0 -52.972503774417419 151.23471090660678 0 151.23471090660678 -89.377998295742145 0 0 0 0 121.86307417710486 190.20928566964722 0 190.20928566964722 -388.19062289335852 0 0 0 0 208.21461649380217 310.16239412351933 0 310.16239412351933 -232.3775216396898 0 0 0 0 -21.948427018302027 221.93230952558952 0 221.93230952558952 -50.247966960712802 0 0 0 0 -86.118924558846629 118.18459053043625 0 118.18459053043625 -172.28109954264801 0 0 0 0 -36.301435095781926 159.26011045632549 0 159.26011045632549 -147.01152611436555 0 0 0 0 -504.09820486263197 463.13912560601602 0 463.13912560601602 3453.0704487576004 0 0 0 0 -112.75632165915158 1330.0734038338578 0 1330.0734038338578 3172.2801213374696 0 0 0 0 0.41121920552541269 571.70619040749079 0 571.70619040749079 2178.7105218522192 0 0 0 0 -900.96783939411398 1480.2008825671292 0 1480.2008825671292 3149.024895692135 0 0 0 0 8.5429910779217835 4.1530566745908715 0 4.1530566745908715 3.6053262667603434 0 0 0 0 675.68827033840353 918.16627604390669 0 918.16627604390669 1704.2449720280638 0 0 0 0 -71.25180453415669 283.13891269153828 0 283.13891269153828 -188.07121151097908 0 0 0 0 63.199306245092885 199.42660738760242 0 199.42660738760242 -174.27930353237844 0 0 0 0 -209.1362425845 267.4336258375406 0 267.4336258375406 -174.76539763216715 0 0 0 0 -70.792638080100915 324.63156990484913 0 324.63156990484913 -293.56087812494661 0 0 0 0 -255.69276695557346 311.54118718229438 0 311.54118718229438 -238.92955138676189 0 0 0 0 0.062138654800946824 286.86208622960839 0 286.86208622960839 -278.86430655417644 0 0 0 0 -117.17565146666311 274.03499996958271 0 274.03499996958271 -254.93027796070601 0 0 0 0 -60.529261955234688 249.0975000510989 0 249.0975000510989 -243.99895194723649 0 0 0 0 -0.17557160101454822 196.38225994403868 0 196.38225994403868 -221.99807031365344 0 0 0 0 -202.54186389183451 193.42835754815678 0 193.42835754815678 -145.47058670982733 0 0 0 0 -152.27719294370036 310.15622492281909 0 310.15622492281909 -253.64183307585336 0 0 0 0 -339.98216376894561 274.57189797571482 0 274.57189797571482 -171.43005997144792 0 0 0 0 -284.92497652509337 217.50250759165829 0 217.50250759165829 -143.12938459133875 0 0 0 0 -304.42109724455804 223.03357639320166 0 223.03357639320166 -142.78641689588449 0 0 0 0 -186.56280645060178 163.98732374965402 0 163.98732374965402 -120.2495941335219 0 0 0 0 -358.91536331403768 124.00732059684924 0 124.00732059684924 -84.875434153727838 0 0 0 0 5.6776840957855157 9.9336032309213635 0 9.9336032309213635 -15.555794606432414 0 0 0 0 212.1286699414195 55.089439592818962 0 55.089439592818962 17.271773437969387 0 0 0 0 1671.648893911959 -114.46402181972735 0 -114.46402181972735 -483.93550742759544 0 0 0 0 -290.16825660577342 97.215077835279317 0 97.215077835279317 -70.912022816541139 0 0 0 0 -372.54874236982141 148.59515992989327 0 148.59515992989327 -76.392962238576729 0 0 0 0 -10.285477500365232 -459.2049180914546 0 -459.2049180914546 173.99819836534152 0 0 0 0 -4.6798806500753614 -0.81560041729024135 0 -0.81560041729024135 -13.38536733392931 0 0 0 0 -413.37284487664874 116.29315084487644 0 116.29315084487644 -50.202789018454496 0 0 0 0 -447.74140242254362 166.41076903820795 0 166.41076903820795 -70.043759944313933 0 0 0 0 -680.61425323758158 185.46859464664885 0 185.46859464664885 -67.876516204436484 0 0 0 0 274.82836206325737 -436.97434237077778 0 -436.97434237077778 152.30418325428036 0 0 0 0 0.26674437631110948 -0.31643936484532276 0 -0.31643936484532276 -2.334090940789963 0 0 0 0 3.6703967601479022 11.466024680470156 0 11.466024680470156 -12.325066231602136 0 0 0 0 1300.1857871730099 369.41143170931537 0 369.41143170931537 -83.519163208809914 0 0 0 0 -665.28445618283877 374.72240656162103 0 374.72240656162103 -218.72015477073728 0 0 0 0 -807.08823052250955 314.4471618231255 0 314.4471618231255 -85.378118456093944 0 0 0 0 -442.15310147659329 288.33344836721881 0 288.33344836721881 -203.19159122944984 0 0 0 0 -257.3289152069774 318.56236939108385 0 318.56236939108385 -268.94610835803906 0 0 0 0 -443.53051506262273 290.72292973269214 0 290.72292973269214 -172.34935713390223 0 0 0 0 -225.32532588837421 338.15486051838889 0 338.15486051838889 -355.91208158269728 0 0 0 0 -466.48357762573869 313.62573186460941 0 313.62573186460941 -217.82408559960822 0 0 0 0 -696.0294291080354 259.46366276073968 0 259.46366276073968 -216.16168020289479 0 0 0 0 -461.11493386697839 307.57195352743656 0 307.57195352743656 -321.74237624575107 0 0 0 0 -1340.8950469632891 953.55842896166769 0 953.55842896166769 -452.64965086430311 0 0 0 0 1785.2604057965145 -1.1126047348607244 0 -1.1126047348607244 -430.43026111996733 0 0 0 0 1.766379633511896 4.4577031955343784 0 4.4577031955343784 -4.856685094694825 0 0 0 0 2007.2017711849185 -389.26919912772428 0 -389.26919912772428 -200.02804019949144 0 0 0 0 1086.2676108115556 189.6647373119049 0 189.6647373119049 26.524058704941126 0 0 0 0 395.00848562765168 59.231209067118471 0 59.231209067118471 21.252395797308054 0 0 0 0 508.11917084545348 -107.69562807648481 0 -107.69562807648481 79.131023859285051 0 0 0 0 392.24844951396199 110.80622629789843 0 110.80622629789843 -40.552351662190631 0 0 0 0 1031.7807711410569 -54.018942950398923 0 -54.018942950398923 -249.95849379563879 0 0 0 0 491.34447826058931 -9.7315405759854912 0 -9.7315405759854912 -180.49135119050334 0 0 0 0 1318.0468843997951 -169.18688121137529 0 -169.18688121137529 -163.82006760077638 0 0 0 0 742.38468677968194 -220.23552808931345 0 -220.23552808931345 -94.624618465495587 0 0 0 0 1235.082294129621 -59.981080857432971 0 -59.981080857432971 24.906038579283631 0 0 0 0 1328.1844902134762 155.82101538588904 0 155.82101538588904 -214.32440266277627 0 0 0 0 1299.783173024116 13.080143175531703 0 13.080143175531703 -428.99322434167698 0 0 0 0 2489.0714531670965 -103.54537140108732 0 -103.54537140108732 -428.69477766165255 0 0 0 0 31.908539580403954 17.494443793653843 0 17.494443793653843 -12.14902531668298 0 0 0 0 3079.9172429032697 680.44579532158969 0 680.44579532158969 429.8396117027587 0 0 0 0 1052.3718785073725 -925.88215190770643 0 -925.88215190770643 491.04705027949967 0 0 0 0 868.2474905699637 844.32138318339821 0 844.32138318339821 1118.4654314201762 0 0 0 0 2245.4976992078009 -608.16228492355003 0 -608.16228492355003 -280.99162259235163 0 0 0 0 -8.9714890530730429 12.046398351789705 0 12.046398351789705 11.771888268634058 0 0 0 0 2687.5381972130131 -354.40675696813594 0 -354.40675696813594 -459.48897135930747 0 0 0 0 -1200.7283753582087 738.65278509264317 0 738.65278509264317 6.2084224824575358 0 0 0 0 1973.8776300648096 -291.64427070980764 0 -291.64427070980764 133.75965845870815 0 0 0 0 1754.9169327787822 180.87145149255957 0 180.87145149255957 -333.6362284279021 0 0 0 0 -919.4664726153278 218.10150993092066 0 218.10150993092066 -165.16369894830859 0 0 0 0 -77.232682927582957 45.944628536162355 0 45.944628536162355 -7.4166992735588622 0 0 0 0 -948.19278672690052 508.78900885536132 0 508.78900885536132 -302.33817594741413 0 0 0 0 67.994699958319202 83.871046049784042 0 83.871046049784042 -34.174957055579853 0 0 0 0 345.46730277525785 -22.471367889949761 0 -22.471367889949761 173.14120454721342 0 0 0 0 -1452.7902193620484 700.09631781380085 0 700.09631781380085 -105.23450418192806 0 0 0 0 -752.83310393916327 387.78442590406485 0 387.78442590406485 -149.2748698082778 0 0 0 0 -676.96938908614538 73.655754189573599 0 73.655754189573599 -0.80771311786520528 0 0 0 0 806.46498770867765 734.00414671155522 0 734.00414671155522 270.50809093866701 0 0 0 0 -29.901887572235353 3.7874315197415598 0 3.7874315197415598 0.9692665917257699 0 0 0 0 -24.640913665329066 33.552003545280726 0 33.552003545280726 -32.363101255654342 0 0 0 0 -44.122498199656548 107.44617227665003 0 107.44617227665003 -244.97397807427842 0 0 0 0 -11.13442438392736 27.408493073684681 0 27.408493073684681 -25.596700878941704 0 0 0 0 1713.3625119638837 927.49885121214265 0 927.49885121214265 50.633996902761282 0 0 0 0 1883.2053280451837 163.35255184906828 0 163.35255184906828 -337.27574330717107 0 0 0 0 894.56007001578473 460.91443789886216 0 460.91443789886216 407.65667779493742 0 0 0 0 -3366.4247707695977 774.86277271799008 0 774.86277271799008 241.66590718493535 0 0 0 0 -6.1933709685729603 12.983839191195301 0 12.983839191195301 -9.1347916250890933 0 0 0 0 -2368.5844239415164 499.23176161009178 0 499.23176161009178 -93.793400380886254 0 0 0 0 80.529767293883779 74.948165760972302 0 74.948165760972302 -57.914050488408833 0 0 0 0 -1094.0439789090633 242.71915234089647 0 242.71915234089647 -95.255395325286372 0 0 0 0 -1371.4840874117763 568.66400031121884 0 568.66400031121884 -493.1867175557818 0 0 0 0 -2223.6721929731393 2588.5734956621627 0 2588.5734956621627 -456.31693318721227 0 0 0 0 223.9587663699931 -72.728133931064804 0 -72.728133931064804 -78.720045592621318 0 0 0 0 -2332.4148493030953 -0.20038200561248232 0 -0.20038200561248232 -243.57146919997172 0 0 0 0 2429.2408104023107 1216.861509249602 0 1216.861509249602 -717.09024657841655 0 0 0 0 1084.3256634572936 508.970731994772 0 508.970731994772 -672.92532383520302 0 0 0 0 494.5828734495517 1513.6172937190786 0 1513.6172937190786 -641.85490111052241 0 0 0 0 743.55094904571888 536.24031169282171 0 536.24031169282171 -380.15149575381292 0 0 0 0 -110.91247731973999 573.32409183982236 0 573.32409183982236 -195.62412000638869 0 0 0 0 -233.03932335052195 340.98230664486346 0 340.98230664486346 -530.8141386177449 0 0 0 0 57.225473164453803 14.860770009716141 0 14.860770009716141 -44.608994669971402 0 0 0 0 323.81170316459429 296.05217355985542 0 296.05217355985542 -740.90621952944275 0 0 0 0 319.9565126056259 321.87778463939321 0 321.87778463939321 -457.71508479913973 0 0 0 0 758.53011216751111 256.00312162105183 0 256.00312162105183 -737.52763068632703 0 0 0 0 396.8469480251224 651.09315878464804 0 651.09315878464804 -674.50662893227855 0 0 0 0 -182.74801497236331 589.66365937695446 0 589.66365937695446 -542.75268443505774 0 0 0 0 91.147112834849395 37.613503330492676 0 37.613503330492676 12.030182217698894 0 0 0 0 -322.400322925816 515.65148881285859 0 515.65148881285859 -328.34467726623188 0 0 0 0 91.316746604520802 176.17347907078454 0 176.17347907078454 -31.005948378078756 0 0 0 0 73.886811898143719 70.44149406560598 0 70.44149406560598 -73.134204968228943 0 0 0 0 304.25908527655702 148.6019009795491 0 148.6019009795491 -94.832339190048515 0 0 0 0 268.14777094519377 120.63534680955127 0 120.63534680955127 -87.928290954936529 0 0 0 0 251.95900054546655 151.56667281665432 0 151.56667281665432 -100.32401610894158 0 0 0 0 55.699810920959862 47.233233463809484 0 47.233233463809484 -67.171944606270699 0 0 0 0 44.799679059971822 53.359906478726771 0 53.359906478726771 -22.64677677830332 0 0 0 0 5.4520271760671335 46.43274527412251 0 46.43274527412251 -48.260193170209789 0 0 0 0 49.774305985252198 46.000481934060119 0 46.000481934060119 -44.003018834457698 0 0 0 0 120.19177499015495 47.82429561065328 0 47.82429561065328 -279.78790122224746 0 0 0 0 174.6757897122443 137.0427708980842 0 137.0427708980842 -188.20113707491828 0 0 0 0 75.438240657752885 29.220788032652735 0 29.220788032652735 -22.731337204240258 0 0 0 0 128.99359739192005 73.357177902701551 0 73.357177902701551 -75.78984340862371 0 0 0 0 168.67940888105295 27.006710018140438 0 27.006710018140438 -85.873314868611487 0 0 0 0 72.878684627488838 16.66749860435084 0 16.66749860435084 -119.46646250768026 0 0 0 0 119.356570298929 89.491725679155934 0 89.491725679155934 -92.585935743003574 0 0 0 0 70.493393754630233 19.72944964375165 0 19.72944964375165 -116.27888252096091 0 0 0 0 -3.0741898640654597 12.555285618895255 0 12.555285618895255 -16.850474589288467 0 0 0 0 260.83616891996644 308.61076704813604 0 308.61076704813604 219.80742472231941 0 0 0 0 25.560302196066175 4.4921657971440823 0 4.4921657971440823 -3.0538036599681289 0 0 0 0 26.381042022909241 29.558145976732703 0 29.558145976732703 -38.614075347737526 0 0 0 0 57.434931275740382 -13.955309628991017 0 -13.955309628991017 -230.26923376978084 0 0 0 0 15.28576950331626 -22.713801075427909 0 -22.713801075427909 -146.75598748910852 0 0 0 0 106.78949478165305 45.148776598332915 0 45.148776598332915 -159.5140778683799 0 0 0 0 43.296865104348399 -33.177567870836356 0 -33.177567870836356 -174.63209379680848 0 0 0 0 14.661656371408753 -51.886166910378506 0 -51.886166910378506 -179.75704781940294 0 0 0 0 461.17102674686976 559.93246197590815 0 559.93246197590815 469.73805340930267 0 0 0 0 2.5479904242938574 -0.18952229006062282 0 -0.18952229006062282 -5.2905067161069415 0 0 0 0 707.94761539148749 236.99263079100638 0 236.99263079100638 49.949565261013049 0 0 0 0 4.0891303404406472 6.8783876717463386 0 6.8783876717463386 -9.7537822507582064 0 0 0 0 443.47126231738366 687.5071563311285 0 687.5071563311285 886.15100300034464 0 0 0 0 889.09007956333517 303.63306740893131 0 303.63306740893131 241.71833195844374 0 0 0 0 306.9889880939154 513.74491753615439 0 513.74491753615439 167.51365878235447 0 0 0 0 91.537273944471963 392.75230218479555 0 392.75230218479555 -100.08559917350067 0 0 0 0 545.97812495695325 283.89199543856739 0 283.89199543856739 -74.818007758694876 0 0 0 0 358.68835059828416 265.53123256300387 0 265.53123256300387 -72.338235361610714 0 0 0 0 400.8269710202585 505.39597244760444 0 505.39597244760444 163.35871914391464 0 0 0 0 723.41548800407327 294.20827883169841 0 294.20827883169841 -198.72191264208232 0 0 0 0 527.93936010936159 -1.5971247113593563 0 -1.5971247113593563 -145.2664358089969 0 0 0 0 558.42100730721722 164.61965728810083 0 164.61965728810083 -290.96495165165106 0 0 0 0 1025.1813114392864 374.18492596102988 0 374.18492596102988 -422.20983577930747 0 0 0 0 621.68473941908087 513.68584318039757 0 513.68584318039757 -422.74105585721554 0 0 0 0 151.29997727875889 426.4950034647627 0 426.4950034647627 -550.80042895973156 0 0 0 0 -338.79733681548532 409.69750346362162 0 409.69750346362162 -533.52160918668233 0 0 0 0 -80.857851476175711 80.215175194065523 0 80.215175194065523 -289.41519850747136 0 0 0 0 -229.76819807940046 165.4427010967629 0 165.4427010967629 -192.87679185140951 0 0 0 0 -184.34369899667217 26.33332381078435 0 26.33332381078435 -124.76367326951731 0 0 0 0 -211.58044606006297 30.218210617433215 0 30.218210617433215 -1.2447541311121313 0 0 0 0 28.127468813273566 24.32308524907036 0 24.32308524907036 -31.673605360483634 0 0 0 0 -136.55140493759973 86.741789527188303 0 86.741789527188303 -15.304033943699324 0 0 0 0 28.885743159873527 270.97274953054512 0 270.97274953054512 28.852132443714254 0 0 0 0 105.60203153602561 116.14981132068351 0 116.14981132068351 265.2798464654843 0 0 0 0 353.00829158433044 337.72692848749102 0 337.72692848749102 178.44140645679727 0 0 0 0 191.64798892402905 357.04558203886336 0 357.04558203886336 555.40093586025614 0 0 0 0 328.96260773076938 477.33307339690873 0 477.33307339690873 312.92582956627302 0 0 0 0 -81.333148227582569 -191.41764353714825 0 -191.41764353714825 -349.96099119737482 0 0 0 0 292.55843709781766 460.33002743060933 0 460.33002743060933 443.14272099014488 0 0 0 0 0.60957067805784959 4.3948494917284791 0 4.3948494917284791 -6.8718715094346123 0 0 0 0 547.92171072802739 717.82297560762527 0 717.82297560762527 514.56659626987584 0 0 0 0 76.832712099989294 202.55216328342067 0 202.55216328342067 340.23258665670983 0 0 0 0 86.243796330385521 343.45779427223442 0 343.45779427223442 590.36826629224743 0 0 0 0 554.90223752272141 337.23766090389836 0 337.23766090389836 253.38533037658999 0 0 0 0 118.76471340980788 237.34795951730666 0 237.34795951730666 58.442586840385047 0 0 0 0 -188.65813731025264 75.057852776921209 0 75.057852776921209 200.54945210081496 0 0 0 0 -497.8217993242215 167.55684052604011 0 167.55684052604011 177.97005628131592 0 0 0 0 -159.59691008533991 22.390719431987236 0 22.390719431987236 -109.21966550879733 0 0 0 0 0.60203398500155814 5.5395343817151428 0 5.5395343817151428 3.8318874622185319 0 0 0 0 248.23405327693035 289.01613276899661 0 289.01613276899661 -87.103297936380841 0 0 0 0 -265.75851827595034 -26.498479479450907 0 -26.498479479450907 213.2623801182126 0 0 0 0 3.9512780588629539 31.422237617178325 0 31.422237617178325 -3.4256793372187531 0 0 0 0 0.21352899427438388 23.557566936768126 0 23.557566936768126 20.299763466529839 0 0 0 0 252.74046657973668 153.20233648326393 0 153.20233648326393 61.998508187534753 0 0 0 0 0.33849794173768544 3.1476586913685907 0 3.1476586913685907 1.7230549902583334 0 0 0 0 -511.12610248048441 64.089537796617151 0 64.089537796617151 19.376207849985803 0 0 0 0 -348.34824851437588 -75.799296702596621 0 -75.799296702596621 16.554466307854454 0 0 0 0 -39.965969091586885 340.03273710211943 0 340.03273710211943 -152.08352647316133 0 0 0 0 -271.31190175697702 171.84274458568962 0 171.84274458568962 63.04666550012189 0 0 0 0 -239.73908693638077 151.28748861611166 0 151.28748861611166 -212.77230748661532 0 0 0 0 0.072698094576973835 280.02582640257447 0 280.02582640257447 123.54609849728877 0 0 0 0 -2.1409553466728539 23.85134558234131 0 23.85134558234131 7.5961791545523738 0 0 0 0 -22.954096245404799 177.28149452373327 0 177.28149452373327 323.40541305341321 0 0 0 0 -7.008803954361273 13.984900479681201 0 13.984900479681201 -2.4545777783073532 0 0 0 0 32.281336151529104 127.78750467331156 0 127.78750467331156 141.65168224740773 0 0 0 0 -153.21497386574629 -39.874054411015095 0 -39.874054411015095 412.41889866570818 0 0 0 0 -26.841380383688374 -91.824994765207521 0 -91.824994765207521 130.65935951987558 0 0 0 0 -140.96650326796225 -111.47466066274501 0 -111.47466066274501 178.47679135861108 0 0 0 0 -34.757133600993257 44.370021999774508 0 44.370021999774508 138.56072910651346 0 0 0 0 -10.273098347936951 21.224262785392426 0 21.224262785392426 11.227392984891011 0 0 0 0 -5.0273226410063216 77.728444636370114 0 77.728444636370114 162.37296735910058 0 0 0 0 -11.294154148799862 -38.180972277201818 0 -38.180972277201818 -169.25175589650462 0 0 0 0 -12.582819906664611 32.808789209901065 0 32.808789209901065 4.5060050184948039 0 0 0 0 -4.7498949462017244 38.736217038256356 0 38.736217038256356 -5.3183139361648841 0 0 0 0 -5.9543401071859989 17.423919659901003 0 17.423919659901003 0.74646180913259741 0 0 0 0 -3.238913922569651 22.215436444838204 0 22.215436444838204 -1.6410351931163447 0 0 0 0 -2115.6600997590213 -878.74091411325571 0 -878.74091411325571 -561.37900099725994 0 0 0 0 1643.206314665309 97.017529373044454 0 97.017529373044454 -626.19131542129617 0 0 0 0 -23.537380197100759 17.423234636634049 0 17.423234636634049 -5.5354678348019277 0 0 0 0 -558.43333970929962 -512.3217262234175 0 -512.3217262234175 -786.27704089717918 0 0 0 0 -130.33866302483875 -241.51938638318552 0 -241.51938638318552 -730.16922169231293 0 0 0 0 -616.92606071155751 -16.442689241186599 0 -16.442689241186599 116.20276957292663 0 0 0 0 -839.88439109286992 -498.32824322968372 0 -498.32824322968372 -222.97245432609634 0 0 0 0 -2368.3268548271517 -325.99372997308456 0 -325.99372997308456 88.551392889719864 0 0 0 0 -1541.3972204062593 -808.5791813364558 0 -808.5791813364558 -356.20799235329832 0 0 0 0 -157.88807437649666 625.41210178532629 0 625.41210178532629 -1403.1021883678823 0 0 0 0 -986.17256230866042 1429.5811055090653 0 1429.5811055090653 -1354.4423867669552 0 0 0 0 -324.66439181402529 649.13204766409217 0 649.13204766409217 -724.71499291749024 0 0 0 0 -189.93814742864924 648.8753391463797 0 648.8753391463797 -814.56861001017387 0 0 0 0 336.94880713305611 -237.28097008224358 0 -237.28097008224358 -290.81583080557903 0 0 0 0 70.692771883623209 259.96327362242664 0 259.96327362242664 -813.20371844866145 0 0 0 0 -80.000723735716747 17.935358693277522 0 17.935358693277522 301.77371550763201 0 0 0 0 -78.559693319572034 17.804920461897837 0 17.804920461897837 66.779284679148986 0 0 0 0 161.41687262857158 -120.08166025893661 0 -120.08166025893661 -113.10737973506548 0 0 0 0 64.113800500330399 232.75672451102582 0 232.75672451102582 -481.50116440326019 0 0 0 0 66.158070241901669 -33.720012620083565 0 -33.720012620083565 -141.12533538579009 0 0 0 0 -53.320207848288192 285.23266498091198 0 285.23266498091198 -435.97377493554814 0 0 0 0 -127.68431949197839 445.67192905993215 0 445.67192905993215 -589.63633189084794 0 0 0 0 -31.105854107234336 192.80450891886358 0 192.80450891886358 -372.9761952036497 0 0 0 0 -15.461699595958635 -90.815513658930286 0 -90.815513658930286 99.997433109407098 0 0 0 0 11.321802309167154 17.442274379499253 0 17.442274379499253 12.629388980215477 0 0 0 0 10.120907158961927 36.661348441892187 0 36.661348441892187 -245.04877974262808 0 0 0 0 -64.221434198516363 218.14716388595843 0 218.14716388595843 -280.84221753367456 0 0 0 0 -86.644830579884001 112.10201548592522 0 112.10201548592522 88.783788794789871 0 0 0 0 39.962112719673314 39.097390977061877 0 39.097390977061877 282.60678001256019 0 0 0 0 213.13485361095809 68.411178399786877 0 68.411178399786877 -83.830186314575258 0 0 0 0 40.816767506952601 124.50215913152806 0 124.50215913152806 -180.85687792573663 0 0 0 0 -36.372796736301098 -101.17763769093472 0 -101.17763769093472 63.354011812889439 0 0 0 0 1.8568482869533653 15.02873312799626 0 15.02873312799626 5.6626342908147791 0 0 0 0 -57.170746136747766 7.8519909871465643 0 7.8519909871465643 -62.559509144499316 0 0 0 0 -46.650895617545757 66.819407806295203 0 66.819407806295203 -5.2154847004967451 0 0 0 0 -22.371877878453233 55.959155115091562 0 55.959155115091562 -2.2177934350320356 0 0 0 0 -11.293673943648173 42.127327848809728 0 42.127327848809728 14.799109024726931 0 0 0 0 -29.842996224439958 45.801237636244878 0 45.801237636244878 23.722134780553461 0 0 0 0 8.3279894367078668 31.193537444016329 0 31.193537444016329 7.8446165989917063 0 0 0 0 -11.155158533544324 28.678793536444864 0 28.678793536444864 14.395333146640041 0 0 0 0 125.14281096830382 -203.86200329632993 0 -203.86200329632993 212.43691507565381 0 0 0 0 -2.7000809551343181 9.6868992657491049 0 9.6868992657491049 6.358541100911026 0 0 0 0 -9.4695170908328272 16.404183149144949 0 16.404183149144949 8.3727906085461967 0 0 0 0 -27.668714240757254 11.15739741975267 0 11.15739741975267 15.163623251002718 0 0 0 0 -67.327060660645657 50.372817401832435 0 50.372817401832435 24.155559736556825 0 0 0 0 1.6745485506179421 3.4968607168359398 0 3.4968607168359398 0.63770411554781958 0 0 0 0 63.293878867650164 24.982973776912331 0 24.982973776912331 -104.98431863908627 0 0 0 0 -224.53340105284587 -12.244129311482538 0 -12.244129311482538 -30.573464434528432 0 0 0 0 -111.75025629655283 4.5657562550077273 0 4.5657562550077273 15.124794009366624 0 0 0 0 -12.026192333971267 39.188913753496308 0 39.188913753496308 8.8429912799183512 0 0 0 0 -15.316051987375964 30.47207620455297 0 30.47207620455297 -9.4871471151533626 0 0 0 0 4.3884187228650262 48.241784197234665 0 48.241784197234665 -1.7043921647345996 0 0 0 0 -17.832414694657928 49.643707249111685 0 49.643707249111685 -8.8694681440319982 0 0 0 0 -18.012422739950125 50.424164222109539 0 50.424164222109539 9.1801838990795659 0 0 0 0 -11.500354812113898 18.578555518278684 0 18.578555518278684 -7.1777332245264063 0 0 0 0 -32.098503128083394 48.788537057964277 0 48.788537057964277 8.7743687464098912 0 0 0 0 -1.2922586361746653 20.694342492370197 0 20.694342492370197 9.7748793992213905 0 0 0 0 -1096.6213869413405 -226.70328760112534 0 -226.70328760112534 82.442119265500878 0 0 0 0 -1066.728958073465 -328.64838664369927 0 -328.64838664369927 -20.079241005081713 0 0 0 0 1.700891913648789 29.263803566904265 0 29.263803566904265 8.0720637959569075 0 0 0 0 -1542.4948758484388 -335.28725549489354 0 -335.28725549489354 57.024968736703158 0 0 0 0 -1512.4707820736621 -291.41607312872657 0 -291.41607312872657 89.618286138778785 0 0 0 0 -1193.885167346627 -670.52385476740164 0 -670.52385476740164 -118.89766980487911 0 0 0 0 -1061.7184670582938 -325.9708044225481 0 -325.9708044225481 -20.363940749084577 0 0 0 0 -1403.8585057659511 290.32309189377884 0 290.32309189377884 94.580905253893434 0 0 0 0 -1348.6803763731004 -53.073008433555515 0 -53.073008433555515 242.6959345129435 0 0 0 0 -693.93480886715042 209.83507148479111 0 209.83507148479111 233.4022004092476 0 0 0 0 -1361.4439187506432 88.565892822549358 0 88.565892822549358 622.8792557331326 0 0 0 0 -793.35557757257448 406.56490777211366 0 406.56490777211366 464.7552108818345 0 0 0 0 9.4222379582315625 592.35649555783493 0 592.35649555783493 9.7520188470225548 0 0 0 0 -928.62943613659627 749.71660924469484 0 749.71660924469484 66.54587444045319 0 0 0 0 -845.02983945691631 331.2436870604613 0 331.2436870604613 39.969841313395591 0 0 0 0 -1894.074605066955 -32.900003438768181 0 -32.900003438768181 207.03527001295151 0 0 0 0 -1368.4979435240093 -82.117520637726557 0 -82.117520637726557 200.12893684867595 0 0 0 0 -1510.5616025394629 233.04540907095361 0 233.04540907095361 333.18005114425068 0 0 0 0 721.66397043340294 646.22859007443185 0 646.22859007443185 359.51529359940469 0 0 0 0 708.47693160183917 771.9696995785016 0 771.9696995785016 267.59914756865328 0 0 0 0 522.4024301594327 679.27435062061704 0 679.27435062061704 354.03583056595107 0 0 0 0 -57.319037014582136 656.29223885848478 0 656.29223885848478 423.26632975435587 0 0 0 0 339.66493197152886 961.09772365321805 0 961.09772365321805 103.7448083663985 0 0 0 0 845.92421322738301 504.50083367785555 0 504.50083367785555 192.48660584824302 0 0 0 0 699.09065237525283 745.63470254973254 0 745.63470254973254 -131.98193731185165 0 0 0 0 182.98996830605029 497.49852443788404 0 497.49852443788404 87.470561250040191 0 0 0 0 906.22469608404208 520.16255157282149 0 520.16255157282149 -454.68059615986567 0 0 0 0 -41.051378954914981 858.56731538170698 0 858.56731538170698 -475.11064134134358 0 0 0 0 410.33949773831046 212.34748694136943 0 212.34748694136943 -804.13161251162455 0 0 0 0 -98.06348090440224 179.89125268481803 0 179.89125268481803 -588.32522968488956 0 0 0 0 354.29412801798026 329.01657945895022 0 329.01657945895022 -221.10813676853104 0 0 0 0 436.05713415086211 181.90220098365717 0 181.90220098365717 -601.67076045680915 0 0 0 0 925.65396326605696 220.86320908637117 0 220.86320908637117 -683.19085363252452 0 0 0 0 -3340.4782400736731 -25.523897871578811 0 -25.523897871578811 -28.912942074198781 0 0 0 0 -1899.8225051876034 2.3909786070944392 0 2.3909786070944392 -28.712300319046335 0 0 0 0 -1827.7033161674408 -78.942263680091855 0 -78.942263680091855 54.727478955082915 0 0 0 0 -2100.1798236395116 626.16075191298842 0 626.16075191298842 -24.003989027389252 0 0 0 0 -1204.6920178268192 301.48257395368455 0 301.48257395368455 -552.1798831964561 0 0 0 0 -754.04548184544547 728.85083316127202 0 728.85083316127202 -813.47860463982943 0 0 0 0 -432.61708505572096 314.35042546085424 0 314.35042546085424 -302.14832478903099 0 0 0 0 -164.49606970230889 452.06403706284709 0 452.06403706284709 -1679.9553866159622 0 0 0 0 -1594.4857208527465 -590.59876065558819 0 -590.59876065558819 -1541.4238409195559 0 0 0 0 -1864.7031925876909 1413.6190531159309 0 1413.6190531159309 -2422.8277942386558 0 0 0 0 -1270.7915057477767 813.14462431965421 0 813.14462431965421 -417.55434339512976 0 0 0 0 -2929.2178903359527 1004.1469487522172 0 1004.1469487522172 -412.80395396467247 0 0 0 0 -1147.8437425092798 29.005670221144101 0 29.005670221144101 -735.73560845286738 0 0 0 0 -184.06390521549838 -16.622859808991052 0 -16.622859808991052 -811.23138156919595 0 0 0 0 -1360.4005140820009 303.10560121013259 0 303.10560121013259 -385.30538972510112 0 0 0 0 354.86810043478181 142.36966284680602 0 142.36966284680602 -437.36233663605753 0 0 0 0 -1122.7841241119495 909.92884036123723 0 909.92884036123723 -354.39432435311392 0 0 0 0 -1984.7561049362666 689.59011778818331 0 689.59011778818331 -207.59370322025643 0 0 0 0 -1365.3259563666688 895.14564433658416 0 895.14564433658416 -142.78065532602704 0 0 0 0 503.90052850762368 211.1991410077726 0 211.1991410077726 -934.82991841361945 0 0 0 0 292.39856015460828 -76.028557458399519 0 -76.028557458399519 -875.59437403223501 0 0 0 0 425.42113199818778 157.26029609098805 0 157.26029609098805 -563.35307061266212 0 0 0 0 -249.43651478893844 -59.870477611515525 0 -59.870477611515525 -501.33388194063446 0 0 0 0 204.18533312951331 -16.788348030977431 0 -16.788348030977431 -516.3509318051656 0 0 0 0 102.83511527667724 -72.824180748389153 0 -72.824180748389153 -273.55840509220889 0 0 0 0 186.77101642699927 133.0691125836579 0 133.0691125836579 -565.70327879159595 0 0 0 0 35.234527151821283 14.422433820223596 0 14.422433820223596 -12.771142678919148 0 0 0 0 82.947847270164857 90.035513195387921 0 90.035513195387921 -73.768700922733842 0 0 0 0 29.819771989490619 39.745819935979398 0 39.745819935979398 -7.010613327167448 0 0 0 0 54.81159332502466 93.769262209799308 0 93.769262209799308 103.89868338293309 0 0 0 0 -17.43961991625838 84.499447531300575 0 84.499447531300575 -17.672548135371301 0 0 0 0 81.380362451256829 56.625345139662677 0 56.625345139662677 -49.129626800621033 0 0 0 0 -1985.5575397213997 713.54492898649505 0 713.54492898649505 -267.94671181247759 0 0 0 0 209.62752752023516 -86.965976953769314 0 -86.965976953769314 -4.3790078462141082 0 0 0 0 -1069.0413070649593 1551.7150772111099 0 1551.7150772111099 -333.42956017277174 0 0 0 0 166.67441622086335 175.36797472610851 0 175.36797472610851 162.77167363770627 0 0 0 0 -335.86957474632072 28.801224673527031 0 28.801224673527031 74.09821251599169 0 0 0 0 10.674220141341991 -2.8036076742568632 0 -2.8036076742568632 1.8838399971572224 0 0 0 0 244.55517937584591 57.744662847831933 0 57.744662847831933 -48.909511371071858 0 0 0 0 305.99065854475157 103.83352702353386 0 103.83352702353386 -15.234836291667307 0 0 0 0 -2.2931577192944204 3.7245573312954718 0 3.7245573312954718 -9.4634591471835989 0 0 0 0 -861.65169397362479 128.50340547454198 0 128.50340547454198 -63.041233334339722 0 0 0 0 -1463.6566973385598 365.0722655665104 0 365.0722655665104 -141.81164640181578 0 0 0 0 -685.27317320452858 577.2519166515649 0 577.2519166515649 -448.3474848107362 0 0 0 0 -655.26353329032645 762.10924906692526 0 762.10924906692526 -606.42900916091276 0 0 0 0 -906.97555985029248 698.66991051632431 0 698.66991051632431 -514.81766775084907 0 0 0 0 -916.83564047857362 740.83854910801347 0 740.83854910801347 -677.84743536104361 0 0 0 0 -1182.5131705896129 679.50036032541357 0 679.50036032541357 -456.46997416990416 0 0 0 0 -1247.1343331977696 508.59142161867567 0 508.59142161867567 -591.99224280157614 0 0 0 0 -1417.8823611571261 781.32068285087189 0 781.32068285087189 -318.27898315574566 0 0 0 0 -1095.0926446085068 659.58169161227488 0 659.58169161227488 -482.68815326447657 0 0 0 0 -838.35033690682758 689.22817016411955 0 689.22817016411955 -513.98735528338148 0 0 0 0 -976.93138105626713 825.90740568313504 0 825.90740568313504 -462.87387527143073 0 0 0 0 -566.62895271405432 682.78310346447688 0 682.78310346447688 -549.03065504071856 0 0 0 0 -821.61925132410397 811.84216402212587 0 811.84216402212587 -490.5685209964704 0 0 0 0 -814.70027675096935 821.73550909211735 0 821.73550909211735 -536.03554578424882 0 0 0 0 -565.92899931687862 702.95133588395038 0 702.95133588395038 -558.56811041101173 0 0 0 0 -521.15407284441608 755.82379935519202 0 755.82379935519202 -634.93473249202361 0 0 0 0 -241.04301284099347 550.43835560306343 0 550.43835560306343 -649.68809026919189 0 0 0 0 -288.1879363479602 423.35016479943079 0 423.35016479943079 -413.92518025131812 0 0 0 0 -305.95441182234208 480.19364538803893 0 480.19364538803893 -503.4980543622587 0 0 0 0 -398.0947831671574 820.9320751529267 0 820.9320751529267 -875.17047648198422 0 0 0 0 -1357.3661388403743 852.74032672424255 0 852.74032672424255 -288.44611024084861 0 0 0 0 -1272.5429517942939 1038.9716179327761 0 1038.9716179327761 -509.01828966524045 0 0 0 0 -749.84240806723574 1091.5446352599993 0 1091.5446352599993 -807.21404964352405 0 0 0 0 -33.343375635059601 141.96764775658721 0 141.96764775658721 -122.37976582516058 0 0 0 0 -83.379794680986379 102.90478517341217 0 102.90478517341217 -158.42038427454463 0 0 0 0 -156.1730702095374 365.90789071237032 0 365.90789071237032 -486.2939533979843 0 0 0 0 -256.20535036178626 285.08873790064172 0 285.08873790064172 -195.10074486862186 0 0 0 0 -443.10324345837125 504.99628309288346 0 504.99628309288346 -362.36602723004398 0 0 0 0 -374.46552418939245 390.7479764684449 0 390.7479764684449 -298.65409573603756 0 0 0 0 -562.4458253119592 694.35039789482289 0 694.35039789482289 -518.52100878418241 0 0 0 0 -686.43155915457464 761.85090765760924 0 761.85090765760924 -494.32917339366759 0 0 0 0 -362.78738162331865 405.05240694198983 0 405.05240694198983 -281.34152397614889 0 0 0 0 -105.1144557180487 57.77070380119585 0 57.77070380119585 -196.31186899396926 0 0 0 0 -619.69012330358601 305.18871639566078 0 305.18871639566078 -43.651582583005165 0 0 0 0 -1207.0433131430473 766.83086364034261 0 766.83086364034261 -394.89325395366086 0 0 0 0 -578.9465172716591 664.65194520861132 0 664.65194520861132 -626.13681004554928 0 0 0 0 -626.20987781885196 696.77426257624074 0 696.77426257624074 -642.89040325622773 0 0 0 0 -694.26074092044109 629.44601402358455 0 629.44601402358455 -592.36301519283916 0 0 0 0 -748.07025332588819 320.15848544009987 0 320.15848544009987 -695.51170460307685 0 0 0 0 -579.47425864535035 693.27462143864147 0 693.27462143864147 -979.42945091477486 0 0 0 0 -622.28718703057166 440.58627676627839 0 440.58627676627839 -509.1454961290824 0 0 0 0 -700.67273254267457 525.50262296741312 0 525.50262296741312 -299.21218509565006 0 0 0 0 -663.70284654195348 439.22548392815952 0 439.22548392815952 -27.203183603740399 0 0 0 0 -621.27776425382308 624.40452455294542 0 624.40452455294542 -127.46175844726713 0 0 0 0 -550.59447124768849 420.06037194629425 0 420.06037194629425 -256.25908665080397 0 0 0 0 -430.91930867403244 444.30887984191486 0 444.30887984191486 -29.400641428217568 0 0 0 0 -516.11346101472373 498.24621808637585 0 498.24621808637585 51.876634772386751 0 0 0 0 -274.55749634562562 592.34490567555395 0 592.34490567555395 49.09000380427824 0 0 0 0 -300.09159745496072 156.68037926240686 0 156.68037926240686 -20.256934307563824 0 0 0 0 -250.88655816352002 177.75346032535072 0 177.75346032535072 -40.859279224956481 0 0 0 0 -342.09639504696679 360.69964284773869 0 360.69964284773869 -3.1477727883884654 0 0 0 0 -408.45460509741861 260.40861541436152 0 260.40861541436152 -7.8603587242832873 0 0 0 0 -421.75553058892547 289.28607641382587 0 289.28607641382587 -43.010815645367984 0 0 0 0 -537.50657561045591 325.52905187639226 0 325.52905187639226 7.0354646484065597 0 0 0 0 -547.70142046677938 147.73869704386289 0 147.73869704386289 -8.4882474687019567 0 0 0 0 -263.00599142575084 156.13937506307684 0 156.13937506307684 -26.879095938469618 0 0 0 0 -580.39174056279739 47.519021416634246 0 47.519021416634246 -39.431440478452714 0 0 0 0 -640.86070221180125 349.86962551818124 0 349.86962551818124 -26.821272717656029 0 0 0 0 -567.82896472355606 325.50005124584391 0 325.50005124584391 -189.04238392120351 0 0 0 0 -771.4035755502864 418.50661526484146 0 418.50661526484146 -160.025725498268 0 0 0 0 -851.62857974520375 576.11247169472153 0 576.11247169472153 -388.37163866283663 0 0 0 0 -626.29522050331252 187.90539634038578 0 187.90539634038578 -96.47979958288488 0 0 0 0 -4.3572635984615076 11.129635564487671 0 11.129635564487671 -27.006312538545615 0 0 0 0 119.72298533320281 3.2634866291227809 0 3.2634866291227809 -26.189255627861712 0 0 0 0 257.49578635542639 70.979773247898265 0 70.979773247898265 -52.815269552688278 0 0 0 0 82.583967712962476 109.69298464500389 0 109.69298464500389 19.704290385113381 0 0 0 0 290.23351360824017 154.34589680924364 0 154.34589680924364 -98.834781561192358 0 0 0 0 -7.2474759730052725 16.67562803236153 0 16.67562803236153 -41.947489111844661 0 0 0 0 -262.51232422405155 95.502830568022546 0 95.502830568022546 -62.349533133112345 0 0 0 0 107.7737057456834 83.811890678337477 0 83.811890678337477 -43.84028865608343 0 0 0 0 -28.325799628575624 155.78007557515957 0 155.78007557515957 -12.656699969678812 0 0 0 0 61.786876354776496 72.9587145161357 0 72.9587145161357 -29.212049091632736 0 0 0 0 6.002593001947389 143.68077746946074 0 143.68077746946074 -29.24571412943078 0 0 0 0 127.50516287785285 113.44081986230049 0 113.44081986230049 -47.106920718444599 0 0 0 0 -58.674776342835685 55.623301922059909 0 55.623301922059909 -40.958747023349133 0 0 0 0 82.757878674763276 120.37998512961607 0 120.37998512961607 -162.03513139973074 0 0 0 0 -235.66163484951539 115.03662685062227 0 115.03662685062227 -10.897844760005455 0 0 0 0 44.459137417659605 -3.5661665754379044 0 -3.5661665754379044 -12.307072741938214 0 0 0 0 74.920095130830305 91.047308645862358 0 91.047308645862358 -26.795467252130038 0 0 0 0 16.019645976208267 146.58604697808732 0 146.58604697808732 -109.80338647899043 0 0 0 0 145.91061194552458 124.79938898598266 0 124.79938898598266 -42.65228679802749 0 0 0 0 -14.736540650684844 50.0057128706855 0 50.0057128706855 -12.692784781325884 0 0 0 0 118.42602478605113 124.31638761362774 0 124.31638761362774 -10.780392005959584 0 0 0 0 233.23379989302339 85.507298274842469 0 85.507298274842469 -57.663815476960735 0 0 0 0 32.038606823163718 51.831345748972126 0 51.831345748972126 -8.3219516318094975 0 0 0 0 13.777034085657853 41.566088749879306 0 41.566088749879306 1.6848614117971294 0 0 0 0 -97.79838656654465 160.30592169610463 0 160.30592169610463 -9.5048733279350586 0 0 0 0 12.382562371189124 55.540871609307942 0 55.540871609307942 -3.5116698309711865 0 0 0 0 0.44403459258933253 34.273354129838239 0 34.273354129838239 -15.756904077358335 0 0 0 0 8.4594640640279977 54.168630415777443 0 54.168630415777443 -0.044164887098304462 0 0 0 0 3.832656609476544 60.353520502403626 0 60.353520502403626 -2.3760731772417785 0 0 0 0 33.086693622986644 38.435111840210816 0 38.435111840210816 0.44741664656812929 0 0 0 0 28.867366395876161 48.246797382984369 0 48.246797382984369 -3.0750581614483963 0 0 0 0 16.368086647693417 48.829248047473811 0 48.829248047473811 -0.086618669354692202 0 0 0 0 1.1937897178927983 39.492264493784276 0 39.492264493784276 4.6764632831136765 0 0 0 0 314.1834647955402 39.856447207455858 0 39.856447207455858 22.491360331103351 0 0 0 0 -16.178649862485059 2.9975259703367669 0 2.9975259703367669 6.3738547137856756 0 0 0 0 126.46192407923809 229.79194667827778 0 229.79194667827778 154.53696902489173 0 0 0 0 -279.05387413491735 86.677505019672026 0 86.677505019672026 -44.160191378083255 0 0 0 0 -116.94290949531933 15.210388414277077 0 15.210388414277077 -41.569219855480014 0 0 0 0 37.821204822510481 179.6937394402803 0 179.6937394402803 -10.561460203323804 0 0 0 0 21.326139298143971 14.87624792801671 0 14.87624792801671 13.668746122450102 0 0 0 0 170.0287702558926 84.693979065770691 0 84.693979065770691 -70.79530363426602 0 0 0 0 -39.410176318102458 79.659168904275248 0 79.659168904275248 -74.97070135168542 0 0 0 0 6.0164518580426503 24.750292135553231 0 24.750292135553231 -52.961546521814839 0 0 0 0 -13.35333019844677 59.108106966960719 0 59.108106966960719 20.297289406519681 0 0 0 0 -61.088624507247005 47.148259254026016 0 47.148259254026016 -27.987294051825302 0 0 0 0 -174.84845395996672 88.975228274712208 0 88.975228274712208 -18.595136796878251 0 0 0 0 -290.26568952133493 115.31067545427641 0 115.31067545427641 -21.904956388350911 0 0 0 0 -148.52724518962327 99.177209154134573 0 99.177209154134573 -27.456069180152554 0 0 0 0 -103.70058306154897 95.152686570144397 0 95.152686570144397 -47.643936434231364 0 0 0 0 -79.850212860415922 103.56258332883044 0 103.56258332883044 -45.501259830440176 0 0 0 0 -104.90951936270176 91.517244673461164 0 91.517244673461164 -25.792654157114157 0 0 0 0 -10.236946358229034 84.617000575775819 0 84.617000575775819 -92.299485140509205 0 0 0 0 55.521494413573237 9.2217631400599203 0 9.2217631400599203 -55.350592975521067 0 0 0 0 11.069771278800353 31.780594630731969 0 31.780594630731969 -13.842312586203754 0 0 0 0 6.9220119401510374 33.868857476884259 0 33.868857476884259 -18.068876424979081 0 0 0 0 20.213777723663952 36.267941727922334 0 36.267941727922334 -10.910444614059088 0 0 0 0 -4.8554924904683503 45.166829998800154 0 45.166829998800154 -2.8442990629591804 0 0 0 0 13.926045802506977 32.912380555888369 0 32.912380555888369 -12.633807416510447 0 0 0 0 6.1921235016761642 13.31376966530609 0 13.31376966530609 -3.2233618989353587 0 0 0 0 -76.291058519200305 56.67803037853264 0 56.67803037853264 41.487106741877142 0 0 0 0 9.6308118189566869 22.143337202551685 0 22.143337202551685 12.604685498532998 0 0 0 0 -4.7781809488606086 44.436960249337346 0 44.436960249337346 -6.400246769459045 0 0 0 0 -7.6566508395480923 48.943887771742084 0 48.943887771742084 -5.8413858018593601 0 0 0 0 -15.316729523892718 33.893108994855538 0 33.893108994855538 -21.248969545381442 0 0 0 0 18.461859013921362 23.46847553413857 0 23.46847553413857 1.3194720252082774 0 0 0 0 3.9176236545681604 51.176323964255971 0 51.176323964255971 -5.5089153034168703 0 0 0 0 -7.9851997039513662 72.207324613437777 0 72.207324613437777 -49.847025914639744 0 0 0 0 -19.685661714702292 96.734032693841073 0 96.734032693841073 -13.432861325221893 0 0 0 0 -16.579040601875022 90.363758314048937 0 90.363758314048937 -47.279959543659061 0 0 0 0 -108.48631258307432 121.45435783900939 0 121.45435783900939 -43.87322495940316 0 0 0 0 -45.744930473316344 62.525645241430539 0 62.525645241430539 -19.083278065270861 0 0 0 0 -5.4183743074027007 42.381952213896511 0 42.381952213896511 5.6296179196397134 0 0 0 0 8.3688300442736363 39.675756757807903 0 39.675756757807903 16.949444960329856 0 0 0 0 -0.87249303142760937 22.571816458836437 0 22.571816458836437 -10.823055834210173 0 0 0 0 16.869411644634965 38.763530800158151 0 38.763530800158151 -7.5929518026205187 0 0 0 0 21.920883816899732 58.156999607239413 0 58.156999607239413 -7.1590828817716101 0 0 0 0 13.139374829664945 30.146557419936443 0 30.146557419936443 -3.5113898180680891 0 0 0 0 15.142717941787851 56.72531404053916 0 56.72531404053916 -7.2770662704861024 0 0 0 0 20.893034102045931 56.079857619439281 0 56.079857619439281 -9.8298029245961516 0 0 0 0 6.6021529337158427 37.722308951444575 0 37.722308951444575 -6.2309636467161909 0 0 0 0 11.237895242574126 39.363067608380597 0 39.363067608380597 -6.9014867891737204 0 0 0 0 20.75946658943576 53.033093567766628 0 53.033093567766628 -20.622330727012013 0 0 0 0 -34.196692556972266 28.95286387604483 0 28.95286387604483 19.358825921956395 0 0 0 0 -6.882108656821913 4.409577074868622 0 4.409577074868622 4.1839703872154956 0 0 0 0 -36.656836622758419 23.446608843594731 0 23.446608843594731 37.887318065730597 0 0 0 0 192.2787435709688 -0.84533923703247638 0 -0.84533923703247638 -79.585130284976913 0 0 0 0 7.0945675648944118 30.222747632026923 0 30.222747632026923 -13.261005431236875 0 0 0 0 8.9940608857928694 32.495084192710067 0 32.495084192710067 -6.3381456206445606 0 0 0 0 -51.743393121229019 80.832716593807163 0 80.832716593807163 -7.5726907277130522 0 0 0 0 8.0083133304898979 42.537509680285375 0 42.537509680285375 3.5861661480574512 0 0 0 0 -46.314643149562471 62.601503298955095 0 62.601503298955095 52.481485453687128 0 0 0 0 17.149505206790536 29.091896354827497 0 29.091896354827497 -7.5613998406552305 0 0 0 0 432.04356266267132 164.80158687794392 0 164.80158687794392 -246.809322604302 0 0 0 0 226.37001550241985 198.72287888017763 0 198.72287888017763 -14.128271735047747 0 0 0 0 249.1580368111936 100.11844139084383 0 100.11844139084383 -108.0407890049828 0 0 0 0 55.894461561838398 208.69548448958631 0 208.69548448958631 183.09492011674229 0 0 0 0 93.349652536358917 94.136948800227401 0 94.136948800227401 -92.518458241378539 0 0 0 0 67.056228020344861 145.51351729205817 0 145.51351729205817 -41.759704033172056 0 0 0 0 -104.53283270209795 40.430862948858703 0 40.430862948858703 6.7124645293779395 0 0 0 0 -55.707638219973887 -2.2582747932619895 0 -2.2582747932619895 -62.82990832321957 0 0 0 0 2.3952691461425957 24.798337402929739 0 24.798337402929739 -11.543373373910777 0 0 0 0 -55.723969063154073 -105.61462574225243 0 -105.61462574225243 -86.847652335349267 0 0 0 0 -397.18660259756143 -115.38658756643144 0 -115.38658756643144 357.8158069452802 0 0 0 0 79.052237150724977 163.69565201064506 0 163.69565201064506 -208.65950251006143 0 0 0 0 75.799361480509106 157.45681549614733 0 157.45681549614733 -189.1591113654431 0 0 0 0 85.950871928536799 159.88608882890912 0 159.88608882890912 -190.58603286885409 0 0 0 0 77.949353615716973 169.42667160881297 0 169.42667160881297 -237.99194265063124 0 0 0 0 77.30070158620947 143.19756534611861 0 143.19756534611861 -198.19644853557111 0 0 0 0 -0.044483930221758783 64.741743134062745 0 64.741743134062745 -138.34625421697638 0 0 0 0 84.379914870227367 110.67388716269488 0 110.67388716269488 -154.93825073571134 0 0 0 0 125.95398035824473 62.3706385672549 0 62.3706385672549 -95.859758654769394 0 0 0 0 133.383937419625 137.83936787811217 0 137.83936787811217 -142.87904144699496 0 0 0 0 120.97388454916654 92.570904747428358 0 92.570904747428358 -146.99872036915986 0 0 0 0 63.72804019312025 106.11822553666298 0 106.11822553666298 -126.3411158369272 0 0 0 0 37.308488078473601 140.50860616354475 0 140.50860616354475 -165.07247364302566 0 0 0 0 103.19754745009413 135.67940451602226 0 135.67940451602226 -184.79263099840318 0 0 0 0 61.65581038343953 149.09120424796129 0 149.09120424796129 -180.26806879315154 0 0 0 0 37.330671128147515 128.07998468857113 0 128.07998468857113 -172.37323691854544 0 0 0 0 52.992581844126107 160.06624036345602 0 160.06624036345602 -194.14542657148559 0 0 0 0 -6.0598726753505616 57.706858261798516 0 57.706858261798516 -24.060981132841334 0 0 0 0 -171.72856005361609 182.33357301537103 0 182.33357301537103 -137.01923637966138 0 0 0 0 -61.231595873367041 85.051623101073346 0 85.051623101073346 -139.65396400177269 0 0 0 0 -147.80753635545261 205.96787161090469 0 205.96787161090469 -53.810339058065438 0 0 0 0 5.0094210168002604 -1.2496280386334462 0 -1.2496280386334462 -1.1809800075394818 0 0 0 0 30.827633570734179 68.763217830855865 0 68.763217830855865 -146.24174199104891 0 0 0 0 30.669319410808384 11.353333977071998 0 11.353333977071998 -5.1631921455846168 0 0 0 0 -110.90244340532445 214.78497877396694 0 214.78497877396694 -145.88750416891889 0 0 0 0 28.076240439279417 24.457835639148257 0 24.457835639148257 -1.5154489975375505 0 0 0 0 -65.786412669076526 199.42955447898476 0 199.42955447898476 -108.15958977177797 0 0 0 0 -82.051599895930849 165.72321419220862 0 165.72321419220862 -173.3443947239075 0 0 0 0 -52.551297683065059 173.58734344317236 0 173.58734344317236 -124.27527813939014 0 0 0 0 -19.166126382275252 175.70185376410154 0 175.70185376410154 -154.3275322567024 0 0 0 0 -123.7435002466882 147.24170038593002 0 147.24170038593002 -119.69564443735726 0 0 0 0 -45.439894304785412 184.41429622496435 0 184.41429622496435 -152.76622319782518 0 0 0 0 -5.8519875717611285 145.38440180011639 0 145.38440180011639 -171.49083369015716 0 0 0 0 4.61110455270682 152.24166783652799 0 152.24166783652799 -170.49463321710937 0 0 0 0 55.456556944001932 164.90587208839497 0 164.90587208839497 -190.10410064731332 0 0 0 0 56.796213086985517 179.89218807234283 0 179.89218807234283 -210.51319671661531 0 0 0 0 16.743809870793484 172.41980484205487 0 172.41980484205487 -173.84557921976375 0 0 0 0 25.82205675682053 177.19424085044375 0 177.19424085044375 -171.50937824119683 0 0 0 0 32.692161702914746 189.31479988059527 0 189.31479988059527 -166.75419532266824 0 0 0 0 29.540015275910264 199.54622311109051 0 199.54622311109051 -161.78063064128401 0 0 0 0 -15.538797687484475 183.95069808243352 0 183.95069808243352 -141.06418377976661 0 0 0 0 -3.7619960688753054 186.16350959662304 0 186.16350959662304 -140.65043962713935 0 0 0 0 9.307120440658764 207.77731373682764 0 207.77731373682764 -105.1315012693376 0 0 0 0 34.74470231392479 227.16693126795781 0 227.16693126795781 -98.708248039689352 0 0 0 0 64.574559919270541 196.93792410026072 0 196.93792410026072 -230.38208713588392 0 0 0 0 64.560988304627244 194.86371241533743 0 194.86371241533743 -190.23118446070657 0 0 0 0 -31.529233414876217 44.296634437295324 0 44.296634437295324 -11.024597466386886 0 0 0 0 16.172886410452534 13.725347972699218 0 13.725347972699218 8.4202697203008512 0 0 0 0 28.182073207564827 -4.2245223438621906 0 -4.2245223438621906 4.3767534872995384 0 0 0 0 -21.19525416739998 55.739279057748263 0 55.739279057748263 38.636163014638441 0 0 0 0 -4.0281630133613362 74.575261945189141 0 74.575261945189141 -54.142165362507512 0 0 0 0 -12.784037551602523 38.040418593804134 0 38.040418593804134 -10.972897466974246 0 0 0 0 -9.6471594568211003 36.431888484125011 0 36.431888484125011 -20.368168754453336 0 0 0 0 -27.29001807750501 76.124847130596208 0 76.124847130596208 -29.026038138399599 0 0 0 0 22.614921201952889 18.327716795595098 0 18.327716795595098 -3.7923946986634789 0 0 0 0 -32.100681826683285 42.504560633142319 0 42.504560633142319 -15.480005455872742 0 0 0 0 64.568590421360568 -1.3749244270784402 0 -1.3749244270784402 -41.599565044332849 0 0 0 0 0.76087295133076793 14.834846428867451 0 14.834846428867451 5.0009652006888956 0 0 0 0 73.860856491319282 29.666522119663568 0 29.666522119663568 -46.945810300336234 0 0 0 0 43.632821390390745 45.485362664218883 0 45.485362664218883 1.7119708641203033 0 0 0 0 33.714483112444668 44.588993559623077 0 44.588993559623077 -30.598694877386151 0 0 0 0 37.778458908803259 19.00166488951163 0 19.00166488951163 -44.187463915492117 0 0 0 0 31.38310479285883 49.877273144278433 0 49.877273144278433 -88.859459149709437 0 0 0 0 27.601719290860274 33.427772736071574 0 33.427772736071574 -38.274961551589513 0 0 0 0 28.008111413713777 54.286896196725138 0 54.286896196725138 -83.717446116679639 0 0 0 0 33.134745118688443 17.702793860316888 0 17.702793860316888 -43.272281264462436 0 0 0 0 40.313383863016497 49.469197319756859 0 49.469197319756859 -77.798302600238458 0 0 0 0 27.987803534322808 36.365679651267897 0 36.365679651267897 -65.464535412476835 0 0 0 0 -7.78016758186277 53.315362253240892 0 53.315362253240892 -17.556198181049695 0 0 0 0 1.3281111350443098 88.18497968810334 0 88.18497968810334 -98.740071161946616 0 0 0 0 10.812935063950135 52.572844489091949 0 52.572844489091949 -63.62028713111431 0 0 0 0 11.842199838455713 88.625116608955722 0 88.625116608955722 -111.75891026539466 0 0 0 0 -18.535008375536563 104.6304511755252 0 104.6304511755252 -65.16446438564526 0 0 0 0 -41.837763505485782 218.36589060268398 0 218.36589060268398 -221.57431140084736 0 0 0 0 -10.133399826820096 180.55441732138843 0 180.55441732138843 -176.6761059277851 0 0 0 0 -48.245715459212079 165.10077624373844 0 165.10077624373844 -142.4310616537814 0 0 0 0 25.723240057224757 81.382930577921798 0 81.382930577921798 -135.34905353275099 0 0 0 0 13.25471102771553 81.710282400950746 0 81.710282400950746 -120.39052487626032 0 0 0 0 29.42690691925236 109.92090466741138 0 109.92090466741138 -252.0941700728763 0 0 0 0 18.661029964314366 119.3240168760949 0 119.3240168760949 -216.76131571745645 0 0 0 0 -10.210474359279033 -6.5916314933274407 0 -6.5916314933274407 18.441171110478535 0 0 0 0 46.98281724923072 35.213700670632988 0 35.213700670632988 -164.42790079155748 0 0 0 0 43.585934169284883 18.819663058580772 0 18.819663058580772 -183.26193331566174 0 0 0 0 32.771639513264745 77.88741704519407 0 77.88741704519407 -276.5400665841662 0 0 0 0 25.007059425872285 77.37931798873251 0 77.37931798873251 -133.95118257799913 0 0 0 0 31.21046060876688 17.865473617852331 0 17.865473617852331 -116.30065575416302 0 0 0 0 16.290877029859985 26.040944042117189 0 26.040944042117189 -37.073285319540446 0 0 0 0 26.554477700898133 11.443009113221706 0 11.443009113221706 -68.219500393795897 0 0 0 0 45.088137674697009 -13.270116489983707 0 -13.270116489983707 -197.62623693406567 0 0 0 0 21.144986564060673 -57.258108227924822 0 -57.258108227924822 -44.431218533749416 0 0 0 0 48.319266726655769 -45.384684965363704 0 -45.384684965363704 -86.326143747752212 0 0 0 0 -5.8177037627319805 46.716899087409729 0 46.716899087409729 -265.24965818452802 0 0 0 0 188.61891241167905 -367.00152750849338 0 -367.00152750849338 599.71852825931092 0 0 0 0 394.07752332110249 759.46471148966702 0 759.46471148966702 100.64664131738937 0 0 0 0 8.3108673011250289 8.2686513148860143 0 8.2686513148860143 -6.9786941330433621 0 0 0 0 0.25619533581432563 2.5946487644420095 0 2.5946487644420095 -1.0507820310347453 0 0 0 0 -50.195832190976944 52.197715499749393 0 52.197715499749393 -263.68460648229438 0 0 0 0 13.127190151921241 121.79525208721861 0 121.79525208721861 -242.46746161118608 0 0 0 0 2.9863914489727392 4.7113498597677115 0 4.7113498597677115 -3.0216402757362442 0 0 0 0 699.37875802756116 513.30731848427718 0 513.30731848427718 1023.0592267617476 0 0 0 0 724.22920756474923 496.40838357343182 0 496.40838357343182 285.25998323884414 0 0 0 0 596.29073261004669 887.11576385062381 0 887.11576385062381 706.39506123058163 0 0 0 0 80.319535624559649 -106.4780515854103 0 -106.4780515854103 -1412.7510004003598 0 0 0 0 77.517359976430939 418.74316936922764 0 418.74316936922764 -1246.336327322676 0 0 0 0 -10.720523919047992 -66.233819022218995 0 -66.233819022218995 -531.0186422335064 0 0 0 0 75.964914882002631 561.80460434800443 0 561.80460434800443 -538.89310035300696 0 0 0 0 69.922839690458204 217.88614299613437 0 217.88614299613437 -349.25033248057935 0 0 0 0 16.682264844939709 109.66548155791861 0 109.66548155791861 -403.0270545927815 0 0 0 0 79.350726082848269 195.18541964617907 0 195.18541964617907 -754.06902636481118 0 0 0 0 1.5000054283682402 252.27807578130887 0 252.27807578130887 -362.26560023942147 0 0 0 0 -101.37801793725521 364.35339852538891 0 364.35339852538891 -258.4517256191948 0 0 0 0 -186.92553152455366 494.21754256318854 0 494.21754256318854 -263.31233223210239 0 0 0 0 -64.537655305630324 431.76187562664995 0 431.76187562664995 -264.54743927885647 0 0 0 0 -163.96803003357354 394.23864904700588 0 394.23864904700588 -127.26596512277138 0 0 0 0 -218.85023541355213 570.18663071396554 0 570.18663071396554 -96.475162808414098 0 0 0 0 -349.08166815668665 506.25143075298274 0 506.25143075298274 -46.238651216879589 0 0 0 0 -343.85615556089942 385.72460996776874 0 385.72460996776874 -35.413140097954965 0 0 0 0 -215.17429887561957 371.81472014871269 0 371.81472014871269 -92.958133967519643 0 0 0 0 -234.59600705484263 285.04711152082655 0 285.04711152082655 -65.677918811516065 0 0 0 0 -192.13415393200557 246.8794321116111 0 246.8794321116111 -31.372755561662871 0 0 0 0 -144.81779537708212 139.46738012522519 0 139.46738012522519 -40.992727796498002 0 0 0 0 -221.83948064682772 182.52941676086084 0 182.52941676086084 -40.283677529823763 0 0 0 0 -128.34694878650407 172.33400237773822 0 172.33400237773822 -55.945222004487732 0 0 0 0 -78.192876372988394 147.21828294218358 0 147.21828294218358 -50.439138004393953 0 0 0 0 -47.793463519628858 101.3339377242537 0 101.3339377242537 -24.210563695707606 0 0 0 0 -40.812677923003776 147.08466444454314 0 147.08466444454314 -101.25940834556241 0 0 0 0 -88.15457100434287 327.32022251023136 0 327.32022251023136 -216.85491297204499 0 0 0 0 -123.61377868384443 273.7873186756442 0 273.7873186756442 -149.03979335173381 0 0 0 0 -101.40803900172887 241.87585940678036 0 241.87585940678036 -110.19728072007456 0 0 0 0 -209.67847401565814 405.92750164322206 0 405.92750164322206 -189.70457255632209 0 0 0 0 -166.87285078864807 277.64835574929202 0 277.64835574929202 -204.55661411040637 0 0 0 0 -0.064214805628580507 380.81623483485782 0 380.81623483485782 -202.46799139509312 0 0 0 0 -114.85088749360875 153.38882140993701 0 153.38882140993701 -17.949843309361313 0 0 0 0 -209.11557586320851 358.68186228511695 0 358.68186228511695 -130.77443094205228 0 0 0 0 -462.1185334735128 297.53895312264285 0 297.53895312264285 -42.115276903870836 0 0 0 0 0.83337626310903801 3.7855233531187764 0 3.7855233531187764 -0.72882253505875383 0 0 0 0 598.28983193317617 -118.23816442308726 0 -118.23816442308726 -121.0663374768119 0 0 0 0 -0.22485878690349637 223.00904868058933 0 223.00904868058933 -206.07524835198637 0 0 0 0 -249.5149890294997 79.03878056520989 0 79.03878056520989 -38.035159529012162 0 0 0 0 -0.13217613543383777 20.147727829295036 0 20.147727829295036 -14.391558710658501 0 0 0 0 -62.650673192860268 76.057427780708167 0 76.057427780708167 -59.999788322089444 0 0 0 0 1.1684467891237489 6.2506874875461449 0 6.2506874875461449 1.3646832200496135 0 0 0 0 270.34468292017846 342.76734327435224 0 342.76734327435224 -466.31489323254937 0 0 0 0 122.83402633381047 353.28841502041723 0 353.28841502041723 30.484222091330594 0 0 0 0 47.427527419378748 -57.441188646880619 0 -57.441188646880619 16.369301457129041 0 0 0 0 82.760778608819237 213.81409673054804 0 213.81409673054804 -506.72462077742057 0 0 0 0 -46.276408409103169 144.55664358125523 0 144.55664358125523 76.061675538505369 0 0 0 0 574.52185331380679 897.35114643257293 0 897.35114643257293 477.94871851237258 0 0 0 0 -93.303101792509551 -341.20656633677572 0 -341.20656633677572 -855.23367266427522 0 0 0 0 -1.2962783394789312 1.7467834181461512 0 1.7467834181461512 -1.2913814294524428 0 0 0 0 28.991296053329279 -2.9830365134785097 0 -2.9830365134785097 -316.80024179062457 0 0 0 0 86.412261669145664 -29.271232964310911 0 -29.271232964310911 -372.24443055921438 0 0 0 0 123.6633348403775 206.12529896378146 0 206.12529896378146 -230.51167994018033 0 0 0 0 -6.5022581532866752 65.925921984233355 0 65.925921984233355 -48.687618346553791 0 0 0 0 127.38389865771751 118.70422056304051 0 118.70422056304051 -33.310158416110426 0 0 0 0 372.12293520342791 150.38543126632976 0 150.38543126632976 -163.37744061449484 0 0 0 0 89.784497468455811 75.606494573396049 0 75.606494573396049 20.042054357276356 0 0 0 0 -27.595086915738648 197.28003713899489 0 197.28003713899489 -3.6334977825467831 0 0 0 0 19.241407038251054 181.05586543918798 0 181.05586543918798 -40.629488842740102 0 0 0 0 136.90922849302297 78.358506008534277 0 78.358506008534277 59.518301245381735 0 0 0 0 252.26754126475862 246.73947177934588 0 246.73947177934588 43.400821100269241 0 0 0 0 205.49529255706875 199.23039281740057 0 199.23039281740057 261.30056230813238 0 0 0 0 396.08881038163963 200.98548735041186 0 200.98548735041186 46.771677887689293 0 0 0 0 228.1851629147568 189.86279239125543 0 189.86279239125543 -119.65747560140517 0 0 0 0 197.96818912263552 227.44374521059945 0 227.44374521059945 54.221820268629017 0 0 0 0 253.70281982194138 211.22028639956079 0 211.22028639956079 -128.78926585495356 0 0 0 0 146.12185304921877 104.57405171987921 0 104.57405171987921 -31.930813811479311 0 0 0 0 100.95490022584272 -4.9581730165336921 0 -4.9581730165336921 -357.60501384825875 0 0 0 0 170.48152060696157 111.60669373110795 0 111.60669373110795 -231.75157089258573 0 0 0 0 52.390885841501586 -17.467467536458571 0 -17.467467536458571 -281.97133284444135 0 0 0 0 152.04232557833893 87.768379830231424 0 87.768379830231424 -199.10631497244503 0 0 0 0 111.31275067355455 103.24027514147383 0 103.24027514147383 -174.38793037630239 0 0 0 0 212.17264593750224 195.5519530281299 0 195.5519530281299 -121.61417841139701 0 0 0 0 140.02445896297286 97.202413758135663 0 97.202413758135663 -155.37835209226614 0 0 0 0 98.410798381570203 55.841190512471258 0 55.841190512471258 -145.89319177732978 0 0 0 0 120.31947464623045 138.83477078875603 0 138.83477078875603 -53.641421355321654 0 0 0 0 124.92995427480491 130.8083988275157 0 130.8083988275157 -119.31801403046848 0 0 0 0 122.25970638176659 89.552604684926337 0 89.552604684926337 -100.28750201646835 0 0 0 0 108.74276650385582 80.870955034204599 0 80.870955034204599 -38.828730211347647 0 0 0 0 86.972389609451056 126.96140157727859 0 126.96140157727859 -30.893177584908699 0 0 0 0 -65.453679651909624 110.80014912762999 0 110.80014912762999 -22.59544187233405 0 0 0 0 79.097726961626904 86.481711787968379 0 86.481711787968379 -45.178209905738186 0 0 0 0 -144.98092168880976 238.0617492476631 0 238.0617492476631 -39.039783462763808 0 0 0 0 81.120872350804348 77.896787740261061 0 77.896787740261061 -73.759545331973641 0 0 0 0 75.884494427089521 307.3084508242946 0 307.3084508242946 91.604455853306717 0 0 0 0 371.5427706088476 440.81447703856747 0 440.81447703856747 118.59022035829548 0 0 0 0 -133.42389517421543 -11.692502505389712 0 -11.692502505389712 -12.107716772839922 0 0 0 0 -464.53799222459202 -68.149877067055058 0 -68.149877067055058 69.062030442801188 0 0 0 0 -3.927699308186277 1.7613785605521173 0 1.7613785605521173 1.8176384855509724 0 0 0 0 -166.83427497740195 145.62339840050481 0 145.62339840050481 55.836875307279115 0 0 0 0 13.158283898461377 63.340755649283892 0 63.340755649283892 134.15263866623718 0 0 0 0 27.725257051759399 259.85861972672137 0 259.85861972672137 58.556773842297844 0 0 0 0 44.609560724333278 130.04456374873553 0 130.04456374873553 21.403566444627359 0 0 0 0 -35.140014201162558 31.940093282360976 0 31.940093282360976 49.746987177015399 0 0 0 0 -19.136096418269688 26.528519719951404 0 26.528519719951404 -5.2227892043921571 0 0 0 0 42.266168252346688 145.76185836048171 0 145.76185836048171 -6.7357635588741687 0 0 0 0 -34.019615542754764 50.256390373075192 0 50.256390373075192 77.328402151775663 0 0 0 0 -37.831805488181999 43.249367836167949 0 43.249367836167949 6.7503790800419665 0 0 0 0 -79.973465880513686 46.33297768626835 0 46.33297768626835 37.996677586568694 0 0 0 0 -42.243461244011996 42.319780024306965 0 42.319780024306965 37.433825070234889 0 0 0 0 -44.657510092423763 32.036023433411174 0 32.036023433411174 67.791907479870133 0 0 0 0 -54.163269637021585 54.911030579889484 0 54.911030579889484 72.193121345339023 0 0 0 0 -56.462039945181459 42.362929424562935 0 42.362929424562935 115.09300693006844 0 0 0 0 -53.469524665430072 62.036791760809137 0 62.036791760809137 63.787970474333633 0 0 0 0 -26.969043262482046 24.791843433493057 0 24.791843433493057 -11.275046401049515 0 0 0 0 -109.1905259314226 145.98003547859389 0 145.98003547859389 -98.95114134425603 0 0 0 0 -10.381121865386774 4.8443347100141096 0 4.8443347100141096 6.8037284776384155 0 0 0 0 -50.301657357689692 -16.691717267203785 0 -16.691717267203785 35.665267543981827 0 0 0 0 -75.813489523381577 -48.502820873396558 0 -48.502820873396558 -163.61258527181417 0 0 0 0 -4.9329917223886639 6.0440429173674062 0 6.0440429173674062 4.5505799858277314 0 0 0 0 -31.767461642855778 44.050635472674912 0 44.050635472674912 63.306772513751639 0 0 0 0 -28.135196887549512 27.829116435299127 0 27.829116435299127 7.4816141721205511 0 0 0 0 6.1675918461987749 44.301626306114485 0 44.301626306114485 53.999400043641799 0 0 0 0 -5.1094829201537948 27.059530701099359 0 27.059530701099359 -17.114407444219786 0 0 0 0 -5.285551196342567 71.173978726990754 0 71.173978726990754 83.987898697479977 0 0 0 0 11.321229864493944 36.621508810276282 0 36.621508810276282 17.435719722543581 0 0 0 0 -77.693754794658162 -20.465930203219614 0 -20.465930203219614 -47.973458232438134 0 0 0 0 -42.844377512663897 26.866901038694408 0 26.866901038694408 42.326934713592941 0 0 0 0 -60.554006793478038 -22.251378245719025 0 -22.251378245719025 -101.65314456251144 0 0 0 0 -73.297371478838613 -29.479592153764315 0 -29.479592153764315 -63.209800071697828 0 0 0 0 3.6390257687016856 57.586439922390127 0 57.586439922390127 -124.52782584577835 0 0 0 0 -8.3230774948970065 10.728962319054517 0 10.728962319054517 -300.87900843190073 0 0 0 0 44.437465969094774 137.55781219098208 0 137.55781219098208 -191.97061773001406 0 0 0 0 5.9664074982574675 140.48585152152373 0 140.48585152152373 -303.69267329874981 0 0 0 0 -44.347994816597748 137.78291538656617 0 137.78291538656617 -257.5470130466565 0 0 0 0 16.752970764981001 133.6305735963615 0 133.6305735963615 -302.9223658849005 0 0 0 0 53.056628244608874 174.7542293938659 0 174.7542293938659 -213.99443425998106 0 0 0 0 51.633507478807587 182.73122086891635 0 182.73122086891635 -250.29485911840675 0 0 0 0 37.013263026899949 110.63368404783387 0 110.63368404783387 -276.92390635601623 0 0 0 0 12.082912840691279 155.75666957126759 0 155.75666957126759 -251.67781066204043 0 0 0 0 50.009247693800717 215.19185764360736 0 215.19185764360736 -248.84595533093488 0 0 0 0 58.644371899485122 212.95034973228394 0 212.95034973228394 -183.24662115154388 0 0 0 0 36.049179099194589 207.34069841575001 0 207.34069841575001 -180.46717108825578 0 0 0 0 41.966239508619765 220.70917432526585 0 220.70917432526585 -286.95215769431161 0 0 0 0 44.532177044517539 139.62261716497454 0 139.62261716497454 -351.59244594018674 0 0 0 0 47.79489944933448 255.4307535700791 0 255.4307535700791 -186.75633287834444 0 0 0 0 67.854299151935265 183.5468085717348 0 183.5468085717348 -250.84662672160266 0 0 0 0 47.59162380372436 157.96482150593874 0 157.96482150593874 -356.40079233630422 0 0 0 0 8.9525515924760839 125.17246173754756 0 125.17246173754756 -339.26248588557064 0 0 0 0 38.26337529108423 106.71535592417285 0 106.71535592417285 -468.35084537146031 0 0 0 0 -50.79919029497205 15.024250985315945 0 15.024250985315945 -409.4656800927005 0 0 0 0 63.471584370330675 -82.819329281923274 0 -82.819329281923274 -326.92679894583762 0 0 0 0 59.441384416817527 -38.28902061182788 0 -38.28902061182788 -701.71575629694598 0 0 0 0 -0.042880257458079996 2.4798370724334404 0 2.4798370724334404 -3.4776414731533123 0 0 0 0 -49.313910188910086 -137.22477530073138 0 -137.22477530073138 44.108091892190714 0 0 0 0 -74.544896791150677 264.78072363840238 0 264.78072363840238 -240.07253026923445 0 0 0 0 -12.379065426473971 332.24260202705227 0 332.24260202705227 -527.2091708335056 0 0 0 0 64.278826549427322 0.37556456629999957 0 0.37556456629999957 -719.69186423052815 0 0 0 0 -214.71494436815556 -99.995377869325239 0 -99.995377869325239 -511.15110462078337 0 0 0 0 -101.72702873143135 199.56496636416159 0 199.56496636416159 -523.89534736939459 0 0 0 0 -68.710001398430904 32.958916289031549 0 32.958916289031549 -398.91838849788837 0 0 0 0 -26.101681020605611 177.8399997048582 0 177.8399997048582 -372.20528930420915 0 0 0 0 57.110974860115675 12.94309162882746 0 12.94309162882746 -464.52226008721118 0 0 0 0 74.958416111607221 130.54857400626497 0 130.54857400626497 -304.25429175262252 0 0 0 0 7.8359978196240263 188.15270958975088 0 188.15270958975088 -247.65946533303213 0 0 0 0 82.252188399870647 111.47403639805998 0 111.47403639805998 -383.50117932527564 0 0 0 0 177.09700565655658 4.9581978035002976 0 4.9581978035002976 -592.25337661365256 0 0 0 0 130.00723519198073 21.799293643125566 0 21.799293643125566 -519.70079084756435 0 0 0 0 156.28845758287935 60.432014425576199 0 60.432014425576199 -478.2449849183181 0 0 0 0 24.383561262889998 -45.175717364753837 0 -45.175717364753837 -500.3810081904594 0 0 0 0 107.24976311382488 -91.899625259783534 0 -91.899625259783534 -515.30074679091194 0 0 0 0 95.711007830657763 -130.60312427263034 0 -130.60312427263034 -641.0377864680413 0 0 0 0 58.830386185960378 -156.91551667830026 0 -156.91551667830026 -472.08043103284581 0 0 0 0 -132.20532147129416 112.83273184129575 0 112.83273184129575 -84.01382740905683 0 0 0 0 6.4419130465830676 -148.84222000963746 0 -148.84222000963746 -468.96821972634507 0 0 0 0 23.533700121712172 -112.21510140165992 0 -112.21510140165992 -326.08152560506278 0 0 0 0 26.498141240183031 -124.60931968847581 0 -124.60931968847581 -381.59064799888802 0 0 0 0 47.553873322845902 -44.386445500280388 0 -44.386445500280388 -509.96176132999699 0 0 0 0 54.93396847639815 5.7008161362850842 0 5.7008161362850842 -425.73500124647398 0 0 0 0 -11.792316881386796 21.405244651214161 0 21.405244651214161 -427.90751633466061 0 0 0 0 -16.348523487351486 17.489255432084974 0 17.489255432084974 -311.14215533637616 0 0 0 0 -82.075456888705958 -135.21889519596152 0 -135.21889519596152 -106.8834646757914 0 0 0 0 -15.151782075758092 -136.1639942455331 0 -136.1639942455331 -322.5793032929505 0 0 0 0 -29.401166066236328 -212.6587512826427 0 -212.6587512826427 -179.94833630839275 0 0 0 0 -39.411494676780421 -55.837030700989999 0 -55.837030700989999 -157.05235091780924 0 0 0 0 -19.434168578518438 16.39641946044685 0 16.39641946044685 45.310009425986209 0 0 0 0 -12.159433008450492 5.8012722016297147 0 5.8012722016297147 7.2743265955359817 0 0 0 0 396.37356642875238 486.11451765628044 0 486.11451765628044 321.6794574718042 0 0 0 0 -12.359861739731855 20.162432797225044 0 20.162432797225044 -11.160868871005949 0 0 0 0 -18.387944765549037 48.399565849467763 0 48.399565849467763 35.226346793686389 0 0 0 0 -10.75176641852886 -0.7942376515493379 0 -0.7942376515493379 -2.8569071072197403 0 0 0 0 -98.481348733876075 11.007201641792562 0 11.007201641792562 31.499815736584424 0 0 0 0 -75.935866547632031 -29.16944620771028 0 -29.16944620771028 8.0492506052178214 0 0 0 0 -7.4526305246138236 3.8536463978859388 0 3.8536463978859388 2.0024131097630544 0 0 0 0 430.37411315170175 399.31143541233723 0 399.31143541233723 245.25854084382127 0 0 0 0 259.19559268909506 260.57145465508529 0 260.57145465508529 359.34874639028203 0 0 0 0 165.71652013633866 237.3950706194646 0 237.3950706194646 142.02707215393184 0 0 0 0 301.78671772517555 224.12719042332174 0 224.12719042332174 94.749742771786259 0 0 0 0 216.06114275779328 293.83500491028553 0 293.83500491028553 262.77314080154611 0 0 0 0 93.56167264826945 293.83208689717139 0 293.83208689717139 29.911138682945193 0 0 0 0 106.39801874413024 101.29474195758257 0 101.29474195758257 35.677791382240684 0 0 0 0 -132.03417163951963 254.52200196877311 0 254.52200196877311 209.96724754060415 0 0 0 0 -133.16797431818895 282.47198532966746 0 282.47198532966746 59.931193179705588 0 0 0 0 46.016864422897925 268.03981485075201 0 268.03981485075201 127.5895570659668 0 0 0 0 45.916870686845414 270.16531663724061 0 270.16531663724061 282.38130233923584 0 0 0 0 314.80760896913125 236.67667642393099 0 236.67667642393099 230.92187478133565 0 0 0 0 238.9341359413811 230.77486499747829 0 230.77486499747829 256.92471985642624 0 0 0 0 430.09185904795595 352.13290732573296 0 352.13290732573296 303.48213057106477 0 0 0 0 301.01148221216863 337.29395711899997 0 337.29395711899997 323.24941326703993 0 0 0 0 250.69315248139901 322.64026650564847 0 322.64026650564847 161.71958737538807 0 0 0 0 189.60974324298149 181.47640729479826 0 181.47640729479826 158.49148992566188 0 0 0 0 430.10938009046367 373.55438065288035 0 373.55438065288035 196.38350293310032 0 0 0 0 508.53179677902881 238.5083561924107 0 238.5083561924107 369.11502685349842 0 0 0 0 15.524412997328909 -221.5868973063225 0 -221.5868973063225 -306.037980604935 0 0 0 0 527.47468822903465 403.62920592797309 0 403.62920592797309 258.02368608254437 0 0 0 0 2.6802937822053536 4.7538314985572043 0 4.7538314985572043 -3.5760494989943048 0 0 0 0 619.73476421854321 413.04777874328329 0 413.04777874328329 413.25427351640246 0 0 0 0 475.63057497696718 479.0144276727151 0 479.0144276727151 627.0853926911368 0 0 0 0 651.98986893822439 726.64288744231453 0 726.64288744231453 880.64479783881688 0 0 0 0 182.64652829774423 409.97073289064429 0 409.97073289064429 337.65014236282877 0 0 0 0 284.84038019139552 312.41109685697302 0 312.41109685697302 426.8495980532789 0 0 0 0 316.27733077530866 521.91851195835625 0 521.91851195835625 352.62874393041602 0 0 0 0 -9.3106597354218081 16.914201099927368 0 16.914201099927368 -14.269643167631401 0 0 0 0 11.704849615867715 -192.21432391982671 0 -192.21432391982671 -473.74507034277849 0 0 0 0 24.385701803461416 -110.10870601941497 0 -110.10870601941497 -527.48871110229356 0 0 0 0 -57.956502201603143 -171.34441865156987 0 -171.34441865156987 -568.65875489756399 0 0 0 0 -181.27308870255365 -533.53336364894767 0 -533.53336364894767 -1625.5533677411368 0 0 0 0 147.33649524557404 -106.10867000396229 0 -106.10867000396229 -1004.2071923866952 0 0 0 0 -520.16500758263282 295.25500711861605 0 295.25500711861605 405.55948488844297 0 0 0 0 -506.1767610281413 756.92902476316465 0 756.92902476316465 70.688879815479595 0 0 0 0 -4.2298024524037885 4.9243671343821802 0 4.9243671343821802 -6.4453673699293006 0 0 0 0 287.67667233950851 369.21148924973227 0 369.21148924973227 183.34608687336731 0 0 0 0 -15.683702276932308 234.94919451583337 0 234.94919451583337 290.73456989193801 0 0 0 0 -217.57362765385187 391.50883576342858 0 391.50883576342858 304.04714813969804 0 0 0 0 -222.97866400072598 366.03347397955667 0 366.03347397955667 187.54986207030743 0 0 0 0 479.07772463294532 404.18484889977753 0 404.18484889977753 -171.87177586772668 0 0 0 0 -319.61732394678984 454.77915809877413 0 454.77915809877413 292.49265284875037 0 0 0 0 -361.51889381365254 338.00332732990455 0 338.00332732990455 140.67843298932712 0 0 0 0 5.8108365232901633 490.24931028949106 0 490.24931028949106 -15.250672557400321 0 0 0 0 10.276013493159553 529.19915036777093 0 529.19915036777093 -1249.8009948809849 0 0 0 0 -0.11960872437339276 -37.027088877365713 0 -37.027088877365713 87.423172340004385 0 0 0 0 107.89626750483148 79.781806053000764 0 79.781806053000764 114.68542388682181 0 0 0 0 -1.3170999167794477 6.3150719750046562 0 6.3150719750046562 -6.2518351462704302 0 0 0 0 388.10072776265952 365.60753691593482 0 365.60753691593482 -66.867680279970955 0 0 0 0 0.42199907804752002 105.47553829914432 0 105.47553829914432 123.66034687482716 0 0 0 0 -1.4541082297618928 4.4259102528221774 0 4.4259102528221774 -1.8285782898202854 0 0 0 0 -783.86958882645558 325.67716833870327 0 325.67716833870327 246.19690779366647 0 0 0 0 -479.52164633176289 230.54870282724005 0 230.54870282724005 154.25614874337771 0 0 0 0 -474.2040928331553 446.89053083551335 0 446.89053083551335 210.38808814918957 0 0 0 0 -419.74139964869391 523.20885570091741 0 523.20885570091741 -103.88705302985545 0 0 0 0 -25.549278322447208 197.50372618564825 0 197.50372618564825 -141.37147957719208 0 0 0 0 -116.79837730366853 452.86186909247681 0 452.86186909247681 -78.908871696112328 0 0 0 0 -10.018716020120337 1178.292908322054 0 1178.292908322054 -1778.9684939889512 0 0 0 0 -0.36278091069834772 852.35669450887099 0 852.35669450887099 -721.32603553324361 0 0 0 0 -454.47291195167782 1296.3690953395258 0 1296.3690953395258 133.35907208854042 0 0 0 0 175.05120288368198 667.42481326121833 0 667.42481326121833 -4232.3081676965794 0 0 0 0 -11.16696333796753 10.495086380409376 0 10.495086380409376 -4.7531465612770774 0 0 0 0 -540.02725688670034 645.90167403125952 0 645.90167403125952 2089.0954683744294 0 0 0 0 -292.08572658327466 434.90400544350814 0 434.90400544350814 644.96202136016382 0 0 0 0 -455.9730412337085 869.38988451457226 0 869.38988451457226 -463.49897696905282 0 0 0 0 113.00739827948564 136.72909583537148 0 136.72909583537148 -799.16685744875031 0 0 0 0 -0.64334386171685765 330.52943417051119 0 330.52943417051119 -1097.9963840845812 0 0 0 0 -172.06329846570952 505.45233844900667 0 505.45233844900667 -215.07182350808398 0 0 0 0 -161.64399213521756 200.71914156234288 0 200.71914156234288 -259.71706060907309 0 0 0 0 -0.55992982131996882 3.2901780817771282 0 3.2901780817771282 -3.9316984798587811 0 0 0 0 692.69995625877709 -217.68727162728783 0 -217.68727162728783 -584.35184537967143 0 0 0 0 213.92894267878728 -413.02059265547541 0 -413.02059265547541 -265.29823311317796 0 0 0 0 -51.138219779073552 -106.26390028727928 0 -106.26390028727928 -404.50568445091994 0 0 0 0 -147.81069440010469 -290.22813049271826 0 -290.22813049271826 -354.13772105746466 0 0 0 0 145.11675276520873 -22.227077146126703 0 -22.227077146126703 -110.63391235794188 0 0 0 0 173.05489290869446 82.89088427765364 0 82.89088427765364 -181.12434126379958 0 0 0 0 -90.570221976122411 -3.3942165090129492 0 -3.3942165090129492 158.7527448040646 0 0 0 0 -954.47727168834899 208.06102198482495 0 208.06102198482495 -267.47309289459918 0 0 0 0 -105.47013568740158 268.85886170915114 0 268.85886170915114 -266.85963955085026 0 0 0 0 -453.58600585743261 -475.11018147850518 0 -475.11018147850518 -700.20591165975202 0 0 0 0 68.508431020221906 153.42103798913558 0 153.42103798913558 -322.7067225173414 0 0 0 0 -70.319204587649438 465.52278251169082 0 465.52278251169082 -1304.8469129459272 0 0 0 0 -80.820908188357862 388.92331034981908 0 388.92331034981908 -565.91060144999938 0 0 0 0 128.01684268873032 527.99276803795351 0 527.99276803795351 -68.764863004247673 0 0 0 0 -140.46919378662278 519.85291635440217 0 519.85291635440217 1359.7514442876345 0 0 0 0 478.99493325651565 209.90540072289787 0 209.90540072289787 574.80609750772601 0 0 0 0 -94.234447863593232 408.93355883239997 0 408.93355883239997 506.51785212723371 0 0 0 0 -31.894748634338384 28.515106973012589 0 28.515106973012589 -10.344126654901659 0 0 0 0 -263.18843971726892 301.42959664063255 0 301.42959664063255 -1406.7751949508663 0 0 0 0 113.11205156102369 -26.15961956113199 0 -26.15961956113199 -1994.0370826726589 0 0 0 0 -161.83996869795374 -12.546654099829084 0 -12.546654099829084 -1144.0958066755866 0 0 0 0 152.8859235756463 155.9452351148625 0 155.9452351148625 -1069.895183660457 0 0 0 0 159.06680069485446 308.35750800856545 0 308.35750800856545 -1065.7886917392295 0 0 0 0 290.25779883076029 352.88884128912764 0 352.88884128912764 -1054.9237430955427 0 0 0 0 97.998343707207823 113.8283297142616 0 113.8283297142616 -881.21269728659354 0 0 0 0 -51.336097315570555 39.713818076494526 0 39.713818076494526 -12.47681762742225 0 0 0 0 -95.378358139125339 373.4556274165916 0 373.4556274165916 929.21333790096833 0 0 0 0 75.12782515163417 172.05655031903916 0 172.05655031903916 487.6786658313697 0 0 0 0 256.06268481160077 288.06085917635482 0 288.06085917635482 491.14638938699682 0 0 0 0 -68.893408373980492 369.03937172562564 0 369.03937172562564 482.00110516176574 0 0 0 0 166.20272950592334 271.53152988211514 0 271.53152988211514 13.609969715127932 0 0 0 0 150.84214501600218 331.89140635534659 0 331.89140635534659 -398.5254195105008 0 0 0 0 79.905902448299457 242.11485946096036 0 242.11485946096036 14.539792289109755 0 0 0 0 87.138356957046199 241.06838221460748 0 241.06838221460748 -120.11909545629533 0 0 0 0 95.130014180700528 190.20615667907805 0 190.20615667907805 -255.9508504016103 0 0 0 0 113.38415387790883 158.87170833596429 0 158.87170833596429 -326.70510390087293 0 0 0 0 132.56697501288727 289.07888271591037 0 289.07888271591037 -178.63473843136308 0 0 0 0 63.866249941274873 276.26185331722081 0 276.26185331722081 43.579160844037688 0 0 0 0 109.19249000080163 252.09821144218404 0 252.09821144218404 -124.09721436059863 0 0 0 0 44.386911846202565 322.09422937937597 0 322.09422937937597 278.49084645683251 0 0 0 0 153.08537231959053 297.29061423642997 0 297.29061423642997 43.36581465309078 0 0 0 0 141.95194885921956 387.22518515268075 0 387.22518515268075 282.34641994743288 0 0 0 0 29.131494331115391 304.71638537135368 0 304.71638537135368 506.11949346442043 0 0 0 0 97.011597506134422 284.89501734896476 0 284.89501734896476 272.93183465456968 0 0 0 0 5.9252966864733025 271.22115263518572 0 271.22115263518572 397.34555036760867 0 0 0 0 49.684128120657988 248.19374182552565 0 248.19374182552565 239.22976657432423 0 0 0 0 66.356712824403076 246.10679789191636 0 246.10679789191636 57.530144638280035 0 0 0 0 33.205029583303258 300.17301847296039 0 300.17301847296039 233.25385026104618 0 0 0 0 75.35818675988412 266.81061753575341 0 266.81061753575341 78.519667956054036 0 0 0 0 68.558573959206115 309.80294950132657 0 309.80294950132657 61.944514755541604 0 0 0 0 85.154109115435858 234.6765682968562 0 234.6765682968562 -99.140511308998612 0 0 0 0 34.594093358573446 280.48085650355961 0 280.48085650355961 53.293475621307152 0 0 0 0 41.164987266281969 258.58122987018078 0 258.58122987018078 -110.46539425857191 0 0 0 0 33.567066368545056 257.63186361997941 0 257.63186361997941 -97.775436089988943 0 0 0 0 40.282231765653705 217.56173248314553 0 217.56173248314553 -72.933183487855786 0 0 0 0 45.646254260151181 206.21135602985669 0 206.21135602985669 -109.14533168228809 0 0 0 0 69.072916187054943 252.45903812792676 0 252.45903812792676 -97.32361503953689 0 0 0 0 34.47521200623305 274.16459975334601 0 274.16459975334601 38.010154071860597 0 0 0 0 30.945793396211229 228.31046529491869 0 228.31046529491869 55.228903802338209 0 0 0 0 -2.2334705443136045 256.43021323617904 0 256.43021323617904 149.36048648766155 0 0 0 0 22.305276113402215 290.54558520113278 0 290.54558520113278 202.79703171250731 0 0 0 0 17.481219584937207 154.98739024396673 0 154.98739024396673 259.93438625350427 0 0 0 0 25.719563646616734 199.0994821856799 0 199.0994821856799 158.83676001336426 0 0 0 0 -6.1568594286459302 -4.946445619738423 0 -4.946445619738423 11.735645666532807 0 0 0 0 -227.79867439846566 465.03299512189596 0 465.03299512189596 5.4389654948759016 0 0 0 0 -37.896286693750881 220.62841552707869 0 220.62841552707869 469.07833578575446 0 0 0 0 82.677502648632071 288.49611360648839 0 288.49611360648839 -270.89465782546631 0 0 0 0 -67.066089106039612 47.438150525226135 0 47.438150525226135 -20.970905228783124 0 0 0 0 -23.641899214140722 300.3260765220748 0 300.3260765220748 508.79712793342605 0 0 0 0 -382.71877788033453 212.48861475755984 0 212.48861475755984 23.508538469061932 0 0 0 0 128.10086129745468 266.59437800600426 0 266.59437800600426 394.60038753056051 0 0 0 0 62.786706974584376 -46.164153467089363 0 -46.164153467089363 -178.71737108769935 0 0 0 0 -179.27548399940133 249.00078765594196 0 249.00078765594196 -203.7289768283772 0 0 0 0 -351.87107904379081 642.85923136685597 0 642.85923136685597 -561.70995688189487 0 0 0 0 161.39202253136318 279.04385180769816 0 279.04385180769816 -727.98196435237514 0 0 0 0 -154.54771050946511 303.86140091715896 0 303.86140091715896 -672.7708978661758 0 0 0 0 66.804297428374412 475.85995112943283 0 475.85995112943283 -916.24820073987121 0 0 0 0 53.587275851226877 521.42559929122092 0 521.42559929122092 -1012.5212950525347 0 0 0 0 -327.35137515208044 261.21703093483029 0 261.21703093483029 -249.93123158286016 0 0 0 0 -912.36382359213894 753.00399462369842 0 753.00399462369842 -650.61882364215319 0 0 0 0 -135.20565651411016 937.65372956928434 0 937.65372956928434 -1708.2440181409675 0 0 0 0 114.79701317449508 520.07350040608117 0 520.07350040608117 -1017.0755015306556 0 0 0 0 147.92411314750643 550.09042280294034 0 550.09042280294034 -1173.6520740746946 0 0 0 0 232.83187083854864 429.30398669738452 0 429.30398669738452 -1088.0692200302344 0 0 0 0 413.5762578490976 347.724563349135 0 347.724563349135 -1386.7862818589326 0 0 0 0 254.99165829442427 -150.86876735696126 0 -150.86876735696126 -642.93638881893094 0 0 0 0 95.519554831771529 128.63830212474204 0 128.63830212474204 213.58971443398497 0 0 0 0 -1753.358328688395 -519.79212569322158 0 -519.79212569322158 887.35397089722244 0 0 0 0 -6.9709658422214886 10.505230818505204 0 10.505230818505204 -12.39398514992001 0 0 0 0 -840.83956723775191 529.24653501204239 0 529.24653501204239 682.06491506428802 0 0 0 0 231.42175225978281 16.264063010116843 0 16.264063010116843 -1821.5038707105678 0 0 0 0 -834.94388053459988 622.47781629512986 0 622.47781629512986 99.966196961954154 0 0 0 0 -175.08775222288568 587.36917431795337 0 587.36917431795337 -27.984570619669512 0 0 0 0 -390.5949999860768 53.737947983496639 0 53.737947983496639 -345.45036646602625 0 0 0 0 -61.724555421089462 402.9964891588711 0 402.9964891588711 -120.87447532434646 0 0 0 0 -51.953868952929042 354.82112391587879 0 354.82112391587879 -55.547551308023145 0 0 0 0 -79.166700544530613 438.11635085411984 0 438.11635085411984 -23.432455408781891 0 0 0 0 359.02240815208643 260.28662052542211 0 260.28662052542211 -604.01244365988441 0 0 0 0 -95.063071031108848 356.06119546142378 0 356.06119546142378 37.01155822542205 0 0 0 0 -60.460111852458795 264.58513409783433 0 264.58513409783433 16.413635841696987 0 0 0 0 -101.09084430665825 335.72458673120059 0 335.72458673120059 63.40083171029795 0 0 0 0 -72.042520226183115 208.27605210117889 0 208.27605210117889 194.89332450617798 0 0 0 0 -55.253115883888313 63.019629272051702 0 63.019629272051702 291.53281091241843 0 0 0 0 233.45298367058422 -653.78774733468936 0 -653.78774733468936 -761.71991998002704 0 0 0 0 -97.078408027475234 389.49601330050058 0 389.49601330050058 -46.664419986607413 0 0 0 0 -0.62910708252384495 4.4633889953160519 0 4.4633889953160519 -15.7704663136563 0 0 0 0 1675.266500458878 -129.88476918650599 0 -129.88476918650599 -1277.3940664844945 0 0 0 0 1592.7091154911614 85.424598879977566 0 85.424598879977566 -1646.6778839408526 0 0 0 0 352.75581947163482 503.62084503444817 0 503.62084503444817 -158.7344065227262 0 0 0 0 573.66100472246762 576.36029091168461 0 576.36029091168461 -1.6648302184357817 0 0 0 0 182.99066715009394 604.2137242234985 0 604.2137242234985 192.05565701995147 0 0 0 0 -12.537573110713396 20.465330633074508 0 20.465330633074508 -22.449553050959757 0 0 0 0 146.99164466571528 22.312993541491323 0 22.312993541491323 -108.86696229991458 0 0 0 0 -26.987650245050645 193.17420673898113 0 193.17420673898113 236.86907608729962 0 0 0 0 147.71213180713039 18.285568368646636 0 18.285568368646636 -171.45084410358322 0 0 0 0 21.135371762909926 523.86030621296231 0 523.86030621296231 461.94042870258272 0 0 0 0 -7.8901226436454976 15.039422653699233 0 15.039422653699233 -17.593676197471421 0 0 0 0 233.16842974625433 72.629938036396311 0 72.629938036396311 64.328500713816538 0 0 0 0 123.76655835951897 103.39849860103095 0 103.39849860103095 -603.39040964554624 0 0 0 0 -37.935629532526946 479.43031784930463 0 479.43031784930463 -398.08296465582134 0 0 0 0 296.95385257448652 195.08685405302322 0 195.08685405302322 -624.81389748367178 0 0 0 0 280.34382661859854 103.92737498103588 0 103.92737498103588 -567.34386817022278 0 0 0 0 323.38818906535016 306.39774792195021 0 306.39774792195021 -1031.1446926500157 0 0 0 0 149.28551523459464 260.93995193083038 0 260.93995193083038 -1009.9721226494512 0 0 0 0 270.80543539511564 253.50814702462139 0 253.50814702462139 -1307.0918560026475 0 0 0 0 -69.831031901681854 391.52416715962818 0 391.52416715962818 -921.84385213462701 0 0 0 0 -43.123617711884435 143.91408430593992 0 143.91408430593992 -1297.0886962014501 0 0 0 0 -267.43521189423382 -69.891470477445651 0 -69.891470477445651 -2092.2735753620636 0 0 0 0 -805.4594641935546 981.50489054925674 0 981.50489054925674 -1172.7757192149579 0 0 0 0 -429.51275656575706 186.31307711845525 0 186.31307711845525 -351.07141290442814 0 0 0 0 -526.0674817472609 406.48007627972311 0 406.48007627972311 -75.308411007582436 0 0 0 0 -435.26051599371141 589.86454952823169 0 589.86454952823169 -597.82679066396304 0 0 0 0 -107.64049220619927 115.81334718192284 0 115.81334718192284 -186.28249599597802 0 0 0 0 -364.91851968150149 338.04462645671174 0 338.04462645671174 152.020606646739 0 0 0 0 -256.76425105478847 110.37657137045426 0 110.37657137045426 434.51074123518021 0 0 0 0 27.926588299468676 129.62978363174253 0 129.62978363174253 261.51849773071626 0 0 0 0 -238.86248156256988 82.24669352909018 0 82.24669352909018 353.22609477861624 0 0 0 0 -326.0067032363977 22.187826222742729 0 22.187826222742729 227.50033847962186 0 0 0 0 -189.2019045605266 132.9080825264864 0 132.9080825264864 316.95837107851548 0 0 0 0 193.81254661902494 -15.326256493607616 0 -15.326256493607616 171.76772722352689 0 0 0 0 -217.55596218983101 -74.922684784634271 0 -74.922684784634271 343.51611335533198 0 0 0 0 -11.348963395852479 189.44540633872384 0 189.44540633872384 326.28794168167315 0 0 0 0 4.6167662996523973 12.243834016676502 0 12.243834016676502 38.560616344431459 0 0 0 0 106.95217125565796 -58.437525189050575 0 -58.437525189050575 276.05690222782687 0 0 0 0 -44.295090523046383 50.740500596532002 0 50.740500596532002 23.585703686891748 0 0 0 0 -0.0092509542128035825 25.597855748917571 0 25.597855748917571 2.8172680094098723 0 0 0 0 -673.28870441426989 -301.12014590562285 0 -301.12014590562285 1232.5820434645548 0 0 0 0 -0.090530512810801156 25.507712344864558 0 25.507712344864558 2.72169699315873 0 0 0 0 523.55075445839611 -859.6419875933525 0 -859.6419875933525 358.80656202185855 0 0 0 0 1.9336353986704182 3.977998189162804 0 3.977998189162804 12.001751098505693 0 0 0 0 -466.85566135770932 -220.66699894794965 0 -220.66699894794965 367.88303080134301 0 0 0 0 -509.624980888344 456.20494799219477 0 456.20494799219477 -203.33829931350874 0 0 0 0 -647.69324013731421 154.08164910375137 0 154.08164910375137 -568.52484382866533 0 0 0 0 -1112.3011947461637 1594.2711093107537 0 1594.2711093107537 -1492.9270545899653 0 0 0 0 -583.23797074660251 370.85761801527224 0 370.85761801527224 -812.2033759369051 0 0 0 0 5.4321255295508308 1127.6213941501501 0 1127.6213941501501 -267.14364209471751 0 0 0 0 1048.7221956272188 913.08428942887781 0 913.08428942887781 385.40497254948605 0 0 0 0 1496.5047886407901 431.08816938882444 0 431.08816938882444 -98.669456002916831 0 0 0 0 618.54583504501352 -234.11525897159208 0 -234.11525897159208 -105.74229535377913 0 0 0 0 -168.82589088271425 -32.207218055618938 0 -32.207218055618938 264.86707911561189 0 0 0 0 2207.0276319883887 251.45916624301847 0 251.45916624301847 25.709621530641527 0 0 0 0 8.5674172606061276 8.7517025548187704 0 8.7517025548187704 12.492477557358416 0 0 0 0 -257.70280031449147 506.11426349497498 0 506.11426349497498 1122.0128638005606 0 0 0 0 2068.2013347583684 1313.2279963627664 0 1313.2279963627664 377.26512577779886 0 0 0 0 1019.8617587389235 1365.1569952937348 0 1365.1569952937348 1406.9105774657512 0 0 0 0 794.49360178094321 957.27991269041559 0 957.27991269041559 670.65335646590938 0 0 0 0 720.57679246233602 1031.2887148293623 0 1031.2887148293623 778.85817294576077 0 0 0 0 793.87066922038412 985.35885460017892 0 985.35885460017892 539.33353601964336 0 0 0 0 921.6399623286743 1121.8898826750928 0 1121.8898826750928 623.68575196387087 0 0 0 0 1103.6522353019209 904.04569426478201 0 904.04569426478201 248.90137262902044 0 0 0 0 693.55134713884036 689.03841273528587 0 689.03841273528587 287.68374325051445 0 0 0 0 846.67664484768102 844.74609972068356 0 844.74609972068356 415.33445694212696 0 0 0 0 803.33476607930061 974.27504566258949 0 974.27504566258949 440.67995656515404 0 0 0 0 813.07965821507969 920.25994858661352 0 920.25994858661352 465.1108386329588 0 0 0 0 824.71417909077672 956.67401101932808 0 956.67401101932808 513.38610375746975 0 0 0 0 820.41607732332534 893.34005489949232 0 893.34005489949232 520.37400489753236 0 0 0 0 677.01478427711845 870.57776976850391 0 870.57776976850391 636.66161551889172 0 0 0 0 700.11414442245223 867.38552247421285 0 867.38552247421285 630.70966406113803 0 0 0 0 722.76046189531917 966.634703366959 0 966.634703366959 973.05261711965431 0 0 0 0 464.39618833309214 760.03640316601627 0 760.03640316601627 832.22107669809611 0 0 0 0 493.27054148892057 662.72159034481865 0 662.72159034481865 611.33803771269413 0 0 0 0 649.29797344926192 679.72928047909863 0 679.72928047909863 397.62546495462152 0 0 0 0 554.70428452024316 767.87592407749162 0 767.87592407749162 635.19720685025459 0 0 0 0 724.65451280547131 809.81368297017025 0 809.81368297017025 622.13169640913839 0 0 0 0 261.94601060928835 489.35909559227548 0 489.35909559227548 750.28546920346753 0 0 0 0 286.28083509799035 72.890783216263571 0 72.890783216263571 51.021985284071889 0 0 0 0 -5.8416379545807899 5.2348605994071313 0 5.2348605994071313 -3.7279812281547127 0 0 0 0 20.342152027440363 8.5058209393577222 0 8.5058209393577222 -11.955203213527902 0 0 0 0 -85.449485786930381 397.77376753460396 0 397.77376753460396 -44.972483753473171 0 0 0 0 100.61750630762253 57.417733759383736 0 57.417733759383736 262.90072662616876 0 0 0 0 0.19236385240219533 257.18187712719237 0 257.18187712719237 574.50467099186608 0 0 0 0 474.02421037393287 275.76896386072872 0 275.76896386072872 181.01385533838948 0 0 0 0 367.58278637000694 127.84475299600808 0 127.84475299600808 89.294621358842051 0 0 0 0 274.18504635148565 359.91216920553234 0 359.91216920553234 325.63099582292125 0 0 0 0 430.03515228052493 434.50521612873831 0 434.50521612873831 361.10721956647649 0 0 0 0 797.62540830027137 580.81591507702205 0 580.81591507702205 160.85452178077549 0 0 0 0 592.3629668548856 260.96717653154894 0 260.96717653154894 28.277699613262484 0 0 0 0 229.60752938287624 250.91026136100118 0 250.91026136100118 133.75822700623939 0 0 0 0 392.61822477831447 243.75398683365984 0 243.75398683365984 75.107288116361133 0 0 0 0 387.96406687472336 26.516733903215936 0 26.516733903215936 59.61270529564581 0 0 0 0 262.9004421740101 216.27828187393197 0 216.27828187393197 42.36601999573395 0 0 0 0 81.557223669704399 26.275538687414155 0 26.275538687414155 70.29637209745124 0 0 0 0 -27.197410029693856 71.817710131905187 0 71.817710131905187 115.82086474069547 0 0 0 0 11.020171506839688 55.969053060548049 0 55.969053060548049 9.3455612307061529 0 0 0 0 258.52942608857848 48.441933556879121 0 48.441933556879121 -51.845027535057852 0 0 0 0 13.664213346492033 28.580511992362517 0 28.580511992362517 21.810469599008002 0 0 0 0 -175.85284478473477 1.1313233406253858 0 1.1313233406253858 144.91906833562825 0 0 0 0 -114.26574164394697 -85.908146178577226 0 -85.908146178577226 23.181405920173972 0 0 0 0 177.72113157655986 225.4231956291751 0 225.4231956291751 47.420469449984012 0 0 0 0 -190.64335121764452 27.254289752627301 0 27.254289752627301 151.48846000112098 0 0 0 0 -53.062654468754772 198.91744601196751 0 198.91744601196751 100.59288546679682 0 0 0 0 64.635781202650833 -13.786415399702491 0 -13.786415399702491 39.032462992319779 0 0 0 0 28.656134104635768 29.304097135710716 0 29.304097135710716 -9.2801299918836335 0 0 0 0 -24.206516952048062 33.058349484972808 0 33.058349484972808 -3.2310423655662319 0 0 0 0 -12.635353807884101 18.781787467012812 0 18.781787467012812 4.0831911801519682 0 0 0 0 -37.724814315908588 -70.485815105394522 0 -70.485815105394522 -79.421349487425687 0 0 0 0 -21.945620426005917 62.874319491224014 0 62.874319491224014 57.606613732035839 0 0 0 0 -37.31743716566416 71.337896839414498 0 71.337896839414498 -14.811163347638285 0 0 0 0 -39.733962703594443 59.599451862577553 0 59.599451862577553 11.234316945625324 0 0 0 0 -25.168663186312187 38.932010500956494 0 38.932010500956494 -11.167739235232148 0 0 0 0 21.892711975370418 34.138272297854051 0 34.138272297854051 -4.0121401043041516 0 0 0 0 -175.69853515703289 141.21096471074816 0 141.21096471074816 -77.021683946531994 0 0 0 0 -222.15977492432285 227.88535367541863 0 227.88535367541863 -11.678859644267504 0 0 0 0 -514.66259085328784 917.55480606328274 0 917.55480606328274 -379.13857467141054 0 0 0 0 -306.13897490111412 137.00593012180798 0 137.00593012180798 -441.30375648338816 0 0 0 0 -8.6935824722846462 5.4305803558530616 0 5.4305803558530616 -1.1541101577702886 0 0 0 0 35.148564797476865 61.110543753286038 0 61.110543753286038 149.40362959554113 0 0 0 0 -615.41003914324392 411.58470200379088 0 411.58470200379088 -27.981601180481448 0 0 0 0 -129.99146077067417 207.12746841428634 0 207.12746841428634 -18.934632545050135 0 0 0 0 3.6253278140921168 8.2943109490457907 0 8.2943109490457907 12.994332572668696 0 0 0 0 -62.647237496981688 61.273708964826653 0 61.273708964826653 -27.67168193966182 0 0 0 0 426.67764456535224 0.23498738381567819 0 0.23498738381567819 -972.8920779672444 0 0 0 0 12.437412159063328 28.193011748571777 0 28.193011748571777 29.326856708926044 0 0 0 0 -140.97923275561516 161.41471435184562 0 161.41471435184562 85.300722316457723 0 0 0 0 -16.530972254720837 3.0618492749094912 0 3.0618492749094912 -82.814966314591402 0 0 0 0 -51.577414197114379 71.99233973503452 0 71.99233973503452 13.874899062323607 0 0 0 0 15.545751503766951 247.66930685900752 0 247.66930685900752 13.303416997208842 0 0 0 0 -0.71968501308583654 199.65894840399596 0 199.65894840399596 27.057093667371646 0 0 0 0 15.926829562813509 193.85540088014204 0 193.85540088014204 -89.733863234929231 0 0 0 0 10.149483859044267 219.05490093453182 0 219.05490093453182 -51.502664088748134 0 0 0 0 -12.181285804224899 181.46897081798306 0 181.46897081798306 -95.936498878819293 0 0 0 0 -31.659178120578872 176.66160805881736 0 176.66160805881736 14.673379108880908 0 0 0 0 -39.463134904275648 175.57861440523993 0 175.57861440523993 14.654625719065734 0 0 0 0 -31.535778462966846 184.95841310090873 0 184.95841310090873 -48.271519070167415 0 0 0 0 -69.409856203623349 160.34436108190857 0 160.34436108190857 8.4297426004122826 0 0 0 0 -58.028325388018857 184.00199684961444 0 184.00199684961444 -46.455596072752087 0 0 0 0 -8.9436980133941688 194.50893840321805 0 194.50893840321805 -104.80600806840084 0 0 0 0 -34.747601446055342 194.7042906355473 0 194.7042906355473 -102.92631408466332 0 0 0 0 -67.779920157365268 159.21165420428952 0 159.21165420428952 -109.47084330753603 0 0 0 0 -132.6744553893659 197.89574414386152 0 197.89574414386152 -27.945223030088528 0 0 0 0 -74.799369994900189 202.73749368600329 0 202.73749368600329 -32.280260052193626 0 0 0 0 -56.195629530659062 147.36372971929632 0 147.36372971929632 9.6005021608580137 0 0 0 0 192.6247680951783 -380.69285498391218 0 -380.69285498391218 -54.692424127802212 0 0 0 0 -48.427016510839167 112.06330749202334 0 112.06330749202334 80.010892195394263 0 0 0 0 -61.925604852993274 102.49756636010352 0 102.49756636010352 118.70106248329103 0 0 0 0 -43.568725767661817 164.13846574811032 0 164.13846574811032 7.7035629697893455 0 0 0 0 -55.002652137976838 166.25381240674869 0 166.25381240674869 107.25131402983243 0 0 0 0 -87.632569822060759 130.00877229647813 0 130.00877229647813 183.62459533719448 0 0 0 0 -49.800153096221038 231.04287213616772 0 231.04287213616772 231.27963381138397 0 0 0 0 -30.148536992288427 223.66910618415204 0 223.66910618415204 134.03640004938279 0 0 0 0 -244.38861428381642 61.586428151471409 0 61.586428151471409 316.90854953586359 0 0 0 0 80.025760864693439 62.862121104286416 0 62.862121104286416 -102.77449861733567 0 0 0 0 -26.813234526633721 13.947939514074761 0 13.947939514074761 -10.634139447367435 0 0 0 0 -48.773608074204247 42.295591447330509 0 42.295591447330509 -22.748022989510169 0 0 0 0 -213.63739065824484 -164.40398543336971 0 -164.40398543336971 183.34251354795924 0 0 0 0 36.854165629541967 11.996479070770874 0 11.996479070770874 35.772630300908077 0 0 0 0 124.05924217030406 62.898092346800695 0 62.898092346800695 8.8490488854108662 0 0 0 0 124.13338954751704 -73.735953967524978 0 -73.735953967524978 -50.285720112891795 0 0 0 0 -39.661810233999859 -123.00852293567459 0 -123.00852293567459 -17.766491128228608 0 0 0 0 -29.495987165631959 -120.72965421831077 0 -120.72965421831077 -44.112956113987821 0 0 0 0 72.442080763881677 104.52003669736291 0 104.52003669736291 133.21094753244665 0 0 0 0 33.37787537139593 -50.770373593719569 0 -50.770373593719569 -483.28630577913123 0 0 0 0 -209.31053163312754 -94.43824685274285 0 -94.43824685274285 -9.0485207482714713 0 0 0 0 -794.9919882774725 -84.060181640601925 0 -84.060181640601925 -295.89634035492782 0 0 0 0 -150.14825255132018 59.852092340032641 0 59.852092340032641 -289.3941565689006 0 0 0 0 -302.46681684686337 395.37191102988754 0 395.37191102988754 -111.91620080080975 0 0 0 0 -185.61431288447056 -135.04579774176091 0 -135.04579774176091 -18.130598296008429 0 0 0 0 -444.58986295678551 38.659295118248565 0 38.659295118248565 42.331984281547193 0 0 0 0 -70.468512733146781 -137.04566693556535 0 -137.04566693556535 -53.720322814795963 0 0 0 0 35.939429599646246 85.462105012236862 0 85.462105012236862 46.886382273941365 0 0 0 0 -16.009432233346161 -102.42188506058392 0 -102.42188506058392 -57.341918963039916 0 0 0 0 -184.94257900137745 71.888256630538592 0 71.888256630538592 351.21370905693595 0 0 0 0 7.9122250102373073 162.69724521875651 0 162.69724521875651 -15.842055706857082 0 0 0 0 486.49458088609026 751.79055530153971 0 751.79055530153971 288.30969109518628 0 0 0 0 150.08118453076531 659.15925301556445 0 659.15925301556445 660.49819701651904 0 0 0 0 142.98450545250819 303.55604047800551 0 303.55604047800551 -155.45807620342021 0 0 0 0 348.37997120387445 965.10521724791772 0 965.10521724791772 441.47328738867554 0 0 0 0 446.34396523008672 1193.1998903656306 0 1193.1998903656306 512.56468215817529 0 0 0 0 -24.983933905823505 -34.772526790650673 0 -34.772526790650673 -1256.6218691305696 0 0 0 0 126.62756670434464 366.34794139306052 0 366.34794139306052 -219.50814900933807 0 0 0 0 105.997909176549 344.06198397402727 0 344.06198397402727 -25.75116714092001 0 0 0 0 375.1013818727879 1121.2745625371699 0 1121.2745625371699 -189.29782918616556 0 0 0 0 145.03311437553566 801.99168956704546 0 801.99168956704546 -50.164378182099767 0 0 0 0 -4.6816307478875387 1199.1229024377944 0 1199.1229024377944 -869.48898031115687 0 0 0 0 193.69324643337313 1005.6997015612272 0 1005.6997015612272 58.2393262312887 0 0 0 0 420.93794031511061 617.46778152168486 0 617.46778152168486 -137.07953205160777 0 0 0 0 559.76752091251547 1358.2034725361577 0 1358.2034725361577 150.75984807272883 0 0 0 0 152.55109881997487 1521.4500210511005 0 1521.4500210511005 913.05189756512971 0 0 0 0 319.28908171569492 1829.3689010061994 0 1829.3689010061994 1447.1933795406915 0 0 0 0 217.0265558456158 1359.4657865068871 0 1359.4657865068871 809.13742804386015 0 0 0 0 1390.3473970550913 1719.2244533577525 0 1719.2244533577525 329.41711614281786 0 0 0 0 937.57966176578338 693.63006122026763 0 693.63006122026763 -279.46528524471887 0 0 0 0 416.23659350771777 1166.482659787024 0 1166.482659787024 648.60638337854073 0 0 0 0 790.21476639785033 982.62792330296554 0 982.62792330296554 566.26510347707062 0 0 0 0 273.50440093767975 1394.5483986572867 0 1394.5483986572867 514.17456222276383 0 0 0 0 365.68369484718642 1164.8512439569263 0 1164.8512439569263 962.11171352535621 0 0 0 0 70.748120682375884 1327.6221889481635 0 1327.6221889481635 972.18462742726592 0 0 0 0 991.03874235402691 717.82604822533631 0 717.82604822533631 998.05164747437937 0 0 0 0 1328.4088989422198 1208.095058081665 0 1208.095058081665 573.32033187593697 0 0 0 0 924.28267475574376 1100.3370231192291 0 1100.3370231192291 567.51674994417635 0 0 0 0 879.03019676678741 1171.1781143377832 0 1171.1781143377832 501.22645656960498 0 0 0 0 1403.1007464665308 1301.7709864891774 0 1301.7709864891774 496.71424339388489 0 0 0 0 1020.0391434317607 795.16457232186167 0 795.16457232186167 622.48161516038022 0 0 0 0 1609.7979575537479 563.10207624403665 0 563.10207624403665 621.82516932755379 0 0 0 0 554.88924939494518 1033.5400643671148 0 1033.5400643671148 701.67604969929062 0 0 0 0 1682.6411266632858 1678.818482538288 0 1678.818482538288 997.13990592198752 0 0 0 0 474.419611963438 662.57732849573677 0 662.57732849573677 888.23347154166231 0 0 0 0 735.71011192747392 827.57248229254151 0 827.57248229254151 753.74689272422847 0 0 0 0 817.76500930273687 591.97487212162571 0 591.97487212162571 1421.5979960454833 0 0 0 0 933.84375982501297 883.20822660292777 0 883.20822660292777 546.45735262912831 0 0 0 0 365.06549114597976 695.45432781988188 0 695.45432781988188 655.46176752651945 0 0 0 0 617.53768584787758 565.93744266270346 0 565.93744266270346 683.45267688832314 0 0 0 0 568.91104676256145 647.17685658972437 0 647.17685658972437 498.7206460580137 0 0 0 0 891.93511055540284 937.75823991898505 0 937.75823991898505 504.08107147235614 0 0 0 0 545.64840663307768 829.60595516183912 0 829.60595516183912 560.16439577111589 0 0 0 0 242.17005653604792 805.76191709286354 0 805.76191709286354 727.10980388393659 0 0 0 0 181.17370459284757 446.7591462676674 0 446.7591462676674 352.99070591305554 0 0 0 0 150.77334858033282 690.86344285326823 0 690.86344285326823 573.77729495811991 0 0 0 0 28.210710100080178 539.45034495003847 0 539.45034495003847 299.20331100442627 0 0 0 0 64.99623440356936 244.342413574912 0 244.342413574912 12.700881236391069 0 0 0 0 -105.32097458955104 442.52996459294513 0 442.52996459294513 361.01829827358461 0 0 0 0 8.5878224778170988 191.37777276745805 0 191.37777276745805 303.79227410685371 0 0 0 0 85.585609236535674 218.10782297163814 0 218.10782297163814 298.24504125190288 0 0 0 0 -0.3002819750064134 2.1663589309789337 0 2.1663589309789337 -0.45610119020616935 0 0 0 0 140.71945424354635 369.4633689016166 0 369.4633689016166 278.48621368784291 0 0 0 0 101.12123706727289 322.39371296286413 0 322.39371296286413 472.49295862007921 0 0 0 0 117.82878882483919 332.54591660017172 0 332.54591660017172 415.22124257605765 0 0 0 0 213.33295555466248 531.69504759452025 0 531.69504759452025 516.7542172044075 0 0 0 0 81.907613312516332 108.42693063144316 0 108.42693063144316 -178.93187959929111 0 0 0 0 -0.86980347701134519 2.616550142300877 0 2.616550142300877 -0.76707747806551407 0 0 0 0 -0.51971404410505784 237.5267847273351 0 237.5267847273351 293.33397559195782 0 0 0 0 35.761255211513344 314.19518533382234 0 314.19518533382234 99.462948846259451 0 0 0 0 -51.306083144177137 146.09850418137853 0 146.09850418137853 94.669959828693209 0 0 0 0 22.727378988665805 321.24170013522075 0 321.24170013522075 334.00679057666639 0 0 0 0 158.14806405906347 445.01101920734243 0 445.01101920734243 335.74307845886142 0 0 0 0 170.50056654880063 472.88509049839081 0 472.88509049839081 351.94152729195912 0 0 0 0 377.61282947909353 471.24846226601312 0 471.24846226601312 507.55341407988362 0 0 0 0 234.06863093467837 565.13393156745815 0 565.13393156745815 713.79073066107162 0 0 0 0 104.37131229697115 419.12176919331296 0 419.12176919331296 487.67192394798349 0 0 0 0 290.52170412649866 513.23262453565144 0 513.23262453565144 443.25088519152303 0 0 0 0 308.6306354004555 609.45115412035148 0 609.45115412035148 487.41438223632014 0 0 0 0 482.43150288090328 701.85222628596966 0 701.85222628596966 570.19034971389942 0 0 0 0 544.97328139307137 818.58194996086172 0 818.58194996086172 584.53482096512653 0 0 0 0 522.50783523065184 843.36322487390885 0 843.36322487390885 614.36859657984814 0 0 0 0 328.67195915599405 644.1178843680666 0 644.1178843680666 471.4108057900562 0 0 0 0 293.12376120001682 571.13915505358682 0 571.13915505358682 620.0426338484815 0 0 0 0 336.10708908240485 646.1487246985298 0 646.1487246985298 454.90764244798777 0 0 0 0 139.58346007882756 455.00172765059278 0 455.00172765059278 427.80904836320633 0 0 0 0 350.22894275236285 647.70374000589231 0 647.70374000589231 336.39036258509532 0 0 0 0 188.12046372724217 490.73253933966771 0 490.73253933966771 315.4495086021002 0 0 0 0 343.78479872475145 657.2528682115767 0 657.2528682115767 322.40986742162568 0 0 0 0 422.05409382973448 746.487420168771 0 746.487420168771 64.16219129982801 0 0 0 0 473.90678519471658 874.2652916656433 0 874.2652916656433 364.69110800817271 0 0 0 0 520.50130073046239 899.62295604698124 0 899.62295604698124 244.19962537749961 0 0 0 0 547.72365210739736 992.87696929926733 0 992.87696929926733 555.58183723755155 0 0 0 0 676.2187533364322 829.51482811744881 0 829.51482811744881 762.86364062271696 0 0 0 0 919.53669499100943 1015.7034633592566 0 1015.7034633592566 594.52588469461989 0 0 0 0 684.23644518954461 936.05057977204933 0 936.05057977204933 522.98266366452572 0 0 0 0 475.01694508046785 818.90823480884001 0 818.90823480884001 498.91385761381196 0 0 0 0 644.86149981348353 770.27473023856919 0 770.27473023856919 445.53121851167271 0 0 0 0 132.80712143237088 454.83875255255703 0 454.83875255255703 124.6190761422522 0 0 0 0 187.80220688511145 449.12491966524271 0 449.12491966524271 23.514515393475449 0 0 0 0 64.750949327537455 537.58932382997227 0 537.58932382997227 6.4312053948541461 0 0 0 0 402.70647263891078 502.07455596984846 0 502.07455596984846 -9.6956990392727675 0 0 0 0 389.0689414604476 599.25911731280712 0 599.25911731280712 24.130972727216431 0 0 0 0 440.23286500588802 700.32492934228117 0 700.32492934228117 177.10968047373353 0 0 0 0 253.92429303095196 525.42370862537928 0 525.42370862537928 181.88425422593846 0 0 0 0 291.54109591204178 480.04109502683423 0 480.04109502683423 144.87693195380871 0 0 0 0 192.15018215219607 397.63982550897435 0 397.63982550897435 76.57464666310284 0 0 0 0 173.19181593465328 403.62971890804965 0 403.62971890804965 227.31873399647725 0 0 0 0 196.80603448456168 479.32720981574926 0 479.32720981574926 329.89200148997361 0 0 0 0 114.67606843787507 347.63093475978985 0 347.63093475978985 258.20672035907796 0 0 0 0 169.75872655992407 394.14749495666643 0 394.14749495666643 219.41897169761569 0 0 0 0 158.95277854486085 384.07645377871222 0 384.07645377871222 159.97241737011745 0 0 0 0 201.3771139140199 350.50660796333852 0 350.50660796333852 158.74250552606964 0 0 0 0 174.60522372433252 397.25080396359192 0 397.25080396359192 119.65278920829132 0 0 0 0 295.84540269855643 301.18416993671872 0 301.18416993671872 158.00563180634271 0 0 0 0 148.07405332468261 322.22396392206701 0 322.22396392206701 199.03781954074157 0 0 0 0 153.07551627107023 313.96039022223795 0 313.96039022223795 200.63572629754481 0 0 0 0 207.57538445664795 292.97132243460101 0 292.97132243460101 135.26944547485027 0 0 0 0 233.78352108568197 331.72272086485407 0 331.72272086485407 156.5951843780108 0 0 0 0 144.55871063955055 358.23736061979594 0 358.23736061979594 234.87126089540152 0 0 0 0 88.331443671966554 374.08719379360537 0 374.08719379360537 317.77313226917613 0 0 0 0 116.49153382370787 258.29776300971525 0 258.29776300971525 116.24943071082043 0 0 0 0 125.40953408775385 341.61659098690711 0 341.61659098690711 128.35016379207627 0 0 0 0 39.944956060069671 320.48553141118737 0 320.48553141118737 243.30003854316277 0 0 0 0 171.15148319989748 327.98703450285802 0 327.98703450285802 71.791155075669167 0 0 0 0 186.02076951629988 306.84377228122338 0 306.84377228122338 49.298643943257048 0 0 0 0 185.33834595271401 240.46334441957288 0 240.46334441957288 -515.66420803209303 0 0 0 0 -0.45050636022274659 1.0166036201441582 0 1.0166036201441582 -0.45771222575837722 0 0 0 0 251.16079417186484 371.78023996256877 0 371.78023996256877 -100.3323130116853 0 0 0 0 242.45544219167095 435.97115163558647 0 435.97115163558647 60.341221143517259 0 0 0 0 169.67171435133059 314.88125392885786 0 314.88125392885786 156.80604657864501 0 0 0 0 236.81909044634631 440.27847948093199 0 440.27847948093199 277.44520727729196 0 0 0 0 160.36329728779492 599.87810976399896 0 599.87810976399896 148.12058614160583 0 0 0 0 264.96727200642272 360.66255744914838 0 360.66255744914838 173.85536387661023 0 0 0 0 255.36073564224534 345.005587100811 0 345.005587100811 327.62710366738929 0 0 0 0 232.80051493699284 527.27073165413822 0 527.27073165413822 514.48921144199403 0 0 0 0 1321.1702740524779 302.74113869592884 0 302.74113869592884 439.60136772996384 0 0 0 0 559.01560240784875 342.80504433920851 0 342.80504433920851 322.21105273773037 0 0 0 0 586.6758705637385 243.3691088890323 0 243.3691088890323 627.58787557254709 0 0 0 0 397.64644934546595 207.4149835520825 0 207.4149835520825 458.67903699945293 0 0 0 0 449.97851317382447 218.43149972607216 0 218.43149972607216 145.12770882293262 0 0 0 0 427.47701596866318 201.22766148148867 0 201.22766148148867 370.41493985283228 0 0 0 0 528.62274021868507 175.49175825024645 0 175.49175825024645 84.653329913731341 0 0 0 0 398.5035066190103 247.58688287436507 0 247.58688287436507 131.25042325680556 0 0 0 0 399.72819515756419 238.28466048407154 0 238.28466048407154 118.96518752735801 0 0 0 0 255.39766180660081 291.66499212844064 0 291.66499212844064 226.22710610593731 0 0 0 0 362.88404387538867 199.08601595070195 0 199.08601595070195 290.92011746527442 0 0 0 0 278.89938036009335 301.67909447562488 0 301.67909447562488 166.0100526755466 0 0 0 0 -16.542744238087209 90.895705322861147 0 90.895705322861147 -8.730336872648877 0 0 0 0 -29.66968442939833 68.333404235621856 0 68.333404235621856 56.278958068356587 0 0 0 0 -35.501875875297131 38.190480858260258 0 38.190480858260258 -16.563287566388087 0 0 0 0 -26.116953972583815 20.267616164902961 0 20.267616164902961 50.122230931204285 0 0 0 0 -3.4967352754342755 64.545409557902531 0 64.545409557902531 -15.582705736015214 0 0 0 0 -13.662792426665192 62.412936458033982 0 62.412936458033982 -13.963515818098131 0 0 0 0 -18.830755639243307 60.909740650642561 0 60.909740650642561 -1.1910138818902851 0 0 0 0 -6.3296988264205538 64.425779623913058 0 64.425779623913058 -1.4957338682236241 0 0 0 0 -5.0248876148341246 28.931018302065937 0 28.931018302065937 -13.442598116453819 0 0 0 0 12.36239677924641 27.535022174489484 0 27.535022174489484 -17.728828208329105 0 0 0 0 14.954937772204929 18.50740523656934 0 18.50740523656934 -37.618551427417323 0 0 0 0 2.4251526990399697 20.550911929918311 0 20.550911929918311 -20.756982651731029 0 0 0 0 430.56076310533535 639.47543643788958 0 639.47543643788958 632.37782627386139 0 0 0 0 470.59634076557268 658.91793371510903 0 658.91793371510903 634.51059025902578 0 0 0 0 584.33860610613192 556.14301575843501 0 556.14301575843501 353.37007770544733 0 0 0 0 -12.058194685783006 15.048903322496425 0 15.048903322496425 8.5506906889671477 0 0 0 0 489.23338850888831 864.50639085464081 0 864.50639085464081 328.32937684488422 0 0 0 0 504.95736306691833 775.36004522464555 0 775.36004522464555 544.00550155273959 0 0 0 0 531.06802429200616 722.2570224952342 0 722.2570224952342 515.20403174903186 0 0 0 0 768.44970168019063 734.24389822221201 0 734.24389822221201 544.31991168387685 0 0 0 0 527.77556905502934 759.97361961331899 0 759.97361961331899 731.73525569822959 0 0 0 0 605.69036498116839 714.69972301087182 0 714.69972301087182 737.30323075177159 0 0 0 0 6.5842845627303177 72.262537254321614 0 72.262537254321614 -231.87993821533018 0 0 0 0 427.44111086051328 797.25081172347814 0 797.25081172347814 1177.9178819062363 0 0 0 0 25.737675627196836 -3.1383567922750757 0 -3.1383567922750757 -14.985971397207411 0 0 0 0 -2.3350521413740353 97.694874769083981 0 97.694874769083981 -156.15108438072821 0 0 0 0 -56.214680218865396 36.10833280350198 0 36.10833280350198 -169.56049972400251 0 0 0 0 8.7656522268504062 -2.325427357339457 0 -2.325427357339457 -0.75455121756463939 0 0 0 0 93.989624484238448 -202.35655789816064 0 -202.35655789816064 -116.21395371720018 0 0 0 0 1367.6642247889431 930.3648770470968 0 930.3648770470968 689.02725129484497 0 0 0 0 796.72271928454757 1120.6767917857892 0 1120.6767917857892 1546.7245077460429 0 0 0 0 847.91060366501915 570.99238712101555 0 570.99238712101555 442.43392183870947 0 0 0 0 666.95387068404671 569.4403968257011 0 569.4403968257011 694.41875070491017 0 0 0 0 545.78384542473941 361.11118064346192 0 361.11118064346192 332.5338156320995 0 0 0 0 383.05865959399307 372.73894899644483 0 372.73894899644483 373.13647907434643 0 0 0 0 425.75715394168037 390.04522055096436 0 390.04522055096436 304.4267083573086 0 0 0 0 105.20671017710629 743.39190854862863 0 743.39190854862863 833.29370681413457 0 0 0 0 181.98894324688445 421.14848607240265 0 421.14848607240265 430.40717185776521 0 0 0 0 500.67302442225991 686.53960956531091 0 686.53960956531091 538.570765710655 0 0 0 0 565.32826916064869 647.71643542019467 0 647.71643542019467 560.50445508202392 0 0 0 0 496.37530402690732 847.4156049424015 0 847.4156049424015 470.66181859017888 0 0 0 0 1142.740872739465 1065.7546666206044 0 1065.7546666206044 560.72936566786939 0 0 0 0 537.25322044588484 728.58552442241876 0 728.58552442241876 375.02340797313445 0 0 0 0 47.963509721401351 683.37709483761 0 683.37709483761 465.00523168627478 0 0 0 0 474.16263259862171 959.02016122844634 0 959.02016122844634 607.26776899465949 0 0 0 0 333.51352618249803 1012.1914836109772 0 1012.1914836109772 1144.8038750051046 0 0 0 0 -268.18265772866033 379.13999672133571 0 379.13999672133571 475.73987054596 0 0 0 0 1133.6598273524578 341.20142212296287 0 341.20142212296287 49.139092276189331 0 0 0 0 779.24869661010962 110.87836681235058 0 110.87836681235058 -52.111062486347691 0 0 0 0 0.58869326832629554 15.449653494444462 0 15.449653494444462 9.4137919702548487 0 0 0 0 -2551.8118531404743 2155.8044051725906 0 2155.8044051725906 -648.55023733456937 0 0 0 0 163.79928452768945 1873.7407435387352 0 1873.7407435387352 142.42146491496101 0 0 0 0 -332.64711088204967 -18.756880006848405 0 -18.756880006848405 820.32671469368938 0 0 0 0 -313.14871172501444 420.76876199922594 0 420.76876199922594 -436.11112215097398 0 0 0 0 296.27763877190046 215.47973529028047 0 215.47973529028047 -478.67330436987731 0 0 0 0 133.48688502100049 144.09036471145146 0 144.09036471145146 252.51305020691535 0 0 0 0 450.82927358685902 83.797469738862219 0 83.797469738862219 -353.98110263009858 0 0 0 0 264.24496221999243 229.29191784616961 0 229.29191784616961 -329.8192606764087 0 0 0 0 126.21151819399165 604.20114165139466 0 604.20114165139466 -459.5944574001287 0 0 0 0 168.29819269329346 724.78076740093275 0 724.78076740093275 -365.80471168306599 0 0 0 0 -276.39966072790958 1141.8351027402291 0 1141.8351027402291 -1144.8983017581681 0 0 0 0 269.44150809910116 152.61066572818891 0 152.61066572818891 -929.80330567274177 0 0 0 0 -566.10375257990836 -181.01527776668007 0 -181.01527776668007 -1762.6097792835878 0 0 0 0 -501.53665480588825 742.99457887149129 0 742.99457887149129 -327.92949787755697 0 0 0 0 -1344.2420963547738 1756.2494452066128 0 1756.2494452066128 -1454.4391123193957 0 0 0 0 -1922.2099119144514 438.82993518971102 0 438.82993518971102 172.5040299170123 0 0 0 0 312.00240617961754 455.4490415592677 0 455.4490415592677 6.0734010585750866 0 0 0 0 308.76836554473857 337.09569892384599 0 337.09569892384599 33.433005351799238 0 0 0 0 540.41117632096757 348.83735900520423 0 348.83735900520423 24.626734960063914 0 0 0 0 483.01235744322912 147.76918267417955 0 147.76918267417955 -47.294939204602315 0 0 0 0 451.60507299784695 208.65081282617166 0 208.65081282617166 72.302675350321124 0 0 0 0 676.83993167714652 358.01815560275691 0 358.01815560275691 -228.14204833366705 0 0 0 0 521.11704719776344 275.54779142832894 0 275.54779142832894 -246.87948407849944 0 0 0 0 529.30084385412556 281.05689591209102 0 281.05689591209102 -171.11333555808778 0 0 0 0 510.07489542117219 390.01449457203375 0 390.01449457203375 -738.6726531527338 0 0 0 0 359.24874030046885 528.71466832459782 0 528.71466832459782 -210.64996958351912 0 0 0 0 578.30589106931984 419.59014974944489 0 419.59014974944489 206.17215178704464 0 0 0 0 515.55040741625453 623.59485541569165 0 623.59485541569165 -449.9097465957484 0 0 0 0 807.28842419861212 333.26578844070082 0 333.26578844070082 -284.64859064520624 0 0 0 0 751.17882664837282 871.24521585524883 0 871.24521585524883 -67.918447811815895 0 0 0 0 121.65966455199487 527.7655992103646 0 527.7655992103646 31.444502704255228 0 0 0 0 1342.7684919363728 221.76755414989543 0 221.76755414989543 -500.98181836582535 0 0 0 0 7.3443451633621208 6.2195615343978972 0 6.2195615343978972 2.4278450476306865 0 0 0 0 -514.62985136105453 1011.2399453995176 0 1011.2399453995176 -56.25421653756689 0 0 0 0 204.32117271068091 262.89963506172262 0 262.89963506172262 -421.29454717842282 0 0 0 0 837.65781870643696 969.79363911600035 0 969.79363911600035 -185.45833775097367 0 0 0 0 247.2093985162337 903.63355474952641 0 903.63355474952641 -283.99590252973849 0 0 0 0 540.42672960488835 672.41056318135315 0 672.41056318135315 -322.09115247463251 0 0 0 0 558.22766615594992 548.21859882101853 0 548.21859882101853 -216.11193023976011 0 0 0 0 327.12603493373172 712.35004454688078 0 712.35004454688078 -324.28314347828388 0 0 0 0 248.18196661974252 542.07421821544563 0 542.07421821544563 2.7322516394360719 0 0 0 0 291.58049540252796 589.0092127227133 0 589.0092127227133 -165.29999717298961 0 0 0 0 280.51812405620512 187.32224775241593 0 187.32224775241593 -205.35022426299565 0 0 0 0 126.75803908177886 400.82676619803897 0 400.82676619803897 209.13143592095184 0 0 0 0 551.31079050918265 412.69116997382116 0 412.69116997382116 -395.89073969603305 0 0 0 0 -965.73975625430649 642.96316261553693 0 642.96316261553693 -275.11196148554427 0 0 0 0 -1.4180435323224501 0.77489102833806855 0 0.77489102833806855 1.1339785144888452 0 0 0 0 -367.5787033764791 818.77588500786669 0 818.77588500786669 -362.05170672053646 0 0 0 0 -957.73384118507238 841.07549908599049 0 841.07549908599049 4.6687965470109702 0 0 0 0 -164.62741805230871 825.7447911031486 0 825.7447911031486 -174.89114812896719 0 0 0 0 -390.25017037014686 949.65258405258487 0 949.65258405258487 -319.11574826886226 0 0 0 0 115.42872985187205 707.54184702255361 0 707.54184702255361 -235.79195494384589 0 0 0 0 217.01876364475902 616.62574604181646 0 616.62574604181646 -81.301812363234603 0 0 0 0 138.29921796724375 644.68450276290241 0 644.68450276290241 -77.113196526867114 0 0 0 0 -121.27224129462866 540.07527143515836 0 540.07527143515836 60.654252483191158 0 0 0 0 -74.092881537100766 452.02270036474965 0 452.02270036474965 118.38490048281619 0 0 0 0 -404.77016679426742 559.12383077174195 0 559.12383077174195 135.14048225810075 0 0 0 0 -380.77637359914661 529.01036285080227 0 529.01036285080227 113.37923044429226 0 0 0 0 -330.67112966079731 250.17220223613185 0 250.17220223613185 167.91343709736975 0 0 0 0 -344.98967172024277 212.23013615528544 0 212.23013615528544 297.73506908970433 0 0 0 0 -197.276215272402 112.48267448388019 0 112.48267448388019 297.79956353844682 0 0 0 0 -560.1118021783077 403.45878717726919 0 403.45878717726919 319.82955314119135 0 0 0 0 -490.15298062485272 240.77164378233374 0 240.77164378233374 662.45895498959089 0 0 0 0 -168.6176428335275 -242.43281479537393 0 -242.43281479537393 1067.8457152987412 0 0 0 0 -154.97432768803628 145.26567549149513 0 145.26567549149513 -502.12308981510614 0 0 0 0 -462.18371030134222 676.41745298889873 0 676.41745298889873 -83.706368928313168 0 0 0 0 -720.4232775623077 315.54684366051151 0 315.54684366051151 2.3753694840925164 0 0 0 0 -291.25612248825018 164.0711872185243 0 164.0711872185243 54.81605797537668 0 0 0 0 -11.465240192435886 439.18762415299284 0 439.18762415299284 14.35962221320915 0 0 0 0 -297.27445018011167 284.8250383193531 0 284.8250383193531 32.758552879507988 0 0 0 0 24.276939148267047 419.28877296041264 0 419.28877296041264 6.2458843724234612 0 0 0 0 64.825104711953827 620.32337175882094 0 620.32337175882094 183.85511892693103 0 0 0 0 129.34942191713344 548.49130606643212 0 548.49130606643212 46.119385284005602 0 0 0 0 94.460225033508323 578.43520085517821 0 578.43520085517821 195.09050844185003 0 0 0 0 90.129145259976212 556.76843106952629 0 556.76843106952629 293.72175654675266 0 0 0 0 156.39686839913793 628.32310323044021 0 628.32310323044021 191.53132710202408 0 0 0 0 163.13945555729151 679.22760709784961 0 679.22760709784961 293.21471779870626 0 0 0 0 112.53670973652152 744.21680594900567 0 744.21680594900567 543.07074051589007 0 0 0 0 167.57502835946252 823.50818070662353 0 823.50818070662353 606.01722207508828 0 0 0 0 72.167677581590397 690.52108533773662 0 690.52108533773662 547.39979437509828 0 0 0 0 -36.717372796885684 584.2926558162726 0 584.2926558162726 387.30462405099388 0 0 0 0 168.34361078990332 711.09494815906146 0 711.09494815906146 147.64186920104203 0 0 0 0 182.2584676909774 531.38914277921367 0 531.38914277921367 803.70908264295213 0 0 0 0 109.1740308406479 818.78835530198012 0 818.78835530198012 511.52256587312149 0 0 0 0 238.38407014645782 493.29631067307673 0 493.29631067307673 370.11679287322113 0 0 0 0 93.422440481634112 498.42866838914279 0 498.42866838914279 -28.586916430558631 0 0 0 0 -114.27693582751817 628.31555316288177 0 628.31555316288177 318.43247916679684 0 0 0 0 229.61150534775697 585.54159882700878 0 585.54159882700878 464.26749384518916 0 0 0 0 398.70657645505526 510.03534119991446 0 510.03534119991446 207.5322346692119 0 0 0 0 235.82094076821886 323.78769371827138 0 323.78769371827138 329.10429584478698 0 0 0 0 337.08894710467393 419.59150152612892 0 419.59150152612892 117.71310666187128 0 0 0 0 193.01026134661652 513.58562179628643 0 513.58562179628643 276.19191146289086 0 0 0 0 337.54186547061363 429.26070945711763 0 429.26070945711763 -12.063312492328805 0 0 0 0 186.47757468231794 568.72122428964212 0 568.72122428964212 -0.51438704013798997 0 0 0 0 136.91125891279898 577.06568411500621 0 577.06568411500621 366.91630782753782 0 0 0 0 159.9752580067252 604.18860584084541 0 604.18860584084541 271.96749568650722 0 0 0 0 167.77061182045509 501.66631757748564 0 501.66631757748564 583.18706327989639 0 0 0 0 172.76720173377726 608.87873900080467 0 608.87873900080467 527.78468862451518 0 0 0 0 53.436222784112033 698.25081527356997 0 698.25081527356997 601.58259205960712 0 0 0 0 36.386086126591181 712.90280261168527 0 712.90280261168527 632.7815724448883 0 0 0 0 17.709929566377014 674.42129927863834 0 674.42129927863834 660.74523470993518 0 0 0 0 368.16907464136239 716.15754083226238 0 716.15754083226238 699.66121446877514 0 0 0 0 176.37275323044514 572.14788387958652 0 572.14788387958652 793.72866112752854 0 0 0 0 378.69272556446231 435.95442756824468 0 435.95442756824468 609.21858498540132 0 0 0 0 494.75685501598855 617.19452353571069 0 617.19452353571069 699.00752483989936 0 0 0 0 596.2847775954624 826.64401859948589 0 826.64401859948589 915.18416557609453 0 0 0 0 1475.2742186779478 1039.6616820549698 0 1039.6616820549698 712.75881920791289 0 0 0 0 1171.2470452984892 1234.8941398420384 0 1234.8941398420384 1376.8561957827351 0 0 0 0 473.52358119440532 817.27510408974831 0 817.27510408974831 794.89818807268421 0 0 0 0 1207.9547770714425 581.27170168442262 0 581.27170168442262 727.79840939158976 0 0 0 0 260.06108328983282 393.76374888430564 0 393.76374888430564 647.96900889216749 0 0 0 0 1144.3599876628978 1234.9797178731758 0 1234.9797178731758 331.34828132218445 0 0 0 0 1019.2112841838825 1380.4579708468032 0 1380.4579708468032 285.68968016881132 0 0 0 0 1514.7778109433184 871.77502434146572 0 871.77502434146572 428.44585043301413 0 0 0 0 1440.0803162203129 826.13471679535292 0 826.13471679535292 559.39853811426474 0 0 0 0 1755.68743309401 562.26632111191975 0 562.26632111191975 611.36068960992998 0 0 0 0 1876.3628161914364 1006.5318155783422 0 1006.5318155783422 275.07109040354226 0 0 0 0 351.83076538269597 1398.5433968367101 0 1398.5433968367101 1043.6851529504947 0 0 0 0 3212.4341518700985 1381.5680915535668 0 1381.5680915535668 710.65407947935819 0 0 0 0 4435.4046835190111 345.45655314346436 0 345.45655314346436 -14.216160079413385 0 0 0 0 -1029.6208869205238 664.56763128056355 0 664.56763128056355 685.18922904516876 0 0 0 0 -1718.7843804966319 118.90318705630386 0 118.90318705630386 598.10359375337066 0 0 0 0 3.6383428535753701 10.494798100131099 0 10.494798100131099 14.187212575398007 0 0 0 0 421.67951962959341 -180.32607805052157 0 -180.32607805052157 54.332808090974368 0 0 0 0 425.81327477965533 348.59520378690377 0 348.59520378690377 -139.96733989628683 0 0 0 0 1530.823255240517 293.56322088614615 0 293.56322088614615 35.714648063731147 0 0 0 0 -918.36295546433121 687.70355788282359 0 687.70355788282359 -144.7931401032547 0 0 0 0 1.4294846540117128 2.4584011624221525 0 2.4584011624221525 -0.90888293710828805 0 0 0 0 294.82772785059024 699.7853139781987 0 699.7853139781987 -18.777722466305022 0 0 0 0 -461.4539552124188 725.35182813160191 0 725.35182813160191 -301.70359798181562 0 0 0 0 -463.69092758714396 546.03788001325483 0 546.03788001325483 -332.93844142407033 0 0 0 0 -911.43971233306729 650.39348534752389 0 650.39348534752389 -346.20668506760012 0 0 0 0 -231.7133704922835 580.809572073867 0 580.809572073867 -523.47577775275749 0 0 0 0 -242.6655839713967 644.54856356851724 0 644.54856356851724 -275.55054533689872 0 0 0 0 -461.47098721470866 900.36042882168113 0 900.36042882168113 -47.155616570281836 0 0 0 0 -475.88026169957448 480.56534064549032 0 480.56534064549032 1.141753264453655 0 0 0 0 -308.45392990878463 644.73273730956771 0 644.73273730956771 30.065654820473696 0 0 0 0 -146.602678723591 963.70949492609475 0 963.70949492609475 303.84959928677017 0 0 0 0 -257.09046872635554 625.63775285162637 0 625.63775285162637 -11.061346320742814 0 0 0 0 497.39840961001028 1243.4328173326121 0 1243.4328173326121 210.15630254457528 0 0 0 0 63.887497778028774 715.63321424055039 0 715.63321424055039 509.12672223343634 0 0 0 0 102.8583812909601 740.20180574221558 0 740.20180574221558 -61.103166640677955 0 0 0 0 696.90504876067189 1084.0074265894896 0 1084.0074265894896 -206.10081327701118 0 0 0 0 692.07903382191489 973.4952548067597 0 973.4952548067597 209.8679135673101 0 0 0 0 291.75691592751537 911.80677006049382 0 911.80677006049382 -2.0727336209492933 0 0 0 0 659.50715106872303 1120.3383584248459 0 1120.3383584248459 -98.695417300926238 0 0 0 0 76.195391864035628 868.46073387897741 0 868.46073387897741 106.11400262181996 0 0 0 0 -175.93697080842867 573.96937839441625 0 573.96937839441625 -96.141538564393159 0 0 0 0 89.274203988406953 862.12700785836478 0 862.12700785836478 22.93249606578047 0 0 0 0 470.54408998937288 1164.9249369857953 0 1164.9249369857953 -16.63557358289404 0 0 0 0 200.01821700711025 992.06024229966465 0 992.06024229966465 50.403151068796433 0 0 0 0 242.03099347559692 933.90603470024189 0 933.90603470024189 -475.29707644373411 0 0 0 0 -214.23381931314771 547.76256254603243 0 547.76256254603243 -110.50176106469644 0 0 0 0 564.58831729546546 1200.6273796694434 0 1200.6273796694434 95.553005250807473 0 0 0 0 626.18416955393695 1009.1996248700725 0 1009.1996248700725 -159.70146334588981 0 0 0 0 893.81449854454331 1483.8130012973427 0 1483.8130012973427 567.02389830517313 0 0 0 0 545.91067986173221 1384.3219106938295 0 1384.3219106938295 2083.3953431717159 0 0 0 0 662.42706620412901 1103.6420854579139 0 1103.6420854579139 -3.2686377324016576 0 0 0 0 550.68434586934382 1057.5669759750631 0 1057.5669759750631 323.33468059853294 0 0 0 0 614.17169151823691 927.50707284660712 0 927.50707284660712 127.83402395136068 0 0 0 0 562.81803200569266 1023.6021210656027 0 1023.6021210656027 -20.351307299308246 0 0 0 0 584.13970349993133 798.82675513160416 0 798.82675513160416 -188.21770389878384 0 0 0 0 870.68302489879898 950.80059315817016 0 950.80059315817016 -110.32938901220041 0 0 0 0 770.18759752739243 572.01328126048656 0 572.01328126048656 -401.91878928513279 0 0 0 0 130.7721309223416 292.98504889061792 0 292.98504889061792 -169.08540897774128 0 0 0 0 174.97464687286538 369.22624041284911 0 369.22624041284911 -356.31996136618181 0 0 0 0 -322.54076357938629 204.4717847573645 0 204.4717847573645 -269.53150042454672 0 0 0 0 70.227993867123587 719.47482730589581 0 719.47482730589581 -603.7270958114168 0 0 0 0 14.78615239800736 12.925960490257776 0 12.925960490257776 6.0479210337245775 0 0 0 0 31.163805052614407 680.10439075074191 0 680.10439075074191 -615.74706913343289 0 0 0 0 27.583558373754386 74.962907536165858 0 74.962907536165858 -403.56212772759227 0 0 0 0 7.8959386475022484 6.7865896691989454 0 6.7865896691989454 3.1429164798926514 0 0 0 0 -612.31412868417647 1106.0170226595956 0 1106.0170226595956 375.55532271196478 0 0 0 0 1946.8124842342359 500.25016829957508 0 500.25016829957508 -557.92348956542764 0 0 0 0 1119.7600685015113 1338.3211223510898 0 1338.3211223510898 -59.343170095226242 0 0 0 0 1135.6981317062473 1398.809152188368 0 1398.809152188368 152.80046053079923 0 0 0 0 
</DataArray>
<DataArray type="Float64" Name="cross_section_updated" format="ascii">
1 1 1 1 0.01101702131790111 1 1 1 1 1 0.01052301636972279 1 1 1 1 1 1 1 1 1 1 1 1 1 1 1 1 1 1 1 1 1 1 0.021528708897790558 1 1 1 1 1 1 1 1 0.0091944669131263524 1 1 1 1 1 0.0096000844006787402 0.00998780201281569 1 1 1 1 1 1 1 0.0084584451858067695 1 0.0087958456384707728 1 1 1 1 1 0.0095318174497838193 1 1 1 1 1 1 1 1 0.010494250698484246 1 1 1 1 1 1 1 1 1 1 0.0064277050939720252 1 1 0.010023758718323381 1 1 1 1 1 0.0086266220919607121 1 1 1 1 1 1 1 1 1 1 1 1 1 1 1 1 1 1 1 1 1 0.01290554503124659 1 1 0.017838967461937697 1 1 1 1 1 1 0.010518349099089816 1 1 1 1 1 0.0074687799583067795 1 1 1 1 1 1 1 1 1 1 1 1 1 1 1 0.0039013916327392392 1 1 1 1 1 1 1 1 0.0023675696359059667 1 1 1 0.010245379321718661 1 1 1 1 1 1 0.0098659228842795481 1 1 1 1 1 1 1 0.0098324731110789061 1 1 1 1 1 1 1 1 0.0046609949899314163 1 1 1 1 1 1 1 1 1 1 1 0.0097916898880130616 1 1 1 1 1 1 1 1 1 1 1 1 1 1 0.0097142878959255961 1 1 1 1 1 1 1 1 1 1 1 1 1 1 1 1 1 1 0.0099225980079125364 1 1 1 1 1 1 1 0.010940413218901976 1 1 1 1 1 1 1 1 1 1 1 1 1 1 1 1 0.010018365749487541 1 0.0021930294148775065 1 1 1 1 1 1 1 1 1 1 1 1 0.020070395217460166 1 1 0.0095213892190516604 1 1 1 1 1 1 1 1 1 1 0.010404195631861436 1 1 1 1 1 1 1 1 1 1 1 1 1 1 1 1 1 1 1 0.0095143276097623582 0.0087788584130248076 1 0.010121350597157098 1 0.011166543957764608 1 1 1 0.0095144148940546243 1 1 1 1 0.008457701694220561 1 1 1 1 1 0.010118147350144081 1 0.012740635013552059 1 1 0.0050192462088631713 1 0.016723323800623607 1 0.018500022800566049 1 0.012435542238953342 1 0.013024879474532087 0.0081507782984980483 1 1 0.012921599210076413 1 0.010516361531159863 1 1 1 1 1 0.0098136805838617766 1 0.0035019948788634903 1 1 1 1 1 1 1 1 1 1 1 1 1 1 1 0.010150337128399696 1 1 1 1 0.0099005335347701513 1 1 1 1 1 1 0.0084660279497787046 1 1 0.0097505789463890741 1 1 1 1 1 0.015125856940209292 1 0.017793287898930255 1 1 1 1 1 1 1 1 1 1 1 1 1 0.010422064119812155 1 1 1 1 1 1 1 1 1 1 1 1 0.0099100346989179598 1 1 1 1 1 0.0062117065488104875 1 8.9912093742539057e-10 1 1 1 0.0090401934103565337 1 0.0096607764138150129 1 1 1 0.012767570545807877 0.0099744927327561211 1 1 1 -5.162865690522267e-10 1 1 1 0.014964583960222599 1 1 1 1 1 0.020783921335336457 1 1 1 1 1 1 1 0.01085073959980231 1 0.018510105870031338 1 1 1 1 1 1 1 1 1 1 1 1 1 1 1 1 1 1 1 1 1 1 1 1 1 1 1 1 1 1 1 1 1 1 1 1 1 1 1 0.010313275371254951 1 1 1 1 0.011092108044934301 1 1 0.011734014121726944 1 1 1 1 1 1 1 1 0.0059147267475907683 1 1 1 1 1 1 1 1 1 1 1 1 1 1 1 1 1 1 1 1 1 1 1 1 0.0069265587075760249 1 1 1 1 0.018603501994375087 1 1 0.0078459031389610193 1 1 1 0.010053965252064732 1 1 1 1 1 1 1 0.016243394047570976 1 1 1 1 1 1 1 1 1 0.013132442575399981 1 1 1 1 1 1 1 1 1 1 1 0.012588324469424948 1 1 1 1 1 1 1 1 1 1 1 1 0.011806401458070957 1 1 1 1 1 1 1 1 1 1 1 1 1 0.0098856989092676699 1 1 1 1 1 1 0.0097456464305728605 1 0.01062613563778898 1 1 1 0.010857650266341131 1 1 1 0.014726081677697981 1 1 1 1 1 1 1 0.01046286903224385 1 1 1 1 1 1 1 1 1 1 1 1 1 1 0.010523586792992291 1 1 1 1 1 1 1 1 1 1 1 1 1 1 1 1 1 1 1 1 1 1 1 1 1 0.010822696543468374 1 0.012195430527884313 1 1 1 1 1 1 1 1 1 1 1 1 1 1 1 1 1 0.011047099745321715 1 1 1 1 0.013019601808576364 0.0072905613986917923 1 1 1 0.022898056915873571 1 1 1 1 1 1 1 1 1 1 0.0078333573598752225 1 0.0088701109970836176 1 0.0098760485260846777 1 1 1 1 1 1 1 1 1 1 1 1 1 1 1 1 1 1 0.01028335265326979 1 1 0.012884762285569527 1 1 1 1 1 1 1 1 1 1 1 1 1 1 1 1 1 1 1 0.0139264666710522 1 1 1 0.0099651555284272358 1 1 1 1 1 0.01011069288035403 1 1 1 1 1 1 1 1 1 1 1 0.010961109299965263 1 1 1 1 1 1 0.01118090454647728 1 1 1 1 1 1 1 0.010200331101066312 0.0088793367493143933 1 1 1 0.013913255968034645 1 1 1 0.0086218400777176782 1 1 1 1 1 1 1 1 1 1 1 1 0.011902306517541476 0.0087508090594661438 1 1 1 1 0.0088117356207358007 1 1 1 1 1 1 1 1 0.0099140772811288618 1 1 1 0.011425052282723896 1 1 1 1 1 1 1 1 1 1 1 1 1 1 1 1 1 1 1 1 1 1 1 1 0.010856790791239806 1 1 1 1 0.011001567491492035 1 1 1 1 0.01248391189619109 1 1 1 1 1 1 1 1 1 1 1 1 1 1 1 1 1 1 1 1 1 1 1 1 1 1 0.013222313874033201 1 1 0.013076788566425074 1 1 1 0.0076792603285498976 0.00870950613950899 1 1 1 1 1 1 0.0024573226364386098 1 0.0052015386604452023 1 1 1 1 1 1 0.0090729227430915403 1 1 1 1 1 1 1 1 1 0.01752823331218924 1 0.0097615979953305006 1 1 1 1 0.0092140297012698776 1 1 1 1 1 0.011150796530410017 1 1 0.01366563348953136 0.01416823221485634 1 1 1 1 1 1 1 1 0.0098252008081132162 0.0089993646047624529 1 1 1 1 1 1 1 1 1 1 1 1 1 1 1 1 1 1 1 1 1 0.010143527255497518 1 1 1 1 1 1 1 1 1 1 1 1 1 1 1 1 1 1 1 1 1 1 1 1 1 1 1 1 1 1 0.010955181448047626 1 1 1 1 1 1 1 1 1 1 1 1 1 1 1 0.0039024363646811104 1 1 0.0099945411075583225 1 1 0.015517286794878821 1 1 1 1 1 0.012145202201713751 1 1 1 1 1 1 1 1 1 1 1 1 1 1 1 1 1 1 1 1 1 1 1 1 1 1 1 1 1 1 1 1 1 1 1 1 1 1 1 1 1 1 1 1 1 1 1 1 1 1 1 1 1 1 0.010302190635314554 1 0.010812844217278446 1 1 1 1 1 1 1 1 1 0.011408034870687729 1 1 1 1 1 1 0.010434167964177272 1 1 1 1 1 1 1 1 1 1 1 1 1 1 1 1 1 1 1 1 1 1 1 1 1 1 1 1 1 1 1 1 1 1 1 1 1 1 1 1 1 1 1 1 1 1 1 1 1 1 1 1 1 1 1 1 1 1 1 1 1 1 1 1 1 1 1 1 1 1 1 1 1 1 1 1 1 1 1 1 1 1 1 1 1 1 0.01010573129636618 1 1 0.010276393933854901 1 1 1 1 1 1 1 1 1 1 1 1 1 1 1 1 1 1 1 1 1 1 1 1 1 1 1 1 1 1 1 1 1 1 1 1 1 1 1 1 1 1 1 1 1 1 1 1 1 1 1 1 1 1 1 1 1 1 1 1 1 0.01594081771888672 1 1 1 1 1 0.012015015339611017 1 1 1 1 1 1 1 0.0089189070694653833 1 1 1 1 1 1 0.0075467062369655143 1 1 1 0.0033461005936117 1 1 1 1 1 1 1 1 1 1 0.016798941331583887 1 0.017882405359301034 1 1 -4.878043200710197e-09 1 1 1 1 1 1 1 1 1 1 1 1 1 1 1 1 1 1 1 1 1 0.0097019262327647463 1 1 1 1 1 1 1 1 1 1 1 1 0.010024211997115938 1 1 1 1 1 1 1 1 1 1 1 1 1 0.0098365020596496416 1 1 1 1 1 0.0086814369123883323 1 0.0096522251812305292 1 1 1 1 1 1 1 1 1 1 1 0.010304212641561051 1 0.010601942773226342 1 1 0.011029089033050898 1 1 1 1 0.0098667049456296878 1 1 1 1 1 1 1 1 1 1 1 1 1 1 1 1 1 1 1 1 0.010323261707843093 1 1 1 0.010405991365433846 0.010213996653640631 1 1 1 1 1 1 1 1 0.010342124919790016 1 1 1 1 1 1 0.0092738926082937597 1 1 1 1 1 1 1 1 1 1 1 1 0.010069326859871381 1 1 0.010143212917301579 1 1 1 1 1 1 0.0090654559463850069 1 1 0.0099353986708142356 1 1 1 1 1 1 0.0097762754517907464 1 1 0.0090837008543897466 1 1 1 1 0.009917204299818589 1 1 1 1 1 1 1 1 1 1 1 1 1 1 0.0098485929458204599 0.0096181353191406461 1 1 1 1 1 1 1 1 1 1 1 1 1 1 1 1 1 1 1 1 1 0.010231432039435986 1 1 1 1 1 1 1 1 1 1 1 1 1 1 1 1 1 1 1 1 1 1 1 1 1 1 0.010913910347269063 1 1 1 1 1 1 1 1 1 1 1 1 1 0.012302623654968866 1 0.010761053384294473 1 1 0.0093432004462953057 1 1 0.014081410407293283 1 1 1 1 1 1 1 1 0.010791606712288154 1 1 1 1 1 1 1 1 1 1 1 1 1 1 1 1 1 1 1 1 1 1 1 1 1 0.0096990965084266835 1 1 0.016140097357320631 1 1.1939721182227525e-09 1 0.018586476585881105 1 1 0.010267288746147839 1 1 1 1 1 1 1 1 0.0061397895241851914 1 1 1 0.010874079760985858 1 1 1 1 1 1 1 1 1 0.0063756567544507679 1 1 1 1 1 1 1 1 1 1 0.012776569162199389 1 0.008416407342936881 1 1 1 1 1 0.010494743127969953 1 1 1 1 1 1 1 1 1 1 0.011551097990507218 1 1 1 1 0.0099705962631323197 1 1 1 0.008966687404386154 0.010158211710825208 1 1 1 1 1 1 1 1 1 1 1 1 1 1 1 1 1 1 1 1 1 1 1 1 1 1 1 1 1 1 1 1 1 1 1 1 1 1 1 1 1 1 1 1 1 1 1 1 1 1 1 1 1 1 1 1 1 1 1 1 1 1 1 1 1 1 1 1 1 1 1 1 1 1 1 1 1 1 1 1 1 1 1 1 1 1 1 1 1 1 1 1 1 1 1 1 1 1 1 1 1 1 1 1 1 1 1 1 1 1 1 1 1 1 1 1 1 1 1 1 1 1 1 1 1 1 0.010859108307336727 0.012466217895765585 1 0.01946781335518856 1 1 1 1 1 1 1 1 1 1 1 1 1 1 1 1 1 1 1 1 1 1 1 1 1 1 1 1 1 1 1 1 1 1 1 1 1 1 1 1 1 1 1 1 1 1 1 1 1 1 1 1 1 1 1 1 1 1 1 1 1 1 1 1 0.0071317167416046628 0.0079948382405555796 1 1 1 1 1 1 1 1 1 1 1 1 1 0.0094735095101924575 1 1 1 1 0.011911275359678541 1 1 1 1 1 1 1 1 1 0.008518122843174979 1 1 1 0.010709706235312921 1 1 1 1 1 1 1 0.0092978269169507431 1 1 1 1 1 1 0.0096612689812638035 1 1 1 1 0.010739370326234029 1 1 1 1 1 1 1 1 1 1 0.012247086326885807 1 1 1 0.013392534074684817 1 1 1 1 1 0.011300295718250367 1 1 1 1 1 1 1 1 1 1 1 1 1 1 1 1 1 1 1 1 1 1 1 1 1 1 1 1 1 1 1 0.010208032323803925 1 0.0095394376964835232 1 1 1 0.0058482286219563705 1 1 0.010303261884690048 1 1 1 0.012543399930300538 1 1 1 0.010821694536574011 1 1 1 1 1 1 1 1 1 1 1 1 1 1 1 1 1 1 1 1 1 1 1 1 1 1 1 1 1 1 1 1 1 1 0.011181021602322072 1 1 1 1 1 0.0094676217505442958 1 1 1 1 1 1 1 1 1 1 1 1 1 1 1 1 1 1 1 1 0.016197383406450282 1 1 0.013162045971575595 1 1 0.010308233292687385 1 1 0.010467469142688295 1 1 1 1 0.011096409910501589 0.019494869030987846 1 1 1 1 1 1 1 1 1 1 1 1 1 1 1 0.010019109844997565 1 1 1 0.012709959423833654 1 0.0063026883988314885 1 0.013354888592649047 0.018910085778616685 1 1 1 1 1 0.0098353780736703412 1 1 1 0.013659522780120933 1 1 1 0.01440379154826678 1 1 1 1 1 0.0085033332342101912 1 1 1 1 0.0074399273100009614 1 1 1 1 1 1 1 0.0033475809977332087 0.010412303266646444 1 1 1 1 0.011876607577837142 1 1 1 1 1 1 0.012256785782038215 0.010497658870489682 1 1 1 1 1 1 1 0.0097586412487309197 1 1 0.007921629947739069 1 1 1 1 1 1 1 1 1 1 1 0.010873886491329832 1 1 1 1 1 1 1 1 0.016516763090266062 1 1 1 1 0.0099973511738168774 1 1 1 0.010799846256575884 1 1 1 1 0.010118994512486757 1 1 1 1 1 1 0.012403668759552469 1 1 1 1 1 0.012710803870544714 1 1 1 0.0085165775801838289 1 1 1 1 1 1 1 1 1 1 1 1 1 1 1 1 1 1 1 1 1 1 1 1 1 0.012450092823135714 1 1 1 1 1 1 1 1 1 1 1 0.010861660670950896 1 1 1 1 1 1 1 1 0.0073866710877306656 1 1 1 1 1 1 0.0052531179547756551 0.011711417279398799 1 0.0028155650329443021 0.015923390900942073 1 1 1 1 1 1 1 1 1 1 1 1 1 1 1 1 1 0.0097977377159651526 1 1 1 1 0.010261002089727796 1 1 1 1 0.0085303521945953517 1 1 1 0.01199833093480966 1 1 1 1 1 1 1 1 0.004917738785611624 1 1 1 1 1 1 1 0.01964210437597767 1 1 1 0.01010154563089849 1 1 0.024237405088827602 1 1 0.0097117263049938153 1 0.0047007005767706698 1 1 1 1 1 1 1 1 0.010047658599129001 1 0.01023835458969732 1 0.0073564174437430255 1 1 1 0.0076683204088823561 0.0097085494935989884 1 1 1 0.0086469251091151819 1 1 1 1 1 1 1 0.0029872419211382402 1 0.0086042729540219444 1 0.010016685127741367 1 0.0089152556654301142 1 1 1 1 1 1 1 1 1 0.0078840291464037128 1 1 1 1 1 1 0.008968773480973611 1 1 1 1 1 1 1 1 1 1 1 1 1 1 1 1 1 1 0.012241278354414428 1 1 0.015915833483001213 1 1 1 1 1 0.018056442434012002 1 1 1 0.010546664516056932 1 1 1 1 1 1 0.011733699586153336 1 1 1 1 1 0.013129552299440173 1 1 1 1 0.0073858727774466868 1 1 1 1 1 1 1 1 1 1 1 1 1 1 1 1 1 1 1 1 1 1 0.0088842015100883843 1 1 1 1 1 1 1 1 1 1 1 1 0.0060940938372466176 1 1 1 0.0084169774132018121 1 1 1 1 0.0079167553494458309 1 1 1 0.0057632826294655454 1 1 1 0.008083990708422098 1 0.0092393256628155764 1 1 1 1 1 1 1 1 1 1 1 1 1 1 1 1 0.0073743047109735213 1 1 1 1 1 0.0094670520452447664 1 1 1 1 1 1 1 0.008431278782003563 1 0.0039621903115358631 1 0.0028761648994247114 1 1 0.0094588422927993875 1 1 0.0036470648035954907 1 1 1 1 1 1 1 0.0082662974998908463 1 1 1 1 1 0.0043558342561019273 1 1 1 1 1 1 1 1 1 1 1 1 1 -1.9304367713732229e-09 1 1 0.028564388317138881 1 1 1 1 0.010061981022027376 1 0.026323454318903927 1 1 1 1 1 1 1 0.018942374700611556 1 0.021575734575609982 1 1 1 1 1 1 1 0.010084139284929548 1 1 1 1 1 1 0.010018705264660289 0.010392741675015344 1 1 0.0099754280407397013 1 1 1 1 1 1 1 1 1 1 1 1 1 1 1 1 1 1 1 1 1 1 1 1 0.019000618130448985 1 1 0.021514853998555131 1 1 1 1 1 1 1 1 1 1 1 1 0.010427756673542385 1 1 0.021059413277369623 1 1 1 1 -1.426220665873279e-09 1 1 1 0.0035961304334402901 1 1 1 1 0.010005614738905556 1 1 1 0.008247585889679809 1 1 0.007039975624294325 1 1 0.0082025330044609018 1 0.0055964797385659754 1 0.0074524203779646123 1 1 0.0099958145702030363 1 0.0098792617590123394 1 1 1 0.0096886219867850423 1 1 1 1 1 1 1 1 1 1 1 1 0.010294696137220612 1 1 1 1 1 0.010170241886959445 1 1 1 1 0.010224200850310599 1 1 1 1 1 1 1 1 1 1 1 1 1 1 1 1 1 1 1 1 1 0.0099346691833655833 1 1 0.010124622443975733 1 1 1 1 1 1 1 1 0.0099575981634339658 1 0.0098922587048760717 1 1 1 1 1 1 1 1 1 1 0.010206732751231209 1 1 1 0.018412841028686705 1 1 1 1 0.0079519883256793655 1 1 1 1 1 1 1 1 0.01033369583728927 1 0.014126222027921118 0.013475164446171214 1 1 1 1 1 0.0092231556007967112 1 1 0.015219906042197227 1 1 1 0.0038918056955716731 1 0.013657898112166673 1 1 0.011348164004435935 1 0.002542328829245287 1 1 1 0.01992138336701952 0.0010683286123115456 1 1 1 0.012299556880273984 1 0.0099271088650555624 1 0.0071295396731489609 1 1 1 0.010661774659610584 1 1 0.0037709552049079095 1 1 1 1 1 1 1 0.00439009132223123 1 0.0099688711727576353 0.013523649220074202 1 0.0071091986386721609 0.0099744990943661065 0.016529180544952515 1 1 1 0.00420020586247025 1 1 1 1 1 -4.9771856341224163e-11 1 1 1 0.0038541073016566856 1 0.00085595056435104101 0.011862820718453581 0.013310457335247522 1 1 0.0086765597194576743 1 0.010000568392622925 0.011797261827654993 0.0089161772334343126 1 1 1 0.0099976352164404866 1 1 0.01119240680908227 1 1 1 1 0.017991691816100323 1 1 1 1 1 0.010611148042204381 1 1 1 0.010063031157516847 1 0.010017739421927595 1 1 1 0.010099809378815095 1 1 1 0.009833191375219855 1 1 1 1 0.0097758028845393169 1 1 0.010959042593014957 1 0.0096070785280656708 1 1 0.010001275911907989 0.011431940596865886 1 1 1 1 0.011076593434133374 0.010593480802143396 1 1 1 1 1 1 1 1 1 1 1 1 1 1 1 1 1 1 1 1 1 1 1 0.010069394754306403 1 1 1 1 1 0.010519600798495609 1 1 1 1 1 1 1 1 1 1 0.0075130242345015485 0.009669031749658644 1 1 1 1 0.0067758919992491722 1 0.010417782056669045 1 0.0090258732436880647 0.0082694435797728404 1 1 0.010543500512804999 1 0.0098094845075126745 1 1 1 1 1 1 1 1 1 1 1 1 1 1 1 1 1 1 1 1 0.0098768111509768327 1 0.0082759899622997946 1 1 1 1 1 1 1 1 1 0.0093723327852912059 1 1 1 1 1 1 1 1 1 1 1 1 1 1 1 1 1 1 1 1 1 1 1 1 1 1 0.010398826761299759 1 1 1 1 1 1 1 1 1 1 1 1 1 1 1 1 1 1 1 1 1 1 1 1 1 1 1 1 1 1 1 1 1 1 1 1 1 1 1 1 1 1 1 1 1 1 1 1 1 1 0.0098500767776293074 1 1 1 1 1 1 1 1 1 1 1 1 1 1 1 1 1 1 1 1 1 1 1 1 1 1 1 1 1 1 1 1 1 1 1 1 1 0.010147353900726453 1 1 1 1 1 1 1 1 1 1 1 1 1 0.01080829396994739 1 1 1 0.0098398549120992784 1 0.010063015508652701 1 1 1 1 1 1 0.012218487576823688 1 1 1 1 1 0.0099358870353496893 1 1 1 1 1 1 0.0097462822824845325 1 1 1 1 1 1 1 0.0089713604899678001 1 1 1 1 1 1 1 1 1 1 1 1 1 1 1 1 1 1 1 1 1 1 1 1 1 1 1 1 1 1 1 1 1 1 1 1 1 1 1 1 1 1 1 1 1 1 1 1 1 1 1 1 1 1 1 1 1 1 1 1 1 1 1 1 1 1 1 1 1 1 1 1 1 1 1 1 1 1 1 1 1 1 1 1 1 1 1 1 1 1 1 1 1 1 1 1 1 0.010145751808829664 1 1 1 1 0.01040522383253329 1 1 1 1 1 1 1 1 1 0.0098383341893042448 1 0.011429711746338892 1 1 1 1 1 1 0.0095203721169995845 0.013887175850107052 1 1 1 1 1 1 1 1 1 0.011473704172273351 0.0065110648452479172 1 1 0.007309180085954492 1 1 0.0090662076498954913 1 0.012686938049581594 1 1 1 1 1 1 1 1 1 1 1 1 1 1 1 1 1 1 1 0.010451585570058427 1 1 1 1 0.012086230382611675 1 1 1 1 1 1 1 1 1 1 1 1 0.0096730214136653541 1 1 1 1 1 1 1 1 1 0.011447814365687077 0.01147979023786024 1 0.011829520622328907 1 1 1 0.010520377326190366 1 1 1 1 1 1 1 1 1 1 1 1 1 0.011948646400226144 0.010387202480958877 1 1 0.0070008966630536722 1 1 0.007889123765650357 1 0.016179651389122154 1 1 1 1 1 1 1 1 1 1 1 1 1 1 0.0092946086980635993 1 1 1 0.0097472602216595074 0.017556145961377993 1 1 1 1 0.00751800246365226 0.0067222584222422829 1 1 1 1 1 1 1 0.013541959419506524 1 1 0.010892635845526549 1 0.010034252343648943 0.0066274542308225846 1 0.0060225359476445001 1 1 1 1 1 1 1 1 1 0.010207069372626387 1 0.015420772462180017 1 1 0.013522626773019474 0.0090263258641199162 1 1 1 1 1 1 0.014061050582105309 1 0.009829832620613238 1 1 0.014493398738871375 1 1 1 1 0.0099921583617495202 1 1 1 1 1 1 1 1 1 1 1 1 1 1 0.01043963126709252 1 1 1 1 1 0.010978878377316304 1 1 0.011028374047648873 0.010707897487272584 1 1 1 1 1 1 1 1 1 1 1 1 1 1 1 1 1 1 1 0.010211707311420152 1 1 1 1 1 0.010418440062651366 1 1 1 1 1 1 1 1 1 0.010228102775799316 1 0.010390908702178495 1 0.016665091871291351 1 1 1 1 0.013801383309899906 1 1 1 1 1 0.0088206473319434042 1 1 1 1 1 1 1 1 1 1 1 1 1 1 1 0.0054862604810195555 1 1 1 1 1 1 0.010286522218454615 1 1 1 0.010581281522001254 1 1 0.0041153499725667744 1 1 1 1 1 1 1 1 1 1 1 1 1 1 1 1 0.010123197980223354 1 1 1 1 1 1 1 1 1 1 1 1 0.010505650433914857 1 1 0.010033386651989254 1 0.0098092406672450512 1 0.011640941700380807 1 1 1 1 1 1 1 1 1 1 1 1 1 1 1 1 1 1 1 1 1 1 1 1 1 1 1 1 1 1 1 1 1 1 1 1 1 1 1 1 1 1 1 1 1 1 1 1 1 1 1 1 1 1 0.010110366735740331 1 1 1 1 1 0.0099197240994218366 1 1 1 1 1 1 1 1 1 0.010472325484156657 1 1 1 1 1 0.0088370528477505813 1 1 1 1 1 1 1 1 1 1 1 1 1 1 1 1 1 0.0034711003841458171 1 1 0.0094349402849958821 1 1 0.010769729610613883 1 0.0084511195016656014 1 1 1 1 1 1 1 1 0.0099975241475800738 1 0.014498295489060916 1 0.0097865174163789901 1 1 1 1 1 1 1 0.0099831792445187056 1 1 1 1 1 1 1 1 1 1 1 1 1 1 1 1 1 1 0.011979904631281712 1 0.0052905856135227244 1 0.007629695790729989 1 1 1 1 1 1 1 1 1 1 0.0020175617395026789 1 1 0.015530206385102496 1 1 0.0099707659591107937 1 1 1 1 1 1 -9.0538875355261617e-10 1 1 1 1 1 1 1 1 1 1 1 1 1 1 1 1 1 1 1 1 1 1 0.0022069012961297291 1 1 0.00097079423274348126 1 1 1 1 1 1 1 1 1 1 1 1 1 1 0.0095864488395575806 6.8796328399692297e-09 1 1 1 1 1 1 1 1 1 1 0.007693895588349953 1 1 1 1 1 1 1 0.010852489276316072 1 1 1 1 1 1 1 1 1 1 1 0.00034391974611759114 1 1 1 1 1 1 1 1 0.011442783758162229 1 -3.2807074158008875e-09 1 1 1 1 1 1 1 1 1 1 1 1 1 1 1 1 1 1 1 0.0096499051981598742 1 1 0.0092745304575562616 1 1 1 1 1 1 1 1 0.0096246252593963806 1 1 1 1 1 1 1 1 1 1 1 1 1 1 1 0.0098928582165962523 1 1 1 1 0.0097909161408448186 1 1 1 0.009877837209041937 1 1 1 1 1 0.0083061961093288967 1 1 1 0.0077429454159964172 1 1 1 1 0.0078398299134480771 1 1 1 0.0088298977371332587 1 1 1 1 1 1 1 1 1 1 1 1 1 1 1 1 1 1 1 1 1 1 1 1 1 1 1 1 1 1 0.0074871557212357253 1 1 1 1 1 1 0.0030018670080175125 1 1 1 0.0099116618600899823 1 1 1 1 1 1 0.0099703037745110315 1 1 0.011404529348900336 1 1 0.0057334175263248285 1 1 0.010987077780713041 0.0059871630800413175 1 1 1 0.00097583522780982958 1 1 0.010324817300897895 1 1 1 1 1 1 1 1 1 1 1 0.0015221401317619381 1 0.0029768224112095374 1 1 1 1 0.0068710830247087698 1 1 1 1 1 1 1 1 1 1 0.0086282523241676783 1 1 1 1 1 1 1 1 1 1 1 1 1 1 1 1 1 1 1 1 1 1 1 1 1 1 1 1 1 1 1 1 1 1 1 1 1 1 1 1 1 1 1 1 1 1 1 1 1 1 1 0.006383047408698982 1 1 0.0076828844770216922 1 1 1 1 1 1 1 1 1 1 1 1 1 1 1 1 1 1 0.0072031255903048097 1 1 1 1 1 1 1 1 1 1 0.0091469771117361764 1 1 1 1 1 1 1 1 1 1 1 1 1 1 1 1 1 1 1 1 1 1 1 1 1 1 1 1 1 1 1 1 1 1 1 1 1 1 1 1 0.009167877773446579 1 1 1 1 1 1 1 1 1 1 1 0.0091608428881709628 1 1 1 1 1 1 1 1 1 1 1 1 1 0.0080130074895954414 1 1 1 1 0.0077402668796556998 1 1 1 1 1 1 1 1 1 1 1 1 1 1 1 1 1 0.0094373208004404612 1 1 1 0.0083366848929573197 1 1 1 1 1 1 1 1 1 1 1 1 1 1 1 0.0082835883145096403 1 1 1 1 1 1 1 1 0.0088881022782312039 1 1 1 1 1 1 1 1 1 0.0054737626050202423 0.0090547625056867139 1 1 1 1 0.015274027315244286 1 1 1 0.005879370147916823 1 1 1 1 1 1 1 1 1 1 0.013385416152579259 1 1 1 1 1 1 1 1 1 1 1 1 1 1 1 1 1 1 1 1 1 1 0.0095037785269493167 1 1 1 1 1 1 1 1 1 1 1 1 1 1 1 1 1 1 1 1 1 1 1 1 1 1 1 1 1 1 1 1 1 1 1 1 1 1 1 1 1 1 1 1 1 1 1 1 1 1 1 1 1 1 1 1 1 1 1 1 1 1 1 1 1 1 1 1 1 1 1 1 1 1 1 1 1 1 1 1 1 1 1 0.011187124766925094 1 1 1 1 1 1 1 1 1 1 1 1 1 1 0.010529716924220941 1 1 0.011287757370467631 1 1 1 1 1 0.011379674746568591 1 1 1 1 1 1 1 1 1 1 1 0.0093250037736204473 1 1 1 1 1 1 1 1 1 1 1 1 1 1 1 1 1 1 1 0.0097811906497430896 1 1 1 1 1 1 0.0094519681346781625 1 0.0081940629499026377 1 1 1 1 1 1 1 1 1 1 1 1 1 1 0.010612802189996946 1 1 1 1 1 1 1 1 0.010018388389823432 1 1 1 1 1 1 0.011369000950522751 1 1 0.0086214398394899149 0.0090279121029955989 1 1 1 1 1 1 1 1 1 1 1 1 1 1 1 1 1 0.0093316432821477502 1 1 1 1 0.010222143295561878 1 1 1 1 1 1 1 1 1 1 1 1 1 1 0.003751334322762102 1 1 1 1 0.014648446897595932 1 1 0.015412849253438349 0.0044358870756893839 1 1 1 0.011010607707932021 1 1 1 1 0.006213286262187482 1 0.0099969426700742443 1 0.016196985096437602 1 1 0.010135202031584325 1 1 0.010687809224153409 1 1 0.010776773939791429 1 1 1 1 1 1 0.012182481771433083 1 1 1 0.006668572094795126 1 0.011287226341884511 1 1 0.010419800920577904 1 1 1 1 1 1 1 1 1 1 1 1 1 1 1 1 1 1 1 1 1 1 1 1 1 0.011664904863972331 1 1 1 0.010630564958544085 1 0.0084881845202113074 1 1 0.013665337301441413 1 1 1 1 0.0084168312833076287 1 0.01258236026572275 1 1 1 0.010516635035528821 1 1 1 0.012504079370735732 0.0097798658983719901 1 1 0.0055666416150773942 1 1 1 0.010373053801662733 1 1 1 1 1 0.011365526766392641 1 1 1 1 1 0.0089221882461776713 1 1 1 1 1 1 1 1 1 1 1 0.0072932764809745896 1 1 1 1 1 0.0095522214613679279 1 1 0.0073542439084335279 1 0.0084052680896152306 1 1 1 0.0092373903161686553 1 1 1 1 1 1 1 1 1 1 1 1 1 1 1 1 1 1 1 1 1 1 1 1 1 1 1 1 1 1 1 1 1 1 1 0.0088612208187187329 1 1 1 1 1 1 1 1 0.010054479541663825 1 1 0.010260632590441719 1 1 1 1 1 1 1 1 1 1 1 1 1 1 1 1 1 1 1 1 0.010189019794338804 1 1 1 1 1 1 1 1 1 1 1 1 1 1 1 1 1 1 1 1 1 1 1 1 1 1 1 1 1 1 1 1 1 1 1 1 1 1 1 1 1 0.0078634462394647237 0.0092226766498686632 1 0.012241322486391577 1 1 0.0070190310220040065 1 1 1 0.010619606903164058 1 1 1 1 1 1 1 1 1 1 1 1 1 1 1 0.0083186138670872361 0.008620089816463946 1 1 1 1 0.011131194089876884 1 1 1 1 1 1 1 1 1 1 0.0070550262662662788 0.0099941180748110252 0.0067638654021377389 1 1 0.006838150650055377 1 1 1 0.0079312808137722846 1 1 1 0.0049813329087242224 1 1 0.010367860072402136 1 1 1 1 1 1 1 1 1 1 1 1 0.0098214083827405114 1 1 1 1 1 1 1 1 0.0078722395138964563 1 1 1 0.0091352374249401968 1 1 0.012121873686301198 1 1 0.013741158165050265 1 1 1 1 1 1 0.0096214774236110141 1 0.011329364934571109 1 1 1 1 0.0091350373754980098 1 1 1 1 1 1 1 1 1 1 1 1 1 1 1 1 1 1 1 1 0.0087816304546896561 1 1 1 1 0.010333659418941606 0.010539812467719501 1 1 1 1 1 1 1 1 1 1 1 0.0077991167680957797 1 1 1 1 1 1 1 1 0.0094499871725419061 1 1 1 1 1 1 1 1 1 1 1 1 0.011116476643130382 1 1 1 1 1 1 1 1 1 0.0070467276016726414 1 1 0.013321257790493523 1 0.0046764113251787703 1 1 1 0.015608166530146548 1 1 1 1 1 0.0029024724285521223 1 1 0.0039157693258719149 1 1 1 1 1 1 1 0.010558530370428261 1 1 1 0.01525235220506857 1 1 1 1 1 1 1 1 1 1 1 1 1 1 1 1 1 0.013218269422373263 1 1 0.011657412206781907 1 1 0.01550726127298987 0.010050277892744491 1 1 1 1 1 1 1 1 1 1 1 1 0.0086780708496350355 1 1 1 1 1 1 1 1 1 1 1 1 1 1 1 0.011730850238533994 1 1 0.012160921961396299 1 1 0.011860145756232643 1 1 0.011789666194996103 1 1 1 1 1 1 1 1 1 1 0.0092947753142265058 1 1 1 1 1 1 1 0.007032490259216889 1 1 1 0.0018005147394951609 1 1 1 0.0094878445154776576 1 1 0.010143167346502781 1 1 1 1 1 1 0.010877145422115294 1 1 1 1 1 1 1 1 1 1 0.013013642722192574 1 1 1 1 1 0.010852720760796276 1 1 1 1 1 1 1 1 1 0.0098998907058099883 1 1 1 1 0.0097212990885505012 1 1 1 1 1 1 1 1 1 1 1 1 1 1 1 1 1 1 1 0.0073346173672075195 1 1 1 1 0.011247402987844095 1 1 1 1 1 1 1 0.010471143329818695 1 1 1 1 1 1 1 1 1 1 1 1 1 1 0.0099424648555971867 1 1 0.0080047420011882219 1 1 0.0069788575889350099 1 1 1 1 1 1 1 0.0073936487575911661 1 1 0.010059938554767875 1 1 1 1 1 1 0.0072770030943680591 0.0069042493532634492 1 0.0074765152037099269 0.011865653030318186 1 0.0084380548149101849 0.011512639192494876 1 1 1 0.0099459815926535577 1 1 1 1 1 1 1 1 1 1 1 1 1 1 1 1 0.011181431998364948 1 1 1 1 1 1 1 0.0075728803988819975 1 1 1 1 1 1 1 0.0097607717044646443 0.0083475553904674912 1 0.009597543431450738 1 1 1 1 1 0.0097946647908235176 1 1 1 1 1 1 1 1 1 1 1 1 1 1 1 1 1 1 1 1 1 1 1 1 1 1 1 1 1 1 1 1 0.010773011451103019 1 1 1 1 0.0098527581695153597 1 1 1 1 1 1 1 0.010254935294494168 1 1 1 1 0.0028745875054403077 1 1 1 1 1 1 5.6276363651306402e-05 0.0099823548085247356 1 1 1 1 1 1 1 1 1 1 0.0078859940147990581 0.013774928641303946 1 0.0050522417140098398 0.010308618882038146 1 1 1 1 1 1 1 1 1 1 1 1 1 1 0.0057982898528532185 1 1 1 1 1 1 1 1 1 1 0.0080406319188735392 0.010240331324553631 1 1 1 1 0.011300901810977619 0.010097163978050851 1 1 0.013641037412369881 1 1 1 1 1 1 1 1 1 1 1 1 1 1 1 1 1 1 1 1 1 1 1 1 1 1 0.0151971076748262 1 1 1 1 1 1 1 1 1 1 1 1 1 1 1 1 1 1 1 1 1 1 1 1 1 1 0.00889629849865025 1 1 1 1 1 1 1 1 1 1 1 1 1 1 1 1 1 0.010424763329622916 0.015476907594224695 1 1 1 1 1 1 1 0.012126439318279818 1 1 1 0.011506026822307776 0.013316594103367075 1 1 1 1 1 1 1 1 1 1 1 1 1 1 1 1 1 0.011333850306921011 1 1 1 1 1 1 1 1 0.013144417587980326 1 1 1 1 1 1 1 1 1 1 -3.0505538147623801e-09 1 1 1 1 1 1 0.0071500273951229593 1 1 1 1 1 1 1 1 1 1 -5.789798710777172e-09 1 1 0.010567628431196774 1 1 1 1 1 1 1 1 0.0093419438595478306 0.010843201937537534 1 1 1 1 0.012952077187335488 1 1 1 0.018970747860679205 1 1 1 0.0060824974206371528 0.015064114506990986 1 0.010008650851964687 1 1 1 1 1 1 1 1 0.001607537972887838 1 1 1 1 1 1 1 1 1 1 1 1 1 0.018525892360618218 1 1 1 1 1 1 0.010087469000375106 0.012952052194501431 1 0.015351517623143397 1 1 0.015944024835806953 0.0098223421911245237 1 1 1 1 1 1 0.01044982960066757 1 0.012458785426986946 1 1 1 0.0079169447630314804 1 0.010034076026939205 1 1 1 1 1 0.0093131238727188759 1 1 1 1 1 1 1 1 1 1 1 1 1 1 1 0.010202501202251576 1 1 1 1 1 1 1 1 1 1 1 1 1 1 1 1 1 1 1 1 1 0.010228436137349098 0.011516903104750341 1 1 1 1 1 1 1 1 1 1 1 1 1 1 1 1 1 1 1 0.0099059777214918696 1 1 0.010666144811453816 1 1 1 1 1 1 1 1 1 1 1 1 1 1 1 0.010135206220735965 1 1 1 1 0.011082870758507592 1 1 1 1 1 1 1 1 1 1 1 1 1 1 1 0.01060572667726427 1 0.0080655237220440008 1 1 1 1 0.010057935686124519 1 4.0808628958693971e-10 1 1 1 1 1 1 1 1 1 1 1 1 1 1 1 1 1 1 1 1 1 1 1 1 1 1 1 1 1 1 1 1 1 1 1 1 1 1 1 1 0.0098308526508166082 1 1 1 1 1 1 1 0.011039840768365611 1 1 1 1 1 1 0.012592620046828432 0.011018095062577428 1 1 1 1 1 1 1 1 1 1 1 1 1 1 1 1 1 1 1 1 1 1 1 1 1 1 1 1 1 1 1 0.01062163430032189 1 1 1 1 1 1 1 1 1 1 1 1 1 1 1 1 1 1 1 1 1 1 1 1 1 1 1 1 1 1 1 1 1 1 1 1 1 1 1 1 1 1 1 1 1 1 1 1 1 1 1 1 1 1 1 1 1 0.01058820452702092 1 1 1 0.009891083979066552 1 0.0098348335695925045 1 0.0024885333391709494 1 1 1 1 0.013031731570857156 1 1 1 0.0087751736895949877 1 0.0099954138766091567 0.0087922085246210108 1 0.0085770057679762177 1 1 0.015160782758172982 1 1 1 1 1 1 1 1 0.014121278624085541 1 1 1 1 1 1 1 1 1 1 1 1 0.0093996183868034263 1 1 1 0.011550332861676088 1 1 0.0097989870688645654 1 1 1 1 1 1 1 0.0097816680952958878 0.009840325449018604 1 0.0063034576032560147 1 0.0098544904755560533 0.010296470510105332 1 1 1 1 1 1 1 1 1 1 1 1 0.005487989859044912 1 1 1 1 1 1 1 1 1 0.0055119183683228082 1 1 1 1 1 1 1 1 1 1 1 1 1 1 1 1 1 1 1 1 1 1 1 1 1 1 1 1 1 1 0.0086604360657453784 1 1 1 1 1 1 1 0.0075598001582622386 1 0.009064937506898357 1 1 1 1 1 1 1 0.0075696034954405751 1 1 1 1 1 1 1 0.0094110523750047526 1 1 1 0.010046866949496736 1 0.0084815189159851631 1 1 1 1 1 1 1 1 1 1 1 1 1 1 1 1 1 1 1 1 1 1 1 1 1 1 1 1 1 1 1 1 1 1 1 1 1 1 1 1 1 1 1 1 1 1 1 1 1 0.012996230300606593 1 0.010626722415496453 1 1 1 0.012294711263895476 1 1 1 0.010146317204414636 1 1 1 0.0096980215318195097 0.011340008719871021 1 0.010620796892319422 1 1 1 1 1 1 1 1 1 0.0073378435636597458 1 1 1 1 1 1 1 1 1 0.0096420344733832309 1 1 1 1 0.0098593768349080017 1 1 1 1 1 1 1 1 1 1 1 1 1 0.010073064908270608 1 1 1 1 0.0070321536672157802 1 0.0096415305352875458 1 0.011021292647803578 1 1 1 1 1 0.0074292799030853934 1 1 0.0071317142845704591 1 1 1 1 1 0.010029950921931784 1 1 0.011783010655234672 1 1 1 1 1 0.0052534706460360759 1 1 0.0075455429906481804 0.013047870924675881 0.0070931970715047196 0.0064604977387652876 1 1 0.005314870705027736 0.01298772237238323 1 1 1 1 1 1 1 0.010169759679355074 1 0.011135845357207489 1 1 1 1 1 1 1 1 1 1 1 1 1 1 1 1 1 1 1 1 1 1 1 1 1 1 1 1 1 1 1 0.010375333424037032 1 1 1 1 1 1 1 1 0.017214392365678101 1 1 1 1 1 1 1 1 1 1 1 1 1 1 1 0.01041337555079634 1 1 0.01021134204808872 1 1 1 1 1 1 1 1 1 1 1 1 1 1 0.010319321237218418 1 1 1 1 1 1 1 1 1 1 0.0112036854576108 1 1 1 1 0.010627800432777574 1 1 1 1 1 0.010231630732790764 1 1 0.0063377411179214391 0.0089735003288792404 1 1 1 1 1 1 1 1 1 0.010861112038406508 1 1 1 1 1 1 1 1 1 1 1 1 1 1 1 1 1 1 1 1 1 1 1 1 1 1 1 1 1 1 1 1 1 1 1 1 1 0.0079950871241081557 1 1 1 1 1 1 1 1 0.012077305755287608 0.0093631162447485698 0.010429608081754237 0.010878506874747652 1 1 1 1 1 1 1 1 1 1 1 1 0.010249883632975274 1 1 0.010049081101880727 1 1 1 1 1 1 1 1 1 1 1 0.010405448732108078 1 1 1 1 1 1 1 1 1 1 1 1 1 1 1 0.010129919363955752 1 1 1 1 1 1 1 1 1 0.0099800273819403776 1 0.0098800832092611427 1 1 1 1 1 1 1 1 1 1 1 1 1 1 1 1 0.0075687606647360404 1 1 1 1 1 1 0.010008701700318114 0.005840248214906231 1 1 0.013199420229449685 1 1 0.011622079065304741 1 1 1 1 1 0.010069836740104405 1 1 1 1 1 1 1 1 1 1 1 1 1 0.010296577130457115 1 1 1 1 0.013152400945167486 1 0.013837699468006568 1 1 0.0066580973576367414 0.0091843185556203383 1 1 1 1 0.0049609442908744757 1 1 1 1 1 1 1 1 1 1 1 1 0.0050756830555567269 1 1 1 1 1 1 1 1 1 1 0.0088489990139715112 0.0073459654068821966 1 1 1 1 0.0073501318806239169 1 1 0.0092403059918335102 1 1 1 1 1 0.0087714957685765746 1 1 1 1 0.007270091762509175 1 1 1 1 1 1 1 1 1 1 1 1 1 1 1 1 1 1 1 1 1 1 1 1 1 1 0.010161554507069188 1 0.010350601827654444 0.010737322539407417 0.0099467308280150393 0.0094650848581712792 1 1 1 1 1 1 1 0.0098199403397154928 1 1 1 1 1 1 1 1 1 1 1 1 0.012795148877751022 1 1 1 1 1 1 1 1 1 1 1 1 1 1 1 1 1 1 1 1 1 1 1 1 1 1 1 1 1 1 1 1 0.011099772540504855 1 1 1 1 1 1 1 1 1 1 1 1 1 1 1 1 1 1 1 1 1 1 1 1 1 0.0095580093770945094 1 1 1 1 1 1 1 1 1 1 0.0090190024152125674 1 1 1 1 1 1 1 1 1 1 1 0.0090217782238039296 1 1 1 1 1 1 1 1 1 1 1 1 1 1 0.011042816124393489 1 1 1 1 1 1 1 1 1 1 1 1 1 1 1 1 1 1 1 1 1 1 1 1 1 1 1 1 1 0.0099331111605135015 1 1 1 1 0.0078553923045528579 0.012728746897912429 1 1 1 1 1 1 1 0.0081156343205335546 1 1 1 1 1 1 1 1 1 0.0091987515131749971 1 1 1 1 1 1 1 0.0073835413799795326 1 1 1 1 1 0.0047740159629944259 1 0.0099519582928980846 1 1 1 1 0.008126091766522698 1 1 1 1 1 1 1 1 1 1 1 0.0095607851856858508 1 1 1 1 1 1 1 1 1 1 1 0.008658382157727974 0.010807545522460157 1 1 1 1 0.012530897142282428 1 1 0.0061475489519756208 1 1 1 0.011571735378530906 1 1 1 0.0061368251246789497 1 1 1 1 1 0.010620033385314738 1 1 1 1 1 1 1 1 1 1 1 1 1 1 1 1 1 1 1 1 0.01267949738641347 1 1 1 0.017163632692703421 1 1 1 1 1 0.013973030234123407 1 0.0075490332951832773 1 1 1 1 1 1 1 1 1 1 1 0.011440695999800148 1 1 1 1 1 1 1 1 1 1 1 1 1 1 1 1 1 1 1 1 1 1 1 1 1 1 1 1 1 1 1 0.01101638420545136 1 1 1 1 0.012226888105700422 1 0.02082608154906139 1 1 1 1 1 1 1 1 1 1 1 1 0.0090102477893722662 1 1 1 0.0053147166171937151 1 1 1 1 1 0.0072197694042339527 1 1 1 1 1 1 0.0085846755179305699 0.0074101957015518735 1 1 1 1 1 1 1 0.010484221084246464 1 1 1 1 1 1 1 1 1 1 0.0088198214920543194 1 1 1 1 1 1 1 1 1 1 1 1 1 1 1 0.0089583546155332788 1 1 1 1 1 1 1 1 1 1 1 1 1 1 1 1 1 1 1 1 1 1 1 1 0.0065283053778952705 1 0.006884045706428912 1 1 1 1 1 1 1 1 1 1 1 1 1 1 1 1 1 1 1 1 1 1 1 1 1 1 1 1 1 1 1 1 1 1 1 1 1 1 1 1 1 1 1 1 1 1 1 1 1 1 1 1 1 1 1 1 1 1 1 1 0.006764244193987811 1 1 1 1 0.0021576965054284393 1 0.00031939059086272346 1 1 1 1 1 1 1 0.017148602429158406 1 1 0.0099471604242010684 1 0.010257649769579422 1 -1.3391278277236074e-10 1 0.017508559604385916 1 1 1 1 1 1 1 1 1 1 1 0.0098638638836166907 0.013218991142804212 1 0.0043425705084513379 1 0.011565897765867167 1 1 0.017342413359471766 1 1 1 1 0.010445862132501996 1 0.008624246125806893 1 1 1 0.0059055889980663516 1 1 1 1 1 0.010014271157419661 1 0.010032312476414437 1 1 0.011683159924965093 0.013124941131208219 1 1 1 0.012791154909090316 0.014221525657734834 1 1 1 1 1 1 1 1 1 1 1 1 1 1 1 1 1 1 1 1 1 0.014005648843085359 1 1 0.010052976009654414 1 1 1 1 0.013530919880348853 1 1 1 0.011421533918020595 1 1 1 1 1 1 1 1 1 1 1 1 1 1 1 1 1 1 1 1 0.014087648651807236 1 1 1 1 1 1 1 0.011896842474555559 1 1 1 0.014354197543128923 1 1 1 1 1 1 1 1 1 1 1 1 1 1 1 1 1 1 0.0098635699770875662 1 1 0.013453153022653283 1 1 0.011998981707039072 1 1 0.015099013543849587 1 1 1 1 1 1 1 1 1 1 0.012457355068573359 1 1 1 1 1 1 1 1 1 0.0035644465713935095 1 1 1 1 1 0.0077368022967269547 1 0.003774076536613203 1 1 1 0.0079364441470682907 1 1 1 1 1 1 1 1 1 1 1 1 1 1 1 1 1 1 1 0.0015084203212659165 1 1 1 1 1 1 1 0.013034235571502559 1 1 1 1 1 1 1 1 0.0093978972622205635 1 1 1 1 1 0.0073690468881635277 1 0.014817089508962813 1 0.01997386439797991 0.0029174396896107634 1 1 1 1 1 1 1 1 1 1 1 0.011724111432855993 1 1 1 1 1 1 1 1 1 1 1 1 1 1 0.0085405143758069159 1 0.0090763790529693363 0.0099860311464803619 1 1 1 1 1 1 1 1 1 1 1 0.012442627464437674 0.0094183038509276593 1 1 1 0.0095346491044802778 1 1 1 0.014974961698760945 1 1 1 1 1 1 1 1 1 1 1 1 1 1 1 0.0018745226106794723 1 0.0098422817020603556 1 1 1 1 1 0.010259599950377077 1 1 1 1 1 1 1 0.0096370035414055123 1 1 0.0098438923142291825 1 0.0055389911977242051 1 0.015038086143533821 1 1 1 1 1 0.0050188201989064367 1 0.005072175124609897 1 1 0.0097305854452769246 0.010046794664497365 1 1 1 1 1 1 1 1 1 1 1 1 1 1 1 1 1 1 1 1 1 0.01173949801851607 1 1 1 1 1 1 1 0.0088591419381221972 1 1 1 1 1 1 1 1 1 1 1 0.0095814232816102424 1 1 1 1 1 1 1 1 1 1 1 1 1 1 1 0.009489258841913463 1 0.0089872471803742835 1 1 1 0.024699705091089243 1 1 1 1 1 1 1 1 1 1 1 1 1 1 1 1 1 1 0.01368331269654845 1 0.0094105459114479182 1 1 1 0.0097900235854704604 1 1 0.011164136911945094 1 0.010086566701254445 1 1 1 1 1 1 1 1 1 1 0.0023771978098490586 1 1 1 0.017952597298124626 1 1 1 1 1 0.0065384210709564568 1 1 1 0.018272036611646832 0.0042065951158216913 1 1 1 1 1 1 1 1 1 1 1 1 1 1 1 1 1 1 1 1 1 1 0.01705535490579627 0.017325878817144036 1 1 1 1 1 0.01759626545834991 1 1 1 1 1 1 1 1 1 1 1 1 1 0.0098579128721800278 1 1 1 1 1 1 1 1 1 1 1 0.0099241704760652614 1 1 1 0.0097820833482452976 1 1 1 0.013196365282349303 1 1 1 1 1 1 0.01121810259287033 1 1 1 1 1 1 0.0099357354268739956 1 1 1 1 1 1 1 1 1 1 1 1 1 1 1 1 1 1 1 1 1 1 1 1 0.014131015145628147 1 0.013653483039695293 0.0076858073630385118 1 1 0.011750443292992317 0.016207379373808201 1 1 1 1 1 1 0.0090620039291829727 1 1 1 0.0092048436787301458 0.016534612166432622 1 1 1 0.01003169026550114 1 1 1 1 0.0099944536621457622 1 1 1 1 1 1 1 1 1 1 0.009986176712364743 0.015366380177097804 1 1 1 1 0.0087158097775809074 1 0.012179277779554434 1 1 0.0096201953899558434 1 1 1 1 0.0096347461905713482 1 0.0096203698330695753 1 1 1 0.011648573694219958 1 1 1 1 1 0.011869938175623755 1 1 1 1 0.010817620701106062 1 0.010411660990698936 1 1 1 1 1 1 1 1 0.010066553704129236 1 1 1 1 1 1 0.009768923404312374 1 1 1 1 1 1 1 1 1 1 1 1 1 1 1 1 1 1 1 1 0.010596256219702255 1 1 1 1 1 0.0082304432392451242 1 1 1 1 1 1 1 1 1 0.0053812602581329062 1 1 1 1 1 1 1 1 1 1 1 1 1 1 1 1 1 1 1 1 1 1 1 1 1 1 1 1 1 1 1 1 1 1 1 1 1 1 1 1 1 1 1 1 1 1 1 1 1 1 1 1 1 1 1 1 1 1 1 1 1 1 1 1 1 1 1 1 1 1 1 1 1 1 1 1 1 1 1 1 1 1 1 1 0.0098408426818086172 1 1 1 1 1 1 0.011282518835535348 1 0.012853971537261914 1 1 1 1 1 1 1 1 0.011571452701726565 1 1 1 1 1 1 1 1 1 1 1 1 1 1 1 1 0.010395828791198138 1 1 1 1 1 1 1 0.010344226924167468 1 1 1 1 1 1 1 1 1 1 1 1 1 1 1 1 1 1 1 1 0.0099830779625354714 1 1 1 1 1 1 1 0.010034679829566148 1 1 0.010344677154805668 1 1 1 1 0.010592098064954474 1 1 1 1 1 1 1 1 0.013958721538926614 1 1 1 1 1 1 1 1 1 0.010003413554376134 1 1 0.0077606358325664343 1 1 1 1 0.01126605844899131 1 1 0.0090932259392425344 1 1 1 1 1 1 0.010419925551840289 1 1 1 1 1 1 1 1 1 1 1 1 1 1 1 1 0.0096756545832967309 1 1 0.014287617786206202 1 1 1 1 1 1 1 1 1 1 1 1 1 1 1 0.009082669324034405 1 1 1 1 1 1 1 1 0.015562668563290642 1 1 0.015234313053609562 1 1 1 0.0088546724689332196 1 1 1 1 1 1 1 0.0092885004100041659 1 1 1 1 1 1 1 0.014003406323242993 1 1 1 1 1 1 1 1 1 1 1 1 1 1 1 1 0.011134749487319127 1 1 0.0097408109670782395 0.0040024431236032835 1 1 1 1 0.013612592191345304 1 1 1 1 1 0.010007038188900272 1 1 1 1 1 1 1 1 0.01195645718399652 1 1 1 1 0.0099671506265732301 1 0.0071269097477081947 1 1 1 1 1 1 1 1 1 1 1 0.0050787373506438471 0.009997084185447036 1 1 1 1 1 1 1 1 1 0.0050611042197953107 1 1 1 1 0.01088448395941558 1 1 1 1 1 1 1 1 1 1 1 1 1 1 1 0.0097433359916445032 0.010028073736665507 1 1 1 1 0.010022782610729074 0.0062411955923914221 0.0075457271827773925 0.011974171797289584 1 1 1 1 1 1 1 0.011964184151026175 0.011183729399376644 1 0.0071385126491502332 1 0.0087508268033693656 1 0.0071773907196008221 1 0.0075027127015751607 0.010876964813983954 1 1 1 0.011064525064047382 0.0077428614397592709 1 0.010009983749883246 1 0.010064444780336895 1 1 1 1 1 1 1 1 1 1 0.012904564659629641 1 1 1 1 1 1 1 1 0.013149418452096794 1 1 1 1 1 1 1 1 1 1 1 1 1 1 1 1 1 1 1 0.01239093823670924 1 0.0061970627127406822 1 0.010959738731355683 1 1 1 1 0.0065312643756172406 1 1 0.0069412027304095944 1 1 1 1 1 1 1 0.010072086858445038 1 1 1 1 1 1 1 1 1 1 1 0.008081651027523791 1 1 0.010188988907765394 1 1 0.010088512009603656 1 1 1 0.0061303639928241387 1 0.0086616481078969007 1 1 1 0.007551814507545513 1 0.0070185663432322746 1 1 0.010174171185507522 1 1 1 0.0075711620319730642 1 1 1 1 0.0081787897993536932 0.010646088768786826 1 0.0075693279351593534 1 1 0.0075159907727117524 0.0087172308568503869 1 0.011013854439207819 1 1 1 0.0093548727566794068 1 1 1 1 1 1 0.010564741020368577 1 1 1 0.009945325955732609 0.010032391920345789 1 1 1 1 1 1 0.01019350924217826 1 0.010020150165032094 1 0.0084560433230999599 1 1 1 0.0059939012991353253 0.0099732324358526667 1 1 0.0083895607315561324 1 1 1 1 1 1 1 1 1 1 1 1 1 1 1 1 1 1 1 1 1 1 1 0.011882855608691787 1 1 0.010549168859092815 1 0.0079675104558525126 1 1 1 1 1 0.010748606693950565 1 1 0.009031564287416121 1 1 1 1 1 0.010048673178439171 0.0099904919908746226 1 1 1 1 1 1 1 1 1 0.010019912906627064 1 1 0.010006742300391454 1 1 1 1 1 1 0.01105136700252422 1 1 1 1 1 1 0.011877795592337249 1 1 1 1 1 0.009875184924214974 1 1 1 1 1 1 1 1 0.010314651736505686 1 1 0.0099149213731898542 1 1 1 1 0.0096881842463771781 1 1 1 1 1 1 0.010243742261846895 1 1 1 1 1 1 1 1 1 1 0.010248509722712271 1 1 1 1 1 0.0099588101834017541 1 1 1 1 1 1 1 0.0095824454791242457 1 0.0098200820763320144 0.011317522631060908 1 1 0.010956055334416265 1 0.0051951332228147087 1 0.014671377052450389 1 1 1 1 1 0.0079885027368378561 1 1 1 1 1 1 1 1 1 1 1 0.0076303579325245202 1 1 1 1 1 1 1 1 0.0039015549600120228 1 1 1 0.0019846562202300716 1 1 0.0014920483747441517 1 1 5.7026765080958608e-09 1 1 1 1 0.0062616818069894022 1 0.010088134066111367 1 1 1 1 1 1 1 0.0097027859282536027 1 1 1 0.009253920179130978 1 0.010172063710960525 1 0.0095501479518931634 1 1 1 1 0.011308616878650176 1 1 0.010693003533020353 1 1 0.0098544812100149759 0.010039545808182424 1 1 0.0077372144048625385 1 0.011788600255039229 1 0.010141778381485689 1 1 0.0092896147195191386 0.0098895055279827442 0.0092331180770549581 1 0.0042898495207740178 1 1 1 1 0.004685490872764559 1 1 1 1 0.014184281305857478 0.0098651587357592701 1 1 0.0074181914108627442 1 1 1 1 1 1 1 0.010553318850768207 1 0.012209023469926424 1 1 1 1 1 1 0.011042985752570043 1 1 1 1 1 0.011714920815876169 1 1 1 0.010673010776854473 1 1 1 1 1 1 1 1 1 1 0.01104203178027939 1 1 1 1 0.012265402964597431 1 1 1 1 1 1 1 1 1 1 1 1 1 0.011224621741278883 1 1 1 1 1 1 1 1 1 1 1 1 1 1 1 1 1 0.010243645356749931 1 1 1 1 1 1 1 1 0.0099690255991519549 1 1 1 1 1 1 1 1 1 1 1 1 1 1 1 1 1 0.0098376395799130451 1 1 1 0.017231229474669648 1 1 0.01352558101559353 1 1 1 1 1 1 1 1 1 1 1 1 1 1 1 0.012052252933956681 1 0.012100640474501956 1 1 0.016826361841541883 1 -6.2004105096796769e-09 1 1 1 0.0047999473383647639 1 1 1 0.0097636762265984282 1 1 1 1 1 1 1 1 1 1 1 1 1 1 1 1 1 1 1 1 1 1 1 1 1 1 1 0.011042909774392221 1 1 1 1 1 1 1 1 1 1 1 1 1 1 1 1 1 0.0087727378459924385 1 1 1 1 1 0.0086751661357292176 1 1 1 1 0.0097672183881667343 0.0091286907748695609 1 1 1 1 1 1 1 1 1 1 1 1 0.0096556000501122671 1 1 1 1 1 1 1 1 1 1 1 1 1 0.011012351227342385 1 1 1 1 0.011729629274370205 1 1 1 1 1 -1.6656515991128606e-08 1 0.014688407837626646 1 1 1 1 1 0.0072884472027793853 0.0050981846524299733 1 0.0061374402395179724 1 1 1 1 0.0084416778336308257 1 0.012266488639872257 1 1 1 1 1 1 1 1 1 1 1 0.0099782882934739917 1 1 1 1 1 1 1 1 0.010551911206370827 1 1 1 1 1 0.0037056539823030268 0.01069744892873426 1 1 0.017390740151305255 1 1 1 1 1 0.0078745766845983792 1 0.012531641669515214 1 1 1 1 1 1 1 0.010255256250035347 1 0.0091484912370851448 1 1 1 1 1 1 1 1 1 1 1 1 1 1 1 1 1 1 1 1 1 1 1 1 1 1 1 0.0093128900869339712 1 1 1 1 1 1 1 1 0.01048939321923489 1 1 1 1 1 0.010233096404970455 1 1 1 1 1 1 1 1 0.010179349633733967 1 1 1 1 1 0.011358282758288575 1 1 0.0062166738976291557 0.010677703756808068 1 0.011645880691957482 1 1 0.0066050429546176872 1 1 1 1 1 1 1 1 1 1 1 1 1 1 1 1 1 1 1 1 1 0.01268006840499087 1 1 1 1 1 1 1 0.01158694972750334 1 1 1 1 1 1 1 1 0.010047182423677505 0.0098209797235162839 1 1 0.0098023639841846796 1 1 1 1 0.0073754227711782822 1 1 1 0.0072403472316213725 1 1 1 1 0.011704005685744728 1 1 1 1 1 1 1 1 1 1 1 1 1 1 1 1 1 1 1 1 1 1 1 1 1 1 1 1 1 1 1 1 1 1 1 1 1 1 1 1 1 1 1 1 1 1 1 1 1 1 1 1 1 1 1 1 0.013447923750800587 1 1 1 1 0.011622595094563207 1 1 1 1 1 0.011080958831940007 1 1 0.0089128431603061782 1 1 1 1 1 1 1 1 1 1 1 1 1 1 1 1 1 1 1 1 1 1 1 1 1 1 1 1 1 1 1 1 1 1 1 1 1 1 1 1 1 1 1 1 1 1 1 1 1 1 1 1 1 1 1 1 1 1 1 1 1 1 1 0.0068873790262879743 1 1 1 1 0.0051934527973374793 1 1 1 0.014166714509072031 1 1 1 1 1 0.0099535894222942435 1 1 1 0.0050098816313529967 1 1 1 0.013519948052850355 1 1 0.0063612401791974752 1 1 0.01351441834940377 1 1 0.014181232807839049 1 0.010054713267160276 1 1 1 1 1 1 1 0.0038494624949590448 0.015917284888404166 1 1 1 1 1 1 1 1 1 0.0071539199014060105 0.01118544160444832 1 1 0.009811944534469156 0.0099865526527555589 1 0.013303069759027302 1 1 1 0.012202386188801826 1 1 1 1 1 1 1 1 0.0075095512268901852 1 1 0.013232630914481812 1 1 1 0.0093025723830213666 1 1 0.01047054093314405 1 1 0.0072597673412078938 0.0077986861484803487 1 0.014675595637648576 1 0.010311502559776522 1 1 1 1 1 1 1 1 0.0090794178354877964 1 1 1 1 1 1 1 1 1 1 1 1 1 1 1 1 1 1 1 1 1 1 0.0099908490186764436 1 1 1 0.013109095536641463 1 1 1 1 1 1 1 1 1 1 1 1 1 1 1 1 1 1 1 1 1 0.012480333666008897 1 1 1 1 1 1 0.011416944378335202 1 1 0.011781340994947934 1 1 1 1 1 1 1 1 1 1 1 1 1 1 1 1 1 1 1 1 1 1 1 1 1 1 1 1 1 1 1 1 1 1 1 1 0.010052756516086871 0.0098223160453525457 1 1 0.0098922188226901065 1 1 1 1 1 1 1 1 1 1 1 1 1 1 1 1 1 1 1 1 1 1 1 1 1 1 1 1 1 1 1 1 1 1 1 1 0.010003404953385201 1 1 1 1 1 0.010259701767649645 1 1 1 1 1 1 1 0.0096981484022014633 1 1 1 1 1 1 1 1 1 1 1 1 1 1 1 1 1 1 1 1 1 1 1 1 1 1 1 1 1 1 1 1 1 1 1 1 1 1 0.0097533744605900613 1 1 1 1 1 0.0072955645457643652 1 1 1 1 1 1 1 1 1 0.0062938600978425484 1 0.0090497295844134146 1 1 0.0098554228096099407 1 0.005719575866281152 1 0.0082394458063570278 1 1 1 0.010869072815227344 1 1 1 1 1 1 1 1 1 1 1 1 1 1 1 1 1 1 1 1 1 1 1 1 1 0.0096585308721669448 1 1 1 1 1 1 1 1 1 1 1 1 1 1 1 1 1 1 1 1 1 1 1 1 1 1 1 1 1 1 1 1 0.0092939490945094551 1 0.0078844653894835394 1 1 1 1 0.0094004119381413363 1 1 1 1 1 1 1 1 1 1 1 1 1 1 1 1 1 1 1 1 1 0.010027422039811926 1 1 1 1 1 1 0.007112140977731796 1 1 1 1 1 1 1 0.0089641924721884439 1 1 1 1 1 1 1 1 1 1 1 0.0091816209430586777 1 1 0.0096732388280291945 1 1 1 1 1 1 1 1 1 1 0.0085202682142967098 1 1 1 1 1 1 1 0.0095083821150294817 1 1 1 1 1 1 1 1 1 1 1 1 1 1 1 1 1 0.0058385702626948706 1 1 1 1 1 1 1 0.0035436266307462827 1 1 1 1 1 1 1 1 1 1 1 1 1 1 1 1 1 1 1 1 1 1 1 1 1 1 1 1 1 1 1 1 1 1 1 1 1 0.0099698069668858209 1 1 1 0.0017122242073573917 1 1 1 1 1 1 1 1 1 1 1 1 1 1 1 1 1 1 1 1 0.0080722369961704898 1 1 1 1 1 1 1 1 1 1 1 1 1 1 1 1 0.0083527319971679771 1 1 1 1 1 0.0063738678240018894 1 1 1 1 0.0073745535709229433 1 1 1 1 1 1 1 1 1 1 1 1 1 1 1 1 1 1 1 1 1 1 1 1 1 0.014204184166348159 1 1 1 1 1 1 0.011325088645058405 1 1 1 1 1 1 1 1 1 1 1 0.011941921293005248 1 1 1 1 1 1 1 1 1 1 1 1 1 1 1 1 1 1 1 1 1 1 1 1 0.0090757381541683654 0.011014966074686095 1 1 1 1 1 1 1 1 1 1 1 1 1 1 1 1 1 1 1 1 1 1 1 1 0.013399302652619594 0.0055823592155005829 0.0076510093937869079 1 1 1 1 1 0.013646993416180255 1 1 1 1 0.0089575403879161991 1 1 1 0.0099124746907770303 1.0927539532967767e-08 1 0.015025424148322966 1 1 0.01600221431310514 1 1 1 1 1 1 1 1 1 1 1 1 1 1 1 1 1 1 1 1 1 1 1 1 1 1 0.0068629517639152322 0.0025700952239483803 1 1 1 1 1 1 1 1 1 1 1 1 1 1 1 1 1 1 1 1 1 1 1 1 1 1 1 1 1 1 1 1 1 1 1 1 1 1 1 1 1 1 1 1 1 1 1 1 1 1 1 1 1 1 1 1 1 1 1 1 1 1 1 1 1 1 1 1 1 0.0099253671160766527 1 1 1 1 1 0.0098594550004159204 1 1 1 1 1 1 1 1 1 1 1 1 1 1 1 1 1 1 1 1 1 1 1 1 1 1 1 1 1 1 1 1 1 1 1 1 1 1 1 1 1 1 1 1 1 1 1 1 1 1 1 1 1 1 1 1 1 1 1 0.0099340878843392696 1 1 1 1 1 1 1 1 1 1 1 1 1 1 1 1 1 1 1 1 1 1 0.0037007386752689773 1 1 1 1 1 0.0072445168292411639 1 0.010181820274716816 0.0080272739096324541 1 1 1 0.009947816469572681 1 1 1 1 1 1 1 1 0.011935990422319591 1 1 0.010859454107540852 1 1 1 1 1 1 1 1 1 1 1 1 1 1 1 1 1 1 1 1 1 0.012093838228027317 1 1 1 1 1 1 1 1 1 1 1 1 1 1 1 1 1 1 1 1 1 1 1 1 1 1 1 1 1 1 1 1 0.011068128635478151 1 1 1 1 1 1 1 1 1 1 1 1 1 0.009968444449981852 1 1 1 1 1 1 1 1 1 1 1 1 1 1 1 1 1 1 1 1 1 1 1 1 1 1 1 1 1 1 1 1 1 1 1 1 1 1 1 1 1 1 1 1 1 1 1 1 1 1 1 1 1 1 1 1 1 1 1 1 1 1 1 1 1 1 1 1 1 1 1 1 1 1 1 0.011587811684675165 1 1 1 1 0.010033011198279975 1 1 1 1 1 1 1 1 1 1 1 1 1 1 1 1 1 1 1 1 1 1 1 1 1 1 1 1 1 1 1 1 1 1 1 1 1 1 1 1 0.012256879189733011 1 1 0.011188750554254862 1 1 1 1 
</DataArray>
</CellData>
</Piece>
</UnstructuredGrid>
</VTKFile>
